<?xml version="1.0"?>
<VTKFile type="UnstructuredGrid" version="0.1" byte_order="LittleEndian">
<UnstructuredGrid>
<Piece NumberOfPoints="30881" NumberOfCells="10862">
<Points>
<DataArray type="Float64" NumberOfComponents="3" format="ascii">
-0.49999999999999828 -0.48677703703187492 0 -0.5 -0.5 0 -0.48129281494584059 -0.49338851851593718 0 -0.5 -0.5 0 -0.48129281494584059 -0.49338851851593718 0 -0.46258562989168328 -0.5 0 -0.49999999999999828 -0.48677703703187492 0 -0.48129281494584059 -0.49338851851593718 0 -0.49999999999999828 -0.48677703703187492 0 -0.4824545428279598 -0.47451624516148783 0 -0.48129281494584059 -0.49338851851593718 0 -0.49999999999999828 -0.48677703703187492 0 -0.4824545428279598 -0.47451624516148783 0 -0.5 -0.46599539173150673 0 -0.4824545428279598 -0.47451624516148783 0 -0.46853075243710779 -0.48354990242643758 0 -0.46411508256092049 -0.46598235294430129 0 -0.4824545428279598 -0.47451624516148783 0 -0.48129281494584059 -0.49338851851593718 0 -0.46853075243710779 -0.48354990242643758 0 -0.48129281494584059 -0.49338851851593718 0 -0.46258562989168328 -0.5 0 -0.48129281494584059 -0.49338851851593718 0 -0.46258562989168328 -0.5 0 -0.46853075243710779 -0.48354990242643758 0 -0.46258562989168328 -0.5 0 -0.46853075243710779 -0.48354990242643758 0 -0.45147378687733691 -0.48362213557840178 0 -0.46853075243710779 -0.48354990242643758 0 -0.45147378687733691 -0.48362213557840178 0 -0.46411508256092049 -0.46598235294430129 0 -0.4457251648104853 -0.47020164095208389 0 -0.45147378687733691 -0.48362213557840178 0 -0.46411508256092049 -0.46598235294430129 0 -0.4457251648104853 -0.47020164095208389 0 -0.45147378687733691 -0.48362213557840178 0 -0.43513446131126993 -0.48199891714758791 0 -0.45147378687733691 -0.48362213557840178 0 -0.43275163025255442 -0.5 0 -0.43513446131126993 -0.48199891714758791 0 -0.46258562989168328 -0.5 0 -0.45147378687733691 -0.48362213557840178 0 -0.43275163025255442 -0.5 0 -0.4467190029717853 -0.45478934699519452 0 -0.4422915115958943 -0.43555510214664611 0 -0.43246707723660932 -0.44794326854796312 0 -0.4457251648104853 -0.47020164095208389 0 -0.4467190029717853 -0.45478934699519452 0 -0.46411508256092049 -0.46598235294430129 0 -0.4457251648104853 -0.47020164095208389 0 -0.4467190029717853 -0.45478934699519452 0 -0.43016578207734568 -0.46313500011938619 0 -0.4467190029717853 -0.45478934699519452 0 -0.46411508256092049 -0.46598235294430129 0 -0.47114575579794699 -0.4403844242888923 0 -0.4467190029717853 -0.45478934699519452 0 -0.47114575579794699 -0.4403844242888923 0 -0.4422915115958943 -0.43555510214664611 0 -0.47114575579794699 -0.4403844242888923 0 -0.4422915115958943 -0.43555510214664611 0 -0.46411508256092049 -0.46598235294430129 0 -0.47114575579794699 -0.4403844242888923 0 -0.48354307623736548 -0.45841843211146538 0 -0.4824545428279598 -0.47451624516148783 0 -0.46411508256092049 -0.46598235294430129 0 -0.48354307623736548 -0.45841843211146538 0 -0.4824545428279598 -0.47451624516148783 0 -0.48354307623736548 -0.45841843211146538 0 -0.5 -0.46599539173150673 0 -0.48354307623736548 -0.45841843211146538 0 -0.5 -0.46599539173150673 0 -0.49999999999999972 -0.44521374643113848 0 -0.47114575579794699 -0.4403844242888923 0 -0.49999999999999972 -0.44521374643113848 0 -0.47114575579794699 -0.4403844242888923 0 -0.49999999999999972 -0.44521374643113848 0 -0.48704432221743971 -0.42935617662229603 0 -0.47114575579794699 -0.4403844242888923 0 -0.48354307623736548 -0.45841843211146538 0 -0.49999999999999972 -0.44521374643113848 0 -0.49999999999999972 -0.44521374643113848 0 -0.48704432221743971 -0.42935617662229603 0 -0.5 -0.41591957503128979 0 -0.48704432221743971 -0.42935617662229603 0 -0.5 -0.41591957503128979 0 -0.47703153307181151 -0.41590696073786332 0 -0.5 -0.41591957503128979 0 -0.47703153307181151 -0.41590696073786332 0 -0.48817838912021821 -0.4022119694541284 0 -0.47114575579794699 -0.4403844242888923 0 -0.48704432221743971 -0.42935617662229603 0 -0.47703153307181151 -0.41590696073786332 0 -0.5 -0.38662540363144121 0 -0.47568202340906118 -0.39039593841591919 0 -0.4947615751445838 -0.37332156409002909 0 -0.47568202340906118 -0.39039593841591919 0 -0.4947615751445838 -0.37332156409002909 0 -0.5 -0.38662540363144121 0 -0.48817838912021821 -0.4022119694541284 0 -0.47568202340906118 -0.39039593841591919 0 -0.5 -0.41591957503128979 0 -0.5 -0.38662540363144121 0 -0.48817838912021821 -0.4022119694541284 0 -0.47703153307181151 -0.41590696073786332 0 -0.48817838912021821 -0.4022119694541284 0 -0.47568202340906118 -0.39039593841591919 0 -0.47703153307181151 -0.41590696073786332 0 -0.47568202340906118 -0.39039593841591919 0 -0.45660247167353862 -0.40747031274180939 0 -0.47568202340906118 -0.39039593841591919 0 -0.48030931097003587 -0.37191064435083931 0 -0.46669490250066459 -0.37481721741951951 0 -0.47568202340906118 -0.39039593841591919 0 -0.4947615751445838 -0.37332156409002909 0 -0.48030931097003587 -0.37191064435083931 0 -0.45332061783919553 -0.38729481725706361 0 -0.46669490250066459 -0.37481721741951951 0 -0.45095991715087752 -0.36968037302039969 0 -0.47568202340906118 -0.39039593841591919 0 -0.45332061783919553 -0.38729481725706361 0 -0.46669490250066459 -0.37481721741951951 0 -0.47568202340906118 -0.39039593841591919 0 -0.45660247167353862 -0.40747031274180939 0 -0.47568202340906118 -0.39039593841591919 0 -0.45332061783919553 -0.38729481725706361 0 -0.45660247167353862 -0.40747031274180939 0 -0.44332653075004852 -0.401690115615219 0 -0.44646247228389868 -0.41654464256061052 0 -0.42870657106664078 -0.39987574649354879 0 -0.45332061783919553 -0.38729481725706361 0 -0.44332653075004852 -0.401690115615219 0 -0.43479631603355468 -0.39077639303142497 0 -0.45332061783919553 -0.38729481725706361 0 -0.44332653075004852 -0.401690115615219 0 -0.45660247167353862 -0.40747031274180939 0 -0.45332061783919553 -0.38729481725706361 0 -0.43421362475025049 -0.37527491429266319 0 -0.43479631603355468 -0.39077639303142497 0 -0.45332061783919553 -0.38729481725706361 0 -0.43421362475025049 -0.37527491429266319 0 -0.45095991715087752 -0.36968037302039969 0 -0.47114575579794699 -0.4403844242888923 0 -0.45663439814062529 -0.42533932462455271 0 -0.4422915115958943 -0.43555510214664611 0 -0.47114575579794699 -0.4403844242888923 0 -0.47703153307181151 -0.41590696073786332 0 -0.45663439814062529 -0.42533932462455271 0 -0.45663439814062529 -0.42533932462455271 0 -0.45660247167353862 -0.40747031274180939 0 -0.44646247228389868 -0.41654464256061052 0 -0.47703153307181151 -0.41590696073786332 0 -0.45663439814062529 -0.42533932462455271 0 -0.45660247167353862 -0.40747031274180939 0 -0.44332653075004852 -0.401690115615219 0 -0.45660247167353862 -0.40747031274180939 0 -0.44646247228389868 -0.41654464256061052 0 -0.45660247167353862 -0.40747031274180939 0 -0.44646247228389868 -0.41654464256061052 0 -0.44646247228389868 -0.41654464256061052 0 -0.4375229199380159 -0.42454468706769971 0 -0.45663439814062529 -0.42533932462455271 0 -0.4375229199380159 -0.42454468706769971 0 -0.4422915115958943 -0.43555510214664611 0 -0.45663439814062529 -0.42533932462455271 0 -0.44646247228389868 -0.41654464256061052 0 -0.4375229199380159 -0.42454468706769971 0 -0.4375229199380159 -0.42454468706769971 0 -0.4422915115958943 -0.43555510214664611 0 -0.43077617074680319 -0.43406335077952207 0 -0.43077617074680319 -0.43406335077952207 0 -0.42550232634077589 -0.42345940056268039 0 -0.41950844772475421 -0.43888456563633732 0 -0.4375229199380159 -0.42454468706769971 0 -0.43077617074680319 -0.43406335077952207 0 -0.42550232634077589 -0.42345940056268039 0 -0.44646247228389868 -0.41654464256061052 0 -0.41657232816672918 -0.41306671883907142 0 -0.42870657106664078 -0.39987574649354879 0 -0.44646247228389868 -0.41654464256061052 0 -0.4375229199380159 -0.42454468706769971 0 -0.42550232634077589 -0.42345940056268039 0 -0.44646247228389868 -0.41654464256061052 0 -0.42550232634077589 -0.42345940056268039 0 -0.41657232816672918 -0.41306671883907142 0 -0.44646247228389868 -0.41654464256061052 0 -0.41657232816672918 -0.41306671883907142 0 -0.42550232634077589 -0.42345940056268039 0 -0.41657232816672918 -0.41306671883907142 0 -0.41333489101611293 -0.42699700567040988 0 -0.41657232816672918 -0.41306671883907142 0 -0.41333489101611293 -0.42699700567040988 0 -0.39893236021425188 -0.42931692235905211 0 -0.41333489101611293 -0.42699700567040988 0 -0.39893236021425188 -0.42931692235905211 0 -0.41950844772475421 -0.43888456563633732 0 -0.42550232634077589 -0.42345940056268039 0 -0.41333489101611293 -0.42699700567040988 0 -0.41950844772475421 -0.43888456563633732 0 -0.43421362475025049 -0.37527491429266319 0 -0.42478231784314502 -0.38643128255249681 0 -0.41656514696884139 -0.37636588688318029 0 -0.43421362475025049 -0.37527491429266319 0 -0.42478231784314502 -0.38643128255249681 0 -0.43479631603355468 -0.39077639303142497 0 -0.42478231784314502 -0.38643128255249681 0 -0.43479631603355468 -0.39077639303142497 0 -0.42870657106664078 -0.39987574649354879 0 -0.44332653075004852 -0.401690115615219 0 -0.43479631603355468 -0.39077639303142497 0 -0.42870657106664078 -0.39987574649354879 0 -0.41657232816672918 -0.41306671883907142 0 -0.40962993039643741 -0.3898634720616666 0 -0.3946356370269814 -0.39577424904278191 0 -0.42478231784314502 -0.38643128255249681 0 -0.42870657106664078 -0.39987574649354879 0 -0.40962993039643741 -0.3898634720616666 0 -0.41657232816672918 -0.41306671883907142 0 -0.42870657106664078 -0.39987574649354879 0 -0.40962993039643741 -0.3898634720616666 0 -0.42478231784314502 -0.38643128255249681 0 -0.40962993039643741 -0.3898634720616666 0 -0.41656514696884139 -0.37636588688318029 0 -0.40962993039643741 -0.3898634720616666 0 -0.41656514696884139 -0.37636588688318029 0 -0.40465459864295228 -0.37650109000307358 0 -0.39431275766669582 -0.38061373190328529 0 -0.40465459864295228 -0.37650109000307358 0 -0.3968495855878465 -0.36923685638487008 0 -0.40962993039643741 -0.3898634720616666 0 -0.39431275766669582 -0.38061373190328529 0 -0.40465459864295228 -0.37650109000307358 0 -0.40962993039643741 -0.3898634720616666 0 -0.39431275766669582 -0.38061373190328529 0 -0.3946356370269814 -0.39577424904278191 0 -0.3946356370269814 -0.39577424904278191 0 -0.38704143117499401 -0.40999023144455299 0 -0.37464038230528551 -0.396492613407532 0 -0.3946356370269814 -0.39577424904278191 0 -0.37522403377147279 -0.38060127254172499 0 -0.37464038230528551 -0.396492613407532 0 -0.39431275766669582 -0.38061373190328529 0 -0.3946356370269814 -0.39577424904278191 0 -0.37522403377147279 -0.38060127254172499 0 -0.39431275766669582 -0.38061373190328529 0 -0.37522403377147279 -0.38060127254172499 0 -0.38569326772338258 -0.37053454129240582 0 -0.41657232816672918 -0.41306671883907142 0 -0.39893236021425188 -0.42931692235905211 0 -0.38704143117499401 -0.40999023144455299 0 -0.41657232816672918 -0.41306671883907142 0 -0.3946356370269814 -0.39577424904278191 0 -0.38704143117499401 -0.40999023144455299 0 -0.41657232816672918 -0.41306671883907142 0 -0.38704143117499401 -0.40999023144455299 0 -0.38704143117499401 -0.40999023144455299 0 -0.38131756488089769 -0.42670085612339947 0 -0.36377437909963828 -0.41972983174959272 0 -0.38131756488089769 -0.42670085612339947 0 -0.38339996822118783 -0.44368928783448319 0 -0.36866352395763108 -0.4313760290561211 0 -0.39893236021425188 -0.42931692235905211 0 -0.38131756488089769 -0.42670085612339947 0 -0.38339996822118783 -0.44368928783448319 0 -0.39893236021425188 -0.42931692235905211 0 -0.38704143117499401 -0.40999023144455299 0 -0.38131756488089769 -0.42670085612339947 0 -0.38339996822118783 -0.44368928783448319 0 -0.40446438048225181 -0.45117017211807442 0 -0.3895931593355052 -0.46351353191466821 0 -0.39893236021425188 -0.42931692235905211 0 -0.38339996822118783 -0.44368928783448319 0 -0.40446438048225181 -0.45117017211807442 0 -0.40446438048225181 -0.45117017211807442 0 -0.3895931593355052 -0.46351353191466821 0 -0.40280611050484572 -0.47090640128894168 0 -0.38339996822118783 -0.44368928783448319 0 -0.3895931593355052 -0.46351353191466821 0 -0.37415472949075129 -0.45946062715310632 0 -0.3895931593355052 -0.46351353191466821 0 -0.38039451612360919 -0.47713749807852829 0 -0.37415472949075129 -0.45946062715310632 0 -0.38039451612360919 -0.47713749807852829 0 -0.39198476482648659 -0.49312537606366408 0 -0.39366244928105898 -0.47747566409097131 0 -0.3895931593355052 -0.46351353191466821 0 -0.38039451612360919 -0.47713749807852829 0 -0.39366244928105898 -0.47747566409097131 0 -0.39198476482648659 -0.49312537606366408 0 -0.37055643484088358 -0.49425936316784103 0 -0.39198476482648659 -0.49312537606366408 0 -0.40291763061342539 -0.5 0 -0.37308363097429631 -0.50000000000000244 0 -0.39198476482648659 -0.49312537606366408 0 -0.37055643484088358 -0.49425936316784103 0 -0.37308363097429631 -0.50000000000000244 0 -0.38039451612360919 -0.47713749807852829 0 -0.39198476482648659 -0.49312537606366408 0 -0.37055643484088358 -0.49425936316784103 0 -0.39198476482648659 -0.49312537606366408 0 -0.41341309481208982 -0.49199138895948757 0 -0.39198476482648659 -0.49312537606366408 0 -0.39366244928105898 -0.47747566409097131 0 -0.40353369561484831 -0.48269551310905429 0 -0.39198476482648659 -0.49312537606366408 0 -0.40291763061342539 -0.5 0 -0.41341309481208982 -0.49199138895948757 0 -0.39198476482648659 -0.49312537606366408 0 -0.40353369561484831 -0.48269551310905429 0 -0.41341309481208982 -0.49199138895948757 0 -0.3895931593355052 -0.46351353191466821 0 -0.39366244928105898 -0.47747566409097131 0 -0.40280611050484572 -0.47090640128894168 0 -0.39366244928105898 -0.47747566409097131 0 -0.40353369561484831 -0.48269551310905429 0 -0.40280611050484572 -0.47090640128894168 0 -0.40280611050484572 -0.47090640128894168 0 -0.41792735015940108 -0.47619959015896091 0 -0.41524515795200517 -0.46243146669528151 0 -0.40353369561484831 -0.48269551310905429 0 -0.41792735015940108 -0.47619959015896091 0 -0.41341309481208982 -0.49199138895948757 0 -0.40353369561484831 -0.48269551310905429 0 -0.40280611050484572 -0.47090640128894168 0 -0.41792735015940108 -0.47619959015896091 0 -0.41792735015940108 -0.47619959015896091 0 -0.41341309481208982 -0.49199138895948757 0 -0.42480663413382869 -0.48754747406650911 0 -0.40291763061342539 -0.5 0 -0.41341309481208982 -0.49199138895948757 0 -0.43275163025255442 -0.5 0 -0.41341309481208982 -0.49199138895948757 0 -0.42480663413382869 -0.48754747406650911 0 -0.43275163025255442 -0.5 0 -0.42480663413382869 -0.48754747406650911 0 -0.43275163025255442 -0.5 0 -0.43513446131126993 -0.48199891714758791 0 -0.4457251648104853 -0.47020164095208389 0 -0.43513446131126993 -0.48199891714758791 0 -0.43016578207734568 -0.46313500011938619 0 -0.41792735015940108 -0.47619959015896091 0 -0.43513446131126993 -0.48199891714758791 0 -0.43016578207734568 -0.46313500011938619 0 -0.41792735015940108 -0.47619959015896091 0 -0.42480663413382869 -0.48754747406650911 0 -0.43513446131126993 -0.48199891714758791 0 -0.4467190029717853 -0.45478934699519452 0 -0.43016578207734568 -0.46313500011938619 0 -0.43246707723660932 -0.44794326854796312 0 -0.43016578207734568 -0.46313500011938619 0 -0.42051073979218989 -0.45215097324273301 0 -0.41524515795200517 -0.46243146669528151 0 -0.43016578207734568 -0.46313500011938619 0 -0.43246707723660932 -0.44794326854796312 0 -0.42051073979218989 -0.45215097324273301 0 -0.4422915115958943 -0.43555510214664611 0 -0.43077617074680319 -0.43406335077952207 0 -0.43246707723660932 -0.44794326854796312 0 -0.43077617074680319 -0.43406335077952207 0 -0.43246707723660932 -0.44794326854796312 0 -0.41950844772475421 -0.43888456563633732 0 -0.43246707723660932 -0.44794326854796312 0 -0.42051073979218989 -0.45215097324273301 0 -0.41950844772475421 -0.43888456563633732 0 -0.39893236021425188 -0.42931692235905211 0 -0.40446438048225181 -0.45117017211807442 0 -0.41950844772475421 -0.43888456563633732 0 -0.40446438048225181 -0.45117017211807442 0 -0.42051073979218989 -0.45215097324273301 0 -0.41950844772475421 -0.43888456563633732 0 -0.40446438048225181 -0.45117017211807442 0 -0.42051073979218989 -0.45215097324273301 0 -0.41524515795200517 -0.46243146669528151 0 -0.40446438048225181 -0.45117017211807442 0 -0.40280611050484572 -0.47090640128894168 0 -0.41524515795200517 -0.46243146669528151 0 -0.41792735015940108 -0.47619959015896091 0 -0.43016578207734568 -0.46313500011938619 0 -0.41524515795200517 -0.46243146669528151 0 -0.45018232007011222 -0.256765034028549 0 -0.429874989515865 -0.26165756953837482 0 -0.43598079583492633 -0.24721882136819351 0 -0.45018232007011222 -0.256765034028549 0 -0.43765198640052377 -0.27443700488157741 0 -0.429874989515865 -0.26165756953837482 0 -0.45018232007011222 -0.256765034028549 0 -0.43598079583492633 -0.24721882136819351 0 -0.45139902778349827 -0.24711062934306771 0 -0.45018232007011222 -0.256765034028549 0 -0.43765198640052377 -0.27443700488157741 0 -0.46196722525855399 -0.27174391220054139 0 -0.43765198640052377 -0.27443700488157741 0 -0.46196722525855399 -0.27174391220054139 0 -0.4476129789611048 -0.29283803371489903 0 -0.46196722525855399 -0.27174391220054139 0 -0.48050148842732221 -0.25523221810557922 0 -0.46267023581878858 -0.24817136713935201 0 -0.45018232007011222 -0.256765034028549 0 -0.46196722525855399 -0.27174391220054139 0 -0.46267023581878858 -0.24817136713935201 0 -0.45018232007011222 -0.256765034028549 0 -0.46267023581878858 -0.24817136713935201 0 -0.45139902778349827 -0.24711062934306771 0 -0.48050148842732221 -0.25523221810557922 0 -0.5 -0.26944871803204617 0 -0.5 -0.2401545466321974 0 -0.48050148842732221 -0.25523221810557922 0 -0.5 -0.26944871803204617 0 -0.48245797385404121 -0.28063059353633901 0 -0.46196722525855399 -0.27174391220054139 0 -0.48050148842732221 -0.25523221810557922 0 -0.48245797385404121 -0.28063059353633901 0 -0.46196722525855399 -0.27174391220054139 0 -0.48245797385404121 -0.28063059353633901 0 -0.46937090116945868 -0.29821258941183898 0 -0.48245797385404121 -0.28063059353633901 0 -0.5 -0.29874288943189498 0 -0.46937090116945868 -0.29821258941183898 0 -0.5 -0.26944871803204617 0 -0.48245797385404121 -0.28063059353633901 0 -0.5 -0.29874288943189498 0 -0.5 -0.29874288943189498 0 -0.46937090116945868 -0.29821258941183898 0 -0.47623524987602139 -0.32201367690444971 0 -0.46937090116945868 -0.29821258941183898 0 -0.4476129789611048 -0.29283803371489903 0 -0.45018982867155483 -0.32180400573951162 0 -0.46196722525855399 -0.27174391220054139 0 -0.46937090116945868 -0.29821258941183898 0 -0.4476129789611048 -0.29283803371489903 0 -0.43765198640052377 -0.27443700488157741 0 -0.4476129789611048 -0.29283803371489903 0 -0.43236213870239748 -0.29002705800971151 0 -0.4476129789611048 -0.29283803371489903 0 -0.45018982867155483 -0.32180400573951162 0 -0.4314578060398388 -0.3048790663939604 0 -0.45018982867155483 -0.32180400573951162 0 -0.4314578060398388 -0.3048790663939604 0 -0.45018982867155483 -0.32180400573951162 0 -0.46157657978994598 -0.34139555482026068 0 -0.43521386225128428 -0.33802231259611382 0 -0.46157657978994598 -0.34139555482026068 0 -0.43521386225128428 -0.33802231259611382 0 -0.45018982867155483 -0.32180400573951162 0 -0.46157657978994598 -0.34139555482026068 0 -0.47623524987602139 -0.32201367690444971 0 -0.46937090116945868 -0.29821258941183898 0 -0.45018982867155483 -0.32180400573951162 0 -0.47623524987602139 -0.32201367690444971 0 -0.5 -0.29874288943189498 0 -0.47623524987602139 -0.32201367690444971 0 -0.5 -0.32803706083174372 0 -0.47623524987602139 -0.32201367690444971 0 -0.5 -0.32803706083174372 0 -0.48561656391384522 -0.34384835974822991 0 -0.5 -0.32803706083174372 0 -0.5 -0.35733123223159241 0 -0.48561656391384522 -0.34384835974822991 0 -0.46157657978994598 -0.34139555482026068 0 -0.47623524987602139 -0.32201367690444971 0 -0.48561656391384522 -0.34384835974822991 0 -0.46157657978994598 -0.34139555482026068 0 -0.47568148196104371 -0.35852722048879659 0 -0.48561656391384522 -0.34384835974822991 0 -0.47568148196104371 -0.35852722048879659 0 -0.48561656391384522 -0.34384835974822991 0 -0.48768886795130861 -0.36141736908419309 0 -0.5 -0.35733123223159241 0 -0.48561656391384522 -0.34384835974822991 0 -0.48768886795130861 -0.36141736908419309 0 -0.5 -0.35733123223159241 0 -0.4947615751445838 -0.37332156409002909 0 -0.48768886795130861 -0.36141736908419309 0 -0.5 -0.38662540363144121 0 -0.5 -0.35733123223159241 0 -0.4947615751445838 -0.37332156409002909 0 -0.4947615751445838 -0.37332156409002909 0 -0.48768886795130861 -0.36141736908419309 0 -0.48030931097003587 -0.37191064435083931 0 -0.47568148196104371 -0.35852722048879659 0 -0.48030931097003587 -0.37191064435083931 0 -0.46669490250066459 -0.37481721741951951 0 -0.47568148196104371 -0.35852722048879659 0 -0.48768886795130861 -0.36141736908419309 0 -0.48030931097003587 -0.37191064435083931 0 -0.46669490250066459 -0.37481721741951951 0 -0.45985290530711531 -0.35919053618658509 0 -0.45095991715087752 -0.36968037302039969 0 -0.47568148196104371 -0.35852722048879659 0 -0.46669490250066459 -0.37481721741951951 0 -0.45985290530711531 -0.35919053618658509 0 -0.46157657978994598 -0.34139555482026068 0 -0.47568148196104371 -0.35852722048879659 0 -0.45985290530711531 -0.35919053618658509 0 -0.46157657978994598 -0.34139555482026068 0 -0.45985290530711531 -0.35919053618658509 0 -0.44091292170358748 -0.35617636658334351 0 -0.46157657978994598 -0.34139555482026068 0 -0.44091292170358748 -0.35617636658334351 0 -0.43521386225128428 -0.33802231259611382 0 -0.43421362475025049 -0.37527491429266319 0 -0.44091292170358748 -0.35617636658334351 0 -0.45095991715087752 -0.36968037302039969 0 -0.45985290530711531 -0.35919053618658509 0 -0.44091292170358748 -0.35617636658334351 0 -0.45095991715087752 -0.36968037302039969 0 -0.43421362475025049 -0.37527491429266319 0 -0.41656514696884139 -0.37636588688318029 0 -0.42218579342164808 -0.36334977441807748 0 -0.43421362475025049 -0.37527491429266319 0 -0.44091292170358748 -0.35617636658334351 0 -0.42218579342164808 -0.36334977441807748 0 -0.44091292170358748 -0.35617636658334351 0 -0.42218579342164808 -0.36334977441807748 0 -0.42066840753926321 -0.34864312644900147 0 -0.44091292170358748 -0.35617636658334351 0 -0.42066840753926321 -0.34864312644900147 0 -0.43521386225128428 -0.33802231259611382 0 -0.42218579342164808 -0.36334977441807748 0 -0.42066840753926321 -0.34864312644900147 0 -0.40690054455725883 -0.35815659477868023 0 -0.40690054455725883 -0.35815659477868023 0 -0.40885114471262263 -0.334649070371968 0 -0.42066840753926321 -0.34864312644900147 0 -0.40690054455725883 -0.35815659477868023 0 -0.40885114471262263 -0.334649070371968 0 -0.42218579342164808 -0.36334977441807748 0 -0.40690054455725883 -0.35815659477868023 0 -0.40625971269279348 -0.36587953617857771 0 -0.40690054455725883 -0.35815659477868023 0 -0.40625971269279348 -0.36587953617857771 0 -0.41656514696884139 -0.37636588688318029 0 -0.42218579342164808 -0.36334977441807748 0 -0.40625971269279348 -0.36587953617857771 0 -0.42218579342164808 -0.36334977441807748 0 -0.40690054455725883 -0.35815659477868023 0 -0.41656514696884139 -0.37636588688318029 0 -0.40465459864295228 -0.37650109000307358 0 -0.40625971269279348 -0.36587953617857771 0 -0.40465459864295228 -0.37650109000307358 0 -0.40625971269279348 -0.36587953617857771 0 -0.3968495855878465 -0.36923685638487008 0 -0.40690054455725883 -0.35815659477868023 0 -0.40029228617445223 -0.36350286704594809 0 -0.3911593018599101 -0.36073848084166482 0 -0.40625971269279348 -0.36587953617857771 0 -0.40029228617445223 -0.36350286704594809 0 -0.3968495855878465 -0.36923685638487008 0 -0.40690054455725883 -0.35815659477868023 0 -0.40625971269279348 -0.36587953617857771 0 -0.40029228617445223 -0.36350286704594809 0 -0.3911593018599101 -0.36073848084166482 0 -0.3968495855878465 -0.36923685638487008 0 -0.38569326772338258 -0.37053454129240582 0 -0.40029228617445223 -0.36350286704594809 0 -0.3911593018599101 -0.36073848084166482 0 -0.3968495855878465 -0.36923685638487008 0 -0.39431275766669582 -0.38061373190328529 0 -0.3968495855878465 -0.36923685638487008 0 -0.38569326772338258 -0.37053454129240582 0 -0.3911593018599101 -0.36073848084166482 0 -0.38569326772338258 -0.37053454129240582 0 -0.37568472164775779 -0.36524225821647011 0 -0.37522403377147279 -0.38060127254172499 0 -0.38569326772338258 -0.37053454129240582 0 -0.37568472164775779 -0.36524225821647011 0 -0.3911593018599101 -0.36073848084166482 0 -0.37568472164775779 -0.36524225821647011 0 -0.38024887903539811 -0.3491016629308506 0 -0.40690054455725883 -0.35815659477868023 0 -0.3911593018599101 -0.36073848084166482 0 -0.38024887903539811 -0.3491016629308506 0 -0.40690054455725883 -0.35815659477868023 0 -0.38024887903539811 -0.3491016629308506 0 -0.39533213247953691 -0.34338662223350158 0 -0.40690054455725883 -0.35815659477868023 0 -0.39533213247953691 -0.34338662223350158 0 -0.40885114471262263 -0.334649070371968 0 -0.40690054455725883 -0.35815659477868023 0 -0.38024887903539811 -0.3491016629308506 0 -0.39533213247953691 -0.34338662223350158 0 -0.38532796161286798 -0.33163916085250739 0 -0.40885114471262263 -0.334649070371968 0 -0.38532796161286798 -0.33163916085250739 0 -0.40885114471262263 -0.334649070371968 0 -0.38024887903539811 -0.3491016629308506 0 -0.39533213247953691 -0.34338662223350158 0 -0.38532796161286798 -0.33163916085250739 0 -0.38024887903539811 -0.3491016629308506 0 -0.38532796161286798 -0.33163916085250739 0 -0.37024470816872912 -0.33735420154985679 0 -0.38532796161286798 -0.33163916085250739 0 -0.37601492727600683 -0.3197696392392384 0 -0.39293033406270472 -0.31505081143976649 0 -0.37601492727600683 -0.3197696392392384 0 -0.39293033406270472 -0.31505081143976649 0 -0.37651642550459341 -0.307078797330949 0 -0.38532796161286798 -0.33163916085250739 0 -0.39293033406270472 -0.31505081143976649 0 -0.40885114471262263 -0.334649070371968 0 -0.39293033406270472 -0.31505081143976649 0 -0.40885114471262263 -0.334649070371968 0 -0.41078846406037228 -0.3113015987101887 0 -0.40885114471262263 -0.334649070371968 0 -0.42554877913925399 -0.3223331804902434 0 -0.41078846406037228 -0.3113015987101887 0 -0.40885114471262263 -0.334649070371968 0 -0.41078846406037228 -0.3113015987101887 0 -0.42066840753926321 -0.34864312644900147 0 -0.40885114471262263 -0.334649070371968 0 -0.43521386225128428 -0.33802231259611382 0 -0.40885114471262263 -0.334649070371968 0 -0.43521386225128428 -0.33802231259611382 0 -0.40885114471262263 -0.334649070371968 0 -0.43521386225128428 -0.33802231259611382 0 -0.42554877913925399 -0.3223331804902434 0 -0.42554877913925399 -0.3223331804902434 0 -0.4314578060398388 -0.3048790663939604 0 -0.41078846406037228 -0.3113015987101887 0 -0.45018982867155483 -0.32180400573951162 0 -0.43521386225128428 -0.33802231259611382 0 -0.42554877913925399 -0.3223331804902434 0 -0.45018982867155483 -0.32180400573951162 0 -0.42554877913925399 -0.3223331804902434 0 -0.4314578060398388 -0.3048790663939604 0 -0.4476129789611048 -0.29283803371489903 0 -0.4314578060398388 -0.3048790663939604 0 -0.43236213870239748 -0.29002705800971151 0 -0.4314578060398388 -0.3048790663939604 0 -0.43236213870239748 -0.29002705800971151 0 -0.41272578340812272 -0.2879541270484095 0 -0.4314578060398388 -0.3048790663939604 0 -0.41272578340812272 -0.2879541270484095 0 -0.43765198640052377 -0.27443700488157741 0 -0.43236213870239748 -0.29002705800971151 0 -0.41272578340812272 -0.2879541270484095 0 -0.4314578060398388 -0.3048790663939604 0 -0.41272578340812272 -0.2879541270484095 0 -0.41078846406037228 -0.3113015987101887 0 -0.41272578340812272 -0.2879541270484095 0 -0.41078846406037228 -0.3113015987101887 0 -0.41272578340812272 -0.2879541270484095 0 -0.41078846406037228 -0.3113015987101887 0 -0.39233272698174793 -0.29435547039456872 0 -0.39293033406270472 -0.31505081143976649 0 -0.41078846406037228 -0.3113015987101887 0 -0.39233272698174793 -0.29435547039456872 0 -0.39293033406270472 -0.31505081143976649 0 -0.37651642550459341 -0.307078797330949 0 -0.39233272698174793 -0.29435547039456872 0 -0.39233272698174793 -0.29435547039456872 0 -0.39278725088820249 -0.26993907014966689 0 -0.37040839911066209 -0.28171057629616708 0 -0.37651642550459341 -0.307078797330949 0 -0.39233272698174793 -0.29435547039456872 0 -0.37040839911066209 -0.28171057629616708 0 -0.41272578340812272 -0.2879541270484095 0 -0.39233272698174793 -0.29435547039456872 0 -0.39278725088820249 -0.26993907014966689 0 -0.41272578340812272 -0.2879541270484095 0 -0.39278725088820249 -0.26993907014966689 0 -0.39278725088820249 -0.26993907014966689 0 -0.37040839911066209 -0.28171057629616708 0 -0.39278725088820249 -0.26993907014966689 0 -0.37533687834285862 -0.25417213976024849 0 -0.37040839911066209 -0.28171057629616708 0 -0.39278725088820249 -0.26993907014966689 0 -0.37533687834285862 -0.25417213976024849 0 -0.39826986996263802 -0.25360934065352753 0 -0.39278725088820249 -0.26993907014966689 0 -0.37533687834285862 -0.25417213976024849 0 -0.39278725088820249 -0.26993907014966689 0 -0.39826986996263802 -0.25360934065352753 0 -0.41519883225968468 -0.25815034790020708 0 -0.39278725088820249 -0.26993907014966689 0 -0.41519883225968468 -0.25815034790020708 0 -0.39826986996263802 -0.25360934065352753 0 -0.41519883225968468 -0.25815034790020708 0 -0.41615383063077721 -0.2466412503256647 0 -0.41519883225968468 -0.25815034790020708 0 -0.41615383063077721 -0.2466412503256647 0 -0.41272578340812272 -0.2879541270484095 0 -0.41519883225968468 -0.25815034790020708 0 -0.41272578340812272 -0.2879541270484095 0 -0.41519883225968468 -0.25815034790020708 0 -0.429874989515865 -0.26165756953837482 0 -0.41272578340812272 -0.2879541270484095 0 -0.39278725088820249 -0.26993907014966689 0 -0.41519883225968468 -0.25815034790020708 0 -0.43765198640052377 -0.27443700488157741 0 -0.41272578340812272 -0.2879541270484095 0 -0.429874989515865 -0.26165756953837482 0 -0.41519883225968468 -0.25815034790020708 0 -0.43598079583492633 -0.24721882136819351 0 -0.41519883225968468 -0.25815034790020708 0 -0.429874989515865 -0.26165756953837482 0 -0.43598079583492633 -0.24721882136819351 0 -0.41519883225968468 -0.25815034790020708 0 -0.43598079583492633 -0.24721882136819351 0 -0.41615383063077721 -0.2466412503256647 0 -0.31968345090478489 -0.25798973640781447 0 -0.33623326073948312 -0.25365348176558788 0 -0.32213598881581812 -0.2442700999577708 0 -0.31968345090478489 -0.25798973640781447 0 -0.31319680135340772 -0.27337899374224139 0 -0.30564385326437488 -0.26015983685037081 0 -0.31968345090478489 -0.25798973640781447 0 -0.31319680135340772 -0.27337899374224139 0 -0.33256675641106698 -0.27199424518209242 0 -0.31319680135340772 -0.27337899374224139 0 -0.33256675641106698 -0.27199424518209242 0 -0.3219330120753135 -0.28752383142540722 0 -0.33256675641106698 -0.27199424518209242 0 -0.33623326073948312 -0.25365348176558788 0 -0.35329637777243872 -0.26495799818728782 0 -0.31968345090478489 -0.25798973640781447 0 -0.33256675641106698 -0.27199424518209242 0 -0.33623326073948312 -0.25365348176558788 0 -0.33623326073948312 -0.25365348176558788 0 -0.35329637777243872 -0.26495799818728782 0 -0.35305879752332059 -0.24486073726717009 0 -0.37533687834285862 -0.25417213976024849 0 -0.35329637777243872 -0.26495799818728782 0 -0.35305879752332059 -0.24486073726717009 0 -0.37533687834285862 -0.25417213976024849 0 -0.35329637777243872 -0.26495799818728782 0 -0.37040839911066209 -0.28171057629616708 0 -0.35329637777243872 -0.26495799818728782 0 -0.34802954733312141 -0.29348208244266671 0 -0.37040839911066209 -0.28171057629616708 0 -0.33256675641106698 -0.27199424518209242 0 -0.35329637777243872 -0.26495799818728782 0 -0.34802954733312141 -0.29348208244266671 0 -0.34802954733312141 -0.29348208244266671 0 -0.37040839911066209 -0.28171057629616708 0 -0.37651642550459341 -0.307078797330949 0 -0.37040839911066209 -0.28171057629616708 0 -0.36249180620921062 -0.30132401124355712 0 -0.34802954733312141 -0.29348208244266671 0 -0.37040839911066209 -0.28171057629616708 0 -0.36249180620921062 -0.30132401124355712 0 -0.37651642550459341 -0.307078797330949 0 -0.36249180620921062 -0.30132401124355712 0 -0.36514172279026702 -0.314674684486903 0 -0.36249180620921062 -0.30132401124355712 0 -0.35217384865543538 -0.31302074178168637 0 -0.36514172279026702 -0.314674684486903 0 -0.34802954733312141 -0.29348208244266671 0 -0.33894022777705518 -0.31261958861733652 0 -0.35217384865543538 -0.31302074178168637 0 -0.34802954733312141 -0.29348208244266671 0 -0.36249180620921062 -0.30132401124355712 0 -0.35217384865543538 -0.31302074178168637 0 -0.34802954733312141 -0.29348208244266671 0 -0.32565069555558063 -0.30525358858916618 0 -0.33894022777705518 -0.31261958861733652 0 -0.34802954733312141 -0.29348208244266671 0 -0.32565069555558063 -0.30525358858916618 0 -0.32565069555558063 -0.30525358858916618 0 -0.32940773276489932 -0.31652548782855527 0 -0.33894022777705518 -0.31261958861733652 0 -0.33256675641106698 -0.27199424518209242 0 -0.34802954733312141 -0.29348208244266671 0 -0.3219330120753135 -0.28752383142540722 0 -0.34802954733312141 -0.29348208244266671 0 -0.3219330120753135 -0.28752383142540722 0 -0.32565069555558063 -0.30525358858916618 0 -0.3219330120753135 -0.28752383142540722 0 -0.31228269981280887 -0.29918463989613459 0 -0.30483638085835207 -0.28788342401786787 0 -0.31319680135340772 -0.27337899374224139 0 -0.3219330120753135 -0.28752383142540722 0 -0.30483638085835207 -0.28788342401786787 0 -0.32565069555558063 -0.30525358858916618 0 -0.30327184377803978 -0.31702509473566581 0 -0.31228269981280887 -0.29918463989613459 0 -0.3219330120753135 -0.28752383142540722 0 -0.32565069555558063 -0.30525358858916618 0 -0.31228269981280887 -0.29918463989613459 0 -0.32565069555558063 -0.30525358858916618 0 -0.30327184377803978 -0.31702509473566581 0 -0.31475841231360341 -0.32260943229412947 0 -0.32694554799167658 -0.33099179923519167 0 -0.33828159541335823 -0.32561934181358893 0 -0.32565069555558063 -0.30525358858916618 0 -0.31475841231360341 -0.32260943229412947 0 -0.30327184377803978 -0.31702509473566581 0 -0.31475841231360341 -0.32260943229412947 0 -0.33828159541335823 -0.32561934181358893 0 -0.32940773276489932 -0.31652548782855527 0 -0.32565069555558063 -0.30525358858916618 0 -0.31475841231360341 -0.32260943229412947 0 -0.32940773276489932 -0.31652548782855527 0 -0.31475841231360341 -0.32260943229412947 0 -0.33828159541335823 -0.32561934181358893 0 -0.31475841231360341 -0.32260943229412947 0 -0.31372637242327511 -0.33497634201883658 0 -0.32694554799167658 -0.33099179923519167 0 -0.32694554799167658 -0.33099179923519167 0 -0.32737612656656928 -0.35021722948502532 0 -0.3170311031704231 -0.34491623006635341 0 -0.31372637242327511 -0.33497634201883658 0 -0.32694554799167658 -0.33099179923519167 0 -0.3170311031704231 -0.34491623006635341 0 -0.31372637242327511 -0.33497634201883658 0 -0.3170311031704231 -0.34491623006635341 0 -0.30849554643820359 -0.34481279163420842 0 -0.32694554799167658 -0.33099179923519167 0 -0.33828159541335823 -0.32561934181358893 0 -0.35359721351353718 -0.34004673108302108 0 -0.32694554799167658 -0.33099179923519167 0 -0.35359721351353718 -0.34004673108302108 0 -0.33765025977867152 -0.34480892108230998 0 -0.32694554799167658 -0.33099179923519167 0 -0.35359721351353718 -0.34004673108302108 0 -0.32694554799167658 -0.33099179923519167 0 -0.33765025977867152 -0.34480892108230998 0 -0.32737612656656928 -0.35021722948502532 0 -0.33828159541335823 -0.32561934181358893 0 -0.32940773276489932 -0.31652548782855527 0 -0.33894022777705518 -0.31261958861733652 0 -0.33828159541335823 -0.32561934181358893 0 -0.33894022777705518 -0.31261958861733652 0 -0.35217384865543538 -0.31302074178168637 0 -0.33828159541335823 -0.32561934181358893 0 -0.3618047785131131 -0.32862925133304821 0 -0.33828159541335823 -0.32561934181358893 0 -0.35217384865543538 -0.31302074178168637 0 -0.3618047785131131 -0.32862925133304821 0 -0.38532796161286798 -0.33163916085250739 0 -0.37601492727600683 -0.3197696392392384 0 -0.3618047785131131 -0.32862925133304821 0 -0.35217384865543538 -0.31302074178168637 0 -0.36514172279026702 -0.314674684486903 0 -0.3618047785131131 -0.32862925133304821 0 -0.37601492727600683 -0.3197696392392384 0 -0.36514172279026702 -0.314674684486903 0 -0.3618047785131131 -0.32862925133304821 0 -0.37601492727600683 -0.3197696392392384 0 -0.37651642550459341 -0.307078797330949 0 -0.36514172279026702 -0.314674684486903 0 -0.38532796161286798 -0.33163916085250739 0 -0.37024470816872912 -0.33735420154985679 0 -0.3618047785131131 -0.32862925133304821 0 -0.37024470816872912 -0.33735420154985679 0 -0.3618047785131131 -0.32862925133304821 0 -0.35359721351353718 -0.34004673108302108 0 -0.38532796161286798 -0.33163916085250739 0 -0.3618047785131131 -0.32862925133304821 0 -0.38024887903539811 -0.3491016629308506 0 -0.37024470816872912 -0.33735420154985679 0 -0.35359721351353718 -0.34004673108302108 0 -0.33828159541335823 -0.32561934181358893 0 -0.3618047785131131 -0.32862925133304821 0 -0.35359721351353718 -0.34004673108302108 0 -0.35359721351353718 -0.34004673108302108 0 -0.36247207576052709 -0.35740109745143939 0 -0.34268215104290278 -0.35797992452600158 0 -0.35359721351353718 -0.34004673108302108 0 -0.34268215104290278 -0.35797992452600158 0 -0.33765025977867152 -0.34480892108230998 0 -0.37568472164775779 -0.36524225821647011 0 -0.38024887903539811 -0.3491016629308506 0 -0.36247207576052709 -0.35740109745143939 0 -0.38024887903539811 -0.3491016629308506 0 -0.35359721351353718 -0.34004673108302108 0 -0.36247207576052709 -0.35740109745143939 0 -0.38024887903539811 -0.3491016629308506 0 -0.35359721351353718 -0.34004673108302108 0 -0.37522403377147279 -0.38060127254172499 0 -0.37568472164775779 -0.36524225821647011 0 -0.35964608014779109 -0.37334112637938882 0 -0.37568472164775779 -0.36524225821647011 0 -0.36247207576052709 -0.35740109745143939 0 -0.35964608014779109 -0.37334112637938882 0 -0.36247207576052709 -0.35740109745143939 0 -0.35964608014779109 -0.37334112637938882 0 -0.34268215104290278 -0.35797992452600158 0 -0.35964608014779109 -0.37334112637938882 0 -0.34268215104290278 -0.35797992452600158 0 -0.34254000635277743 -0.38197763020755832 0 -0.34268215104290278 -0.35797992452600158 0 -0.32737612656656928 -0.35021722948502532 0 -0.32270418411731933 -0.37181077970513959 0 -0.34268215104290278 -0.35797992452600158 0 -0.32270418411731933 -0.37181077970513959 0 -0.34254000635277743 -0.38197763020755832 0 -0.34268215104290278 -0.35797992452600158 0 -0.34254000635277743 -0.38197763020755832 0 -0.34268215104290278 -0.35797992452600158 0 -0.33765025977867152 -0.34480892108230998 0 -0.32737612656656928 -0.35021722948502532 0 -0.32737612656656928 -0.35021722948502532 0 -0.31662274924076123 -0.35606216629487569 0 -0.32270418411731933 -0.37181077970513959 0 -0.32737612656656928 -0.35021722948502532 0 -0.3170311031704231 -0.34491623006635341 0 -0.31662274924076123 -0.35606216629487569 0 -0.3170311031704231 -0.34491623006635341 0 -0.31662274924076123 -0.35606216629487569 0 -0.30902027636205309 -0.35243705172998302 0 -0.31662274924076123 -0.35606216629487569 0 -0.32270418411731933 -0.37181077970513959 0 -0.30796050174877349 -0.36016317053514468 0 -0.32270418411731933 -0.37181077970513959 0 -0.29719619905707523 -0.36594012765828582 0 -0.30796050174877349 -0.36016317053514468 0 -0.32270418411731933 -0.37181077970513959 0 -0.29719619905707523 -0.36594012765828582 0 -0.3103864423796594 -0.37828470113645102 0 -0.32270418411731933 -0.37181077970513959 0 -0.29719619905707523 -0.36594012765828582 0 -0.29719619905707523 -0.36594012765828582 0 -0.29943295026653399 -0.35953932364306618 0 -0.30796050174877349 -0.36016317053514468 0 -0.29719619905707523 -0.36594012765828582 0 -0.29584447723995128 -0.37444813956539807 0 -0.3103864423796594 -0.37828470113645102 0 -0.31662274924076123 -0.35606216629487569 0 -0.30796050174877349 -0.36016317053514468 0 -0.30902027636205309 -0.35243705172998302 0 -0.30796050174877349 -0.36016317053514468 0 -0.30902027636205309 -0.35243705172998302 0 -0.30278665144889838 -0.35518957417951802 0 -0.3170311031704231 -0.34491623006635341 0 -0.30902027636205309 -0.35243705172998302 0 -0.30849554643820359 -0.34481279163420842 0 -0.30902027636205309 -0.35243705172998302 0 -0.30849554643820359 -0.34481279163420842 0 -0.30076474035813339 -0.34759465108555682 0 -0.30849554643820359 -0.34481279163420842 0 -0.30076474035813339 -0.34759465108555682 0 -0.30398917998114899 -0.33934800480643368 0 -0.30902027636205309 -0.35243705172998302 0 -0.30076474035813339 -0.34759465108555682 0 -0.30278665144889838 -0.35518957417951802 0 -0.29943295026653399 -0.35953932364306618 0 -0.30796050174877349 -0.36016317053514468 0 -0.30278665144889838 -0.35518957417951802 0 -0.30076474035813339 -0.34759465108555682 0 -0.30278665144889838 -0.35518957417951802 0 -0.29719830368448108 -0.35301728683459582 0 -0.29943295026653399 -0.35953932364306618 0 -0.30278665144889838 -0.35518957417951802 0 -0.29719830368448108 -0.35301728683459582 0 -0.29943295026653399 -0.35953932364306618 0 -0.29719830368448108 -0.35301728683459582 0 -0.29016743694869812 -0.35649807524262711 0 -0.29016743694869812 -0.35649807524262711 0 -0.28284547851944208 -0.35047845284871731 0 -0.27168821399683141 -0.36006947561143121 0 -0.29719830368448108 -0.35301728683459582 0 -0.29016743694869812 -0.35649807524262711 0 -0.2925915294609488 -0.34919256188026188 0 -0.2925915294609488 -0.34919256188026188 0 -0.28611540962297188 -0.3426453659285974 0 -0.29619358151489988 -0.34015641309103278 0 -0.30076474035813339 -0.34759465108555682 0 -0.29719830368448108 -0.35301728683459582 0 -0.2925915294609488 -0.34919256188026188 0 -0.30076474035813339 -0.34759465108555682 0 -0.2925915294609488 -0.34919256188026188 0 -0.29619358151489988 -0.34015641309103278 0 -0.2925915294609488 -0.34919256188026188 0 -0.28284547851944208 -0.35047845284871731 0 -0.28611540962297188 -0.3426453659285974 0 -0.28284547851944208 -0.35047845284871731 0 -0.27676447355633299 -0.3457480812413124 0 -0.28611540962297188 -0.3426453659285974 0 -0.29016743694869812 -0.35649807524262711 0 -0.2925915294609488 -0.34919256188026188 0 -0.28284547851944208 -0.35047845284871731 0 -0.29202770366946113 -0.36668513997228358 0 -0.27168821399683141 -0.36006947561143121 0 -0.28307956849111848 -0.3828068929804474 0 -0.29719619905707523 -0.36594012765828582 0 -0.27168821399683141 -0.36006947561143121 0 -0.29202770366946113 -0.36668513997228358 0 -0.28307956849111848 -0.3828068929804474 0 -0.29202770366946113 -0.36668513997228358 0 -0.29584447723995128 -0.37444813956539807 0 -0.28307956849111848 -0.3828068929804474 0 -0.29719619905707523 -0.36594012765828582 0 -0.29016743694869812 -0.35649807524262711 0 -0.27168821399683141 -0.36006947561143121 0 -0.29719619905707523 -0.36594012765828582 0 -0.29202770366946113 -0.36668513997228358 0 -0.27168821399683141 -0.36006947561143121 0 -0.29719619905707523 -0.36594012765828582 0 -0.29943295026653399 -0.35953932364306618 0 -0.29016743694869812 -0.35649807524262711 0 -0.29719619905707523 -0.36594012765828582 0 -0.29202770366946113 -0.36668513997228358 0 -0.29584447723995128 -0.37444813956539807 0 -0.27168821399683141 -0.36006947561143121 0 -0.28307956849111848 -0.3828068929804474 0 -0.27168821399683141 -0.36006947561143121 0 -0.28307956849111848 -0.3828068929804474 0 -0.26050234447883253 -0.38027693877573482 0 -0.27168821399683141 -0.36006947561143121 0 -0.25721723303835431 -0.36623646057876708 0 -0.26050234447883253 -0.38027693877573482 0 -0.27168821399683141 -0.36006947561143121 0 -0.25721723303835431 -0.36623646057876708 0 -0.24850069890613241 -0.35473287875334369 0 -0.25721723303835431 -0.36623646057876708 0 -0.24817767477162081 -0.36986654917455902 0 -0.24850069890613241 -0.35473287875334369 0 -0.25721723303835431 -0.36623646057876708 0 -0.26050234447883253 -0.38027693877573482 0 -0.24817767477162081 -0.36986654917455902 0 -0.27168821399683141 -0.36006947561143121 0 -0.25445926970156468 -0.34270101061729968 0 -0.24850069890613241 -0.35473287875334369 0 -0.27168821399683141 -0.36006947561143121 0 -0.26120815563270988 -0.3391510272218049 0 -0.25445926970156468 -0.34270101061729968 0 -0.27168821399683141 -0.36006947561143121 0 -0.24850069890613241 -0.35473287875334369 0 -0.27168821399683141 -0.36006947561143121 0 -0.27676447355633299 -0.3457480812413124 0 -0.26120815563270988 -0.3391510272218049 0 -0.27168821399683141 -0.36006947561143121 0 -0.26120815563270988 -0.3391510272218049 0 -0.28284547851944208 -0.35047845284871731 0 -0.27168821399683141 -0.36006947561143121 0 -0.27676447355633299 -0.3457480812413124 0 -0.27676447355633299 -0.3457480812413124 0 -0.27858368134566353 -0.33798527866036399 0 -0.28611540962297188 -0.3426453659285974 0 -0.27676447355633299 -0.3457480812413124 0 -0.27858368134566353 -0.33798527866036399 0 -0.26120815563270988 -0.3391510272218049 0 -0.28089299200049878 -0.32879660088216478 0 -0.26120815563270988 -0.3391510272218049 0 -0.28089299200049878 -0.32879660088216478 0 -0.26120815563270988 -0.3391510272218049 0 -0.26730676106940449 -0.32685643845792262 0 -0.27858368134566353 -0.33798527866036399 0 -0.28089299200049878 -0.32879660088216478 0 -0.26120815563270988 -0.3391510272218049 0 -0.26120815563270988 -0.3391510272218049 0 -0.26057751607960811 -0.32279583566460812 0 -0.26730676106940449 -0.32685643845792262 0 -0.26120815563270988 -0.3391510272218049 0 -0.25273748935779161 -0.32224337373924072 0 -0.26120815563270988 -0.3391510272218049 0 -0.25207330520806498 -0.33378255792528982 0 -0.25273748935779161 -0.32224337373924072 0 -0.26120815563270988 -0.3391510272218049 0 -0.25445926970156468 -0.34270101061729968 0 -0.25207330520806498 -0.33378255792528982 0 -0.25445926970156468 -0.34270101061729968 0 -0.2460450098649074 -0.33743905859998191 0 -0.26120815563270988 -0.3391510272218049 0 -0.25207330520806498 -0.33378255792528982 0 -0.25445926970156468 -0.34270101061729968 0 -0.25273748935779161 -0.32224337373924072 0 -0.26050456352867191 -0.3149367065078193 0 -0.24426682308287331 -0.30533572025667649 0 -0.26120815563270988 -0.3391510272218049 0 -0.25273748935779161 -0.32224337373924072 0 -0.26057751607960811 -0.32279583566460812 0 -0.26057751607960811 -0.32279583566460812 0 -0.26050456352867191 -0.3149367065078193 0 -0.26730676106940449 -0.32685643845792262 0 -0.25273748935779161 -0.32224337373924072 0 -0.26057751607960811 -0.32279583566460812 0 -0.26050456352867191 -0.3149367065078193 0 -0.28089299200049878 -0.32879660088216478 0 -0.26050456352867191 -0.3149367065078193 0 -0.27445713665833338 -0.31633796571173628 0 -0.28089299200049878 -0.32879660088216478 0 -0.26050456352867191 -0.3149367065078193 0 -0.26050456352867191 -0.3149367065078193 0 -0.27445713665833338 -0.31633796571173628 0 -0.26793999894844561 -0.31004618489902153 0 -0.28089299200049878 -0.32879660088216478 0 -0.26050456352867191 -0.3149367065078193 0 -0.26730676106940449 -0.32685643845792262 0 -0.28089299200049878 -0.32879660088216478 0 -0.27445713665833338 -0.31633796571173628 0 -0.28125105682705043 -0.31976055402590231 0 -0.27445713665833338 -0.31633796571173628 0 -0.28252008875028978 -0.31254235777143202 0 -0.28125105682705043 -0.31976055402590231 0 -0.28252008875028978 -0.31254235777143202 0 -0.28823329624350208 -0.31711313423980658 0 -0.29327146190654751 -0.30876504511160502 0 -0.28089299200049878 -0.32879660088216478 0 -0.28823329624350208 -0.31711313423980658 0 -0.30327184377803978 -0.31702509473566581 0 -0.28089299200049878 -0.32879660088216478 0 -0.29457520052377689 -0.33013191680287202 0 -0.30327184377803978 -0.31702509473566581 0 -0.28089299200049878 -0.32879660088216478 0 -0.30327184377803978 -0.31702509473566581 0 -0.28252008875028978 -0.31254235777143202 0 -0.28125105682705043 -0.31976055402590231 0 -0.28823329624350208 -0.31711313423980658 0 -0.28823329624350208 -0.31711313423980658 0 -0.30327184377803978 -0.31702509473566581 0 -0.29327146190654751 -0.30876504511160502 0 -0.28089299200049878 -0.32879660088216478 0 -0.28125105682705043 -0.31976055402590231 0 -0.28823329624350208 -0.31711313423980658 0 -0.28089299200049878 -0.32879660088216478 0 -0.28793737591580382 -0.33358531802794061 0 -0.27858368134566353 -0.33798527866036399 0 -0.28089299200049878 -0.32879660088216478 0 -0.28793737591580382 -0.33358531802794061 0 -0.28089299200049878 -0.32879660088216478 0 -0.28793737591580382 -0.33358531802794061 0 -0.29457520052377689 -0.33013191680287202 0 -0.27858368134566353 -0.33798527866036399 0 -0.28793737591580382 -0.33358531802794061 0 -0.28611540962297188 -0.3426453659285974 0 -0.28793737591580382 -0.33358531802794061 0 -0.28611540962297188 -0.3426453659285974 0 -0.29619358151489988 -0.34015641309103278 0 -0.28793737591580382 -0.33358531802794061 0 -0.29619358151489988 -0.34015641309103278 0 -0.29457520052377689 -0.33013191680287202 0 -0.29619358151489988 -0.34015641309103278 0 -0.29457520052377689 -0.33013191680287202 0 -0.30458020940964259 -0.3310961572775562 0 -0.30076474035813339 -0.34759465108555682 0 -0.29619358151489988 -0.34015641309103278 0 -0.30398917998114899 -0.33934800480643368 0 -0.29619358151489988 -0.34015641309103278 0 -0.30458020940964259 -0.3310961572775562 0 -0.30398917998114899 -0.33934800480643368 0 -0.31372637242327511 -0.33497634201883658 0 -0.30849554643820359 -0.34481279163420842 0 -0.30398917998114899 -0.33934800480643368 0 -0.31475841231360341 -0.32260943229412947 0 -0.31372637242327511 -0.33497634201883658 0 -0.30458020940964259 -0.3310961572775562 0 -0.31372637242327511 -0.33497634201883658 0 -0.30458020940964259 -0.3310961572775562 0 -0.30398917998114899 -0.33934800480643368 0 -0.31475841231360341 -0.32260943229412947 0 -0.30458020940964259 -0.3310961572775562 0 -0.30327184377803978 -0.31702509473566581 0 -0.29457520052377689 -0.33013191680287202 0 -0.30458020940964259 -0.3310961572775562 0 -0.30327184377803978 -0.31702509473566581 0 -0.30327184377803978 -0.31702509473566581 0 -0.30068554560480582 -0.30112982209441241 0 -0.31228269981280887 -0.29918463989613459 0 -0.30327184377803978 -0.31702509473566581 0 -0.30068554560480582 -0.30112982209441241 0 -0.29327146190654751 -0.30876504511160502 0 -0.30068554560480582 -0.30112982209441241 0 -0.30483638085835207 -0.28788342401786787 0 -0.28888361246081401 -0.29493054457851903 0 -0.30068554560480582 -0.30112982209441241 0 -0.31228269981280887 -0.29918463989613459 0 -0.30483638085835207 -0.28788342401786787 0 -0.28888361246081401 -0.29493054457851903 0 -0.28078806465599399 -0.28300047521785149 0 -0.29451735460655398 -0.27472288856989607 0 -0.30483638085835207 -0.28788342401786787 0 -0.28888361246081401 -0.29493054457851903 0 -0.29451735460655398 -0.27472288856989607 0 -0.28888361246081401 -0.29493054457851903 0 -0.28295382644196537 -0.3038897035906043 0 -0.27388309143310768 -0.29511411685975181 0 -0.28888361246081401 -0.29493054457851903 0 -0.28295382644196537 -0.3038897035906043 0 -0.29327146190654751 -0.30876504511160502 0 -0.30068554560480582 -0.30112982209441241 0 -0.28888361246081401 -0.29493054457851903 0 -0.29327146190654751 -0.30876504511160502 0 -0.28252008875028978 -0.31254235777143202 0 -0.28295382644196537 -0.3038897035906043 0 -0.29327146190654751 -0.30876504511160502 0 -0.27445713665833338 -0.31633796571173628 0 -0.28252008875028978 -0.31254235777143202 0 -0.27524002690986649 -0.30828041126704497 0 -0.28252008875028978 -0.31254235777143202 0 -0.28295382644196537 -0.3038897035906043 0 -0.27524002690986649 -0.30828041126704497 0 -0.28295382644196537 -0.3038897035906043 0 -0.27524002690986649 -0.30828041126704497 0 -0.27388309143310768 -0.29511411685975181 0 -0.26808679199009749 -0.30362992927208171 0 -0.26252268864995981 -0.29761987486456531 0 -0.27388309143310768 -0.29511411685975181 0 -0.27524002690986649 -0.30828041126704497 0 -0.26808679199009749 -0.30362992927208171 0 -0.27388309143310768 -0.29511411685975181 0 -0.27445713665833338 -0.31633796571173628 0 -0.27524002690986649 -0.30828041126704497 0 -0.26793999894844561 -0.31004618489902153 0 -0.27524002690986649 -0.30828041126704497 0 -0.26808679199009749 -0.30362992927208171 0 -0.26793999894844561 -0.31004618489902153 0 -0.26808679199009749 -0.30362992927208171 0 -0.26793999894844561 -0.31004618489902153 0 -0.26278193746552841 -0.30551063084933561 0 -0.26050456352867191 -0.3149367065078193 0 -0.25485564421046719 -0.30132045870319019 0 -0.24011613505684479 -0.30107681213347393 0 -0.26050456352867191 -0.3149367065078193 0 -0.24011613505684479 -0.30107681213347393 0 -0.26050456352867191 -0.3149367065078193 0 -0.26278193746552841 -0.30551063084933561 0 -0.25485564421046719 -0.30132045870319019 0 -0.26050456352867191 -0.3149367065078193 0 -0.26793999894844561 -0.31004618489902153 0 -0.26278193746552841 -0.30551063084933561 0 -0.26278193746552841 -0.30551063084933561 0 -0.26252268864995981 -0.29761987486456531 0 -0.25485564421046719 -0.30132045870319019 0 -0.26252268864995981 -0.29761987486456531 0 -0.25485564421046719 -0.30132045870319019 0 -0.2567143935458242 -0.29223768812186002 0 -0.26808679199009749 -0.30362992927208171 0 -0.26278193746552841 -0.30551063084933561 0 -0.26252268864995981 -0.29761987486456531 0 -0.25608276685525683 -0.28295324223861612 0 -0.2567143935458242 -0.29223768812186002 0 -0.24732420154209239 -0.29033586459568173 0 -0.25485564421046719 -0.30132045870319019 0 -0.2567143935458242 -0.29223768812186002 0 -0.24732420154209239 -0.29033586459568173 0 -0.26252268864995981 -0.29761987486456531 0 -0.2567143935458242 -0.29223768812186002 0 -0.26350989061834318 -0.28909490770035701 0 -0.25608276685525683 -0.28295324223861612 0 -0.26350989061834318 -0.28909490770035701 0 -0.26907982973782107 -0.2804670883869903 0 -0.25608276685525683 -0.28295324223861612 0 -0.2567143935458242 -0.29223768812186002 0 -0.26350989061834318 -0.28909490770035701 0 -0.26350989061834318 -0.28909490770035701 0 -0.27388309143310768 -0.29511411685975181 0 -0.26907982973782107 -0.2804670883869903 0 -0.26252268864995981 -0.29761987486456531 0 -0.26350989061834318 -0.28909490770035701 0 -0.27388309143310768 -0.29511411685975181 0 -0.28888361246081401 -0.29493054457851903 0 -0.27388309143310768 -0.29511411685975181 0 -0.28078806465599399 -0.28300047521785149 0 -0.27388309143310768 -0.29511411685975181 0 -0.28078806465599399 -0.28300047521785149 0 -0.26907982973782107 -0.2804670883869903 0 -0.27772768471542669 -0.26767482265106679 0 -0.26907982973782107 -0.2804670883869903 0 -0.25958550566062261 -0.27102626557679149 0 -0.28078806465599399 -0.28300047521785149 0 -0.27772768471542669 -0.26767482265106679 0 -0.26907982973782107 -0.2804670883869903 0 -0.25608276685525683 -0.28295324223861612 0 -0.26907982973782107 -0.2804670883869903 0 -0.25958550566062261 -0.27102626557679149 0 -0.25608276685525683 -0.28295324223861612 0 -0.25958550566062261 -0.27102626557679149 0 -0.2444485511135471 -0.27534046621033159 0 -0.26398002587916253 -0.25656090854441049 0 -0.24465976002352091 -0.25387891845332877 0 -0.25992972331208369 -0.2410680052130979 0 -0.25958550566062261 -0.27102626557679149 0 -0.26398002587916253 -0.25656090854441049 0 -0.24465976002352091 -0.25387891845332877 0 -0.27772768471542669 -0.26767482265106679 0 -0.26398002587916253 -0.25656090854441049 0 -0.27722523139620658 -0.24922189107985179 0 -0.27772768471542669 -0.26767482265106679 0 -0.25958550566062261 -0.27102626557679149 0 -0.26398002587916253 -0.25656090854441049 0 -0.27772768471542669 -0.26767482265106679 0 -0.29131753467172561 -0.25675805269722002 0 -0.27722523139620658 -0.24922189107985179 0 -0.28078806465599399 -0.28300047521785149 0 -0.27772768471542669 -0.26767482265106679 0 -0.29451735460655398 -0.27472288856989607 0 -0.27772768471542669 -0.26767482265106679 0 -0.29131753467172561 -0.25675805269722002 0 -0.29451735460655398 -0.27472288856989607 0 -0.31319680135340772 -0.27337899374224139 0 -0.29451735460655398 -0.27472288856989607 0 -0.30564385326437488 -0.26015983685037081 0 -0.31319680135340772 -0.27337899374224139 0 -0.30483638085835207 -0.28788342401786787 0 -0.29451735460655398 -0.27472288856989607 0 -0.29131753467172561 -0.25675805269722002 0 -0.29451735460655398 -0.27472288856989607 0 -0.30564385326437488 -0.26015983685037081 0 -0.29131753467172561 -0.25675805269722002 0 -0.30564385326437488 -0.26015983685037081 0 -0.30769212114973271 -0.24578220261295139 0 -0.31968345090478489 -0.25798973640781447 0 -0.30564385326437488 -0.26015983685037081 0 -0.30769212114973271 -0.24578220261295139 0 -0.34207866423036198 -0.45986413066326443 0 -0.33141508850449702 -0.45187214799378478 0 -0.32594289259428999 -0.46085836632795257 0 -0.34207866423036198 -0.45986413066326443 0 -0.32594289259428999 -0.46085836632795257 0 -0.33264581849560632 -0.47431014716802089 0 -0.34207866423036198 -0.45986413066326443 0 -0.34225571697252682 -0.42997304157067162 0 -0.34207866423036198 -0.45986413066326443 0 -0.33358626016413989 -0.44229992863572659 0 -0.33141508850449702 -0.45187214799378478 0 -0.34207866423036198 -0.45986413066326443 0 -0.33358626016413989 -0.44229992863572659 0 -0.34225571697252682 -0.42997304157067162 0 -0.33358626016413989 -0.44229992863572659 0 -0.33141508850449702 -0.45187214799378478 0 -0.32300139100864811 -0.44723989508536771 0 -0.33358626016413989 -0.44229992863572659 0 -0.32300139100864811 -0.44723989508536771 0 -0.32413493920603592 -0.43586432580396972 0 -0.32300139100864811 -0.44723989508536771 0 -0.31385630152515048 -0.44199725430357722 0 -0.32413493920603592 -0.43586432580396972 0 -0.32300139100864811 -0.44723989508536771 0 -0.31385630152515048 -0.44199725430357722 0 -0.31044958537109257 -0.45255960714027171 0 -0.32594289259428999 -0.46085836632795257 0 -0.31333683559556219 -0.46686726284272168 0 -0.31044958537109257 -0.45255960714027171 0 -0.32594289259428999 -0.46085836632795257 0 -0.31333683559556219 -0.46686726284272168 0 -0.32224857144892449 -0.47649828689453749 0 -0.32300139100864811 -0.44723989508536771 0 -0.32594289259428999 -0.46085836632795257 0 -0.31044958537109257 -0.45255960714027171 0 -0.33141508850449702 -0.45187214799378478 0 -0.32300139100864811 -0.44723989508536771 0 -0.32594289259428999 -0.46085836632795257 0 -0.31333683559556219 -0.46686726284272168 0 -0.32224857144892449 -0.47649828689453749 0 -0.30503152439861497 -0.48190266549989857 0 -0.32224857144892449 -0.47649828689453749 0 -0.32279626626388608 -0.48781718170045291 0 -0.30503152439861497 -0.48190266549989857 0 -0.32594289259428999 -0.46085836632795257 0 -0.32224857144892449 -0.47649828689453749 0 -0.33264581849560632 -0.47431014716802089 0 -0.32224857144892449 -0.47649828689453749 0 -0.32279626626388608 -0.48781718170045291 0 -0.33105735271625752 -0.4845747321984929 0 -0.32006214434654462 -0.5 0 -0.32279626626388608 -0.48781718170045291 0 -0.30503152439861497 -0.48190266549989857 0 -0.32006214434654462 -0.5 0 -0.32279626626388608 -0.48781718170045291 0 -0.33558173840908911 -0.49611022390933512 0 -0.32006214434654462 -0.5 0 -0.33558173840908911 -0.49611022390933512 0 -0.34657288766042038 -0.5 0 -0.33558173840908911 -0.49611022390933512 0 -0.34190161148819742 -0.48975521975585701 0 -0.35306908662498632 -0.4951847935385878 0 -0.32279626626388608 -0.48781718170045291 0 -0.33558173840908911 -0.49611022390933512 0 -0.33105735271625752 -0.4845747321984929 0 -0.33558173840908911 -0.49611022390933512 0 -0.33105735271625752 -0.4845747321984929 0 -0.34190161148819742 -0.48975521975585701 0 -0.34207866423036198 -0.45986413066326443 0 -0.34190161148819742 -0.48975521975585701 0 -0.34207866423036198 -0.45986413066326443 0 -0.34190161148819742 -0.48975521975585701 0 -0.33264581849560632 -0.47431014716802089 0 -0.33105735271625752 -0.4845747321984929 0 -0.34190161148819742 -0.48975521975585701 0 -0.33264581849560632 -0.47431014716802089 0 -0.32224857144892449 -0.47649828689453749 0 -0.33105735271625752 -0.4845747321984929 0 -0.33264581849560632 -0.47431014716802089 0 -0.34190161148819742 -0.48975521975585701 0 -0.35001641252228072 -0.47142734906239081 0 -0.35328963507943428 -0.48328499015431992 0 -0.34207866423036198 -0.45986413066326443 0 -0.34190161148819742 -0.48975521975585701 0 -0.35001641252228072 -0.47142734906239081 0 -0.35328963507943428 -0.48328499015431992 0 -0.35950950469085041 -0.48638993404071668 0 -0.36112286221809747 -0.47283058930211808 0 -0.35001641252228072 -0.47142734906239081 0 -0.35328963507943428 -0.48328499015431992 0 -0.36112286221809747 -0.47283058930211808 0 -0.33558173840908911 -0.49611022390933512 0 -0.35306908662498632 -0.4951847935385878 0 -0.33558173840908911 -0.49611022390933512 0 -0.34657288766042038 -0.5 0 -0.35306908662498632 -0.4951847935385878 0 -0.34657288766042038 -0.5 0 -0.35306908662498632 -0.4951847935385878 0 -0.37308363097429631 -0.50000000000000244 0 -0.34190161148819742 -0.48975521975585701 0 -0.35328963507943428 -0.48328499015431992 0 -0.35306908662498632 -0.4951847935385878 0 -0.35328963507943428 -0.48328499015431992 0 -0.35306908662498632 -0.4951847935385878 0 -0.35950950469085041 -0.48638993404071668 0 -0.35306908662498632 -0.4951847935385878 0 -0.35950950469085041 -0.48638993404071668 0 -0.37055643484088358 -0.49425936316784103 0 -0.35306908662498632 -0.4951847935385878 0 -0.37055643484088358 -0.49425936316784103 0 -0.35950950469085041 -0.48638993404071668 0 -0.37055643484088358 -0.49425936316784103 0 -0.36112286221809747 -0.47283058930211808 0 -0.35306908662498632 -0.4951847935385878 0 -0.37055643484088358 -0.49425936316784103 0 -0.37308363097429631 -0.50000000000000244 0 -0.37055643484088358 -0.49425936316784103 0 -0.37308363097429631 -0.50000000000000244 0 -0.38039451612360919 -0.47713749807852829 0 -0.37055643484088358 -0.49425936316784103 0 -0.36112286221809747 -0.47283058930211808 0 -0.37055643484088358 -0.49425936316784103 0 -0.36112286221809747 -0.47283058930211808 0 -0.38039451612360919 -0.47713749807852829 0 -0.36112286221809747 -0.47283058930211808 0 -0.37415472949075129 -0.45946062715310632 0 -0.37415472949075129 -0.45946062715310632 0 -0.3629811744391212 -0.45722253899736259 0 -0.36406731613876331 -0.44506275929787698 0 -0.36112286221809747 -0.47283058930211808 0 -0.37415472949075129 -0.45946062715310632 0 -0.3629811744391212 -0.45722253899736259 0 -0.36112286221809747 -0.47283058930211808 0 -0.3629811744391212 -0.45722253899736259 0 -0.35168928959531232 -0.4514018154363949 0 -0.36112286221809747 -0.47283058930211808 0 -0.35168928959531232 -0.4514018154363949 0 -0.35001641252228072 -0.47142734906239081 0 -0.36112286221809747 -0.47283058930211808 0 -0.35168928959531232 -0.4514018154363949 0 -0.34207866423036198 -0.45986413066326443 0 -0.35001641252228072 -0.47142734906239081 0 -0.35168928959531232 -0.4514018154363949 0 -0.35168928959531232 -0.4514018154363949 0 -0.34225571697252682 -0.42997304157067162 0 -0.35168928959531232 -0.4514018154363949 0 -0.36406731613876331 -0.44506275929787698 0 -0.34225571697252682 -0.42997304157067162 0 -0.34207866423036198 -0.45986413066326443 0 -0.35168928959531232 -0.4514018154363949 0 -0.34225571697252682 -0.42997304157067162 0 -0.38339996822118783 -0.44368928783448319 0 -0.36406731613876331 -0.44506275929787698 0 -0.36866352395763108 -0.4313760290561211 0 -0.38339996822118783 -0.44368928783448319 0 -0.37415472949075129 -0.45946062715310632 0 -0.36406731613876331 -0.44506275929787698 0 -0.3629811744391212 -0.45722253899736259 0 -0.35168928959531232 -0.4514018154363949 0 -0.36406731613876331 -0.44506275929787698 0 -0.38131756488089769 -0.42670085612339947 0 -0.36866352395763108 -0.4313760290561211 0 -0.36377437909963828 -0.41972983174959272 0 -0.38704143117499401 -0.40999023144455299 0 -0.3575105341832589 -0.40691374405003478 0 -0.38704143117499401 -0.40999023144455299 0 -0.36377437909963828 -0.41972983174959272 0 -0.3575105341832589 -0.40691374405003478 0 -0.35062038894632092 -0.41624612172537079 0 -0.34239786166265201 -0.40597533588911489 0 -0.34225571697252682 -0.42997304157067162 0 -0.36377437909963828 -0.41972983174959272 0 -0.3575105341832589 -0.40691374405003478 0 -0.35062038894632092 -0.41624612172537079 0 -0.3575105341832589 -0.40691374405003478 0 -0.35062038894632092 -0.41624612172537079 0 -0.34239786166265201 -0.40597533588911489 0 -0.36406731613876331 -0.44506275929787698 0 -0.36866352395763108 -0.4313760290561211 0 -0.34225571697252682 -0.42997304157067162 0 -0.36866352395763108 -0.4313760290561211 0 -0.36377437909963828 -0.41972983174959272 0 -0.34225571697252682 -0.42997304157067162 0 -0.36377437909963828 -0.41972983174959272 0 -0.35062038894632092 -0.41624612172537079 0 -0.34225571697252682 -0.42997304157067162 0 -0.37522403377147279 -0.38060127254172499 0 -0.37464038230528551 -0.396492613407532 0 -0.35879027536972019 -0.3891835699585654 0 -0.37522403377147279 -0.38060127254172499 0 -0.35964608014779109 -0.37334112637938882 0 -0.35879027536972019 -0.3891835699585654 0 -0.38704143117499401 -0.40999023144455299 0 -0.3575105341832589 -0.40691374405003478 0 -0.37464038230528551 -0.396492613407532 0 -0.3575105341832589 -0.40691374405003478 0 -0.37464038230528551 -0.396492613407532 0 -0.35879027536972019 -0.3891835699585654 0 -0.3575105341832589 -0.40691374405003478 0 -0.35030966939210212 -0.39601257002631829 0 -0.35879027536972019 -0.3891835699585654 0 -0.35030966939210212 -0.39601257002631829 0 -0.34254000635277743 -0.38197763020755832 0 -0.34239786166265201 -0.40597533588911489 0 -0.3575105341832589 -0.40691374405003478 0 -0.35030966939210212 -0.39601257002631829 0 -0.34239786166265201 -0.40597533588911489 0 -0.35964608014779109 -0.37334112637938882 0 -0.35879027536972019 -0.3891835699585654 0 -0.34254000635277743 -0.38197763020755832 0 -0.35030966939210212 -0.39601257002631829 0 -0.35879027536972019 -0.3891835699585654 0 -0.34254000635277743 -0.38197763020755832 0 -0.32270418411731933 -0.37181077970513959 0 -0.34254000635277743 -0.38197763020755832 0 -0.32435131947256218 -0.38428518727128619 0 -0.34254000635277743 -0.38197763020755832 0 -0.33211028503505757 -0.39455092735479258 0 -0.32435131947256218 -0.38428518727128619 0 -0.34254000635277743 -0.38197763020755832 0 -0.33211028503505757 -0.39455092735479258 0 -0.34239786166265201 -0.40597533588911489 0 -0.34254000635277743 -0.38197763020755832 0 -0.34239786166265201 -0.40597533588911489 0 -0.33211028503505757 -0.39455092735479258 0 -0.32627218782356721 -0.40254155632103228 0 -0.33325599186729038 -0.40952977136485508 0 -0.33211028503505757 -0.39455092735479258 0 -0.34239786166265201 -0.40597533588911489 0 -0.33325599186729038 -0.40952977136485508 0 -0.32627218782356721 -0.40254155632103228 0 -0.31778611784491262 -0.39429551077659458 0 -0.31836523457261151 -0.40628576827473822 0 -0.31778611784491262 -0.39429551077659458 0 -0.31836523457261151 -0.40628576827473822 0 -0.30856762168503782 -0.40330407176644772 0 -0.33211028503505757 -0.39455092735479258 0 -0.32627218782356721 -0.40254155632103228 0 -0.31778611784491262 -0.39429551077659458 0 -0.33211028503505757 -0.39455092735479258 0 -0.31778611784491262 -0.39429551077659458 0 -0.32435131947256218 -0.38428518727128619 0 -0.31778611784491262 -0.39429551077659458 0 -0.32435131947256218 -0.38428518727128619 0 -0.3103864423796594 -0.37828470113645102 0 -0.32270418411731933 -0.37181077970513959 0 -0.32435131947256218 -0.38428518727128619 0 -0.3103864423796594 -0.37828470113645102 0 -0.34225571697252682 -0.42997304157067162 0 -0.32127707919304882 -0.42450406978857058 0 -0.32413493920603592 -0.43586432580396972 0 -0.33358626016413989 -0.44229992863572659 0 -0.34225571697252682 -0.42997304157067162 0 -0.32413493920603592 -0.43586432580396972 0 -0.34225571697252682 -0.42997304157067162 0 -0.32547848823970138 -0.41505510354763547 0 -0.32127707919304882 -0.42450406978857058 0 -0.34225571697252682 -0.42997304157067162 0 -0.33325599186729038 -0.40952977136485508 0 -0.34239786166265201 -0.40597533588911489 0 -0.34225571697252682 -0.42997304157067162 0 -0.34225571697252682 -0.42997304157067162 0 -0.33325599186729038 -0.40952977136485508 0 -0.32547848823970138 -0.41505510354763547 0 -0.34239786166265201 -0.40597533588911489 0 -0.34225571697252682 -0.42997304157067162 0 -0.33325599186729038 -0.40952977136485508 0 -0.32627218782356721 -0.40254155632103228 0 -0.33325599186729038 -0.40952977136485508 0 -0.32547848823970138 -0.41505510354763547 0 -0.32547848823970138 -0.41505510354763547 0 -0.3149711123139971 -0.41411215899080989 0 -0.32127707919304882 -0.42450406978857058 0 -0.32627218782356721 -0.40254155632103228 0 -0.32547848823970138 -0.41505510354763547 0 -0.31836523457261151 -0.40628576827473822 0 -0.32547848823970138 -0.41505510354763547 0 -0.31836523457261151 -0.40628576827473822 0 -0.3149711123139971 -0.41411215899080989 0 -0.31836523457261151 -0.40628576827473822 0 -0.3149711123139971 -0.41411215899080989 0 -0.30856762168503782 -0.40330407176644772 0 -0.3149711123139971 -0.41411215899080989 0 -0.32127707919304882 -0.42450406978857058 0 -0.31068047406536009 -0.42124040027518911 0 -0.32127707919304882 -0.42450406978857058 0 -0.31073004788055869 -0.43167813375356229 0 -0.31068047406536009 -0.42124040027518911 0 -0.32127707919304882 -0.42450406978857058 0 -0.32413493920603592 -0.43586432580396972 0 -0.31073004788055869 -0.43167813375356229 0 -0.31385630152515048 -0.44199725430357722 0 -0.32413493920603592 -0.43586432580396972 0 -0.31073004788055869 -0.43167813375356229 0 -0.31073004788055869 -0.43167813375356229 0 -0.29829421210859891 -0.43220714453990322 0 -0.30286215921622678 -0.44210958888768459 0 -0.31073004788055869 -0.43167813375356229 0 -0.29829421210859891 -0.43220714453990322 0 -0.30293836312512551 -0.42244552438862548 0 -0.29829421210859891 -0.43220714453990322 0 -0.30293836312512551 -0.42244552438862548 0 -0.29038846928103268 -0.42353273433611682 0 -0.31073004788055869 -0.43167813375356229 0 -0.30293836312512551 -0.42244552438862548 0 -0.31068047406536009 -0.42124040027518911 0 -0.3149711123139971 -0.41411215899080989 0 -0.31068047406536009 -0.42124040027518911 0 -0.30545777612822328 -0.41428354029227837 0 -0.30293836312512551 -0.42244552438862548 0 -0.31068047406536009 -0.42124040027518911 0 -0.30545777612822328 -0.41428354029227837 0 -0.3149711123139971 -0.41411215899080989 0 -0.30545777612822328 -0.41428354029227837 0 -0.30856762168503782 -0.40330407176644772 0 -0.30545777612822328 -0.41428354029227837 0 -0.30856762168503782 -0.40330407176644772 0 -0.30079847364115991 -0.40578130343003371 0 -0.30545777612822328 -0.41428354029227837 0 -0.2987732092282892 -0.41413177709842958 0 -0.30079847364115991 -0.40578130343003371 0 -0.30293836312512551 -0.42244552438862548 0 -0.2987732092282892 -0.41413177709842958 0 -0.29038846928103268 -0.42353273433611682 0 -0.30293836312512551 -0.42244552438862548 0 -0.2987732092282892 -0.41413177709842958 0 -0.30293836312512551 -0.42244552438862548 0 -0.30545777612822328 -0.41428354029227837 0 -0.2987732092282892 -0.41413177709842958 0 -0.30545777612822328 -0.41428354029227837 0 -0.2987732092282892 -0.41413177709842958 0 -0.2987732092282892 -0.41413177709842958 0 -0.29092638885970451 -0.39846933503943821 0 -0.2987732092282892 -0.41413177709842958 0 -0.28243901841779939 -0.41376093348156762 0 -0.29092638885970451 -0.39846933503943821 0 -0.2987732092282892 -0.41413177709842958 0 -0.28243901841779939 -0.41376093348156762 0 -0.29038846928103268 -0.42353273433611682 0 -0.2987732092282892 -0.41413177709842958 0 -0.28243901841779939 -0.41376093348156762 0 -0.28243901841779939 -0.41376093348156762 0 -0.29038846928103268 -0.42353273433611682 0 -0.27500508569675858 -0.42792788340523652 0 -0.29038846928103268 -0.42353273433611682 0 -0.27500508569675858 -0.42792788340523652 0 -0.28620792983366777 -0.44117103379144762 0 -0.29829421210859891 -0.43220714453990322 0 -0.29038846928103268 -0.42353273433611682 0 -0.28620792983366777 -0.44117103379144762 0 -0.31778611784491262 -0.39429551077659458 0 -0.3103864423796594 -0.37828470113645102 0 -0.30424293331838692 -0.39073887816822978 0 -0.29584447723995128 -0.37444813956539807 0 -0.29713407365637251 -0.38186722723828942 0 -0.3103864423796594 -0.37828470113645102 0 -0.29713407365637251 -0.38186722723828942 0 -0.30424293331838692 -0.39073887816822978 0 -0.29406976999373469 -0.38920344929064732 0 -0.29713407365637251 -0.38186722723828942 0 -0.3103864423796594 -0.37828470113645102 0 -0.30424293331838692 -0.39073887816822978 0 -0.29998863005712628 -0.39809616774203599 0 -0.30424293331838692 -0.39073887816822978 0 -0.30856762168503782 -0.40330407176644772 0 -0.29998863005712628 -0.39809616774203599 0 -0.30424293331838692 -0.39073887816822978 0 -0.29406976999373469 -0.38920344929064732 0 -0.31778611784491262 -0.39429551077659458 0 -0.30424293331838692 -0.39073887816822978 0 -0.30856762168503782 -0.40330407176644772 0 -0.29998863005712628 -0.39809616774203599 0 -0.30079847364115991 -0.40578130343003371 0 -0.29092638885970451 -0.39846933503943821 0 -0.29998863005712628 -0.39809616774203599 0 -0.30856762168503782 -0.40330407176644772 0 -0.30079847364115991 -0.40578130343003371 0 -0.2987732092282892 -0.41413177709842958 0 -0.30079847364115991 -0.40578130343003371 0 -0.29092638885970451 -0.39846933503943821 0 -0.29092638885970451 -0.39846933503943821 0 -0.28307956849111848 -0.3828068929804474 0 -0.29092638885970451 -0.39846933503943821 0 -0.28307956849111848 -0.3828068929804474 0 -0.27459219804921331 -0.39809849142257658 0 -0.28243901841779939 -0.41376093348156762 0 -0.29092638885970451 -0.39846933503943821 0 -0.27459219804921331 -0.39809849142257658 0 -0.29998863005712628 -0.39809616774203599 0 -0.29092638885970451 -0.39846933503943821 0 -0.29406976999373469 -0.38920344929064732 0 -0.29092638885970451 -0.39846933503943821 0 -0.29406976999373469 -0.38920344929064732 0 -0.28307956849111848 -0.3828068929804474 0 -0.29713407365637251 -0.38186722723828942 0 -0.29406976999373469 -0.38920344929064732 0 -0.28307956849111848 -0.3828068929804474 0 -0.29584447723995128 -0.37444813956539807 0 -0.29713407365637251 -0.38186722723828942 0 -0.28307956849111848 -0.3828068929804474 0 -0.28307956849111848 -0.3828068929804474 0 -0.27459219804921331 -0.39809849142257658 0 -0.26050234447883253 -0.38027693877573482 0 -0.28307956849111848 -0.3828068929804474 0 -0.27459219804921331 -0.39809849142257658 0 -0.27459219804921331 -0.39809849142257658 0 -0.26610482760730952 -0.4133900898647066 0 -0.27459219804921331 -0.39809849142257658 0 -0.26088670843651829 -0.40068536336094251 0 -0.26610482760730952 -0.4133900898647066 0 -0.26088670843651829 -0.40068536336094251 0 -0.26050234447883253 -0.38027693877573482 0 -0.2487824818667288 -0.3954643368039899 0 -0.27459219804921331 -0.39809849142257658 0 -0.26088670843651829 -0.40068536336094251 0 -0.26050234447883253 -0.38027693877573482 0 -0.26088670843651829 -0.40068536336094251 0 -0.24694430377570939 -0.41295507854145541 0 -0.2487824818667288 -0.3954643368039899 0 -0.27500508569675858 -0.42792788340523652 0 -0.25298523514652932 -0.43702750984159111 0 -0.27028712802556781 -0.44002206955302048 0 -0.27500508569675858 -0.42792788340523652 0 -0.27028712802556781 -0.44002206955302048 0 -0.28620792983366777 -0.44117103379144762 0 -0.28243901841779939 -0.41376093348156762 0 -0.27500508569675858 -0.42792788340523652 0 -0.26610482760730952 -0.4133900898647066 0 -0.28243901841779939 -0.41376093348156762 0 -0.27459219804921331 -0.39809849142257658 0 -0.26610482760730952 -0.4133900898647066 0 -0.28243901841779939 -0.41376093348156762 0 -0.26610482760730952 -0.4133900898647066 0 -0.26610482760730952 -0.4133900898647066 0 -0.24694430377570939 -0.41295507854145541 0 -0.26610482760730952 -0.4133900898647066 0 -0.25298523514652932 -0.43702750984159111 0 -0.24694430377570939 -0.41295507854145541 0 -0.26088670843651829 -0.40068536336094251 0 -0.26610482760730952 -0.4133900898647066 0 -0.24694430377570939 -0.41295507854145541 0 -0.27500508569675858 -0.42792788340523652 0 -0.26610482760730952 -0.4133900898647066 0 -0.25298523514652932 -0.43702750984159111 0 -0.26610482760730952 -0.4133900898647066 0 -0.25298523514652932 -0.43702750984159111 0 -0.25298523514652932 -0.43702750984159111 0 -0.25823473398406083 -0.46259190486934387 0 -0.27139768853026319 -0.45350369328431828 0 -0.25298523514652932 -0.43702750984159111 0 -0.27139768853026319 -0.45350369328431828 0 -0.27028712802556781 -0.44002206955302048 0 -0.25298523514652932 -0.43702750984159111 0 -0.25823473398406083 -0.46259190486934387 0 -0.2398656426857485 -0.46066492981847512 0 -0.27139768853026319 -0.45350369328431828 0 -0.28665438526504589 -0.45880473289459528 0 -0.27499686831673542 -0.4693274569635677 0 -0.25823473398406083 -0.46259190486934387 0 -0.27139768853026319 -0.45350369328431828 0 -0.27499686831673542 -0.4693274569635677 0 -0.27139768853026319 -0.45350369328431828 0 -0.27028712802556781 -0.44002206955302048 0 -0.28620792983366777 -0.44117103379144762 0 -0.28620792983366777 -0.44117103379144762 0 -0.29665932401628559 -0.4519210782245337 0 -0.28665438526504589 -0.45880473289459528 0 -0.28620792983366777 -0.44117103379144762 0 -0.29665932401628559 -0.4519210782245337 0 -0.30286215921622678 -0.44210958888768459 0 -0.27139768853026319 -0.45350369328431828 0 -0.28620792983366777 -0.44117103379144762 0 -0.28665438526504589 -0.45880473289459528 0 -0.29829421210859891 -0.43220714453990322 0 -0.28620792983366777 -0.44117103379144762 0 -0.30286215921622678 -0.44210958888768459 0 -0.28665438526504589 -0.45880473289459528 0 -0.28928475434474438 -0.47221518125428918 0 -0.27499686831673542 -0.4693274569635677 0 -0.28665438526504589 -0.45880473289459528 0 -0.30029558254474148 -0.46389675841394568 0 -0.28928475434474438 -0.47221518125428918 0 -0.29665932401628559 -0.4519210782245337 0 -0.28665438526504589 -0.45880473289459528 0 -0.30029558254474148 -0.46389675841394568 0 -0.29665932401628559 -0.4519210782245337 0 -0.30029558254474148 -0.46389675841394568 0 -0.31044958537109257 -0.45255960714027171 0 -0.31333683559556219 -0.46686726284272168 0 -0.30029558254474148 -0.46389675841394568 0 -0.31044958537109257 -0.45255960714027171 0 -0.31385630152515048 -0.44199725430357722 0 -0.31044958537109257 -0.45255960714027171 0 -0.30286215921622678 -0.44210958888768459 0 -0.31385630152515048 -0.44199725430357722 0 -0.31073004788055869 -0.43167813375356229 0 -0.30286215921622678 -0.44210958888768459 0 -0.29665932401628559 -0.4519210782245337 0 -0.31044958537109257 -0.45255960714027171 0 -0.30286215921622678 -0.44210958888768459 0 -0.32006214434654462 -0.5 0 -0.30503152439861497 -0.48190266549989857 0 -0.29355140103266869 -0.5 0 -0.30029558254474148 -0.46389675841394568 0 -0.30503152439861497 -0.48190266549989857 0 -0.28928475434474438 -0.47221518125428918 0 -0.31333683559556219 -0.46686726284272168 0 -0.30029558254474148 -0.46389675841394568 0 -0.30503152439861497 -0.48190266549989857 0 -0.30503152439861497 -0.48190266549989857 0 -0.28928475434474438 -0.47221518125428918 0 -0.27944541119858413 -0.48714429249943858 0 -0.30503152439861497 -0.48190266549989857 0 -0.29355140103266869 -0.5 0 -0.27944541119858413 -0.48714429249943858 0 -0.26704065771879287 -0.5 0 -0.27944541119858413 -0.48714429249943858 0 -0.26377894750559139 -0.4817410620592058 0 -0.29355140103266869 -0.5 0 -0.26704065771879287 -0.5 0 -0.27944541119858413 -0.48714429249943858 0 -0.27944541119858413 -0.48714429249943858 0 -0.27499686831673542 -0.4693274569635677 0 -0.26377894750559139 -0.4817410620592058 0 -0.28928475434474438 -0.47221518125428918 0 -0.27944541119858413 -0.48714429249943858 0 -0.27499686831673542 -0.4693274569635677 0 -0.25823473398406083 -0.46259190486934387 0 -0.27499686831673542 -0.4693274569635677 0 -0.26377894750559139 -0.4817410620592058 0 -0.25823473398406083 -0.46259190486934387 0 -0.26377894750559139 -0.4817410620592058 0 -0.24769273461092009 -0.47775775457152359 0 -0.26704065771879287 -0.5 0 -0.26377894750559139 -0.4817410620592058 0 -0.24052991440491719 -0.5 0 -0.26377894750559139 -0.4817410620592058 0 -0.24052991440491719 -0.5 0 -0.24769273461092009 -0.47775775457152359 0 -0.24052991440491719 -0.5 0 -0.24769273461092009 -0.47775775457152359 0 -0.2238647917587385 -0.47868470982513422 0 -0.24769273461092009 -0.47775775457152359 0 -0.2238647917587385 -0.47868470982513422 0 -0.2253613830811457 -0.45761053917550981 0 -0.24052991440491719 -0.5 0 -0.2238647917587385 -0.47868470982513422 0 -0.2140191710910414 -0.49999999999999972 0 -0.25298523514652932 -0.43702750984159111 0 -0.23591515519085041 -0.44398209369878189 0 -0.2398656426857485 -0.46066492981847512 0 -0.25298523514652932 -0.43702750984159111 0 -0.2398656426857485 -0.46066492981847512 0 -0.25823473398406083 -0.46259190486934387 0 -0.24769273461092009 -0.47775775457152359 0 -0.2398656426857485 -0.46066492981847512 0 -0.24769273461092009 -0.47775775457152359 0 -0.2398656426857485 -0.46066492981847512 0 -0.2253613830811457 -0.45761053917550981 0 -0.24769273461092009 -0.47775775457152359 0 -0.2253613830811457 -0.45761053917550981 0 -0.2238647917587385 -0.47868470982513422 0 -0.2253613830811457 -0.45761053917550981 0 -0.20999779143719291 -0.46083672605530768 0 -0.23591515519085041 -0.44398209369878189 0 -0.2398656426857485 -0.46066492981847512 0 -0.2253613830811457 -0.45761053917550981 0 -0.23591515519085041 -0.44398209369878189 0 -0.2253613830811457 -0.45761053917550981 0 -0.22549954629610269 -0.43500765649169948 0 -0.2253613830811457 -0.45761053917550981 0 -0.20999779143719291 -0.46083672605530768 0 -0.2030300315513712 -0.43746332377949593 0 -0.2253613830811457 -0.45761053917550981 0 -0.2030300315513712 -0.43746332377949593 0 -0.20999779143719291 -0.46083672605530768 0 -0.19715634076338631 -0.4518064782969281 0 -0.2030300315513712 -0.43746332377949593 0 -0.2253613830811457 -0.45761053917550981 0 -0.2030300315513712 -0.43746332377949593 0 -0.22549954629610269 -0.43500765649169948 0 -0.20999779143719291 -0.46083672605530768 0 -0.19715634076338631 -0.4518064782969281 0 -0.2055877559272139 -0.47590323914846377 0 -0.19715634076338631 -0.4518064782969281 0 -0.2055877559272139 -0.47590323914846377 0 -0.19179305986328829 -0.46711759196808689 0 -0.19715634076338631 -0.4518064782969281 0 -0.2055877559272139 -0.47590323914846377 0 -0.19179305986328829 -0.46711759196808689 0 -0.19715634076338631 -0.4518064782969281 0 -0.184822707974968 -0.45592422963236362 0 -0.19715634076338631 -0.4518064782969281 0 -0.2030300315513712 -0.43746332377949593 0 -0.18872492559955881 -0.42770971744539221 0 -0.19715634076338631 -0.4518064782969281 0 -0.18872492559955881 -0.42770971744539221 0 -0.19715634076338631 -0.4518064782969281 0 -0.1870173619903012 -0.44414077979923022 0 -0.18872492559955881 -0.42770971744539221 0 -0.19715634076338631 -0.4518064782969281 0 -0.184822707974968 -0.45592422963236362 0 -0.1870173619903012 -0.44414077979923022 0 -0.2140191710910414 -0.49999999999999972 0 -0.2055877559272139 -0.47590323914846377 0 -0.2140191710910414 -0.49999999999999972 0 -0.2055877559272139 -0.47590323914846377 0 -0.1915741566131953 -0.48274482478870012 0 -0.2238647917587385 -0.47868470982513422 0 -0.2140191710910414 -0.49999999999999972 0 -0.2055877559272139 -0.47590323914846377 0 -0.2238647917587385 -0.47868470982513422 0 -0.20999779143719291 -0.46083672605530768 0 -0.2055877559272139 -0.47590323914846377 0 -0.19179305986328829 -0.46711759196808689 0 -0.2055877559272139 -0.47590323914846377 0 -0.1915741566131953 -0.48274482478870012 0 -0.19179305986328829 -0.46711759196808689 0 -0.1915741566131953 -0.48274482478870012 0 -0.17982433803767831 -0.46920918797397909 0 -0.2140191710910414 -0.49999999999999972 0 -0.1915741566131953 -0.48274482478870012 0 -0.1841956238768391 -0.5 0 -0.1915741566131953 -0.48274482478870012 0 -0.1841956238768391 -0.5 0 -0.17247084166804699 -0.48396500267038112 0 -0.1841956238768391 -0.5 0 -0.17247084166804699 -0.48396500267038112 0 -0.15437207666263669 -0.50000000000000022 0 -0.15669106487963419 -0.47716915445828201 0 -0.17247084166804699 -0.48396500267038112 0 -0.15437207666263669 -0.50000000000000022 0 -0.15669106487963419 -0.47716915445828201 0 -0.17247084166804699 -0.48396500267038112 0 -0.1680230602922401 -0.4683158249620154 0 -0.17247084166804699 -0.48396500267038112 0 -0.17982433803767831 -0.46920918797397909 0 -0.1680230602922401 -0.4683158249620154 0 -0.1915741566131953 -0.48274482478870012 0 -0.17247084166804699 -0.48396500267038112 0 -0.17982433803767831 -0.46920918797397909 0 -0.19179305986328829 -0.46711759196808689 0 -0.17982433803767831 -0.46920918797397909 0 -0.184822707974968 -0.45592422963236362 0 -0.17982433803767831 -0.46920918797397909 0 -0.184822707974968 -0.45592422963236362 0 -0.17211900377920919 -0.45689747079087062 0 -0.17982433803767831 -0.46920918797397909 0 -0.17211900377920919 -0.45689747079087062 0 -0.1680230602922401 -0.4683158249620154 0 -0.1870173619903012 -0.44414077979923022 0 -0.17843006300647921 -0.44542980211747812 0 -0.1823118302108766 -0.43680876328769058 0 -0.184822707974968 -0.45592422963236362 0 -0.1870173619903012 -0.44414077979923022 0 -0.17843006300647921 -0.44542980211747812 0 -0.17211900377920919 -0.45689747079087062 0 -0.17843006300647921 -0.44542980211747812 0 -0.16919262628862339 -0.44362555979768409 0 -0.184822707974968 -0.45592422963236362 0 -0.17211900377920919 -0.45689747079087062 0 -0.17843006300647921 -0.44542980211747812 0 -0.17843006300647921 -0.44542980211747812 0 -0.16919262628862339 -0.44362555979768409 0 -0.17507497024716731 -0.42995475378866199 0 -0.1590100530966318 -0.45433830891656402 0 -0.148881704538534 -0.44296791951084241 0 -0.1613290413136293 -0.43150746337484569 0 -0.1590100530966318 -0.45433830891656402 0 -0.1613290413136293 -0.43150746337484569 0 -0.16919262628862339 -0.44362555979768409 0 -0.1590100530966318 -0.45433830891656402 0 -0.1613290413136293 -0.43150746337484569 0 -0.17211900377920919 -0.45689747079087062 0 -0.16919262628862339 -0.44362555979768409 0 -0.1590100530966318 -0.45433830891656402 0 -0.15669106487963419 -0.47716915445828201 0 -0.1680230602922401 -0.4683158249620154 0 -0.1590100530966318 -0.45433830891656402 0 -0.15669106487963419 -0.47716915445828201 0 -0.1590100530966318 -0.45433830891656402 0 -0.17211900377920919 -0.45689747079087062 0 -0.1680230602922401 -0.4683158249620154 0 -0.1590100530966318 -0.45433830891656402 0 -0.15669106487963419 -0.47716915445828201 0 -0.1590100530966318 -0.45433830891656402 0 -0.1472923250818238 -0.46077477567243558 0 -0.1590100530966318 -0.45433830891656402 0 -0.1472923250818238 -0.46077477567243558 0 -0.148881704538534 -0.44296791951084241 0 -0.1472923250818238 -0.46077477567243558 0 -0.148881704538534 -0.44296791951084241 0 -0.13194602454298601 -0.43962244526902572 0 -0.13194602454298601 -0.43962244526902572 0 -0.13077987840644981 -0.46069854066347632 0 -0.11615585050415531 -0.45102464773050138 0 -0.1472923250818238 -0.46077477567243558 0 -0.13194602454298601 -0.43962244526902572 0 -0.1472923250818238 -0.46077477567243558 0 -0.13077987840644981 -0.46069854066347632 0 -0.13742439756140509 -0.48004162281001828 0 -0.1472923250818238 -0.46077477567243558 0 -0.13194602454298601 -0.43962244526902572 0 -0.13077987840644981 -0.46069854066347632 0 -0.13742439756140509 -0.48004162281001828 0 -0.12108079434187891 -0.47202921183540031 0 -0.1206292342060253 -0.48641385964910883 0 -0.13077987840644981 -0.46069854066347632 0 -0.13742439756140509 -0.48004162281001828 0 -0.12108079434187891 -0.47202921183540031 0 -0.13742439756140509 -0.48004162281001828 0 -0.131118449396015 -0.5 0 -0.1206292342060253 -0.48641385964910883 0 -0.15669106487963419 -0.47716915445828201 0 -0.13742439756140509 -0.48004162281001828 0 -0.15437207666263669 -0.50000000000000022 0 -0.15669106487963419 -0.47716915445828201 0 -0.15437207666263669 -0.50000000000000022 0 -0.13742439756140509 -0.48004162281001828 0 -0.131118449396015 -0.5 0 -0.15437207666263669 -0.50000000000000022 0 -0.15669106487963419 -0.47716915445828201 0 -0.1472923250818238 -0.46077477567243558 0 -0.13742439756140509 -0.48004162281001828 0 -0.13678826443221431 -0.39755243580027871 0 -0.14931675495270949 -0.41057852288770358 0 -0.15761740849691311 -0.38818340141201402 0 -0.1369224961495438 -0.38192389563367207 0 -0.13678826443221431 -0.39755243580027871 0 -0.15761740849691311 -0.38818340141201402 0 -0.1369224961495438 -0.38192389563367207 0 -0.15761740849691311 -0.38818340141201402 0 -0.148308101659717 -0.36695316985008092 0 -0.1369224961495438 -0.38192389563367207 0 -0.12526638733901391 -0.39147447277512609 0 -0.13678826443221431 -0.39755243580027871 0 -0.1369224961495438 -0.38192389563367207 0 -0.1303219987982592 -0.3665496015062627 0 -0.12201267174342199 -0.37938718301114999 0 -0.1369224961495438 -0.38192389563367207 0 -0.12526638733901391 -0.39147447277512609 0 -0.12201267174342199 -0.37938718301114999 0 -0.12526638733901391 -0.39147447277512609 0 -0.13678826443221431 -0.39755243580027871 0 -0.12592730430259419 -0.40432488328170318 0 -0.13678826443221431 -0.39755243580027871 0 -0.12592730430259419 -0.40432488328170318 0 -0.1345256340888337 -0.41538851269275129 0 -0.13678826443221431 -0.39755243580027871 0 -0.1345256340888337 -0.41538851269275129 0 -0.14931675495270949 -0.41057852288770358 0 -0.12592730430259419 -0.40432488328170318 0 -0.1345256340888337 -0.41538851269275129 0 -0.1165997240041481 -0.41847011486561592 0 -0.13194602454298601 -0.43962244526902572 0 -0.1345256340888337 -0.41538851269275129 0 -0.14483107865759889 -0.42859660432134139 0 -0.13194602454298601 -0.43962244526902572 0 -0.1345256340888337 -0.41538851269275129 0 -0.1165997240041481 -0.41847011486561592 0 -0.148881704538534 -0.44296791951084241 0 -0.14483107865759889 -0.42859660432134139 0 -0.1613290413136293 -0.43150746337484569 0 -0.148881704538534 -0.44296791951084241 0 -0.13194602454298601 -0.43962244526902572 0 -0.14483107865759889 -0.42859660432134139 0 -0.14483107865759889 -0.42859660432134139 0 -0.14931675495270949 -0.41057852288770358 0 -0.1613290413136293 -0.43150746337484569 0 -0.1345256340888337 -0.41538851269275129 0 -0.14483107865759889 -0.42859660432134139 0 -0.14931675495270949 -0.41057852288770358 0 -0.16364802953062679 -0.40867661783312748 0 -0.1613290413136293 -0.43150746337484569 0 -0.14931675495270949 -0.41057852288770358 0 -0.16364802953062679 -0.40867661783312748 0 -0.1613290413136293 -0.43150746337484569 0 -0.16364802953062679 -0.40867661783312748 0 -0.1613290413136293 -0.43150746337484569 0 -0.17507497024716731 -0.42995475378866199 0 -0.16919262628862339 -0.44362555979768409 0 -0.1613290413136293 -0.43150746337484569 0 -0.17507497024716731 -0.42995475378866199 0 -0.1870173619903012 -0.44414077979923022 0 -0.1823118302108766 -0.43680876328769058 0 -0.18872492559955881 -0.42770971744539221 0 -0.17843006300647921 -0.44542980211747812 0 -0.17507497024716731 -0.42995475378866199 0 -0.1823118302108766 -0.43680876328769058 0 -0.17507497024716731 -0.42995475378866199 0 -0.1806986800215967 -0.4173161083834821 0 -0.18872492559955881 -0.42770971744539221 0 -0.17507497024716731 -0.42995475378866199 0 -0.1823118302108766 -0.43680876328769058 0 -0.18872492559955881 -0.42770971744539221 0 -0.1806986800215967 -0.4173161083834821 0 -0.18228064084688081 -0.39610998094782668 0 -0.19209360216251761 -0.40824625574224149 0 -0.16364802953062679 -0.40867661783312748 0 -0.17507497024716731 -0.42995475378866199 0 -0.1806986800215967 -0.4173161083834821 0 -0.16364802953062679 -0.40867661783312748 0 -0.1806986800215967 -0.4173161083834821 0 -0.18228064084688081 -0.39610998094782668 0 -0.16364802953062679 -0.40867661783312748 0 -0.18228064084688081 -0.39610998094782668 0 -0.15761740849691311 -0.38818340141201402 0 -0.14931675495270949 -0.41057852288770358 0 -0.16364802953062679 -0.40867661783312748 0 -0.15761740849691311 -0.38818340141201402 0 -0.15761740849691311 -0.38818340141201402 0 -0.183603859264966 -0.3766054584014627 0 -0.1661931572416451 -0.36889933283976362 0 -0.18228064084688081 -0.39610998094782668 0 -0.15761740849691311 -0.38818340141201402 0 -0.183603859264966 -0.3766054584014627 0 -0.18228064084688081 -0.39610998094782668 0 -0.183603859264966 -0.3766054584014627 0 -0.20216487974800659 -0.3829991661375407 0 -0.18228064084688081 -0.39610998094782668 0 -0.20343785588976751 -0.39944649130885712 0 -0.19209360216251761 -0.40824625574224149 0 -0.18228064084688081 -0.39610998094782668 0 -0.20216487974800659 -0.3829991661375407 0 -0.20343785588976751 -0.39944649130885712 0 -0.20343785588976751 -0.39944649130885712 0 -0.21350444502423929 -0.40864471589815532 0 -0.22035180610084079 -0.39356726900625483 0 -0.20216487974800659 -0.3829991661375407 0 -0.20343785588976751 -0.39944649130885712 0 -0.22035180610084079 -0.39356726900625483 0 -0.20216487974800659 -0.3829991661375407 0 -0.22035180610084079 -0.39356726900625483 0 -0.219169022554425 -0.37113875127287832 0 -0.1806986800215967 -0.4173161083834821 0 -0.2030300315513712 -0.43746332377949593 0 -0.18872492559955881 -0.42770971744539221 0 -0.1806986800215967 -0.4173161083834821 0 -0.2030300315513712 -0.43746332377949593 0 -0.2030300315513712 -0.43746332377949593 0 -0.19369636752838881 -0.41903658901391427 0 -0.2031687955665597 -0.42354741618771741 0 -0.1806986800215967 -0.4173161083834821 0 -0.2030300315513712 -0.43746332377949593 0 -0.19369636752838881 -0.41903658901391427 0 -0.19369636752838881 -0.41903658901391427 0 -0.20299923128825029 -0.41376529568937459 0 -0.2031687955665597 -0.42354741618771741 0 -0.1806986800215967 -0.4173161083834821 0 -0.19369636752838881 -0.41903658901391427 0 -0.19209360216251761 -0.40824625574224149 0 -0.19369636752838881 -0.41903658901391427 0 -0.19209360216251761 -0.40824625574224149 0 -0.20299923128825029 -0.41376529568937459 0 -0.20343785588976751 -0.39944649130885712 0 -0.19209360216251761 -0.40824625574224149 0 -0.20299923128825029 -0.41376529568937459 0 -0.20343785588976751 -0.39944649130885712 0 -0.20299923128825029 -0.41376529568937459 0 -0.21350444502423929 -0.40864471589815532 0 -0.21350444502423929 -0.40864471589815532 0 -0.21294955189822859 -0.42392445626808489 0 -0.2277837799441092 -0.41252006721820539 0 -0.20299923128825029 -0.41376529568937459 0 -0.2031687955665597 -0.42354741618771741 0 -0.21294955189822859 -0.42392445626808489 0 -0.20299923128825029 -0.41376529568937459 0 -0.21350444502423929 -0.40864471589815532 0 -0.21294955189822859 -0.42392445626808489 0 -0.2030300315513712 -0.43746332377949593 0 -0.21294955189822859 -0.42392445626808489 0 -0.22549954629610269 -0.43500765649169948 0 -0.2030300315513712 -0.43746332377949593 0 -0.2031687955665597 -0.42354741618771741 0 -0.21294955189822859 -0.42392445626808489 0 -0.23591515519085041 -0.44398209369878189 0 -0.22549954629610269 -0.43500765649169948 0 -0.23735783041644329 -0.42609093398936743 0 -0.22549954629610269 -0.43500765649169948 0 -0.2277837799441092 -0.41252006721820539 0 -0.23735783041644329 -0.42609093398936743 0 -0.21294955189822859 -0.42392445626808489 0 -0.22549954629610269 -0.43500765649169948 0 -0.2277837799441092 -0.41252006721820539 0 -0.2277837799441092 -0.41252006721820539 0 -0.24694430377570939 -0.41295507854145541 0 -0.2277837799441092 -0.41252006721820539 0 -0.24694430377570939 -0.41295507854145541 0 -0.23735783041644329 -0.42609093398936743 0 -0.2277837799441092 -0.41252006721820539 0 -0.24694430377570939 -0.41295507854145541 0 -0.2359891007147569 -0.39914414181493052 0 -0.25298523514652932 -0.43702750984159111 0 -0.24694430377570939 -0.41295507854145541 0 -0.23735783041644329 -0.42609093398936743 0 -0.25298523514652932 -0.43702750984159111 0 -0.23591515519085041 -0.44398209369878189 0 -0.23735783041644329 -0.42609093398936743 0 -0.22035180610084079 -0.39356726900625483 0 -0.23802591309349369 -0.38358476956933441 0 -0.219169022554425 -0.37113875127287832 0 -0.22035180610084079 -0.39356726900625483 0 -0.2359891007147569 -0.39914414181493052 0 -0.23802591309349369 -0.38358476956933441 0 -0.21350444502423929 -0.40864471589815532 0 -0.2277837799441092 -0.41252006721820539 0 -0.22035180610084079 -0.39356726900625483 0 -0.2277837799441092 -0.41252006721820539 0 -0.22035180610084079 -0.39356726900625483 0 -0.2359891007147569 -0.39914414181493052 0 -0.2359891007147569 -0.39914414181493052 0 -0.2487824818667288 -0.3954643368039899 0 -0.23802591309349369 -0.38358476956933441 0 -0.24694430377570939 -0.41295507854145541 0 -0.2359891007147569 -0.39914414181493052 0 -0.2487824818667288 -0.3954643368039899 0 -0.26050234447883253 -0.38027693877573482 0 -0.2487824818667288 -0.3954643368039899 0 -0.23802591309349369 -0.38358476956933441 0 -0.26050234447883253 -0.38027693877573482 0 -0.23802591309349369 -0.38358476956933441 0 -0.24817767477162081 -0.36986654917455902 0 -0.23802591309349369 -0.38358476956933441 0 -0.24817767477162081 -0.36986654917455902 0 -0.23583729862822109 -0.36574384613307409 0 -0.24817767477162081 -0.36986654917455902 0 -0.23583729862822109 -0.36574384613307409 0 -0.24850069890613241 -0.35473287875334369 0 -0.23583729862822109 -0.36574384613307409 0 -0.219169022554425 -0.37113875127287832 0 -0.22531318381543361 -0.34939628189525529 0 -0.23802591309349369 -0.38358476956933441 0 -0.23583729862822109 -0.36574384613307409 0 -0.219169022554425 -0.37113875127287832 0 -0.22531318381543361 -0.34939628189525529 0 -0.24850069890613241 -0.35473287875334369 0 -0.24219101746094579 -0.34438554910399921 0 -0.23583729862822109 -0.36574384613307409 0 -0.22531318381543361 -0.34939628189525529 0 -0.24850069890613241 -0.35473287875334369 0 -0.22531318381543361 -0.34939628189525529 0 -0.24850069890613241 -0.35473287875334369 0 -0.25445926970156468 -0.34270101061729968 0 -0.24850069890613241 -0.35473287875334369 0 -0.24219101746094579 -0.34438554910399921 0 -0.25445926970156468 -0.34270101061729968 0 -0.24219101746094579 -0.34438554910399921 0 -0.2460450098649074 -0.33743905859998191 0 -0.25207330520806498 -0.33378255792528982 0 -0.2460450098649074 -0.33743905859998191 0 -0.24306356592407591 -0.32787829483024122 0 -0.2348359590034956 -0.33686915078515089 0 -0.24306356592407591 -0.32787829483024122 0 -0.23163603200856511 -0.32708080208212859 0 -0.2460450098649074 -0.33743905859998191 0 -0.2348359590034956 -0.33686915078515089 0 -0.24306356592407591 -0.32787829483024122 0 -0.24219101746094579 -0.34438554910399921 0 -0.2460450098649074 -0.33743905859998191 0 -0.2348359590034956 -0.33686915078515089 0 -0.25273748935779161 -0.32224337373924072 0 -0.24326482791746179 -0.31394285089519419 0 -0.24426682308287331 -0.30533572025667649 0 -0.25273748935779161 -0.32224337373924072 0 -0.24426682308287331 -0.30533572025667649 0 -0.25273748935779161 -0.32224337373924072 0 -0.24326482791746179 -0.31394285089519419 0 -0.2440208243134171 -0.32058552998791068 0 -0.25273748935779161 -0.32224337373924072 0 -0.24306356592407591 -0.32787829483024122 0 -0.2440208243134171 -0.32058552998791068 0 -0.25207330520806498 -0.33378255792528982 0 -0.25273748935779161 -0.32224337373924072 0 -0.24306356592407591 -0.32787829483024122 0 -0.24306356592407591 -0.32787829483024122 0 -0.2440208243134171 -0.32058552998791068 0 -0.23701741405433899 -0.31827760048696663 0 -0.24306356592407591 -0.32787829483024122 0 -0.23701741405433899 -0.31827760048696663 0 -0.23163603200856511 -0.32708080208212859 0 -0.24326482791746179 -0.31394285089519419 0 -0.23701741405433899 -0.31827760048696663 0 -0.2384772558931193 -0.30928307653082621 0 -0.24326482791746179 -0.31394285089519419 0 -0.2440208243134171 -0.32058552998791068 0 -0.23701741405433899 -0.31827760048696663 0 -0.22244826701882919 -0.32070202864358233 0 -0.22802593536356699 -0.30882837184141948 0 -0.21110805984082151 -0.30983785689108939 0 -0.23701741405433899 -0.31827760048696663 0 -0.22244826701882919 -0.32070202864358233 0 -0.22802593536356699 -0.30882837184141948 0 -0.23701741405433899 -0.31827760048696663 0 -0.23163603200856511 -0.32708080208212859 0 -0.22244826701882919 -0.32070202864358233 0 -0.23163603200856511 -0.32708080208212859 0 -0.22244826701882919 -0.32070202864358233 0 -0.22079431421521131 -0.33353493235345111 0 -0.22531318381543361 -0.34939628189525529 0 -0.2348359590034956 -0.33686915078515089 0 -0.22079431421521131 -0.33353493235345111 0 -0.22531318381543361 -0.34939628189525529 0 -0.24219101746094579 -0.34438554910399921 0 -0.2348359590034956 -0.33686915078515089 0 -0.2348359590034956 -0.33686915078515089 0 -0.23163603200856511 -0.32708080208212859 0 -0.22079431421521131 -0.33353493235345111 0 -0.22079431421521131 -0.33353493235345111 0 -0.20839645480677241 -0.32403064402179738 0 -0.20212566872473489 -0.34405968503716688 0 -0.22531318381543361 -0.34939628189525529 0 -0.22079431421521131 -0.33353493235345111 0 -0.20212566872473489 -0.34405968503716688 0 -0.22244826701882919 -0.32070202864358233 0 -0.20839645480677241 -0.32403064402179738 0 -0.21110805984082151 -0.30983785689108939 0 -0.22244826701882919 -0.32070202864358233 0 -0.22079431421521131 -0.33353493235345111 0 -0.20839645480677241 -0.32403064402179738 0 -0.20839645480677241 -0.32403064402179738 0 -0.19575919956014079 -0.31702437624003538 0 -0.21110805984082151 -0.30983785689108939 0 -0.20839645480677241 -0.32403064402179738 0 -0.19575919956014079 -0.31702437624003538 0 -0.19562896033857519 -0.33020038185646122 0 -0.19575919956014079 -0.31702437624003538 0 -0.19562896033857519 -0.33020038185646122 0 -0.18477851095256179 -0.32477614194451959 0 -0.20212566872473489 -0.34405968503716688 0 -0.1789381536340362 -0.33872308817907848 0 -0.19562896033857519 -0.33020038185646122 0 -0.20212566872473489 -0.34405968503716688 0 -0.1789381536340362 -0.33872308817907848 0 -0.20839645480677241 -0.32403064402179738 0 -0.19562896033857519 -0.33020038185646122 0 -0.20212566872473489 -0.34405968503716688 0 -0.20212566872473489 -0.34405968503716688 0 -0.2037839996862793 -0.36234410805543599 0 -0.1863350517553729 -0.35962674217565882 0 -0.20212566872473489 -0.34405968503716688 0 -0.1863350517553729 -0.35962674217565882 0 -0.1789381536340362 -0.33872308817907848 0 -0.183603859264966 -0.3766054584014627 0 -0.20216487974800659 -0.3829991661375407 0 -0.2037839996862793 -0.36234410805543599 0 -0.183603859264966 -0.3766054584014627 0 -0.2037839996862793 -0.36234410805543599 0 -0.1863350517553729 -0.35962674217565882 0 -0.219169022554425 -0.37113875127287832 0 -0.22531318381543361 -0.34939628189525529 0 -0.2037839996862793 -0.36234410805543599 0 -0.20216487974800659 -0.3829991661375407 0 -0.219169022554425 -0.37113875127287832 0 -0.2037839996862793 -0.36234410805543599 0 -0.22531318381543361 -0.34939628189525529 0 -0.20212566872473489 -0.34405968503716688 0 -0.2037839996862793 -0.36234410805543599 0 -0.22531318381543361 -0.34939628189525529 0 -0.20212566872473489 -0.34405968503716688 0 -0.24465976002352091 -0.25387891845332877 0 -0.23199225124923151 -0.26692477658714647 0 -0.21854221021918649 -0.25236034283526498 0 -0.23199225124923151 -0.26692477658714647 0 -0.21864709985809599 -0.27150291036173302 0 -0.21854221021918649 -0.25236034283526498 0 -0.24465976002352091 -0.25387891845332877 0 -0.2444485511135471 -0.27534046621033159 0 -0.23199225124923151 -0.26692477658714647 0 -0.25958550566062261 -0.27102626557679149 0 -0.24465976002352091 -0.25387891845332877 0 -0.2444485511135471 -0.27534046621033159 0 -0.2444485511135471 -0.27534046621033159 0 -0.23199225124923151 -0.26692477658714647 0 -0.23366363503180709 -0.28154124507507411 0 -0.2197277065850177 -0.2872169177591285 0 -0.23366363503180709 -0.28154124507507411 0 -0.21864709985809599 -0.27150291036173302 0 -0.23199225124923151 -0.26692477658714647 0 -0.23366363503180709 -0.28154124507507411 0 -0.21864709985809599 -0.27150291036173302 0 -0.2197277065850177 -0.2872169177591285 0 -0.23366363503180709 -0.28154124507507411 0 -0.24011613505684479 -0.30107681213347393 0 -0.2197277065850177 -0.2872169177591285 0 -0.24011613505684479 -0.30107681213347393 0 -0.2197277065850177 -0.2872169177591285 0 -0.24011613505684479 -0.30107681213347393 0 -0.2201073871300871 -0.30044142834658671 0 -0.2444485511135471 -0.27534046621033159 0 -0.23366363503180709 -0.28154124507507411 0 -0.24732420154209239 -0.29033586459568173 0 -0.23366363503180709 -0.28154124507507411 0 -0.24732420154209239 -0.29033586459568173 0 -0.24011613505684479 -0.30107681213347393 0 -0.25608276685525683 -0.28295324223861612 0 -0.2444485511135471 -0.27534046621033159 0 -0.24732420154209239 -0.29033586459568173 0 -0.26050456352867191 -0.3149367065078193 0 -0.24011613505684479 -0.30107681213347393 0 -0.24426682308287331 -0.30533572025667649 0 -0.25485564421046719 -0.30132045870319019 0 -0.24732420154209239 -0.29033586459568173 0 -0.24011613505684479 -0.30107681213347393 0 -0.24011613505684479 -0.30107681213347393 0 -0.2384772558931193 -0.30928307653082621 0 -0.22802593536356699 -0.30882837184141948 0 -0.24326482791746179 -0.31394285089519419 0 -0.24426682308287331 -0.30533572025667649 0 -0.2384772558931193 -0.30928307653082621 0 -0.24011613505684479 -0.30107681213347393 0 -0.24426682308287331 -0.30533572025667649 0 -0.2384772558931193 -0.30928307653082621 0 -0.23701741405433899 -0.31827760048696663 0 -0.2384772558931193 -0.30928307653082621 0 -0.22802593536356699 -0.30882837184141948 0 -0.22802593536356699 -0.30882837184141948 0 -0.2201073871300871 -0.30044142834658671 0 -0.21110805984082151 -0.30983785689108939 0 -0.24011613505684479 -0.30107681213347393 0 -0.22802593536356699 -0.30882837184141948 0 -0.2201073871300871 -0.30044142834658671 0 -0.2201073871300871 -0.30044142834658671 0 -0.21110805984082151 -0.30983785689108939 0 -0.20155909880418441 -0.29524718310782239 0 -0.21110805984082151 -0.30983785689108939 0 -0.2000775247532616 -0.30687463122530689 0 -0.20155909880418441 -0.29524718310782239 0 -0.19575919956014079 -0.31702437624003538 0 -0.21110805984082151 -0.30983785689108939 0 -0.2000775247532616 -0.30687463122530689 0 -0.18961770926909149 -0.30481471110084102 0 -0.20155909880418441 -0.29524718310782239 0 -0.1798976030385912 -0.29461474791537873 0 -0.19575919956014079 -0.31702437624003538 0 -0.2000775247532616 -0.30687463122530689 0 -0.18961770926909149 -0.30481471110084102 0 -0.19575919956014079 -0.31702437624003538 0 -0.18961770926909149 -0.30481471110084102 0 -0.1803928959391416 -0.31521744924658562 0 -0.2000775247532616 -0.30687463122530689 0 -0.18961770926909149 -0.30481471110084102 0 -0.20155909880418441 -0.29524718310782239 0 -0.19933927811319041 -0.27335702338478318 0 -0.1798976030385912 -0.29461474791537873 0 -0.20155909880418441 -0.29524718310782239 0 -0.19933927811319041 -0.27335702338478318 0 -0.1798976030385912 -0.29461474791537873 0 -0.2197277065850177 -0.2872169177591285 0 -0.20155909880418441 -0.29524718310782239 0 -0.19933927811319041 -0.27335702338478318 0 -0.2197277065850177 -0.2872169177591285 0 -0.2201073871300871 -0.30044142834658671 0 -0.20155909880418441 -0.29524718310782239 0 -0.21864709985809599 -0.27150291036173302 0 -0.19933927811319041 -0.27335702338478318 0 -0.21854221021918649 -0.25236034283526498 0 -0.2197277065850177 -0.2872169177591285 0 -0.21864709985809599 -0.27150291036173302 0 -0.19933927811319041 -0.27335702338478318 0 -0.2197277065850177 -0.2872169177591285 0 -0.19933927811319041 -0.27335702338478318 0 -0.19672455084482071 -0.27157955221738023 0 -0.19563648814007639 -0.2627950405098789 0 -0.1773613401945949 -0.28300380337564962 0 -0.19672455084482071 -0.27157955221738023 0 -0.19933927811319041 -0.27335702338478318 0 -0.1773613401945949 -0.28300380337564962 0 -0.19672455084482071 -0.27157955221738023 0 -0.19933927811319041 -0.27335702338478318 0 -0.19563648814007639 -0.2627950405098789 0 -0.19672455084482071 -0.27157955221738023 0 -0.19933927811319041 -0.27335702338478318 0 -0.19933927811319041 -0.27335702338478318 0 -0.19563648814007639 -0.2627950405098789 0 -0.2024770003035091 -0.25628481747185139 0 -0.19563648814007639 -0.2627950405098789 0 -0.19160736129165659 -0.25262396586623759 0 -0.18182513936558051 -0.25739227955256888 0 -0.19563648814007639 -0.2627950405098789 0 -0.19160736129165659 -0.25262396586623759 0 -0.2024770003035091 -0.25628481747185139 0 -0.19160736129165659 -0.25262396586623759 0 -0.2024770003035091 -0.25628481747185139 0 -0.19988453840298659 -0.24176205441804 0 -0.19933927811319041 -0.27335702338478318 0 -0.2024770003035091 -0.25628481747185139 0 -0.21854221021918649 -0.25236034283526498 0 -0.2024770003035091 -0.25628481747185139 0 -0.21854221021918649 -0.25236034283526498 0 -0.19988453840298659 -0.24176205441804 0 -0.19933927811319041 -0.27335702338478318 0 -0.21854221021918649 -0.25236034283526498 0 -0.16270034237907721 -0.26451024010365409 0 -0.1689202540561075 -0.25519621835756329 0 -0.15263230708737521 -0.24356194903458239 0 -0.16270034237907721 -0.26451024010365409 0 -0.15585924966824549 -0.27338725763800159 0 -0.15263230708737521 -0.24356194903458239 0 -0.16270034237907721 -0.26451024010365409 0 -0.1689202540561075 -0.25519621835756329 0 -0.17291740387759841 -0.2648938158906885 0 -0.1689202540561075 -0.25519621835756329 0 -0.18182513936558051 -0.25739227955256888 0 -0.1745260775709061 -0.24562280720632229 0 -0.19160736129165659 -0.25262396586623759 0 -0.18182513936558051 -0.25739227955256888 0 -0.1745260775709061 -0.24562280720632229 0 -0.19563648814007639 -0.2627950405098789 0 -0.18182513936558051 -0.25739227955256888 0 -0.18269465011250469 -0.26841637399603913 0 -0.1689202540561075 -0.25519621835756329 0 -0.18182513936558051 -0.25739227955256888 0 -0.17291740387759841 -0.2648938158906885 0 -0.18182513936558051 -0.25739227955256888 0 -0.17291740387759841 -0.2648938158906885 0 -0.18269465011250469 -0.26841637399603913 0 -0.19563648814007639 -0.2627950405098789 0 -0.18269465011250469 -0.26841637399603913 0 -0.1773613401945949 -0.28300380337564962 0 -0.17291740387759841 -0.2648938158906885 0 -0.17526212336935321 -0.27297056277525461 0 -0.1680750992927145 -0.27556825783864097 0 -0.19563648814007639 -0.2627950405098789 0 -0.1773613401945949 -0.28300380337564962 0 -0.17291740387759841 -0.2648938158906885 0 -0.17526212336935321 -0.27297056277525461 0 -0.18269465011250469 -0.26841637399603913 0 -0.17526212336935321 -0.27297056277525461 0 -0.18269465011250469 -0.26841637399603913 0 -0.1773613401945949 -0.28300380337564962 0 -0.17526212336935321 -0.27297056277525461 0 -0.1680750992927145 -0.27556825783864097 0 -0.1773613401945949 -0.28300380337564962 0 -0.1680750992927145 -0.27556825783864097 0 -0.1682011228878135 -0.28257539269247411 0 -0.1773613401945949 -0.28300380337564962 0 -0.1680750992927145 -0.27556825783864097 0 -0.1622412594804854 -0.28273310688964581 0 -0.1682011228878135 -0.28257539269247411 0 -0.16270034237907721 -0.26451024010365409 0 -0.17291740387759841 -0.2648938158906885 0 -0.1680750992927145 -0.27556825783864097 0 -0.16270034237907721 -0.26451024010365409 0 -0.1680750992927145 -0.27556825783864097 0 -0.16179622859894191 -0.27503335760685149 0 -0.16270034237907721 -0.26451024010365409 0 -0.16179622859894191 -0.27503335760685149 0 -0.15585924966824549 -0.27338725763800159 0 -0.16179622859894191 -0.27503335760685149 0 -0.1622412594804854 -0.28273310688964581 0 -0.15585924966824549 -0.27338725763800159 0 -0.1680750992927145 -0.27556825783864097 0 -0.16179622859894191 -0.27503335760685149 0 -0.1622412594804854 -0.28273310688964581 0 -0.1622412594804854 -0.28273310688964581 0 -0.16512679258345911 -0.28899640266596011 0 -0.15908619224911419 -0.30321256624142101 0 -0.1622412594804854 -0.28273310688964581 0 -0.15908619224911419 -0.30321256624142101 0 -0.15585924966824549 -0.27338725763800159 0 -0.15908619224911419 -0.30321256624142101 0 -0.15585924966824549 -0.27338725763800159 0 -0.16512679258345911 -0.28899640266596011 0 -0.1773613401945949 -0.28300380337564962 0 -0.15908619224911419 -0.30321256624142101 0 -0.1773613401945949 -0.28300380337564962 0 -0.15908619224911419 -0.30321256624142101 0 -0.16512679258345911 -0.28899640266596011 0 -0.1682011228878135 -0.28257539269247411 0 -0.1773613401945949 -0.28300380337564962 0 -0.1622412594804854 -0.28273310688964581 0 -0.16512679258345911 -0.28899640266596011 0 -0.1682011228878135 -0.28257539269247411 0 -0.1773613401945949 -0.28300380337564962 0 -0.1798976030385912 -0.29461474791537873 0 -0.15908619224911419 -0.30321256624142101 0 -0.19933927811319041 -0.27335702338478318 0 -0.1773613401945949 -0.28300380337564962 0 -0.1798976030385912 -0.29461474791537873 0 -0.1798976030385912 -0.29461474791537873 0 -0.17759103405270391 -0.30762984517719472 0 -0.16045592796399111 -0.3158724724459735 0 -0.18961770926909149 -0.30481471110084102 0 -0.1798976030385912 -0.29461474791537873 0 -0.17759103405270391 -0.30762984517719472 0 -0.18961770926909149 -0.30481471110084102 0 -0.17759103405270391 -0.30762984517719472 0 -0.1803928959391416 -0.31521744924658562 0 -0.1798976030385912 -0.29461474791537873 0 -0.16045592796399111 -0.3158724724459735 0 -0.1798976030385912 -0.29461474791537873 0 -0.15908619224911419 -0.30321256624142101 0 -0.16045592796399111 -0.3158724724459735 0 -0.15908619224911419 -0.30321256624142101 0 -0.16045592796399111 -0.3158724724459735 0 -0.1471380549162328 -0.30532142906175452 0 -0.14032160831301491 -0.30752887986621158 0 -0.14130665940473261 -0.32287327510069419 0 -0.15908619224911419 -0.30321256624142101 0 -0.1471380549162328 -0.30532142906175452 0 -0.14130665940473261 -0.32287327510069419 0 -0.15908619224911419 -0.30321256624142101 0 -0.1471380549162328 -0.30532142906175452 0 -0.1510678287434867 -0.29559461902651829 0 -0.14390798587081549 -0.29739780507392732 0 -0.1471380549162328 -0.30532142906175452 0 -0.1510678287434867 -0.29559461902651829 0 -0.14390798587081549 -0.29739780507392732 0 -0.1471380549162328 -0.30532142906175452 0 -0.14032160831301491 -0.30752887986621158 0 -0.14032160831301491 -0.30752887986621158 0 -0.13439128381467691 -0.29991683468539793 0 -0.13033731665847181 -0.31286393971371201 0 -0.13439128381467691 -0.29991683468539793 0 -0.13033731665847181 -0.31286393971371201 0 -0.12304085188452731 -0.29931348820209958 0 -0.14390798587081549 -0.29739780507392732 0 -0.14032160831301491 -0.30752887986621158 0 -0.13439128381467691 -0.29991683468539793 0 -0.14390798587081549 -0.29739780507392732 0 -0.13439128381467691 -0.29991683468539793 0 -0.14011095662501261 -0.28947786809128212 0 -0.13439128381467691 -0.29991683468539793 0 -0.14011095662501261 -0.28947786809128212 0 -0.12994370463312691 -0.28995419054763111 0 -0.13439128381467691 -0.29991683468539793 0 -0.12994370463312691 -0.28995419054763111 0 -0.12304085188452731 -0.29931348820209958 0 -0.12994370463312691 -0.28995419054763111 0 -0.13687965345326569 -0.27993872332247433 0 -0.1257911728949061 -0.280427018304516 0 -0.12994370463312691 -0.28995419054763111 0 -0.1257911728949061 -0.280427018304516 0 -0.1194571486541455 -0.28746452468861589 0 -0.14011095662501261 -0.28947786809128212 0 -0.12994370463312691 -0.28995419054763111 0 -0.13687965345326569 -0.27993872332247433 0 -0.15908619224911419 -0.30321256624142101 0 -0.15162645984294551 -0.28670064183700439 0 -0.15585924966824549 -0.27338725763800159 0 -0.14011095662501261 -0.28947786809128212 0 -0.1458827091329962 -0.28225219708249882 0 -0.13687965345326569 -0.27993872332247433 0 -0.15908619224911419 -0.30321256624142101 0 -0.1510678287434867 -0.29559461902651829 0 -0.15162645984294551 -0.28670064183700439 0 -0.1458827091329962 -0.28225219708249882 0 -0.1468811506158991 -0.28912565090950809 0 -0.15162645984294551 -0.28670064183700439 0 -0.14011095662501261 -0.28947786809128212 0 -0.1458827091329962 -0.28225219708249882 0 -0.1468811506158991 -0.28912565090950809 0 -0.14390798587081549 -0.29739780507392732 0 -0.1468811506158991 -0.28912565090950809 0 -0.1510678287434867 -0.29559461902651829 0 -0.14390798587081549 -0.29739780507392732 0 -0.14011095662501261 -0.28947786809128212 0 -0.1468811506158991 -0.28912565090950809 0 -0.1468811506158991 -0.28912565090950809 0 -0.1510678287434867 -0.29559461902651829 0 -0.15162645984294551 -0.28670064183700439 0 -0.1458827091329962 -0.28225219708249882 0 -0.15162645984294551 -0.28670064183700439 0 -0.15098162864793119 -0.27663156012407891 0 -0.15162645984294551 -0.28670064183700439 0 -0.15098162864793119 -0.27663156012407891 0 -0.15585924966824549 -0.27338725763800159 0 -0.15098162864793119 -0.27663156012407891 0 -0.1522527558101047 -0.27366235468835692 0 -0.14903370440966179 -0.27344637702894548 0 -0.15098162864793119 -0.27663156012407891 0 -0.1522527558101047 -0.27366235468835692 0 -0.15585924966824549 -0.27338725763800159 0 -0.14903370440966179 -0.27344637702894548 0 -0.1531364405145805 -0.27118422396240138 0 -0.14385763015454139 -0.26954128824380802 0 -0.1522527558101047 -0.27366235468835692 0 -0.15585924966824549 -0.27338725763800159 0 -0.1531364405145805 -0.27118422396240138 0 -0.1522527558101047 -0.27366235468835692 0 -0.14903370440966179 -0.27344637702894548 0 -0.1531364405145805 -0.27118422396240138 0 -0.14903370440966179 -0.27344637702894548 0 -0.14385763015454139 -0.26954128824380802 0 -0.1442805510697899 -0.27562940435382949 0 -0.14385763015454139 -0.26954128824380802 0 -0.1442805510697899 -0.27562940435382949 0 -0.13835653564694769 -0.27242798417408381 0 -0.1458827091329962 -0.28225219708249882 0 -0.1442805510697899 -0.27562940435382949 0 -0.13687965345326569 -0.27993872332247433 0 -0.15098162864793119 -0.27663156012407891 0 -0.14903370440966179 -0.27344637702894548 0 -0.1442805510697899 -0.27562940435382949 0 -0.1458827091329962 -0.28225219708249882 0 -0.15098162864793119 -0.27663156012407891 0 -0.1442805510697899 -0.27562940435382949 0 -0.13687965345326569 -0.27993872332247433 0 -0.12970248462840331 -0.2717774759070859 0 -0.13835653564694769 -0.27242798417408381 0 -0.1442805510697899 -0.27562940435382949 0 -0.13687965345326569 -0.27993872332247433 0 -0.13835653564694769 -0.27242798417408381 0 -0.13687965345326569 -0.27993872332247433 0 -0.1257911728949061 -0.280427018304516 0 -0.12970248462840331 -0.2717774759070859 0 -0.12970248462840331 -0.2717774759070859 0 -0.13570208279224111 -0.26528350045903498 0 -0.12855037573501921 -0.26115248962005239 0 -0.14385763015454139 -0.26954128824380802 0 -0.13835653564694769 -0.27242798417408381 0 -0.13570208279224111 -0.26528350045903498 0 -0.12970248462840331 -0.2717774759070859 0 -0.13835653564694769 -0.27242798417408381 0 -0.13570208279224111 -0.26528350045903498 0 -0.13570208279224111 -0.26528350045903498 0 -0.12855037573501921 -0.26115248962005239 0 -0.1377523016625678 -0.25581657194563601 0 -0.14385763015454139 -0.26954128824380802 0 -0.13570208279224111 -0.26528350045903498 0 -0.1377523016625678 -0.25581657194563601 0 -0.12855037573501921 -0.26115248962005239 0 -0.1377523016625678 -0.25581657194563601 0 -0.1223681628105569 -0.24044891992886891 0 -0.1531364405145805 -0.27118422396240138 0 -0.1377523016625678 -0.25581657194563601 0 -0.15263230708737521 -0.24356194903458239 0 -0.15585924966824549 -0.27338725763800159 0 -0.1531364405145805 -0.27118422396240138 0 -0.15263230708737521 -0.24356194903458239 0 -0.15585924966824549 -0.27338725763800159 0 -0.15263230708737521 -0.24356194903458239 0 -0.1531364405145805 -0.27118422396240138 0 -0.1377523016625678 -0.25581657194563601 0 -0.1531364405145805 -0.27118422396240138 0 -0.14385763015454139 -0.26954128824380802 0 -0.1377523016625678 -0.25581657194563601 0 -0.1661931572416451 -0.36889933283976362 0 -0.1633245426028184 -0.34238590264286861 0 -0.15433175674287769 -0.35458729317269139 0 -0.1661931572416451 -0.36889933283976362 0 -0.1633245426028184 -0.34238590264286861 0 -0.1661931572416451 -0.36889933283976362 0 -0.17388048196752651 -0.3522733272046466 0 -0.1633245426028184 -0.34238590264286861 0 -0.1661931572416451 -0.36889933283976362 0 -0.15433175674287769 -0.35458729317269139 0 -0.148308101659717 -0.36695316985008092 0 -0.15761740849691311 -0.38818340141201402 0 -0.1661931572416451 -0.36889933283976362 0 -0.148308101659717 -0.36695316985008092 0 -0.183603859264966 -0.3766054584014627 0 -0.1661931572416451 -0.36889933283976362 0 -0.1863350517553729 -0.35962674217565882 0 -0.1661931572416451 -0.36889933283976362 0 -0.1863350517553729 -0.35962674217565882 0 -0.17388048196752651 -0.3522733272046466 0 -0.1863350517553729 -0.35962674217565882 0 -0.17388048196752651 -0.3522733272046466 0 -0.1789381536340362 -0.33872308817907848 0 -0.17388048196752651 -0.3522733272046466 0 -0.1789381536340362 -0.33872308817907848 0 -0.1633245426028184 -0.34238590264286861 0 -0.19562896033857519 -0.33020038185646122 0 -0.1789381536340362 -0.33872308817907848 0 -0.18477851095256179 -0.32477614194451959 0 -0.1789381536340362 -0.33872308817907848 0 -0.18477851095256179 -0.32477614194451959 0 -0.1735479853981102 -0.32728394705986258 0 -0.1789381536340362 -0.33872308817907848 0 -0.1735479853981102 -0.32728394705986258 0 -0.1633245426028184 -0.34238590264286861 0 -0.17759103405270391 -0.30762984517719472 0 -0.1803928959391416 -0.31521744924658562 0 -0.16045592796399111 -0.3158724724459735 0 -0.19575919956014079 -0.31702437624003538 0 -0.1803928959391416 -0.31521744924658562 0 -0.18477851095256179 -0.32477614194451959 0 -0.1803928959391416 -0.31521744924658562 0 -0.18477851095256179 -0.32477614194451959 0 -0.1735479853981102 -0.32728394705986258 0 -0.1803928959391416 -0.31521744924658562 0 -0.1735479853981102 -0.32728394705986258 0 -0.16045592796399111 -0.3158724724459735 0 -0.1735479853981102 -0.32728394705986258 0 -0.16045592796399111 -0.3158724724459735 0 -0.1633245426028184 -0.34238590264286861 0 -0.16045592796399111 -0.3158724724459735 0 -0.1633245426028184 -0.34238590264286861 0 -0.1476770575246594 -0.3298450188736391 0 -0.16045592796399111 -0.3158724724459735 0 -0.1633245426028184 -0.34238590264286861 0 -0.1633245426028184 -0.34238590264286861 0 -0.15030263560259111 -0.34285112818916452 0 -0.1476770575246594 -0.3298450188736391 0 -0.1476770575246594 -0.3298450188736391 0 -0.14130665940473261 -0.32287327510069419 0 -0.13989838249203351 -0.33226752099114382 0 -0.1476770575246594 -0.3298450188736391 0 -0.14096893258994439 -0.33934882548262568 0 -0.13989838249203351 -0.33226752099114382 0 -0.15030263560259111 -0.34285112818916452 0 -0.1476770575246594 -0.3298450188736391 0 -0.14096893258994439 -0.33934882548262568 0 -0.15908619224911419 -0.30321256624142101 0 -0.14130665940473261 -0.32287327510069419 0 -0.16045592796399111 -0.3158724724459735 0 -0.1476770575246594 -0.3298450188736391 0 -0.14130665940473261 -0.32287327510069419 0 -0.15908619224911419 -0.30321256624142101 0 -0.16045592796399111 -0.3158724724459735 0 -0.14130665940473261 -0.32287327510069419 0 -0.16045592796399111 -0.3158724724459735 0 -0.1476770575246594 -0.3298450188736391 0 -0.14130665940473261 -0.32287327510069419 0 -0.12766342535057629 -0.32481504462803062 0 -0.13033731665847181 -0.31286393971371201 0 -0.14032160831301491 -0.30752887986621158 0 -0.14130665940473261 -0.32287327510069419 0 -0.13033731665847181 -0.31286393971371201 0 -0.14130665940473261 -0.32287327510069419 0 -0.12766342535057629 -0.32481504462803062 0 -0.12902917457320359 -0.33644978787578289 0 -0.12766342535057629 -0.32481504462803062 0 -0.12902917457320359 -0.33644978787578289 0 -0.123033176677132 -0.34308019655903149 0 -0.14096893258994439 -0.33934882548262568 0 -0.12902917457320359 -0.33644978787578289 0 -0.13366226850604379 -0.34759248760944123 0 -0.14096893258994439 -0.33934882548262568 0 -0.13989838249203351 -0.33226752099114382 0 -0.12902917457320359 -0.33644978787578289 0 -0.14130665940473261 -0.32287327510069419 0 -0.12902917457320359 -0.33644978787578289 0 -0.14130665940473261 -0.32287327510069419 0 -0.13989838249203351 -0.33226752099114382 0 -0.12902917457320359 -0.33644978787578289 0 -0.12902917457320359 -0.33644978787578289 0 -0.123033176677132 -0.34308019655903149 0 -0.12902917457320359 -0.33644978787578289 0 -0.13366226850604379 -0.34759248760944123 0 -0.123033176677132 -0.34308019655903149 0 -0.13366226850604379 -0.34759248760944123 0 -0.1303219987982592 -0.3665496015062627 0 -0.123033176677132 -0.34308019655903149 0 -0.1303219987982592 -0.3665496015062627 0 -0.123033176677132 -0.34308019655903149 0 -0.13366226850604379 -0.34759248760944123 0 -0.1435303466076166 -0.35184693234157938 0 -0.1303219987982592 -0.3665496015062627 0 -0.14096893258994439 -0.33934882548262568 0 -0.13366226850604379 -0.34759248760944123 0 -0.1435303466076166 -0.35184693234157938 0 -0.15030263560259111 -0.34285112818916452 0 -0.14096893258994439 -0.33934882548262568 0 -0.1435303466076166 -0.35184693234157938 0 -0.1435303466076166 -0.35184693234157938 0 -0.15433175674287769 -0.35458729317269139 0 -0.148308101659717 -0.36695316985008092 0 -0.1633245426028184 -0.34238590264286861 0 -0.15030263560259111 -0.34285112818916452 0 -0.15433175674287769 -0.35458729317269139 0 -0.15030263560259111 -0.34285112818916452 0 -0.1435303466076166 -0.35184693234157938 0 -0.15433175674287769 -0.35458729317269139 0 -0.1435303466076166 -0.35184693234157938 0 -0.148308101659717 -0.36695316985008092 0 -0.1303219987982592 -0.3665496015062627 0 -0.1369224961495438 -0.38192389563367207 0 -0.148308101659717 -0.36695316985008092 0 -0.1303219987982592 -0.3665496015062627 0 -0.1303219987982592 -0.3665496015062627 0 -0.1159926709000937 -0.36685414663024191 0 -0.11895596668836859 -0.34683008488337108 0 -0.1303219987982592 -0.3665496015062627 0 -0.1159926709000937 -0.36685414663024191 0 -0.12201267174342199 -0.37938718301114999 0 -0.1024060606807759 -0.36205135125861898 0 -0.1016559479587178 -0.38500202459504551 0 -0.1159926709000937 -0.36685414663024191 0 -0.1024060606807759 -0.36205135125861898 0 -0.1094440337948836 -0.37923577087639421 0 -0.1024060606807759 -0.36205135125861898 0 -0.1016559479587178 -0.38500202459504551 0 -0.095426438310298192 -0.37780241062099151 0 -0.1024060606807759 -0.36205135125861898 0 -0.090139611558562177 -0.37333304007799939 0 -0.095426438310298192 -0.37780241062099151 0 -0.1024060606807759 -0.36205135125861898 0 -0.093943439343664059 -0.36410026383479388 0 -0.090139611558562177 -0.37333304007799939 0 -0.1024060606807759 -0.36205135125861898 0 -0.093943439343664059 -0.36410026383479388 0 -0.095626283443773746 -0.35612124291623848 0 -0.1024060606807759 -0.36205135125861898 0 -0.090139611558562177 -0.37333304007799939 0 -0.1024060606807759 -0.36205135125861898 0 -0.1029439411344124 -0.34559419992324319 0 -0.1024060606807759 -0.36205135125861898 0 -0.1029439411344124 -0.34559419992324319 0 -0.11895596668836859 -0.34683008488337108 0 -0.1024060606807759 -0.36205135125861898 0 -0.095626283443773746 -0.35612124291623848 0 -0.1029439411344124 -0.34559419992324319 0 -0.095626283443773746 -0.35612124291623848 0 -0.1029439411344124 -0.34559419992324319 0 -0.093212578299404075 -0.34130700998995739 0 -0.1159926709000937 -0.36685414663024191 0 -0.1024060606807759 -0.36205135125861898 0 -0.11895596668836859 -0.34683008488337108 0 -0.1024060606807759 -0.36205135125861898 0 -0.11895596668836859 -0.34683008488337108 0 -0.1303219987982592 -0.3665496015062627 0 -0.11895596668836859 -0.34683008488337108 0 -0.123033176677132 -0.34308019655903149 0 -0.1029439411344124 -0.34559419992324319 0 -0.11895596668836859 -0.34683008488337108 0 -0.123033176677132 -0.34308019655903149 0 -0.11895596668836859 -0.34683008488337108 0 -0.123033176677132 -0.34308019655903149 0 -0.1029439411344124 -0.34559419992324319 0 -0.1137910684918501 -0.33520612369310882 0 -0.123033176677132 -0.34308019655903149 0 -0.123033176677132 -0.34308019655903149 0 -0.1159692764993048 -0.31568518943543378 0 -0.1137910684918501 -0.33520612369310882 0 -0.123033176677132 -0.34308019655903149 0 -0.1159692764993048 -0.31568518943543378 0 -0.12766342535057629 -0.32481504462803062 0 -0.123033176677132 -0.34308019655903149 0 -0.1159692764993048 -0.31568518943543378 0 -0.1137910684918501 -0.33520612369310882 0 -0.1159692764993048 -0.31568518943543378 0 -0.1034818215880495 -0.3291370485878673 0 -0.12766342535057629 -0.32481504462803062 0 -0.13033731665847181 -0.31286393971371201 0 -0.1159692764993048 -0.31568518943543378 0 -0.1159692764993048 -0.31568518943543378 0 -0.10079975883819629 -0.31506063040533638 0 -0.1034818215880495 -0.3291370485878673 0 -0.10079975883819629 -0.31506063040533638 0 -0.093212578299404075 -0.34130700998995739 0 -0.10079975883819629 -0.31506063040533638 0 -0.093212578299404075 -0.34130700998995739 0 -0.087373844159168004 -0.3291061545470132 0 -0.10079975883819629 -0.31506063040533638 0 -0.1034818215880495 -0.3291370485878673 0 -0.093212578299404075 -0.34130700998995739 0 -0.1029439411344124 -0.34559419992324319 0 -0.1034818215880495 -0.3291370485878673 0 -0.1029439411344124 -0.34559419992324319 0 -0.1034818215880495 -0.3291370485878673 0 -0.093212578299404075 -0.34130700998995739 0 -0.1029439411344124 -0.34559419992324319 0 -0.1137910684918501 -0.33520612369310882 0 -0.1034818215880495 -0.3291370485878673 0 -0.093212578299404075 -0.34130700998995739 0 -0.087373844159168004 -0.3291061545470132 0 -0.080908772255243899 -0.33898270124258217 0 -0.087373844159168004 -0.3291061545470132 0 -0.080908772255243899 -0.33898270124258217 0 -0.077490532230771417 -0.32991328235931511 0 -0.093212578299404075 -0.34130700998995739 0 -0.080908772255243899 -0.33898270124258217 0 -0.080378844364046895 -0.35001101873094542 0 -0.10079975883819629 -0.31506063040533638 0 -0.085305929108392881 -0.31951846990187233 0 -0.091873739319295072 -0.31122357941036211 0 -0.10079975883819629 -0.31506063040533638 0 -0.087373844159168004 -0.3291061545470132 0 -0.085305929108392881 -0.31951846990187233 0 -0.085305929108392881 -0.31951846990187233 0 -0.076805788315873161 -0.32077910918615782 0 -0.077490532230771417 -0.32991328235931511 0 -0.087373844159168004 -0.3291061545470132 0 -0.085305929108392881 -0.31951846990187233 0 -0.077490532230771417 -0.32991328235931511 0 -0.085305929108392881 -0.31951846990187233 0 -0.076805788315873161 -0.32077910918615782 0 -0.078544889372492196 -0.31002595631180607 0 -0.085305929108392881 -0.31951846990187233 0 -0.091873739319295072 -0.31122357941036211 0 -0.078544889372492196 -0.31002595631180607 0 -0.066882954587322394 -0.32486941793266988 0 -0.078544889372492196 -0.31002595631180607 0 -0.05424539878688571 -0.319762651601179 0 -0.078544889372492196 -0.31002595631180607 0 -0.05424539878688571 -0.319762651601179 0 -0.076805788315873161 -0.32077910918615782 0 -0.066882954587322394 -0.32486941793266988 0 -0.078544889372492196 -0.31002595631180607 0 -0.076805788315873161 -0.32077910918615782 0 -0.066882954587322394 -0.32486941793266988 0 -0.077490532230771417 -0.32991328235931511 0 -0.066882954587322394 -0.32486941793266988 0 -0.070160141916437824 -0.34098238217286791 0 -0.054527031800802053 -0.34042178362413461 0 -0.066882954587322394 -0.32486941793266988 0 -0.077490532230771417 -0.32991328235931511 0 -0.070160141916437824 -0.34098238217286791 0 -0.080908772255243899 -0.33898270124258217 0 -0.077490532230771417 -0.32991328235931511 0 -0.070160141916437824 -0.34098238217286791 0 -0.080908772255243899 -0.33898270124258217 0 -0.070160141916437824 -0.34098238217286791 0 -0.080378844364046895 -0.35001101873094542 0 -0.070160141916437824 -0.34098238217286791 0 -0.066522813126512412 -0.35680227137673098 0 -0.054527031800802053 -0.34042178362413461 0 -0.070160141916437824 -0.34098238217286791 0 -0.066522813126512412 -0.35680227137673098 0 -0.080378844364046895 -0.35001101873094542 0 -0.066522813126512412 -0.35680227137673098 0 -0.076582500297099523 -0.36039923154202719 0 -0.080378844364046895 -0.35001101873094542 0 -0.066522813126512412 -0.35680227137673098 0 -0.073802945937226916 -0.36723024648585417 0 -0.058387822440418388 -0.36975607908058028 0 -0.073802945937226916 -0.36723024648585417 0 -0.058387822440418388 -0.36975607908058028 0 -0.08170780991661282 -0.38109255286014232 0 -0.066522813126512412 -0.35680227137673098 0 -0.073802945937226916 -0.36723024648585417 0 -0.076582500297099523 -0.36039923154202719 0 -0.073802945937226916 -0.36723024648585417 0 -0.076582500297099523 -0.36039923154202719 0 -0.085625397760611066 -0.36755338957457828 0 -0.085625397760611066 -0.36755338957457828 0 -0.087954911787112483 -0.37534235041220648 0 -0.08170780991661282 -0.38109255286014232 0 -0.073802945937226916 -0.36723024648585417 0 -0.085625397760611066 -0.36755338957457828 0 -0.08170780991661282 -0.38109255286014232 0 -0.085625397760611066 -0.36755338957457828 0 -0.08170780991661282 -0.38109255286014232 0 -0.093943439343664059 -0.36410026383479388 0 -0.085625397760611066 -0.36755338957457828 0 -0.090139611558562177 -0.37333304007799939 0 -0.093943439343664059 -0.36410026383479388 0 -0.090139611558562177 -0.37333304007799939 0 -0.085625397760611066 -0.36755338957457828 0 -0.090139611558562177 -0.37333304007799939 0 -0.087954911787112483 -0.37534235041220648 0 -0.085625397760611066 -0.36755338957457828 0 -0.087954911787112483 -0.37534235041220648 0 -0.090139611558562177 -0.37333304007799939 0 -0.087954911787112483 -0.37534235041220648 0 -0.093943439343664059 -0.36410026383479388 0 -0.095626283443773746 -0.35612124291623848 0 -0.085625397760611066 -0.36755338957457828 0 -0.093212578299404075 -0.34130700998995739 0 -0.085625397760611066 -0.36755338957457828 0 -0.076582500297099523 -0.36039923154202719 0 -0.085625397760611066 -0.36755338957457828 0 -0.080378844364046895 -0.35001101873094542 0 -0.093212578299404075 -0.34130700998995739 0 -0.085625397760611066 -0.36755338957457828 0 -0.080378844364046895 -0.35001101873094542 0 -0.085625397760611066 -0.36755338957457828 0 -0.080378844364046895 -0.35001101873094542 0 -0.095626283443773746 -0.35612124291623848 0 -0.093212578299404075 -0.34130700998995739 0 -0.085625397760611066 -0.36755338957457828 0 -0.10474757541744149 -0.26087495970427582 0 -0.090174700483665673 -0.26498018187443112 0 -0.1005321994236209 -0.2431127607729493 0 -0.10474757541744149 -0.26087495970427582 0 -0.11757885349586771 -0.25701660664448461 0 -0.1005321994236209 -0.2431127607729493 0 -0.12855037573501921 -0.26115248962005239 0 -0.11757885349586771 -0.25701660664448461 0 -0.1127895441811773 -0.27358429336009982 0 -0.12855037573501921 -0.26115248962005239 0 -0.11757885349586771 -0.25701660664448461 0 -0.1223681628105569 -0.24044891992886891 0 -0.10474757541744149 -0.26087495970427582 0 -0.11757885349586771 -0.25701660664448461 0 -0.1127895441811773 -0.27358429336009982 0 -0.11757885349586771 -0.25701660664448461 0 -0.1127895441811773 -0.27358429336009982 0 -0.1257911728949061 -0.280427018304516 0 -0.12970248462840331 -0.2717774759070859 0 -0.1127895441811773 -0.27358429336009982 0 -0.12855037573501921 -0.26115248962005239 0 -0.1127895441811773 -0.27358429336009982 0 -0.12970248462840331 -0.2717774759070859 0 -0.12855037573501921 -0.26115248962005239 0 -0.1127895441811773 -0.27358429336009982 0 -0.1257911728949061 -0.280427018304516 0 -0.1127895441811773 -0.27358429336009982 0 -0.1194571486541455 -0.28746452468861589 0 -0.1127895441811773 -0.27358429336009982 0 -0.1083869393769897 -0.28881425082071571 0 -0.1127895441811773 -0.27358429336009982 0 -0.093274829049746905 -0.28897707944045958 0 -0.090174700483665673 -0.26498018187443112 0 -0.10474757541744149 -0.26087495970427582 0 -0.1127895441811773 -0.27358429336009982 0 -0.090174700483665673 -0.26498018187443112 0 -0.1127895441811773 -0.27358429336009982 0 -0.1067008731150054 -0.28283902414649681 0 -0.093274829049746905 -0.28897707944045958 0 -0.1127895441811773 -0.27358429336009982 0 -0.093274829049746905 -0.28897707944045958 0 -0.1083869393769897 -0.28881425082071571 0 -0.102844379958099 -0.30028926102243358 0 -0.093274829049746905 -0.28897707944045958 0 -0.1127895441811773 -0.27358429336009982 0 -0.1083869393769897 -0.28881425082071571 0 -0.1067008731150054 -0.28283902414649681 0 -0.1083869393769897 -0.28881425082071571 0 -0.1067008731150054 -0.28283902414649681 0 -0.1083869393769897 -0.28881425082071571 0 -0.1067008731150054 -0.28283902414649681 0 -0.093274829049746905 -0.28897707944045958 0 -0.1127895441811773 -0.27358429336009982 0 -0.1083869393769897 -0.28881425082071571 0 -0.1194571486541455 -0.28746452468861589 0 -0.12994370463312691 -0.28995419054763111 0 -0.1194571486541455 -0.28746452468861589 0 -0.12304085188452731 -0.29931348820209958 0 -0.1083869393769897 -0.28881425082071571 0 -0.1194571486541455 -0.28746452468861589 0 -0.12304085188452731 -0.29931348820209958 0 -0.1159692764993048 -0.31568518943543378 0 -0.1083869393769897 -0.28881425082071571 0 -0.12304085188452731 -0.29931348820209958 0 -0.1159692764993048 -0.31568518943543378 0 -0.1083869393769897 -0.28881425082071571 0 -0.13033731665847181 -0.31286393971371201 0 -0.1159692764993048 -0.31568518943543378 0 -0.12304085188452731 -0.29931348820209958 0 -0.1159692764993048 -0.31568518943543378 0 -0.10079975883819629 -0.31506063040533638 0 -0.1083869393769897 -0.28881425082071571 0 -0.10079975883819629 -0.31506063040533638 0 -0.1083869393769897 -0.28881425082071571 0 -0.10079975883819629 -0.31506063040533638 0 -0.1083869393769897 -0.28881425082071571 0 -0.102844379958099 -0.30028926102243358 0 -0.10079975883819629 -0.31506063040533638 0 -0.102844379958099 -0.30028926102243358 0 -0.091873739319295072 -0.31122357941036211 0 -0.078544889372492196 -0.31002595631180607 0 -0.073760113918316481 -0.30436986552081963 0 -0.093274829049746905 -0.28897707944045958 0 -0.102844379958099 -0.30028926102243358 0 -0.078544889372492196 -0.31002595631180607 0 -0.093274829049746905 -0.28897707944045958 0 -0.102844379958099 -0.30028926102243358 0 -0.091873739319295072 -0.31122357941036211 0 -0.078544889372492196 -0.31002595631180607 0 -0.102844379958099 -0.30028926102243358 0 -0.078544889372492196 -0.31002595631180607 0 -0.078544889372492196 -0.31002595631180607 0 -0.073760113918316481 -0.30436986552081963 0 -0.05424539878688571 -0.319762651601179 0 -0.073760113918316481 -0.30436986552081963 0 -0.05424539878688571 -0.319762651601179 0 -0.073760113918316481 -0.30436986552081963 0 -0.071188273097670243 -0.28513602236808322 0 -0.055748641784298267 -0.30178875706485681 0 -0.073760113918316481 -0.30436986552081963 0 -0.071188273097670243 -0.28513602236808322 0 -0.093274829049746905 -0.28897707944045958 0 -0.073760113918316481 -0.30436986552081963 0 -0.093274829049746905 -0.28897707944045958 0 -0.071188273097670243 -0.28513602236808322 0 -0.093274829049746905 -0.28897707944045958 0 -0.090174700483665673 -0.26498018187443112 0 -0.071188273097670243 -0.28513602236808322 0 -0.063484538676239377 -0.26413124226689111 0 -0.090174700483665673 -0.26498018187443112 0 -0.063484538676239377 -0.26413124226689111 0 -0.076282262678724011 -0.24169347649274159 0 -0.063484538676239377 -0.26413124226689111 0 -0.090174700483665673 -0.26498018187443112 0 -0.076282262678724011 -0.24169347649274159 0 -0.036942597034766073 -0.27265489088473938 0 -0.050686814673754729 -0.28656900804104057 0 -0.0185119813334658 -0.28327625011988139 0 -0.038581934025118947 -0.25114857380685968 0 -0.038334603868346327 -0.2604973367990705 0 -0.03064478186574425 -0.25326356670072259 0 -0.038334603868346327 -0.2604973367990705 0 -0.029413390480137139 -0.26518294325465769 0 -0.03064478186574425 -0.25326356670072259 0 -0.038334603868346327 -0.2604973367990705 0 -0.046517308340487992 -0.25474718453952289 0 -0.048289188575406587 -0.26955092917192058 0 -0.038581934025118947 -0.25114857380685968 0 -0.038334603868346327 -0.2604973367990705 0 -0.046517308340487992 -0.25474718453952289 0 -0.063484538676239377 -0.26413124226689111 0 -0.046517308340487992 -0.25474718453952289 0 -0.0567919256119837 -0.24387644547435741 0 -0.063484538676239377 -0.26413124226689111 0 -0.046517308340487992 -0.25474718453952289 0 -0.048289188575406587 -0.26955092917192058 0 -0.063484538676239377 -0.26413124226689111 0 -0.050686814673754729 -0.28656900804104057 0 -0.071188273097670243 -0.28513602236808322 0 -0.063484538676239377 -0.26413124226689111 0 -0.050686814673754729 -0.28656900804104057 0 -0.063484538676239377 -0.26413124226689111 0 -0.048289188575406587 -0.26955092917192058 0 -0.050686814673754729 -0.28656900804104057 0 -0.048289188575406587 -0.26955092917192058 0 -0.036942597034766073 -0.27265489088473938 0 -0.050686814673754729 -0.28656900804104057 0 -0.038334603868346327 -0.2604973367990705 0 -0.048289188575406587 -0.26955092917192058 0 -0.036942597034766073 -0.27265489088473938 0 -0.038334603868346327 -0.2604973367990705 0 -0.036942597034766073 -0.27265489088473938 0 -0.029413390480137139 -0.26518294325465769 0 -0.050686814673754729 -0.28656900804104057 0 -0.037889090671270123 -0.30900677381518998 0 -0.0185119813334658 -0.28327625011988139 0 -0.071188273097670243 -0.28513602236808322 0 -0.050686814673754729 -0.28656900804104057 0 -0.055748641784298267 -0.30178875706485681 0 -0.073760113918316481 -0.30436986552081963 0 -0.055748641784298267 -0.30178875706485681 0 -0.05424539878688571 -0.319762651601179 0 -0.055748641784298267 -0.30178875706485681 0 -0.037889090671270123 -0.30900677381518998 0 -0.05424539878688571 -0.319762651601179 0 -0.050686814673754729 -0.28656900804104057 0 -0.055748641784298267 -0.30178875706485681 0 -0.037889090671270123 -0.30900677381518998 0 -0.050686814673754729 -0.28656900804104057 0 -0.037889090671270123 -0.30900677381518998 0 -0.037889090671270123 -0.30900677381518998 0 -0.014390974368570029 -0.31032982847088841 0 -0.0185119813334658 -0.28327625011988139 0 -0.014390974368570029 -0.31032982847088841 0 0.001904989571353899 -0.32214434476741449 0 0.0019518825097332619 -0.30029273945570772 0 -0.014390974368570029 -0.31032982847088841 0 -0.0185119813334658 -0.28327625011988139 0 0.0019518825097332619 -0.30029273945570772 0 -0.0185119813334658 -0.28327625011988139 0 -0.0020851015340006161 -0.28052611142458661 0 0.0019518825097332619 -0.30029273945570772 0 -0.014390974368570029 -0.31032982847088841 0 -0.0185119813334658 -0.28327625011988139 0 -0.036942597034766073 -0.27265489088473938 0 -0.0185119813334658 -0.28327625011988139 0 -0.029413390480137139 -0.26518294325465769 0 -0.0185119813334658 -0.28327625011988139 0 -0.02263298829836323 -0.25622267176887481 0 -0.029413390480137139 -0.26518294325465769 0 -0.0185119813334658 -0.28327625011988139 0 -0.02263298829836323 -0.25622267176887481 0 -0.0185119813334658 -0.28327625011988139 0 -0.0093077836028632385 -0.27105033158696179 0 -0.02263298829836323 -0.25622267176887481 0 -0.0185119813334658 -0.28327625011988139 0 -0.0020851015340006161 -0.28052611142458661 0 -0.0093077836028632385 -0.27105033158696179 0 -0.0020851015340006161 -0.28052611142458661 0 -0.0093077836028632385 -0.27105033158696179 0 0.0055944649301708496 -0.26664830233551728 0 -0.014059514610042069 -0.25416210053859828 0 -0.02263298829836323 -0.25622267176887481 0 0.0055944649301708496 -0.26664830233551728 0 -0.0093077836028632385 -0.27105033158696179 0 -0.02263298829836323 -0.25622267176887481 0 0.0055944649301708496 -0.26664830233551728 0 -0.02263298829836323 -0.25622267176887481 0 0.0055944649301708496 -0.26664830233551728 0 -0.014059514610042069 -0.25416210053859828 0 -0.0080727856436109482 -0.2481099565327444 0 0.0055944649301708496 -0.26664830233551728 0 -0.014059514610042069 -0.25416210053859828 0 -0.01887874476148543 -0.24814250919209771 0 -0.0080727856436109482 -0.2481099565327444 0 -0.014059514610042069 -0.25416210053859828 0 -0.02263298829836323 -0.25622267176887481 0 -0.02285766608625657 -0.25474770747244752 0 -0.014059514610042069 -0.25416210053859828 0 -0.02285766608625657 -0.25474770747244752 0 -0.01887874476148543 -0.24814250919209771 0 -0.02285766608625657 -0.25474770747244752 0 -0.026067501294639708 -0.24850247980592871 0 -0.01887874476148543 -0.24814250919209771 0 -0.02263298829836323 -0.25622267176887481 0 -0.02285766608625657 -0.25474770747244752 0 -0.02263298829836323 -0.25622267176887481 0 -0.029413390480137139 -0.26518294325465769 0 -0.03064478186574425 -0.25326356670072259 0 -0.02263298829836323 -0.25622267176887481 0 -0.03064478186574425 -0.25326356670072259 0 -0.02263298829836323 -0.25622267176887481 0 -0.02285766608625657 -0.25474770747244752 0 -0.03064478186574425 -0.25326356670072259 0 -0.02285766608625657 -0.25474770747244752 0 -0.03064478186574425 -0.25326356670072259 0 -0.026067501294639708 -0.24850247980592871 0 -0.040780788735907937 -0.34809370153295588 0 -0.035070660285960877 -0.35841379707961513 0 -0.051335308585544609 -0.35442186843706669 0 -0.040780788735907937 -0.34809370153295588 0 -0.033802973987086503 -0.33588719504380232 0 -0.029167969020145641 -0.35132386348016093 0 -0.040780788735907937 -0.34809370153295588 0 -0.035070660285960877 -0.35841379707961513 0 -0.029167969020145641 -0.35132386348016093 0 -0.035070660285960877 -0.35841379707961513 0 -0.040000350022935588 -0.37213681664196291 0 -0.021437446366364531 -0.36359117576668931 0 -0.035070660285960877 -0.35841379707961513 0 -0.058387822440418388 -0.36975607908058028 0 -0.035070660285960877 -0.35841379707961513 0 -0.040000350022935588 -0.37213681664196291 0 -0.058387822440418388 -0.36975607908058028 0 -0.040000350022935588 -0.37213681664196291 0 -0.058387822440418388 -0.36975607908058028 0 -0.058563253679506787 -0.38068245751723601 0 -0.035070660285960877 -0.35841379707961513 0 -0.058387822440418388 -0.36975607908058028 0 -0.051335308585544609 -0.35442186843706669 0 -0.066522813126512412 -0.35680227137673098 0 -0.058387822440418388 -0.36975607908058028 0 -0.051335308585544609 -0.35442186843706669 0 -0.066522813126512412 -0.35680227137673098 0 -0.051335308585544609 -0.35442186843706669 0 -0.054527031800802053 -0.34042178362413461 0 -0.040780788735907937 -0.34809370153295588 0 -0.051335308585544609 -0.35442186843706669 0 -0.054527031800802053 -0.34042178362413461 0 -0.066882954587322394 -0.32486941793266988 0 -0.054527031800802053 -0.34042178362413461 0 -0.05424539878688571 -0.319762651601179 0 -0.054527031800802053 -0.34042178362413461 0 -0.05424539878688571 -0.319762651601179 0 -0.033802973987086503 -0.33588719504380232 0 -0.05424539878688571 -0.319762651601179 0 -0.039668382727836717 -0.32560359559526031 0 -0.05424539878688571 -0.319762651601179 0 -0.033802973987086503 -0.33588719504380232 0 -0.037889090671270123 -0.30900677381518998 0 -0.025091366668787349 -0.3314445395893405 0 -0.05424539878688571 -0.319762651601179 0 -0.039668382727836717 -0.32560359559526031 0 -0.033802973987086503 -0.33588719504380232 0 -0.037889090671270123 -0.30900677381518998 0 -0.05424539878688571 -0.319762651601179 0 -0.039668382727836717 -0.32560359559526031 0 -0.037889090671270123 -0.30900677381518998 0 -0.039668382727836717 -0.32560359559526031 0 -0.025091366668787349 -0.3314445395893405 0 -0.040780788735907937 -0.34809370153295588 0 -0.054527031800802053 -0.34042178362413461 0 -0.033802973987086503 -0.33588719504380232 0 -0.039668382727836717 -0.32560359559526031 0 -0.025091366668787349 -0.3314445395893405 0 -0.039668382727836717 -0.32560359559526031 0 -0.033802973987086503 -0.33588719504380232 0 -0.025091366668787349 -0.3314445395893405 0 -0.025091366668787349 -0.3314445395893405 0 -0.01336054918728761 -0.35201173848642592 0 -0.033802973987086503 -0.33588719504380232 0 -0.025091366668787349 -0.3314445395893405 0 -0.01336054918728761 -0.35201173848642592 0 -0.025091366668787349 -0.3314445395893405 0 -0.01532372128421448 -0.33535839064186268 0 -0.01336054918728761 -0.35201173848642592 0 -0.025091366668787349 -0.3314445395893405 0 -0.022734703789933738 -0.32728556430890232 0 -0.01532372128421448 -0.33535839064186268 0 -0.025091366668787349 -0.3314445395893405 0 -0.01532372128421448 -0.33535839064186268 0 -0.022734703789933738 -0.32728556430890232 0 -0.01532372128421448 -0.33535839064186268 0 -0.037889090671270123 -0.30900677381518998 0 -0.014390974368570029 -0.31032982847088841 0 -0.022734703789933738 -0.32728556430890232 0 -0.037889090671270123 -0.30900677381518998 0 -0.025091366668787349 -0.3314445395893405 0 -0.022734703789933738 -0.32728556430890232 0 -0.014390974368570029 -0.31032982847088841 0 -0.022734703789933738 -0.32728556430890232 0 -0.01532372128421448 -0.33535839064186268 0 -0.014390974368570029 -0.31032982847088841 0 -0.010269967403673339 -0.33738340682189533 0 -0.014390974368570029 -0.31032982847088841 0 -0.010269967403673339 -0.33738340682189533 0 -0.01532372128421448 -0.33535839064186268 0 -0.014390974368570029 -0.31032982847088841 0 -0.010269967403673339 -0.33738340682189533 0 0.001904989571353899 -0.32214434476741449 0 -0.010269967403673339 -0.33738340682189533 0 -0.0096343958099064687 -0.34155580596031437 0 0.0075807645751098419 -0.34453611388615663 0 -0.010269967403673339 -0.33738340682189533 0 0.0075807645751098419 -0.34453611388615663 0 -0.0096343958099064687 -0.34155580596031437 0 -0.01532372128421448 -0.33535839064186268 0 -0.01336054918728761 -0.35201173848642592 0 -0.010269967403673339 -0.33738340682189533 0 -0.0096343958099064687 -0.34155580596031437 0 -0.010269967403673339 -0.33738340682189533 0 -0.0096343958099064687 -0.34155580596031437 0 -0.01532372128421448 -0.33535839064186268 0 -0.0096343958099064687 -0.34155580596031437 0 -0.01532372128421448 -0.33535839064186268 0 -0.010269967403673339 -0.33738340682189533 0 -0.01532372128421448 -0.33535839064186268 0 -0.010269967403673339 -0.33738340682189533 0 0.0034794820758208261 -0.33361449123698089 0 0.001904989571353899 -0.32214434476741449 0 -0.0096343958099064687 -0.34155580596031437 0 -0.0070150904897389628 -0.35875101633193152 0 -0.0096343958099064687 -0.34155580596031437 0 -0.0070150904897389628 -0.35875101633193152 0 -0.01336054918728761 -0.35201173848642592 0 -0.0096343958099064687 -0.34155580596031437 0 -0.0070150904897389628 -0.35875101633193152 0 0.0099352179383349771 -0.36287309999936251 0 -0.033802973987086503 -0.33588719504380232 0 -0.01336054918728761 -0.35201173848642592 0 -0.029167969020145641 -0.35132386348016093 0 -0.01336054918728761 -0.35201173848642592 0 -0.029167969020145641 -0.35132386348016093 0 -0.021437446366364531 -0.36359117576668931 0 -0.033802973987086503 -0.33588719504380232 0 -0.01336054918728761 -0.35201173848642592 0 -0.035070660285960877 -0.35841379707961513 0 -0.029167969020145641 -0.35132386348016093 0 -0.021437446366364531 -0.36359117576668931 0 -0.040000350022935588 -0.37213681664196291 0 -0.021437446366364531 -0.36359117576668931 0 -0.02618172091304426 -0.37743656618445498 0 -0.021437446366364531 -0.36359117576668931 0 -0.002178803782163227 -0.37161627006544062 0 -0.02618172091304426 -0.37743656618445498 0 -0.040000350022935588 -0.37213681664196291 0 -0.021437446366364531 -0.36359117576668931 0 -0.01336054918728761 -0.35201173848642592 0 -0.021437446366364531 -0.36359117576668931 0 -0.002178803782163227 -0.37161627006544062 0 -0.01336054918728761 -0.35201173848642592 0 -0.002178803782163227 -0.37161627006544062 0 -0.0070150904897389628 -0.35875101633193152 0 -0.01336054918728761 -0.35201173848642592 0 -0.002178803782163227 -0.37161627006544062 0 -0.002178803782163227 -0.37161627006544062 0 -0.026336278995230201 -0.38905167830789189 0 -0.002178803782163227 -0.37161627006544062 0 -0.0066930742226519926 -0.39143820132839208 0 -0.026336278995230201 -0.38905167830789189 0 -0.0066930742226519926 -0.39143820132839208 0 -0.001728596279610697 -0.40597762003102339 0 -0.017737199096442072 -0.40073047040120602 0 -0.0066930742226519926 -0.39143820132839208 0 -0.017737199096442072 -0.40073047040120602 0 -0.026336278995230201 -0.38905167830789189 0 -0.017737199096442072 -0.40073047040120602 0 -0.026336278995230201 -0.38905167830789189 0 -0.033287388117186109 -0.40399871831440642 0 -0.002178803782163227 -0.37161627006544062 0 -0.026336278995230201 -0.38905167830789189 0 -0.02618172091304426 -0.37743656618445498 0 -0.026336278995230201 -0.38905167830789189 0 -0.02618172091304426 -0.37743656618445498 0 -0.033482850758781962 -0.383939184607547 0 -0.02618172091304426 -0.37743656618445498 0 -0.042372487296275553 -0.37905951185084519 0 -0.033482850758781962 -0.383939184607547 0 -0.02618172091304426 -0.37743656618445498 0 -0.042372487296275553 -0.37905951185084519 0 -0.040000350022935588 -0.37213681664196291 0 -0.02618172091304426 -0.37743656618445498 0 -0.042372487296275553 -0.37905951185084519 0 -0.042372487296275553 -0.37905951185084519 0 -0.039040915830577852 -0.39020898208699611 0 -0.049048127186911553 -0.38756594990863991 0 -0.042372487296275553 -0.37905951185084519 0 -0.039040915830577852 -0.39020898208699611 0 -0.033482850758781962 -0.383939184607547 0 -0.026336278995230201 -0.38905167830789189 0 -0.039040915830577852 -0.39020898208699611 0 -0.033482850758781962 -0.383939184607547 0 -0.026336278995230201 -0.38905167830789189 0 -0.050493754208297943 -0.40648708655034188 0 -0.039040915830577852 -0.39020898208699611 0 -0.048181286987745188 -0.3967611761759377 0 -0.050493754208297943 -0.40648708655034188 0 -0.026336278995230201 -0.38905167830789189 0 -0.039040915830577852 -0.39020898208699611 0 -0.050493754208297943 -0.40648708655034188 0 -0.026336278995230201 -0.38905167830789189 0 -0.033287388117186109 -0.40399871831440642 0 -0.050493754208297943 -0.40648708655034188 0 -0.039040915830577852 -0.39020898208699611 0 -0.048181286987745188 -0.3967611761759377 0 -0.049048127186911553 -0.38756594990863991 0 -0.048181286987745188 -0.3967611761759377 0 -0.055512870853615448 -0.39455951290216967 0 -0.049048127186911553 -0.38756594990863991 0 -0.055512870853615448 -0.39455951290216967 0 -0.052509649903146327 -0.40794203844841681 0 -0.074281153156084773 -0.38791836881244668 0 -0.048181286987745188 -0.3967611761759377 0 -0.055512870853615448 -0.39455951290216967 0 -0.050493754208297943 -0.40648708655034188 0 -0.055512870853615448 -0.39455951290216967 0 -0.052509649903146327 -0.40794203844841681 0 -0.050493754208297943 -0.40648708655034188 0 -0.048181286987745188 -0.3967611761759377 0 -0.050493754208297943 -0.40648708655034188 0 -0.040000350022935588 -0.37213681664196291 0 -0.042372487296275553 -0.37905951185084519 0 -0.058563253679506787 -0.38068245751723601 0 -0.042372487296275553 -0.37905951185084519 0 -0.058563253679506787 -0.38068245751723601 0 -0.040000350022935588 -0.37213681664196291 0 -0.058563253679506787 -0.38068245751723601 0 -0.042372487296275553 -0.37905951185084519 0 -0.058563253679506787 -0.38068245751723601 0 -0.049048127186911553 -0.38756594990863991 0 -0.055512870853615448 -0.39455951290216967 0 -0.058563253679506787 -0.38068245751723601 0 -0.049048127186911553 -0.38756594990863991 0 -0.055571169944573007 -0.4278419796903028 0 -0.060002998013559863 -0.44648162232419802 0 -0.069408814394604765 -0.42365151461769918 0 -0.055571169944573007 -0.4278419796903028 0 -0.060002998013559863 -0.44648162232419802 0 -0.055571169944573007 -0.4278419796903028 0 -0.04142135733128624 -0.43391233418184683 0 -0.048623679129421588 -0.44273110985945369 0 -0.055571169944573007 -0.4278419796903028 0 -0.059775586818595829 -0.41787661413097049 0 -0.069408814394604765 -0.42365151461769918 0 -0.055571169944573007 -0.4278419796903028 0 -0.059775586818595829 -0.41787661413097049 0 -0.052509649903146327 -0.40794203844841681 0 -0.055571169944573007 -0.4278419796903028 0 -0.052509649903146327 -0.40794203844841681 0 -0.038621424185474637 -0.4207153063468223 0 -0.055571169944573007 -0.4278419796903028 0 -0.052509649903146327 -0.40794203844841681 0 -0.052509649903146327 -0.40794203844841681 0 -0.070248957975066639 -0.42074520084202788 0 -0.059775586818595829 -0.41787661413097049 0 -0.052509649903146327 -0.40794203844841681 0 -0.070248957975066639 -0.42074520084202788 0 -0.052509649903146327 -0.40794203844841681 0 -0.050493754208297943 -0.40648708655034188 0 -0.041470954428671609 -0.41006675355118111 0 -0.052509649903146327 -0.40794203844841681 0 -0.050493754208297943 -0.40648708655034188 0 -0.052509649903146327 -0.40794203844841681 0 -0.038621424185474637 -0.4207153063468223 0 -0.033287388117186109 -0.40399871831440642 0 -0.050493754208297943 -0.40648708655034188 0 -0.041470954428671609 -0.41006675355118111 0 -0.052509649903146327 -0.40794203844841681 0 -0.041470954428671609 -0.41006675355118111 0 -0.038621424185474637 -0.4207153063468223 0 -0.033287388117186109 -0.40399871831440642 0 -0.041470954428671609 -0.41006675355118111 0 -0.027792962261932352 -0.41547375898907968 0 -0.041470954428671609 -0.41006675355118111 0 -0.038621424185474637 -0.4207153063468223 0 -0.027792962261932352 -0.41547375898907968 0 -0.055571169944573007 -0.4278419796903028 0 -0.038621424185474637 -0.4207153063468223 0 -0.04142135733128624 -0.43391233418184683 0 -0.038621424185474637 -0.4207153063468223 0 -0.026103506495360269 -0.43222827563723731 0 -0.038621424185474637 -0.4207153063468223 0 -0.04142135733128624 -0.43391233418184683 0 -0.026103506495360269 -0.43222827563723731 0 -0.04142135733128624 -0.43391233418184683 0 -0.026103506495360269 -0.43222827563723731 0 -0.035662081446574762 -0.44437129177822371 0 -0.026103506495360269 -0.43222827563723731 0 -0.027792962261932352 -0.41547375898907968 0 -0.009537301248459449 -0.42510302968362512 0 -0.026103506495360269 -0.43222827563723731 0 -0.009537301248459449 -0.42510302968362512 0 -0.019709463090837601 -0.44530454005801179 0 -0.038621424185474637 -0.4207153063468223 0 -0.026103506495360269 -0.43222827563723731 0 -0.027792962261932352 -0.41547375898907968 0 -0.017737199096442072 -0.40073047040120602 0 -0.027792962261932352 -0.41547375898907968 0 -0.009537301248459449 -0.42510302968362512 0 -0.017737199096442072 -0.40073047040120602 0 -0.033287388117186109 -0.40399871831440642 0 -0.027792962261932352 -0.41547375898907968 0 -0.001728596279610697 -0.40597762003102339 0 -0.017737199096442072 -0.40073047040120602 0 -0.009537301248459449 -0.42510302968362512 0 -0.017737199096442072 -0.40073047040120602 0 -0.009537301248459449 -0.42510302968362512 0 -0.001728596279610697 -0.40597762003102339 0 -0.009537301248459449 -0.42510302968362512 0 0.0082246319185010179 -0.41465428951275207 0 -0.009537301248459449 -0.42510302968362512 0 -0.0013374034004768371 -0.44947558896604423 0 -0.009537301248459449 -0.42510302968362512 0 -0.0013374034004768371 -0.44947558896604423 0 0.01039378864355619 -0.42848339288335913 0 -0.009537301248459449 -0.42510302968362512 0 -0.0013374034004768371 -0.44947558896604423 0 -0.019709463090837601 -0.44530454005801179 0 -0.0013374034004768371 -0.44947558896604423 0 -0.014612752260004851 -0.46155177919014362 0 -0.019709463090837601 -0.44530454005801179 0 -0.0013374034004768371 -0.44947558896604423 0 -0.014612752260004851 -0.46155177919014362 0 0.0068624944475057766 -0.47384814824846327 0 -0.014612752260004851 -0.46155177919014362 0 -0.028521420705905499 -0.4674310816654948 0 -0.030789477839635839 -0.45543267362212791 0 -0.014612752260004851 -0.46155177919014362 0 -0.030789477839635839 -0.45543267362212791 0 -0.019709463090837601 -0.44530454005801179 0 -0.030789477839635839 -0.45543267362212791 0 -0.019709463090837601 -0.44530454005801179 0 -0.035662081446574762 -0.44437129177822371 0 -0.026103506495360269 -0.43222827563723731 0 -0.019709463090837601 -0.44530454005801179 0 -0.035662081446574762 -0.44437129177822371 0 -0.015217900669161011 -0.5 0 -0.01418124297067914 -0.47781864258071971 0 0.0024053695883212941 -0.48891336768777249 0 -0.01418124297067914 -0.47781864258071971 0 0.0068624944475057766 -0.47384814824846327 0 0.0024053695883212941 -0.48891336768777249 0 -0.014612752260004851 -0.46155177919014362 0 -0.01418124297067914 -0.47781864258071971 0 0.0068624944475057766 -0.47384814824846327 0 -0.014612752260004851 -0.46155177919014362 0 -0.028521420705905499 -0.4674310816654948 0 -0.01418124297067914 -0.47781864258071971 0 -0.028521420705905499 -0.4674310816654948 0 -0.01418124297067914 -0.47781864258071971 0 -0.027752274071966478 -0.47742461628286209 0 -0.015217900669161011 -0.5 0 -0.027752274071966478 -0.47742461628286209 0 -0.038171784631523778 -0.48284131767108018 0 -0.015217900669161011 -0.5 0 -0.01418124297067914 -0.47781864258071971 0 -0.027752274071966478 -0.47742461628286209 0 -0.015217900669161011 -0.5 0 -0.043972809743024373 -0.5 0 -0.038171784631523778 -0.48284131767108018 0 -0.043972809743024373 -0.5 0 -0.038171784631523778 -0.48284131767108018 0 -0.049841179956411519 -0.48183723669954598 0 -0.038171784631523778 -0.48284131767108018 0 -0.048675315621036823 -0.47094071089761919 0 -0.038171784631523778 -0.48284131767108018 0 -0.048675315621036823 -0.47094071089761919 0 -0.049841179956411519 -0.48183723669954598 0 -0.027752274071966478 -0.47742461628286209 0 -0.038171784631523778 -0.48284131767108018 0 -0.038764373548703768 -0.47063519779216179 0 -0.028521420705905499 -0.4674310816654948 0 -0.027752274071966478 -0.47742461628286209 0 -0.038764373548703768 -0.47063519779216179 0 -0.038764373548703768 -0.47063519779216179 0 -0.048675315621036823 -0.47094071089761919 0 -0.045335619097383061 -0.46570514195792412 0 -0.038171784631523778 -0.48284131767108018 0 -0.038764373548703768 -0.47063519779216179 0 -0.048675315621036823 -0.47094071089761919 0 -0.048675315621036823 -0.47094071089761919 0 -0.055120034750126161 -0.47128965669693351 0 -0.049841179956411519 -0.48183723669954598 0 -0.048675315621036823 -0.47094071089761919 0 -0.055120034750126161 -0.47128965669693351 0 -0.057384894248553399 -0.46524593439390849 0 -0.055120034750126161 -0.47128965669693351 0 -0.059149819292987238 -0.47777467248794547 0 -0.064422500494955764 -0.4650694252783244 0 -0.059149819292987238 -0.47777467248794547 0 -0.049841179956411519 -0.48183723669954598 0 -0.058853327493046781 -0.48842932436532971 0 -0.055120034750126161 -0.47128965669693351 0 -0.059149819292987238 -0.47777467248794547 0 -0.049841179956411519 -0.48183723669954598 0 -0.059149819292987238 -0.47777467248794547 0 -0.058853327493046781 -0.48842932436532971 0 -0.068575109655922298 -0.48253471263916042 0 -0.043972809743024373 -0.5 0 -0.058853327493046781 -0.48842932436532971 0 -0.072727718816887776 -0.49999999999999672 0 -0.043972809743024373 -0.5 0 -0.049841179956411519 -0.48183723669954598 0 -0.058853327493046781 -0.48842932436532971 0 -0.045123684251444827 -0.45223268167437758 0 -0.035662081446574762 -0.44437129177822371 0 -0.048623679129421588 -0.44273110985945369 0 -0.04142135733128624 -0.43391233418184683 0 -0.035662081446574762 -0.44437129177822371 0 -0.048623679129421588 -0.44273110985945369 0 -0.030789477839635839 -0.45543267362212791 0 -0.045123684251444827 -0.45223268167437758 0 -0.035662081446574762 -0.44437129177822371 0 -0.030789477839635839 -0.45543267362212791 0 -0.045123684251444827 -0.45223268167437758 0 -0.04007978340352341 -0.46172459869688548 0 -0.028521420705905499 -0.4674310816654948 0 -0.030789477839635839 -0.45543267362212791 0 -0.04007978340352341 -0.46172459869688548 0 -0.028521420705905499 -0.4674310816654948 0 -0.038764373548703768 -0.47063519779216179 0 -0.04007978340352341 -0.46172459869688548 0 -0.038764373548703768 -0.47063519779216179 0 -0.04007978340352341 -0.46172459869688548 0 -0.045335619097383061 -0.46570514195792412 0 -0.04007978340352341 -0.46172459869688548 0 -0.045335619097383061 -0.46570514195792412 0 -0.047248161051959649 -0.4591011094540644 0 -0.045123684251444827 -0.45223268167437758 0 -0.04007978340352341 -0.46172459869688548 0 -0.047248161051959649 -0.4591011094540644 0 -0.045123684251444827 -0.45223268167437758 0 -0.050581796861615229 -0.45333412325219669 0 -0.047248161051959649 -0.4591011094540644 0 -0.050581796861615229 -0.45333412325219669 0 -0.047248161051959649 -0.4591011094540644 0 -0.051910461861691633 -0.46612409294888979 0 -0.051910461861691633 -0.46612409294888979 0 -0.05917884661055 -0.4590401041241583 0 -0.060002998013559863 -0.44648162232419802 0 -0.051910461861691633 -0.46612409294888979 0 -0.060002998013559863 -0.44648162232419802 0 -0.050581796861615229 -0.45333412325219669 0 -0.051910461861691633 -0.46612409294888979 0 -0.060002998013559863 -0.44648162232419802 0 -0.048675315621036823 -0.47094071089761919 0 -0.05917884661055 -0.4590401041241583 0 -0.048675315621036823 -0.47094071089761919 0 -0.051910461861691633 -0.46612409294888979 0 -0.05917884661055 -0.4590401041241583 0 -0.048675315621036823 -0.47094071089761919 0 -0.045335619097383061 -0.46570514195792412 0 -0.051910461861691633 -0.46612409294888979 0 -0.045335619097383061 -0.46570514195792412 0 -0.047248161051959649 -0.4591011094540644 0 -0.051910461861691633 -0.46612409294888979 0 -0.055120034750126161 -0.47128965669693351 0 -0.057384894248553399 -0.46524593439390849 0 -0.064422500494955764 -0.4650694252783244 0 -0.048675315621036823 -0.47094071089761919 0 -0.057384894248553399 -0.46524593439390849 0 -0.05917884661055 -0.4590401041241583 0 -0.057384894248553399 -0.46524593439390849 0 -0.05917884661055 -0.4590401041241583 0 -0.059237257045792073 -0.46090013765886428 0 -0.064422500494955764 -0.4650694252783244 0 -0.057384894248553399 -0.46524593439390849 0 -0.059237257045792073 -0.46090013765886428 0 -0.064422500494955764 -0.4650694252783244 0 -0.057384894248553399 -0.46524593439390849 0 -0.059237257045792073 -0.46090013765886428 0 -0.05917884661055 -0.4590401041241583 0 -0.059237257045792073 -0.46090013765886428 0 -0.062180371227510647 -0.45563934639583059 0 -0.064422500494955764 -0.4650694252783244 0 -0.059237257045792073 -0.46090013765886428 0 -0.05917884661055 -0.4590401041241583 0 -0.062180371227510647 -0.45563934639583059 0 -0.05917884661055 -0.4590401041241583 0 -0.062180371227510647 -0.45563934639583059 0 -0.05917884661055 -0.4590401041241583 0 -0.061269440441321127 -0.45180810022505591 0 -0.05917884661055 -0.4590401041241583 0 -0.062180371227510647 -0.45563934639583059 0 -0.061269440441321127 -0.45180810022505591 0 -0.062180371227510647 -0.45563934639583059 0 -0.061269440441321127 -0.45180810022505591 0 -0.055571169944573007 -0.4278419796903028 0 -0.060002998013559863 -0.44648162232419802 0 -0.048623679129421588 -0.44273110985945369 0 -0.05917884661055 -0.4590401041241583 0 -0.061269440441321127 -0.45180810022505591 0 -0.060002998013559863 -0.44648162232419802 0 -0.061269440441321127 -0.45180810022505591 0 -0.060002998013559863 -0.44648162232419802 0 -0.050581796861615229 -0.45333412325219669 0 -0.060002998013559863 -0.44648162232419802 0 -0.048623679129421588 -0.44273110985945369 0 -0.045123684251444827 -0.45223268167437758 0 -0.050581796861615229 -0.45333412325219669 0 -0.048623679129421588 -0.44273110985945369 0 -0.061269440441321127 -0.45180810022505591 0 -0.069408814394604765 -0.42365151461769918 0 -0.062180371227510647 -0.45563934639583059 0 -0.061269440441321127 -0.45180810022505591 0 -0.077098496045509793 -0.43873696019506903 0 -0.062180371227510647 -0.45563934639583059 0 -0.077098496045509793 -0.43873696019506903 0 -0.073769461018799692 -0.45951707792468061 0 -0.061269440441321127 -0.45180810022505591 0 -0.077098496045509793 -0.43873696019506903 0 -0.069408814394604765 -0.42365151461769918 0 -0.061269440441321127 -0.45180810022505591 0 -0.060002998013559863 -0.44648162232419802 0 -0.069408814394604765 -0.42365151461769918 0 -0.062180371227510647 -0.45563934639583059 0 -0.077098496045509793 -0.43873696019506903 0 -0.062180371227510647 -0.45563934639583059 0 -0.064422500494955764 -0.4650694252783244 0 -0.062180371227510647 -0.45563934639583059 0 -0.064422500494955764 -0.4650694252783244 0 -0.073769461018799692 -0.45951707792468061 0 -0.084521355142842869 -0.45759592347480388 0 -0.086143661312174283 -0.48253471263916248 0 -0.099165393688022629 -0.46120376842987459 0 -0.073769461018799692 -0.45951707792468061 0 -0.084521355142842869 -0.45759592347480388 0 -0.086143661312174283 -0.48253471263916248 0 -0.084521355142842869 -0.45759592347480388 0 -0.089624247433654214 -0.44685599598904568 0 -0.099165393688022629 -0.46120376842987459 0 -0.077098496045509793 -0.43873696019506903 0 -0.084521355142842869 -0.45759592347480388 0 -0.089624247433654214 -0.44685599598904568 0 -0.077098496045509793 -0.43873696019506903 0 -0.073769461018799692 -0.45951707792468061 0 -0.084521355142842869 -0.45759592347480388 0 -0.089624247433654214 -0.44685599598904568 0 -0.099878095611554862 -0.4393977270813314 0 -0.089545628933694749 -0.43673796215895883 0 -0.077098496045509793 -0.43873696019506903 0 -0.089624247433654214 -0.44685599598904568 0 -0.089545628933694749 -0.43673796215895883 0 -0.072727718816887776 -0.49999999999999672 0 -0.068575109655922298 -0.48253471263916042 0 -0.058853327493046781 -0.48842932436532971 0 -0.072727718816887776 -0.49999999999999672 0 -0.068575109655922298 -0.48253471263916042 0 -0.072727718816887776 -0.49999999999999672 0 -0.068575109655922298 -0.48253471263916042 0 -0.086143661312174283 -0.48253471263916248 0 -0.064422500494955764 -0.4650694252783244 0 -0.068575109655922298 -0.48253471263916042 0 -0.059149819292987238 -0.47777467248794547 0 -0.064422500494955764 -0.4650694252783244 0 -0.068575109655922298 -0.48253471263916042 0 -0.064422500494955764 -0.4650694252783244 0 -0.073769461018799692 -0.45951707792468061 0 -0.086143661312174283 -0.48253471263916248 0 -0.064422500494955764 -0.4650694252783244 0 -0.068575109655922298 -0.48253471263916042 0 -0.086143661312174283 -0.48253471263916248 0 -0.064422500494955764 -0.4650694252783244 0 -0.086143661312174283 -0.48253471263916248 0 -0.072727718816887776 -0.49999999999999672 0 -0.086143661312174283 -0.48253471263916248 0 -0.090296270473140428 -0.5 0 -0.086143661312174283 -0.48253471263916248 0 -0.090296270473140428 -0.5 0 -0.10786482212939311 -0.50000000000000011 0 -0.086143661312174283 -0.48253471263916248 0 -0.10786482212939311 -0.50000000000000011 0 -0.086143661312174283 -0.48253471263916248 0 -0.10786482212939311 -0.50000000000000011 0 -0.1056577076014347 -0.47999846360012538 0 -0.086143661312174283 -0.48253471263916248 0 -0.1056577076014347 -0.47999846360012538 0 -0.099165393688022629 -0.46120376842987459 0 -0.1056577076014347 -0.47999846360012538 0 -0.12108079434187891 -0.47202921183540031 0 -0.099165393688022629 -0.46120376842987459 0 -0.1056577076014347 -0.47999846360012538 0 -0.12108079434187891 -0.47202921183540031 0 -0.1206292342060253 -0.48641385964910883 0 -0.131118449396015 -0.5 0 -0.10786482212939311 -0.50000000000000011 0 -0.1206292342060253 -0.48641385964910883 0 -0.10786482212939311 -0.50000000000000011 0 -0.1056577076014347 -0.47999846360012538 0 -0.1206292342060253 -0.48641385964910883 0 -0.099878095611554862 -0.4393977270813314 0 -0.099165393688022629 -0.46120376842987459 0 -0.099878095611554862 -0.4393977270813314 0 -0.099165393688022629 -0.46120376842987459 0 -0.11615585050415531 -0.45102464773050138 0 -0.089624247433654214 -0.44685599598904568 0 -0.099878095611554862 -0.4393977270813314 0 -0.099165393688022629 -0.46120376842987459 0 -0.12108079434187891 -0.47202921183540031 0 -0.099165393688022629 -0.46120376842987459 0 -0.11615585050415531 -0.45102464773050138 0 -0.13077987840644981 -0.46069854066347632 0 -0.12108079434187891 -0.47202921183540031 0 -0.11615585050415531 -0.45102464773050138 0 -0.13194602454298601 -0.43962244526902572 0 -0.11615585050415531 -0.45102464773050138 0 -0.1129403580353462 -0.43280081863281078 0 -0.099878095611554862 -0.4393977270813314 0 -0.11615585050415531 -0.45102464773050138 0 -0.1129403580353462 -0.43280081863281078 0 -0.13194602454298601 -0.43962244526902572 0 -0.1165997240041481 -0.41847011486561592 0 -0.13194602454298601 -0.43962244526902572 0 -0.1129403580353462 -0.43280081863281078 0 -0.1165997240041481 -0.41847011486561592 0 -0.1129403580353462 -0.43280081863281078 0 -0.1079125428112538 -0.41892639524425412 0 -0.1165997240041481 -0.41847011486561592 0 -0.099878095611554862 -0.4393977270813314 0 -0.100590797535087 -0.41759168573278821 0 -0.092016620863508841 -0.4218345739943074 0 -0.099878095611554862 -0.4393977270813314 0 -0.089545628933694749 -0.43673796215895883 0 -0.092016620863508841 -0.4218345739943074 0 -0.099878095611554862 -0.4393977270813314 0 -0.1129403580353462 -0.43280081863281078 0 -0.10283731640903 -0.42510314405888588 0 -0.099878095611554862 -0.4393977270813314 0 -0.100590797535087 -0.41759168573278821 0 -0.099878095611554862 -0.4393977270813314 0 -0.10283731640903 -0.42510314405888588 0 -0.100590797535087 -0.41759168573278821 0 -0.1129403580353462 -0.43280081863281078 0 -0.10283731640903 -0.42510314405888588 0 -0.1079125428112538 -0.41892639524425412 0 -0.100590797535087 -0.41759168573278821 0 -0.1012534234653099 -0.39731778446220639 0 -0.1165997240041481 -0.41847011486561592 0 -0.1012534234653099 -0.39731778446220639 0 -0.100590797535087 -0.41759168573278821 0 -0.094499944748829334 -0.39722631626938482 0 -0.088610052547492879 -0.41006814396079783 0 -0.100590797535087 -0.41759168573278821 0 -0.1079125428112538 -0.41892639524425412 0 -0.1012534234653099 -0.39731778446220639 0 -0.100590797535087 -0.41759168573278821 0 -0.094499944748829334 -0.39722631626938482 0 -0.1079125428112538 -0.41892639524425412 0 -0.1165997240041481 -0.41847011486561592 0 -0.1012534234653099 -0.39731778446220639 0 -0.10283731640903 -0.42510314405888588 0 -0.100590797535087 -0.41759168573278821 0 -0.1079125428112538 -0.41892639524425412 0 -0.10283731640903 -0.42510314405888588 0 -0.100590797535087 -0.41759168573278821 0 -0.12592730430259419 -0.40432488328170318 0 -0.1165997240041481 -0.41847011486561592 0 -0.1152538145686829 -0.39895411709426332 0 -0.1165997240041481 -0.41847011486561592 0 -0.1152538145686829 -0.39895411709426332 0 -0.1012534234653099 -0.39731778446220639 0 -0.12526638733901391 -0.39147447277512609 0 -0.12592730430259419 -0.40432488328170318 0 -0.1152538145686829 -0.39895411709426332 0 -0.12526638733901391 -0.39147447277512609 0 -0.1152538145686829 -0.39895411709426332 0 -0.1147112201852714 -0.38836266809632891 0 -0.1152538145686829 -0.39895411709426332 0 -0.1147112201852714 -0.38836266809632891 0 -0.1077648281157602 -0.39377477908459929 0 -0.12526638733901391 -0.39147447277512609 0 -0.12201267174342199 -0.37938718301114999 0 -0.1147112201852714 -0.38836266809632891 0 -0.1147112201852714 -0.38836266809632891 0 -0.1094440337948836 -0.37923577087639421 0 -0.1073228884697877 -0.3875649225559597 0 -0.1147112201852714 -0.38836266809632891 0 -0.1073228884697877 -0.3875649225559597 0 -0.1077648281157602 -0.39377477908459929 0 -0.12201267174342199 -0.37938718301114999 0 -0.1147112201852714 -0.38836266809632891 0 -0.1094440337948836 -0.37923577087639421 0 -0.1159926709000937 -0.36685414663024191 0 -0.12201267174342199 -0.37938718301114999 0 -0.1094440337948836 -0.37923577087639421 0 -0.1024060606807759 -0.36205135125861898 0 -0.1094440337948836 -0.37923577087639421 0 -0.1016559479587178 -0.38500202459504551 0 -0.1094440337948836 -0.37923577087639421 0 -0.1016559479587178 -0.38500202459504551 0 -0.1073228884697877 -0.3875649225559597 0 -0.1016559479587178 -0.38500202459504551 0 -0.1014693111655476 -0.390712419775258 0 -0.1016559479587178 -0.38500202459504551 0 -0.1073228884697877 -0.3875649225559597 0 -0.1014693111655476 -0.390712419775258 0 -0.1016559479587178 -0.38500202459504551 0 -0.091585827134305964 -0.3839926061052007 0 -0.1016559479587178 -0.38500202459504551 0 -0.1014693111655476 -0.390712419775258 0 -0.093729726096669103 -0.3869476153003294 0 -0.1016559479587178 -0.38500202459504551 0 -0.091585827134305964 -0.3839926061052007 0 -0.093729726096669103 -0.3869476153003294 0 -0.1014693111655476 -0.390712419775258 0 -0.093729726096669103 -0.3869476153003294 0 -0.1016559479587178 -0.38500202459504551 0 -0.095426438310298192 -0.37780241062099151 0 -0.091585827134305964 -0.3839926061052007 0 -0.100590797535087 -0.41759168573278821 0 -0.1012534234653099 -0.39731778446220639 0 -0.099487365185966847 -0.39952233119993291 0 -0.100590797535087 -0.41759168573278821 0 -0.094499944748829334 -0.39722631626938482 0 -0.099487365185966847 -0.39952233119993291 0 -0.1152538145686829 -0.39895411709426332 0 -0.1077648281157602 -0.39377477908459929 0 -0.1012534234653099 -0.39731778446220639 0 -0.1073228884697877 -0.3875649225559597 0 -0.1077648281157602 -0.39377477908459929 0 -0.1014693111655476 -0.390712419775258 0 -0.1077648281157602 -0.39377477908459929 0 -0.1012534234653099 -0.39731778446220639 0 -0.1014693111655476 -0.390712419775258 0 -0.1077648281157602 -0.39377477908459929 0 -0.1014693111655476 -0.390712419775258 0 -0.1012534234653099 -0.39731778446220639 0 -0.094499944748829334 -0.39722631626938482 0 -0.099487365185966847 -0.39952233119993291 0 -0.1012534234653099 -0.39731778446220639 0 -0.094499944748829334 -0.39722631626938482 0 -0.093729726096669103 -0.3869476153003294 0 -0.1012534234653099 -0.39731778446220639 0 -0.1014693111655476 -0.390712419775258 0 -0.093729726096669103 -0.3869476153003294 0 -0.1012534234653099 -0.39731778446220639 0 -0.093729726096669103 -0.3869476153003294 0 -0.1012534234653099 -0.39731778446220639 0 -0.1014693111655476 -0.390712419775258 0 -0.094499944748829334 -0.39722631626938482 0 -0.099487365185966847 -0.39952233119993291 0 -0.094499944748829334 -0.39722631626938482 0 -0.085553154766675646 -0.40134027138503481 0 -0.088610052547492879 -0.41006814396079783 0 -0.094499944748829334 -0.39722631626938482 0 -0.082560309743270749 -0.39172977139542609 0 -0.085553154766675646 -0.40134027138503481 0 -0.094499944748829334 -0.39722631626938482 0 -0.082560309743270749 -0.39172977139542609 0 -0.091033556626635648 -0.38563610430902873 0 -0.094499944748829334 -0.39722631626938482 0 -0.082560309743270749 -0.39172977139542609 0 -0.094499944748829334 -0.39722631626938482 0 -0.091033556626635648 -0.38563610430902873 0 -0.082560309743270749 -0.39172977139542609 0 -0.079097438192195432 -0.39013559964190198 0 -0.074673198083630793 -0.40544040024196493 0 -0.082560309743270749 -0.39172977139542609 0 -0.079097438192195432 -0.39013559964190198 0 -0.082560309743270749 -0.39172977139542609 0 -0.076542312027108539 -0.406336853914531 0 -0.082560309743270749 -0.39172977139542609 0 -0.085553154766675646 -0.40134027138503481 0 -0.076542312027108539 -0.406336853914531 0 -0.085553154766675646 -0.40134027138503481 0 -0.076542312027108539 -0.406336853914531 0 -0.088610052547492879 -0.41006814396079783 0 -0.090139611558562177 -0.37333304007799939 0 -0.088525620654428705 -0.37725057202694517 0 -0.088525620654428705 -0.37725057202694517 0 -0.087954911787112483 -0.37534235041220648 0 -0.08170780991661282 -0.38109255286014232 0 -0.090139611558562177 -0.37333304007799939 0 -0.088525620654428705 -0.37725057202694517 0 -0.087954911787112483 -0.37534235041220648 0 -0.088525620654428705 -0.37725057202694517 0 -0.087954911787112483 -0.37534235041220648 0 -0.090139611558562177 -0.37333304007799939 0 -0.095426438310298192 -0.37780241062099151 0 -0.088525620654428705 -0.37725057202694517 0 -0.088525620654428705 -0.37725057202694517 0 -0.091585827134305964 -0.3839926061052007 0 -0.095426438310298192 -0.37780241062099151 0 -0.088525620654428705 -0.37725057202694517 0 -0.091585827134305964 -0.3839926061052007 0 -0.088525620654428705 -0.37725057202694517 0 -0.086634605294488312 -0.38349630075200858 0 -0.088525620654428705 -0.37725057202694517 0 -0.086634605294488312 -0.38349630075200858 0 -0.091585827134305964 -0.3839926061052007 0 -0.082560309743270749 -0.39172977139542609 0 -0.086634605294488312 -0.38349630075200858 0 -0.091033556626635648 -0.38563610430902873 0 -0.094499944748829334 -0.39722631626938482 0 -0.091033556626635648 -0.38563610430902873 0 -0.093729726096669103 -0.3869476153003294 0 -0.086634605294488312 -0.38349630075200858 0 -0.091585827134305964 -0.3839926061052007 0 -0.086634605294488312 -0.38349630075200858 0 -0.091033556626635648 -0.38563610430902873 0 -0.086634605294488312 -0.38349630075200858 0 -0.091585827134305964 -0.3839926061052007 0 -0.091033556626635648 -0.38563610430902873 0 -0.091585827134305964 -0.3839926061052007 0 -0.091033556626635648 -0.38563610430902873 0 -0.093729726096669103 -0.3869476153003294 0 -0.091033556626635648 -0.38563610430902873 0 -0.093729726096669103 -0.3869476153003294 0 -0.091585827134305964 -0.3839926061052007 0 -0.093729726096669103 -0.3869476153003294 0 -0.091585827134305964 -0.3839926061052007 0 -0.091033556626635648 -0.38563610430902873 0 -0.082560309743270749 -0.39172977139542609 0 -0.086634605294488312 -0.38349630075200858 0 -0.082560309743270749 -0.39172977139542609 0 -0.086634605294488312 -0.38349630075200858 0 -0.081174899406055781 -0.38294902548401538 0 -0.082560309743270749 -0.39172977139542609 0 -0.079097438192195432 -0.39013559964190198 0 -0.081174899406055781 -0.38294902548401538 0 -0.079097438192195432 -0.39013559964190198 0 -0.081174899406055781 -0.38294902548401538 0 -0.074281153156084773 -0.38791836881244668 0 -0.079097438192195432 -0.39013559964190198 0 -0.081174899406055781 -0.38294902548401538 0 -0.086634605294488312 -0.38349630075200858 0 -0.081174899406055781 -0.38294902548401538 0 -0.088525620654428705 -0.37725057202694517 0 -0.086634605294488312 -0.38349630075200858 0 -0.08170780991661282 -0.38109255286014232 0 -0.086634605294488312 -0.38349630075200858 0 -0.081174899406055781 -0.38294902548401538 0 -0.08170780991661282 -0.38109255286014232 0 -0.086634605294488312 -0.38349630075200858 0 -0.08170780991661282 -0.38109255286014232 0 -0.081174899406055781 -0.38294902548401538 0 -0.08170780991661282 -0.38109255286014232 0 -0.087954911787112483 -0.37534235041220648 0 -0.08170780991661282 -0.38109255286014232 0 -0.055512870853615448 -0.39455951290216967 0 -0.058563253679506787 -0.38068245751723601 0 -0.074281153156084773 -0.38791836881244668 0 -0.058563253679506787 -0.38068245751723601 0 -0.074281153156084773 -0.38791836881244668 0 -0.058387822440418388 -0.36975607908058028 0 -0.08170780991661282 -0.38109255286014232 0 -0.058387822440418388 -0.36975607908058028 0 -0.081174899406055781 -0.38294902548401538 0 -0.08170780991661282 -0.38109255286014232 0 -0.058563253679506787 -0.38068245751723601 0 -0.081174899406055781 -0.38294902548401538 0 -0.074281153156084773 -0.38791836881244668 0 -0.058563253679506787 -0.38068245751723601 0 -0.081174899406055781 -0.38294902548401538 0 -0.058387822440418388 -0.36975607908058028 0 -0.058563253679506787 -0.38068245751723601 0 -0.081174899406055781 -0.38294902548401538 0 -0.081174899406055781 -0.38294902548401538 0 -0.074281153156084773 -0.38791836881244668 0 -0.079097438192195432 -0.39013559964190198 0 -0.074281153156084773 -0.38791836881244668 0 -0.079097438192195432 -0.39013559964190198 0 -0.074281153156084773 -0.38791836881244668 0 -0.074673198083630793 -0.40544040024196493 0 -0.052509649903146327 -0.40794203844841681 0 -0.074281153156084773 -0.38791836881244668 0 -0.052509649903146327 -0.40794203844841681 0 -0.074281153156084773 -0.38791836881244668 0 -0.074673198083630793 -0.40544040024196493 0 -0.082560309743270749 -0.39172977139542609 0 -0.074673198083630793 -0.40544040024196493 0 -0.076542312027108539 -0.406336853914531 0 -0.079097438192195432 -0.39013559964190198 0 -0.074673198083630793 -0.40544040024196493 0 -0.052509649903146327 -0.40794203844841681 0 -0.074673198083630793 -0.40544040024196493 0 -0.070248957975066639 -0.42074520084202788 0 -0.076542312027108539 -0.406336853914531 0 -0.070248957975066639 -0.42074520084202788 0 -0.074673198083630793 -0.40544040024196493 0 -0.070248957975066639 -0.42074520084202788 0 -0.074673198083630793 -0.40544040024196493 0 -0.076542312027108539 -0.406336853914531 0 -0.070248957975066639 -0.42074520084202788 0 -0.070248957975066639 -0.42074520084202788 0 -0.077246521605040669 -0.42579562012280953 0 -0.078194253298280558 -0.41865647959270891 0 -0.076542312027108539 -0.406336853914531 0 -0.070248957975066639 -0.42074520084202788 0 -0.078194253298280558 -0.41865647959270891 0 -0.059775586818595829 -0.41787661413097049 0 -0.070248957975066639 -0.42074520084202788 0 -0.069408814394604765 -0.42365151461769918 0 -0.060002998013559863 -0.44648162232419802 0 -0.069408814394604765 -0.42365151461769918 0 -0.070248957975066639 -0.42074520084202788 0 -0.069408814394604765 -0.42365151461769918 0 -0.077098496045509793 -0.43873696019506903 0 -0.069408814394604765 -0.42365151461769918 0 -0.077246521605040669 -0.42579562012280953 0 -0.070248957975066639 -0.42074520084202788 0 -0.069408814394604765 -0.42365151461769918 0 -0.077246521605040669 -0.42579562012280953 0 -0.070248957975066639 -0.42074520084202788 0 -0.077246521605040669 -0.42579562012280953 0 -0.077246521605040669 -0.42579562012280953 0 -0.082943237868067593 -0.4239856173255338 0 -0.078194253298280558 -0.41865647959270891 0 -0.077098496045509793 -0.43873696019506903 0 -0.082943237868067593 -0.4239856173255338 0 -0.092016620863508841 -0.4218345739943074 0 -0.077098496045509793 -0.43873696019506903 0 -0.089545628933694749 -0.43673796215895883 0 -0.092016620863508841 -0.4218345739943074 0 -0.077098496045509793 -0.43873696019506903 0 -0.092016620863508841 -0.4218345739943074 0 -0.077098496045509793 -0.43873696019506903 0 -0.077246521605040669 -0.42579562012280953 0 -0.082943237868067593 -0.4239856173255338 0 -0.100590797535087 -0.41759168573278821 0 -0.092016620863508841 -0.4218345739943074 0 -0.088610052547492879 -0.41006814396079783 0 -0.082943237868067593 -0.4239856173255338 0 -0.092016620863508841 -0.4218345739943074 0 -0.083714880680240453 -0.41622037016703428 0 -0.092016620863508841 -0.4218345739943074 0 -0.088610052547492879 -0.41006814396079783 0 -0.083714880680240453 -0.41622037016703428 0 -0.076542312027108539 -0.406336853914531 0 -0.088610052547492879 -0.41006814396079783 0 -0.083714880680240453 -0.41622037016703428 0 -0.076542312027108539 -0.406336853914531 0 -0.078194253298280558 -0.41865647959270891 0 -0.083714880680240453 -0.41622037016703428 0 -0.082943237868067593 -0.4239856173255338 0 -0.078194253298280558 -0.41865647959270891 0 -0.083714880680240453 -0.41622037016703428 0 -0.081808777729522386 -0.083143660930833002 0 -0.073985000225153141 -0.099795971436559522 0 -0.085935801107842547 -0.09579043756499836 0 -0.081808777729522386 -0.083143660930833002 0 -0.085935801107842547 -0.09579043756499836 0 -0.094306078709463503 -0.087148618235937392 0 -0.081808777729522386 -0.083143660930833002 0 -0.094306078709463503 -0.087148618235937392 0 -0.095869533599057435 -0.074719864200214883 0 -0.081808777729522386 -0.083143660930833002 0 -0.087640100333796281 -0.066301869750421821 0 -0.076351800502585221 -0.068318825045574613 0 -0.081808777729522386 -0.083143660930833002 0 -0.087640100333796281 -0.066301869750421821 0 -0.095869533599057435 -0.074719864200214883 0 -0.087640100333796281 -0.066301869750421821 0 -0.095869533599057435 -0.074719864200214883 0 -0.097041901727127691 -0.062312633498474219 0 -0.087640100333796281 -0.066301869750421821 0 -0.076351800502585221 -0.068318825045574613 0 -0.079773765115028039 -0.057914828426178573 0 -0.081808777729522386 -0.083143660930833002 0 -0.076351800502585221 -0.068318825045574613 0 -0.068001603171865072 -0.074911341683796137 0 -0.068001603171865072 -0.074911341683796137 0 -0.065822825648978775 -0.060485584973140792 0 -0.05753372126900759 -0.073422836261521005 0 -0.076351800502585221 -0.068318825045574613 0 -0.068001603171865072 -0.074911341683796137 0 -0.065822825648978775 -0.060485584973140792 0 -0.068001603171865072 -0.074911341683796137 0 -0.066670257350634976 -0.085780572793309681 0 -0.05753372126900759 -0.073422836261521005 0 -0.081808777729522386 -0.083143660930833002 0 -0.066670257350634976 -0.085780572793309681 0 -0.073985000225153141 -0.099795971436559522 0 -0.081808777729522386 -0.083143660930833002 0 -0.068001603171865072 -0.074911341683796137 0 -0.066670257350634976 -0.085780572793309681 0 -0.066670257350634976 -0.085780572793309681 0 -0.073985000225153141 -0.099795971436559522 0 -0.05982498813170789 -0.10249801488187529 0 -0.073985000225153141 -0.099795971436559522 0 -0.065415314349395459 -0.11473522154729129 0 -0.05982498813170789 -0.10249801488187529 0 -0.073985000225153141 -0.099795971436559522 0 -0.065415314349395459 -0.11473522154729129 0 -0.07727601190464152 -0.1134926659633375 0 -0.065415314349395459 -0.11473522154729129 0 -0.060446148579459319 -0.1303024678998376 0 -0.071674103496310607 -0.1250344835198243 0 -0.07727601190464152 -0.1134926659633375 0 -0.082994471061899833 -0.1234246307735777 0 -0.071674103496310607 -0.1250344835198243 0 -0.065415314349395459 -0.11473522154729129 0 -0.07727601190464152 -0.1134926659633375 0 -0.071674103496310607 -0.1250344835198243 0 -0.07727601190464152 -0.1134926659633375 0 -0.082994471061899833 -0.1234246307735777 0 -0.08680817640523622 -0.1078855820033275 0 -0.082994471061899833 -0.1234246307735777 0 -0.08680817640523622 -0.1078855820033275 0 -0.095277368860953449 -0.1178446661751102 0 -0.082994471061899833 -0.1234246307735777 0 -0.095277368860953449 -0.1178446661751102 0 -0.095971306836852913 -0.13086642389395989 0 -0.085935801107842547 -0.09579043756499836 0 -0.08680817640523622 -0.1078855820033275 0 -0.1020424425883536 -0.1015565670732166 0 -0.073985000225153141 -0.099795971436559522 0 -0.085935801107842547 -0.09579043756499836 0 -0.08680817640523622 -0.1078855820033275 0 -0.073985000225153141 -0.099795971436559522 0 -0.07727601190464152 -0.1134926659633375 0 -0.08680817640523622 -0.1078855820033275 0 -0.085935801107842547 -0.09579043756499836 0 -0.1020424425883536 -0.1015565670732166 0 -0.094306078709463503 -0.087148618235937392 0 -0.08680817640523622 -0.1078855820033275 0 -0.1020424425883536 -0.1015565670732166 0 -0.095277368860953449 -0.1178446661751102 0 -0.1020424425883536 -0.1015565670732166 0 -0.095277368860953449 -0.1178446661751102 0 -0.1085913382140784 -0.11903379143832921 0 -0.095277368860953449 -0.1178446661751102 0 -0.1085913382140784 -0.11903379143832921 0 -0.095971306836852913 -0.13086642389395989 0 -0.1085913382140784 -0.11903379143832921 0 -0.11893842975153809 -0.10446969177473921 0 -0.12736410167423581 -0.1213878944680517 0 -0.1020424425883536 -0.1015565670732166 0 -0.11893842975153809 -0.10446969177473921 0 -0.1189291253072135 -0.086669643832799348 0 -0.1020424425883536 -0.1015565670732166 0 -0.1085913382140784 -0.11903379143832921 0 -0.11893842975153809 -0.10446969177473921 0 -0.1189291253072135 -0.086669643832799348 0 -0.1056068239719813 -0.08097964138995771 0 -0.1139735316209595 -0.069866863539540053 0 -0.1020424425883536 -0.1015565670732166 0 -0.1189291253072135 -0.086669643832799348 0 -0.1056068239719813 -0.08097964138995771 0 -0.1020424425883536 -0.1015565670732166 0 -0.1056068239719813 -0.08097964138995771 0 -0.094306078709463503 -0.087148618235937392 0 -0.1056068239719813 -0.08097964138995771 0 -0.094306078709463503 -0.087148618235937392 0 -0.095869533599057435 -0.074719864200214883 0 -0.095869533599057435 -0.074719864200214883 0 -0.1039382096783972 -0.069282752438140638 0 -0.097041901727127691 -0.062312633498474219 0 -0.1056068239719813 -0.08097964138995771 0 -0.1039382096783972 -0.069282752438140638 0 -0.1139735316209595 -0.069866863539540053 0 -0.1056068239719813 -0.08097964138995771 0 -0.095869533599057435 -0.074719864200214883 0 -0.1039382096783972 -0.069282752438140638 0 -0.1039382096783972 -0.069282752438140638 0 -0.097041901727127691 -0.062312633498474219 0 -0.1071992574728602 -0.058534759562516372 0 -0.1039382096783972 -0.069282752438140638 0 -0.1139735316209595 -0.069866863539540053 0 -0.1071992574728602 -0.058534759562516372 0 -0.1189291253072135 -0.086669643832799348 0 -0.1139735316209595 -0.069866863539540053 0 -0.12930964035960699 -0.069761515268982097 0 -0.1139735316209595 -0.069866863539540053 0 -0.1161384697585349 -0.056806249932135858 0 -0.12930964035960699 -0.069761515268982097 0 -0.1161384697585349 -0.056806249932135858 0 -0.1208541397454049 -0.045822468476665427 0 -0.12930964035960699 -0.069761515268982097 0 -0.1248214427799455 -0.0491876577223027 0 -0.1208541397454049 -0.045822468476665427 0 -0.12930964035960699 -0.069761515268982097 0 -0.1161384697585349 -0.056806249932135858 0 -0.10991932193075039 -0.048940588969216672 0 -0.1071992574728602 -0.058534759562516372 0 -0.1139735316209595 -0.069866863539540053 0 -0.1161384697585349 -0.056806249932135858 0 -0.1071992574728602 -0.058534759562516372 0 -0.1161384697585349 -0.056806249932135858 0 -0.10991932193075039 -0.048940588969216672 0 -0.1149357203506014 -0.047989794102068162 0 -0.1161384697585349 -0.056806249932135858 0 -0.1149357203506014 -0.047989794102068162 0 -0.1208541397454049 -0.045822468476665427 0 -0.1248214427799455 -0.0491876577223027 0 -0.1208541397454049 -0.045822468476665427 0 -0.1246368416492639 -0.024787675353444869 0 -0.1128309499677153 -0.040389869030254703 0 -0.10841128816168021 -0.033720593740292633 0 -0.11239863913120279 -0.021883421684348751 0 -0.1208541397454049 -0.045822468476665427 0 -0.11239863913120279 -0.021883421684348751 0 -0.1208541397454049 -0.045822468476665427 0 -0.1128309499677153 -0.040389869030254703 0 -0.11239863913120279 -0.021883421684348751 0 -0.1248214427799455 -0.0491876577223027 0 -0.1246368416492639 -0.024787675353444869 0 -0.1149357203506014 -0.047989794102068162 0 -0.1208541397454049 -0.045822468476665427 0 -0.1128309499677153 -0.040389869030254703 0 -0.10991932193075039 -0.048940588969216672 0 -0.1149357203506014 -0.047989794102068162 0 -0.1128309499677153 -0.040389869030254703 0 -0.10991932193075039 -0.048940588969216672 0 -0.1128309499677153 -0.040389869030254703 0 -0.1049963107845597 -0.040407454994133042 0 -0.10991932193075039 -0.048940588969216672 0 -0.1049963107845597 -0.040407454994133042 0 -0.1002598709818909 -0.049694841596422852 0 -0.1049963107845597 -0.040407454994133042 0 -0.10841128816168021 -0.033720593740292633 0 -0.1012581714839781 -0.029848849592015819 0 -0.1128309499677153 -0.040389869030254703 0 -0.1049963107845597 -0.040407454994133042 0 -0.10841128816168021 -0.033720593740292633 0 -0.097298262181343159 -0.039849987036595598 0 -0.1012581714839781 -0.029848849592015819 0 -0.091929659262116575 -0.033133953101480262 0 -0.1049963107845597 -0.040407454994133042 0 -0.097298262181343159 -0.039849987036595598 0 -0.1012581714839781 -0.029848849592015819 0 -0.1049963107845597 -0.040407454994133042 0 -0.097298262181343159 -0.039849987036595598 0 -0.1002598709818909 -0.049694841596422852 0 -0.097298262181343159 -0.039849987036595598 0 -0.1002598709818909 -0.049694841596422852 0 -0.087030839425688053 -0.044306376809862227 0 -0.1002598709818909 -0.049694841596422852 0 -0.097041901727127691 -0.062312633498474219 0 -0.1071992574728602 -0.058534759562516372 0 -0.1002598709818909 -0.049694841596422852 0 -0.097041901727127691 -0.062312633498474219 0 -0.090164156554830718 -0.055563028782557922 0 -0.10991932193075039 -0.048940588969216672 0 -0.1002598709818909 -0.049694841596422852 0 -0.1071992574728602 -0.058534759562516372 0 -0.1244522405185825 -0.00038769298458709092 0 -0.11239863913120279 -0.021883421684348751 0 -0.10394313851700079 0.0020556251079679459 0 -0.1244522405185825 -0.00038769298458709092 0 -0.1246368416492639 -0.024787675353444869 0 -0.1244522405185825 -0.00038769298458709092 0 -0.11239863913120279 -0.021883421684348751 0 -0.1246368416492639 -0.024787675353444869 0 -0.1208541397454049 -0.045822468476665427 0 -0.11239863913120279 -0.021883421684348751 0 -0.1246368416492639 -0.024787675353444869 0 -0.10841128816168021 -0.033720593740292633 0 -0.11239863913120279 -0.021883421684348751 0 -0.1012581714839781 -0.029848849592015819 0 -0.1012581714839781 -0.029848849592015819 0 -0.090677970328949406 -0.022917020247476879 0 -0.091929659262116575 -0.033133953101480262 0 -0.1012581714839781 -0.029848849592015819 0 -0.1001126671493681 -0.016491083843961009 0 -0.090677970328949406 -0.022917020247476879 0 -0.1001126671493681 -0.016491083843961009 0 -0.092285416285709382 -0.0098617528039315269 0 -0.090677970328949406 -0.022917020247476879 0 -0.11239863913120279 -0.021883421684348751 0 -0.1012581714839781 -0.029848849592015819 0 -0.1001126671493681 -0.016491083843961009 0 -0.1001126671493681 -0.016491083843961009 0 -0.092285416285709382 -0.0098617528039315269 0 -0.10394313851700079 0.0020556251079679459 0 -0.11239863913120279 -0.021883421684348751 0 -0.1001126671493681 -0.016491083843961009 0 -0.10394313851700079 0.0020556251079679459 0 -0.092285416285709382 -0.0098617528039315269 0 -0.10394313851700079 0.0020556251079679459 0 -0.085958893623968774 0.001514634656162053 0 -0.11239863913120279 -0.021883421684348751 0 -0.10394313851700079 0.0020556251079679459 0 -0.092285416285709382 -0.0098617528039315269 0 -0.077949881484559239 -0.01307625006729682 0 -0.085958893623968774 0.001514634656162053 0 -0.092285416285709382 -0.0098617528039315269 0 -0.090677970328949406 -0.022917020247476879 0 -0.077949881484559239 -0.01307625006729682 0 -0.090677970328949406 -0.022917020247476879 0 -0.073841780976804383 -0.025706854857452392 0 -0.077949881484559239 -0.01307625006729682 0 -0.090677970328949406 -0.022917020247476879 0 -0.073841780976804383 -0.025706854857452392 0 -0.082102255714859004 -0.034759692131612618 0 -0.090677970328949406 -0.022917020247476879 0 -0.091929659262116575 -0.033133953101480262 0 -0.082102255714859004 -0.034759692131612618 0 -0.073841780976804383 -0.025706854857452392 0 -0.077949881484559239 -0.01307625006729682 0 -0.060674527584339763 -0.015412449877807689 0 -0.073841780976804383 -0.025706854857452392 0 -0.060674527584339763 -0.015412449877807689 0 -0.060703590497751453 -0.03101491529774986 0 -0.077949881484559239 -0.01307625006729682 0 -0.085958893623968774 0.001514634656162053 0 -0.065648076432031049 0.00090955339710942099 0 -0.077949881484559239 -0.01307625006729682 0 -0.060674527584339763 -0.015412449877807689 0 -0.065648076432031049 0.00090955339710942099 0 -0.079773765115028039 -0.057914828426178573 0 -0.087030839425688053 -0.044306376809862227 0 -0.074827122987446398 -0.047817820925290022 0 -0.079773765115028039 -0.057914828426178573 0 -0.090164156554830718 -0.055563028782557922 0 -0.087030839425688053 -0.044306376809862227 0 -0.087640100333796281 -0.066301869750421821 0 -0.079773765115028039 -0.057914828426178573 0 -0.090164156554830718 -0.055563028782557922 0 -0.087640100333796281 -0.066301869750421821 0 -0.097041901727127691 -0.062312633498474219 0 -0.090164156554830718 -0.055563028782557922 0 -0.1002598709818909 -0.049694841596422852 0 -0.090164156554830718 -0.055563028782557922 0 -0.087030839425688053 -0.044306376809862227 0 -0.097298262181343159 -0.039849987036595598 0 -0.087030839425688053 -0.044306376809862227 0 -0.091929659262116575 -0.033133953101480262 0 -0.087030839425688053 -0.044306376809862227 0 -0.091929659262116575 -0.033133953101480262 0 -0.082102255714859004 -0.034759692131612618 0 -0.087030839425688053 -0.044306376809862227 0 -0.082102255714859004 -0.034759692131612618 0 -0.074827122987446398 -0.047817820925290022 0 -0.082102255714859004 -0.034759692131612618 0 -0.070942460250367517 -0.03706080152277047 0 -0.074827122987446398 -0.047817820925290022 0 -0.073841780976804383 -0.025706854857452392 0 -0.082102255714859004 -0.034759692131612618 0 -0.070942460250367517 -0.03706080152277047 0 -0.073841780976804383 -0.025706854857452392 0 -0.070942460250367517 -0.03706080152277047 0 -0.060703590497751453 -0.03101491529774986 0 -0.070942460250367517 -0.03706080152277047 0 -0.061850736208416378 -0.044087883634974623 0 -0.060703590497751453 -0.03101491529774986 0 -0.070942460250367517 -0.03706080152277047 0 -0.074827122987446398 -0.047817820925290022 0 -0.061850736208416378 -0.044087883634974623 0 -0.074827122987446398 -0.047817820925290022 0 -0.065822825648978775 -0.060485584973140792 0 -0.061850736208416378 -0.044087883634974623 0 -0.079773765115028039 -0.057914828426178573 0 -0.074827122987446398 -0.047817820925290022 0 -0.065822825648978775 -0.060485584973140792 0 -0.076351800502585221 -0.068318825045574613 0 -0.079773765115028039 -0.057914828426178573 0 -0.065822825648978775 -0.060485584973140792 0 -0.065822825648978775 -0.060485584973140792 0 -0.051906109188989122 -0.051634581827710108 0 -0.055146373663134192 -0.063188587977351315 0 -0.065822825648978775 -0.060485584973140792 0 -0.051906109188989122 -0.051634581827710108 0 -0.061850736208416378 -0.044087883634974623 0 -0.051906109188989122 -0.051634581827710108 0 -0.044968642856814678 -0.064628327886466996 0 -0.055146373663134192 -0.063188587977351315 0 -0.061850736208416378 -0.044087883634974623 0 -0.048286593140243993 -0.039377229684959138 0 -0.060703590497751453 -0.03101491529774986 0 -0.051906109188989122 -0.051634581827710108 0 -0.061850736208416378 -0.044087883634974623 0 -0.048286593140243993 -0.039377229684959138 0 -0.048286593140243993 -0.039377229684959138 0 -0.039642814346724391 -0.052475069278980747 0 -0.030584103036016622 -0.035608219704199993 0 -0.039642814346724391 -0.052475069278980747 0 -0.024435088609687641 -0.049746151716912712 0 -0.030584103036016622 -0.035608219704199993 0 -0.048286593140243993 -0.039377229684959138 0 -0.044331283213942488 -0.020119990811347448 0 -0.030584103036016622 -0.035608219704199993 0 -0.039642814346724391 -0.052475069278980747 0 -0.03034189778213453 -0.060014988360291517 0 -0.024435088609687641 -0.049746151716912712 0 -0.039642814346724391 -0.052475069278980747 0 -0.03034189778213453 -0.060014988360291517 0 -0.044968642856814678 -0.064628327886466996 0 -0.051906109188989122 -0.051634581827710108 0 -0.039642814346724391 -0.052475069278980747 0 -0.044968642856814678 -0.064628327886466996 0 -0.051906109188989122 -0.051634581827710108 0 -0.048286593140243993 -0.039377229684959138 0 -0.039642814346724391 -0.052475069278980747 0 -0.060674527584339763 -0.015412449877807689 0 -0.044331283213942488 -0.020119990811347448 0 -0.045118160941850949 -0.00049033847668307538 0 -0.060674527584339763 -0.015412449877807689 0 -0.045118160941850949 -0.00049033847668307538 0 -0.065648076432031049 0.00090955339710942099 0 -0.048286593140243993 -0.039377229684959138 0 -0.060703590497751453 -0.03101491529774986 0 -0.044331283213942488 -0.020119990811347448 0 -0.060674527584339763 -0.015412449877807689 0 -0.060703590497751453 -0.03101491529774986 0 -0.044331283213942488 -0.020119990811347448 0 -0.044331283213942488 -0.020119990811347448 0 -0.027025641752002061 -0.0079319500279313396 0 -0.030584103036016622 -0.035608219704199993 0 -0.044331283213942488 -0.020119990811347448 0 -0.045118160941850949 -0.00049033847668307538 0 -0.027025641752002061 -0.0079319500279313396 0 -0.027025641752002061 -0.0079319500279313396 0 -0.0118242871531395 -0.020545428430059291 0 -0.0091716063734174208 -0.003332990253060792 0 -0.027025641752002061 -0.0079319500279313396 0 -0.0091716063734174208 -0.003332990253060792 0 -0.01566814095190756 0.010235570601176981 0 -0.027025641752002061 -0.0079319500279313396 0 -0.0118242871531395 -0.020545428430059291 0 -0.030584103036016622 -0.035608219704199993 0 -0.0118242871531395 -0.020545428430059291 0 -0.030584103036016622 -0.035608219704199993 0 -0.0118242871531395 -0.020545428430059291 0 0.006935528729737548 -0.0054826371559186567 0 0.0027408304473846411 -0.028176541972939319 0 -0.0118242871531395 -0.020545428430059291 0 -0.01026660782967455 -0.041229232136501717 0 0.0027408304473846411 -0.028176541972939319 0 -0.0118242871531395 -0.020545428430059291 0 -0.0091716063734174208 -0.003332990253060792 0 0.006935528729737548 -0.0054826371559186567 0 -0.0118242871531395 -0.020545428430059291 0 0.006935528729737548 -0.0054826371559186567 0 -0.024435088609687641 -0.049746151716912712 0 -0.01026660782967455 -0.041229232136501717 0 -0.01499476028908407 -0.06055090283160456 0 -0.03034189778213453 -0.060014988360291517 0 -0.01499476028908407 -0.06055090283160456 0 -0.03034189778213453 -0.060014988360291517 0 -0.024435088609687641 -0.049746151716912712 0 -0.01499476028908407 -0.06055090283160456 0 -0.024435088609687641 -0.049746151716912712 0 -0.030584103036016622 -0.035608219704199993 0 -0.01026660782967455 -0.041229232136501717 0 -0.0118242871531395 -0.020545428430059291 0 -0.030584103036016622 -0.035608219704199993 0 -0.01026660782967455 -0.041229232136501717 0 -0.01026660782967455 -0.041229232136501717 0 0.0096258971738255473 -0.043108802377643002 0 0.00035237720396625368 -0.061086817302918282 0 -0.01026660782967455 -0.041229232136501717 0 -0.01499476028908407 -0.06055090283160456 0 0.00035237720396625368 -0.061086817302918282 0 -0.01499476028908407 -0.06055090283160456 0 0.00035237720396625368 -0.061086817302918282 0 -0.011408129540087309 -0.083886203777590068 0 0.0065051428120863272 -0.082127796022149757 0 0.00035237720396625368 -0.061086817302918282 0 -0.011408129540087309 -0.083886203777590068 0 0.00035237720396625368 -0.061086817302918282 0 -0.01499476028908407 -0.06055090283160456 0 -0.011408129540087309 -0.083886203777590068 0 0.00035237720396625368 -0.061086817302918282 0 -0.011408129540087309 -0.083886203777590068 0 0.001856719827670471 -0.098182337095309047 0 0.0065051428120863272 -0.082127796022149757 0 -0.011408129540087309 -0.083886203777590068 0 -0.03053113156520738 -0.089911417014305078 0 -0.02316863628414112 -0.10668559025226169 0 -0.011408129540087309 -0.083886203777590068 0 -0.03053113156520738 -0.089911417014305078 0 -0.026049830403481512 -0.075342802050597457 0 -0.01499476028908407 -0.06055090283160456 0 -0.011408129540087309 -0.083886203777590068 0 -0.026049830403481512 -0.075342802050597457 0 -0.03034189778213453 -0.060014988360291517 0 -0.01499476028908407 -0.06055090283160456 0 -0.026049830403481512 -0.075342802050597457 0 -0.03034189778213453 -0.060014988360291517 0 -0.026049830403481512 -0.075342802050597457 0 -0.041349905228919973 -0.078428718904655664 0 -0.03034189778213453 -0.060014988360291517 0 -0.044968642856814678 -0.064628327886466996 0 -0.041349905228919973 -0.078428718904655664 0 -0.03053113156520738 -0.089911417014305078 0 -0.026049830403481512 -0.075342802050597457 0 -0.041349905228919973 -0.078428718904655664 0 -0.03053113156520738 -0.089911417014305078 0 -0.041349905228919973 -0.078428718904655664 0 -0.047432501145458397 -0.097370211357339573 0 -0.041349905228919973 -0.078428718904655664 0 -0.053879666709155317 -0.08598560359304859 0 -0.05753372126900759 -0.073422836261521005 0 -0.041349905228919973 -0.078428718904655664 0 -0.053879666709155317 -0.08598560359304859 0 -0.047432501145458397 -0.097370211357339573 0 -0.066670257350634976 -0.085780572793309681 0 -0.053879666709155317 -0.08598560359304859 0 -0.05982498813170789 -0.10249801488187529 0 -0.066670257350634976 -0.085780572793309681 0 -0.053879666709155317 -0.08598560359304859 0 -0.05753372126900759 -0.073422836261521005 0 -0.044968642856814678 -0.064628327886466996 0 -0.041349905228919973 -0.078428718904655664 0 -0.05753372126900759 -0.073422836261521005 0 -0.065822825648978775 -0.060485584973140792 0 -0.05753372126900759 -0.073422836261521005 0 -0.055146373663134192 -0.063188587977351315 0 -0.044968642856814678 -0.064628327886466996 0 -0.05753372126900759 -0.073422836261521005 0 -0.055146373663134192 -0.063188587977351315 0 -0.065415314349395459 -0.11473522154729129 0 -0.048239208743362072 -0.1165718691901324 0 -0.05982498813170789 -0.10249801488187529 0 -0.065415314349395459 -0.11473522154729129 0 -0.048239208743362072 -0.1165718691901324 0 -0.060446148579459319 -0.1303024678998376 0 -0.048239208743362072 -0.1165718691901324 0 -0.05982498813170789 -0.10249801488187529 0 -0.047432501145458397 -0.097370211357339573 0 -0.053879666709155317 -0.08598560359304859 0 -0.05982498813170789 -0.10249801488187529 0 -0.047432501145458397 -0.097370211357339573 0 -0.048239208743362072 -0.1165718691901324 0 -0.047432501145458397 -0.097370211357339573 0 -0.02316863628414112 -0.10668559025226169 0 -0.03053113156520738 -0.089911417014305078 0 -0.047432501145458397 -0.097370211357339573 0 -0.02316863628414112 -0.10668559025226169 0 -0.048239208743362072 -0.1165718691901324 0 -0.02316863628414112 -0.10668559025226169 0 -0.029948833034415319 -0.13246817914486481 0 -0.02316863628414112 -0.10668559025226169 0 -0.01250087523651249 -0.12826546419306251 0 -0.029948833034415319 -0.13246817914486481 0 -0.011408129540087309 -0.083886203777590068 0 -0.02316863628414112 -0.10668559025226169 0 -0.02316863628414112 -0.10668559025226169 0 0.0015243557028834459 -0.11711868301268021 0 0.001856719827670471 -0.098182337095309047 0 -0.011408129540087309 -0.083886203777590068 0 -0.02316863628414112 -0.10668559025226169 0 0.001856719827670471 -0.098182337095309047 0 -0.02316863628414112 -0.10668559025226169 0 -0.01250087523651249 -0.12826546419306251 0 0.0015243557028834459 -0.11711868301268021 0 -0.01250087523651249 -0.12826546419306251 0 -0.013317386200938249 -0.14799664519887931 0 0.0088678229424013627 -0.13941235935176011 0 -0.01250087523651249 -0.12826546419306251 0 0.0088678229424013627 -0.13941235935176011 0 0.0015243557028834459 -0.11711868301268021 0 -0.01250087523651249 -0.12826546419306251 0 -0.029948833034415319 -0.13246817914486481 0 -0.013317386200938249 -0.14799664519887931 0 -0.013317386200938249 -0.14799664519887931 0 -0.035502595344277812 -0.15658093104599841 0 -0.029948833034415319 -0.13246817914486481 0 -0.013317386200938249 -0.14799664519887931 0 -0.035502595344277812 -0.15658093104599841 0 -0.013317386200938249 -0.14799664519887931 0 0.0088678229424013627 -0.13941235935176011 0 -0.013317386200938249 -0.14799664519887931 0 0.0027310736070901482 -0.15493719994590471 0 0.0088678229424013627 -0.13941235935176011 0 -0.013317386200938249 -0.14799664519887931 0 -0.0013673002328405961 -0.1767093328090546 0 0.0027310736070901482 -0.15493719994590471 0 -0.013317386200938249 -0.14799664519887931 0 -0.0013673002328405961 -0.1767093328090546 0 -0.029934926785222919 -0.1776443960910804 0 -0.0013673002328405961 -0.1767093328090546 0 -0.0217915143334447 -0.19785215020996011 0 -0.0013673002328405961 -0.1767093328090546 0 -0.029934926785222919 -0.1776443960910804 0 -0.0217915143334447 -0.19785215020996011 0 -0.013317386200938249 -0.14799664519887931 0 -0.029934926785222919 -0.1776443960910804 0 -0.035502595344277812 -0.15658093104599841 0 -0.035502595344277812 -0.15658093104599841 0 -0.057687804487617317 -0.16516521689311761 0 -0.029934926785222919 -0.1776443960910804 0 -0.035502595344277812 -0.15658093104599841 0 -0.057687804487617317 -0.16516521689311761 0 -0.029934926785222919 -0.1776443960910804 0 -0.048583433801033478 -0.18728911877980611 0 -0.034676635542126917 -0.191298641696723 0 -0.029934926785222919 -0.1776443960910804 0 -0.048583433801033478 -0.18728911877980611 0 -0.057687804487617317 -0.16516521689311761 0 -0.048583433801033478 -0.18728911877980611 0 -0.057687804487617317 -0.16516521689311761 0 -0.063770138428779252 -0.18079669395549949 0 -0.035502595344277812 -0.15658093104599841 0 -0.057687804487617317 -0.16516521689311761 0 -0.06059931965736505 -0.14742373122833671 0 -0.035502595344277812 -0.15658093104599841 0 -0.06059931965736505 -0.14742373122833671 0 -0.046947221071775923 -0.13666943570183401 0 -0.048239208743362072 -0.1165718691901324 0 -0.046947221071775923 -0.13666943570183401 0 -0.060446148579459319 -0.1303024678998376 0 -0.06059931965736505 -0.14742373122833671 0 -0.046947221071775923 -0.13666943570183401 0 -0.060446148579459319 -0.1303024678998376 0 -0.048239208743362072 -0.1165718691901324 0 -0.029948833034415319 -0.13246817914486481 0 -0.046947221071775923 -0.13666943570183401 0 -0.029948833034415319 -0.13246817914486481 0 -0.035502595344277812 -0.15658093104599841 0 -0.046947221071775923 -0.13666943570183401 0 -0.03064478186574425 -0.25326356670072259 0 -0.026067501294639708 -0.24850247980592871 0 -0.033387688564450117 -0.24425465961654741 0 -0.026067501294639708 -0.24850247980592871 0 -0.02456862519526215 -0.24210395604782819 0 -0.033387688564450117 -0.24425465961654741 0 -0.02974340118516787 -0.23585106297766359 0 -0.02456862519526215 -0.24210395604782819 0 -0.02062871475200042 -0.2320366992723622 0 -0.02974340118516787 -0.23585106297766359 0 -0.02456862519526215 -0.24210395604782819 0 -0.033387688564450117 -0.24425465961654741 0 -0.02456862519526215 -0.24210395604782819 0 -0.01660477195623393 -0.2403164687020414 0 -0.02062871475200042 -0.2320366992723622 0 -0.02456862519526215 -0.24210395604782819 0 -0.01660477195623393 -0.2403164687020414 0 -0.01887874476148543 -0.24814250919209771 0 -0.026067501294639708 -0.24850247980592871 0 -0.02456862519526215 -0.24210395604782819 0 -0.01887874476148543 -0.24814250919209771 0 -0.01660477195623393 -0.2403164687020414 0 -0.01887874476148543 -0.24814250919209771 0 -0.0080727856436109482 -0.2481099565327444 0 -0.0080727856436109482 -0.2481099565327444 0 -0.0084819670471955304 -0.2367225590632196 0 0.0055632338660241776 -0.24332209518663511 0 -0.01660477195623393 -0.2403164687020414 0 -0.0084819670471955304 -0.2367225590632196 0 -0.02062871475200042 -0.2320366992723622 0 -0.01660477195623393 -0.2403164687020414 0 -0.0080727856436109482 -0.2481099565327444 0 -0.0084819670471955304 -0.2367225590632196 0 -0.0084819670471955304 -0.2367225590632196 0 -0.0075276580997289226 -0.21896018305478171 0 0.0032521440618358652 -0.23009641691855939 0 -0.0084819670471955304 -0.2367225590632196 0 -0.0075276580997289226 -0.21896018305478171 0 -0.02062871475200042 -0.2320366992723622 0 -0.0075276580997289226 -0.21896018305478171 0 -0.02062871475200042 -0.2320366992723622 0 -0.024832472176938718 -0.21885173135413241 0 -0.02974340118516787 -0.23585106297766359 0 -0.02062871475200042 -0.2320366992723622 0 -0.031998745265470661 -0.22641465662269231 0 -0.02062871475200042 -0.2320366992723622 0 -0.024832472176938718 -0.21885173135413241 0 -0.031998745265470661 -0.22641465662269231 0 -0.0075276580997289226 -0.21896018305478171 0 -0.024832472176938718 -0.21885173135413241 0 -0.0217915143334447 -0.19785215020996011 0 -0.024832472176938718 -0.21885173135413241 0 -0.0217915143334447 -0.19785215020996011 0 -0.042215728434048867 -0.21899496761086559 0 -0.0075276580997289226 -0.21896018305478171 0 -0.0217915143334447 -0.19785215020996011 0 0.003555539334036632 -0.19934620758084881 0 -0.0013673002328405961 -0.1767093328090546 0 -0.0217915143334447 -0.19785215020996011 0 0.003555539334036632 -0.19934620758084881 0 -0.029934926785222919 -0.1776443960910804 0 -0.0217915143334447 -0.19785215020996011 0 -0.034676635542126917 -0.191298641696723 0 -0.0217915143334447 -0.19785215020996011 0 -0.034676635542126917 -0.191298641696723 0 -0.04224094911505525 -0.20168175555289891 0 -0.048583433801033478 -0.18728911877980611 0 -0.034676635542126917 -0.191298641696723 0 -0.04224094911505525 -0.20168175555289891 0 -0.048583433801033478 -0.18728911877980611 0 -0.058327232484387218 -0.2013044317948425 0 -0.063770138428779252 -0.18079669395549949 0 -0.048583433801033478 -0.18728911877980611 0 -0.04224094911505525 -0.20168175555289891 0 -0.058327232484387218 -0.2013044317948425 0 -0.058327232484387218 -0.2013044317948425 0 -0.04785115009529034 -0.21335122322519601 0 -0.065984069430329237 -0.21594808513783789 0 -0.04224094911505525 -0.20168175555289891 0 -0.058327232484387218 -0.2013044317948425 0 -0.04785115009529034 -0.21335122322519601 0 -0.04785115009529034 -0.21335122322519601 0 -0.065984069430329237 -0.21594808513783789 0 -0.04785115009529034 -0.21335122322519601 0 -0.050089297127046031 -0.22131182591420251 0 -0.065984069430329237 -0.21594808513783789 0 -0.0217915143334447 -0.19785215020996011 0 -0.042215728434048867 -0.21899496761086559 0 -0.0217915143334447 -0.19785215020996011 0 -0.04224094911505525 -0.20168175555289891 0 -0.042215728434048867 -0.21899496761086559 0 -0.04224094911505525 -0.20168175555289891 0 -0.04785115009529034 -0.21335122322519601 0 -0.042215728434048867 -0.21899496761086559 0 -0.04785115009529034 -0.21335122322519601 0 -0.042215728434048867 -0.21899496761086559 0 -0.050089297127046031 -0.22131182591420251 0 -0.024832472176938718 -0.21885173135413241 0 -0.031998745265470661 -0.22641465662269231 0 -0.042215728434048867 -0.21899496761086559 0 -0.031998745265470661 -0.22641465662269231 0 -0.042215728434048867 -0.21899496761086559 0 -0.041320068815934301 -0.22639292378782619 0 -0.031998745265470661 -0.22641465662269231 0 -0.041320068815934301 -0.22639292378782619 0 -0.038133232148655979 -0.23444534332888789 0 -0.02974340118516787 -0.23585106297766359 0 -0.031998745265470661 -0.22641465662269231 0 -0.038133232148655979 -0.23444534332888789 0 -0.041320068815934301 -0.22639292378782619 0 -0.052151212760384272 -0.22988480121754831 0 -0.038133232148655979 -0.23444534332888789 0 -0.042215728434048867 -0.21899496761086559 0 -0.041320068815934301 -0.22639292378782619 0 -0.050089297127046031 -0.22131182591420251 0 -0.041320068815934301 -0.22639292378782619 0 -0.050089297127046031 -0.22131182591420251 0 -0.052151212760384272 -0.22988480121754831 0 -0.0567919256119837 -0.24387644547435741 0 -0.065984069430329237 -0.21594808513783789 0 -0.050089297127046031 -0.22131182591420251 0 -0.052151212760384272 -0.22988480121754831 0 -0.065984069430329237 -0.21594808513783789 0 -0.052151212760384272 -0.22988480121754831 0 -0.0567919256119837 -0.24387644547435741 0 -0.065984069430329237 -0.21594808513783789 0 -0.052151212760384272 -0.22988480121754831 0 -0.0567919256119837 -0.24387644547435741 0 -0.045207486351244337 -0.24272005325013779 0 -0.046517308340487992 -0.25474718453952289 0 -0.0567919256119837 -0.24387644547435741 0 -0.045207486351244337 -0.24272005325013779 0 -0.038581934025118947 -0.25114857380685968 0 -0.046517308340487992 -0.25474718453952289 0 -0.045207486351244337 -0.24272005325013779 0 -0.052151212760384272 -0.22988480121754831 0 -0.045207486351244337 -0.24272005325013779 0 -0.038133232148655979 -0.23444534332888789 0 -0.02974340118516787 -0.23585106297766359 0 -0.038133232148655979 -0.23444534332888789 0 -0.033387688564450117 -0.24425465961654741 0 -0.045207486351244337 -0.24272005325013779 0 -0.038133232148655979 -0.23444534332888789 0 -0.033387688564450117 -0.24425465961654741 0 -0.038581934025118947 -0.25114857380685968 0 -0.03064478186574425 -0.25326356670072259 0 -0.033387688564450117 -0.24425465961654741 0 -0.038581934025118947 -0.25114857380685968 0 -0.045207486351244337 -0.24272005325013779 0 -0.033387688564450117 -0.24425465961654741 0 -0.076282262678724011 -0.24169347649274159 0 -0.094544528280961701 -0.23130979592197831 0 -0.1005321994236209 -0.2431127607729493 0 -0.090174700483665673 -0.26498018187443112 0 -0.076282262678724011 -0.24169347649274159 0 -0.1005321994236209 -0.2431127607729493 0 -0.063484538676239377 -0.26413124226689111 0 -0.0567919256119837 -0.24387644547435741 0 -0.076282262678724011 -0.24169347649274159 0 -0.0567919256119837 -0.24387644547435741 0 -0.076282262678724011 -0.24169347649274159 0 -0.076216545617433393 -0.2267874217425101 0 -0.0567919256119837 -0.24387644547435741 0 -0.076216545617433393 -0.2267874217425101 0 -0.065984069430329237 -0.21594808513783789 0 -0.076216545617433393 -0.2267874217425101 0 -0.089079986681209755 -0.21925571071859279 0 -0.065984069430329237 -0.21594808513783789 0 -0.076282262678724011 -0.24169347649274159 0 -0.076216545617433393 -0.2267874217425101 0 -0.089079986681209755 -0.21925571071859279 0 -0.076282262678724011 -0.24169347649274159 0 -0.089079986681209755 -0.21925571071859279 0 -0.076282262678724011 -0.24169347649274159 0 -0.089079986681209755 -0.21925571071859279 0 -0.094544528280961701 -0.23130979592197831 0 -0.089079986681209755 -0.21925571071859279 0 -0.087982693832912948 -0.20610030108417279 0 -0.065984069430329237 -0.21594808513783789 0 -0.089079986681209755 -0.21925571071859279 0 -0.091681034097487346 -0.21469539259619891 0 -0.087982693832912948 -0.20610030108417279 0 -0.089079986681209755 -0.21925571071859279 0 -0.091681034097487346 -0.21469539259619891 0 -0.089079986681209755 -0.21925571071859279 0 -0.065984069430329237 -0.21594808513783789 0 -0.058327232484387218 -0.2013044317948425 0 -0.065984069430329237 -0.21594808513783789 0 -0.072928541530643487 -0.1948487939390374 0 -0.065984069430329237 -0.21594808513783789 0 -0.072928541530643487 -0.1948487939390374 0 -0.087982693832912948 -0.20610030108417279 0 -0.065984069430329237 -0.21594808513783789 0 -0.072928541530643487 -0.1948487939390374 0 -0.058327232484387218 -0.2013044317948425 0 -0.072928541530643487 -0.1948487939390374 0 -0.063770138428779252 -0.18079669395549949 0 -0.087982693832912948 -0.20610030108417279 0 -0.072928541530643487 -0.1948487939390374 0 -0.088647710124579282 -0.1895137930351245 0 -0.087982693832912948 -0.20610030108417279 0 -0.088647710124579282 -0.1895137930351245 0 -0.098413722631135098 -0.19641739989264009 0 -0.088647710124579282 -0.1895137930351245 0 -0.098413722631135098 -0.19641739989264009 0 -0.1039428787252024 -0.18306303235069041 0 -0.087982693832912948 -0.20610030108417279 0 -0.098413722631135098 -0.19641739989264009 0 -0.1018219586260966 -0.2062222809526808 0 -0.098413722631135098 -0.19641739989264009 0 -0.10967337184688419 -0.19718759204053191 0 -0.1018219586260966 -0.2062222809526808 0 -0.098413722631135098 -0.19641739989264009 0 -0.10967337184688419 -0.19718759204053191 0 -0.1039428787252024 -0.18306303235069041 0 -0.1039428787252024 -0.18306303235069041 0 -0.1280127438194481 -0.19237656196114411 0 -0.10967337184688419 -0.19718759204053191 0 -0.1178174188303993 -0.20556040013348681 0 -0.1280127438194481 -0.19237656196114411 0 -0.10967337184688419 -0.19718759204053191 0 -0.1039428787252024 -0.18306303235069041 0 -0.1280127438194481 -0.19237656196114411 0 -0.10967337184688419 -0.19718759204053191 0 -0.10961342770230489 -0.21003706569406461 0 -0.1178174188303993 -0.20556040013348681 0 -0.1178174188303993 -0.20556040013348681 0 -0.1109550451866443 -0.21888036136960631 0 -0.13246178853905299 -0.20873151589840269 0 -0.1109550451866443 -0.21888036136960631 0 -0.13246178853905299 -0.20873151589840269 0 -0.1109550451866443 -0.21888036136960631 0 -0.12407830270498089 -0.22426790937284519 0 -0.13246178853905299 -0.20873151589840269 0 -0.10961342770230489 -0.21003706569406461 0 -0.1178174188303993 -0.20556040013348681 0 -0.1109550451866443 -0.21888036136960631 0 -0.10961342770230489 -0.21003706569406461 0 -0.103172625086798 -0.22127395363072039 0 -0.1109550451866443 -0.21888036136960631 0 -0.10961342770230489 -0.21003706569406461 0 -0.1018219586260966 -0.2062222809526808 0 -0.103172625086798 -0.22127395363072039 0 -0.10967337184688419 -0.19718759204053191 0 -0.10961342770230489 -0.21003706569406461 0 -0.1018219586260966 -0.2062222809526808 0 -0.091681034097487346 -0.21469539259619891 0 -0.087982693832912948 -0.20610030108417279 0 -0.103172625086798 -0.22127395363072039 0 -0.089079986681209755 -0.21925571071859279 0 -0.091681034097487346 -0.21469539259619891 0 -0.103172625086798 -0.22127395363072039 0 -0.087982693832912948 -0.20610030108417279 0 -0.103172625086798 -0.22127395363072039 0 -0.087982693832912948 -0.20610030108417279 0 -0.1018219586260966 -0.2062222809526808 0 -0.103172625086798 -0.22127395363072039 0 -0.094544528280961701 -0.23130979592197831 0 -0.103172625086798 -0.22127395363072039 0 -0.1005321994236209 -0.2431127607729493 0 -0.089079986681209755 -0.21925571071859279 0 -0.103172625086798 -0.22127395363072039 0 -0.089079986681209755 -0.21925571071859279 0 -0.094544528280961701 -0.23130979592197831 0 -0.103172625086798 -0.22127395363072039 0 -0.103172625086798 -0.22127395363072039 0 -0.1223681628105569 -0.24044891992886891 0 -0.103172625086798 -0.22127395363072039 0 -0.12407830270498089 -0.22426790937284519 0 -0.1238233973506119 -0.23541481827178831 0 -0.103172625086798 -0.22127395363072039 0 -0.1223681628105569 -0.24044891992886891 0 -0.1238233973506119 -0.23541481827178831 0 -0.103172625086798 -0.22127395363072039 0 -0.12407830270498089 -0.22426790937284519 0 -0.103172625086798 -0.22127395363072039 0 -0.1109550451866443 -0.21888036136960631 0 -0.12407830270498089 -0.22426790937284519 0 -0.11757885349586771 -0.25701660664448461 0 -0.1223681628105569 -0.24044891992886891 0 -0.1005321994236209 -0.2431127607729493 0 -0.11757885349586771 -0.25701660664448461 0 -0.1223681628105569 -0.24044891992886891 0 -0.1223681628105569 -0.24044891992886891 0 -0.1238233973506119 -0.23541481827178831 0 -0.103172625086798 -0.22127395363072039 0 -0.1223681628105569 -0.24044891992886891 0 -0.1005321994236209 -0.2431127607729493 0 -0.088441251280713618 -0.1477167476767523 0 -0.085474651021334253 -0.13655174303235951 0 -0.077236065216807342 -0.1460130695171887 0 -0.088441251280713618 -0.1477167476767523 0 -0.077236065216807342 -0.1460130695171887 0 -0.072985053953480025 -0.15595005707556001 0 -0.088441251280713618 -0.1477167476767523 0 -0.093538562727787294 -0.15940564464812701 0 -0.098894310772838973 -0.14952020789867901 0 -0.088441251280713618 -0.1477167476767523 0 -0.085474651021334253 -0.13655174303235951 0 -0.095252038160572317 -0.1406191133899993 0 -0.085474651021334253 -0.13655174303235951 0 -0.095971306836852913 -0.13086642389395989 0 -0.095252038160572317 -0.1406191133899993 0 -0.082994471061899833 -0.1234246307735777 0 -0.085474651021334253 -0.13655174303235951 0 -0.095971306836852913 -0.13086642389395989 0 -0.082994471061899833 -0.1234246307735777 0 -0.085474651021334253 -0.13655174303235951 0 -0.073596501371478315 -0.1364787996572045 0 -0.085474651021334253 -0.13655174303235951 0 -0.073596501371478315 -0.1364787996572045 0 -0.077236065216807342 -0.1460130695171887 0 -0.06059931965736505 -0.14742373122833671 0 -0.060446148579459319 -0.1303024678998376 0 -0.073596501371478315 -0.1364787996572045 0 -0.082994471061899833 -0.1234246307735777 0 -0.073596501371478315 -0.1364787996572045 0 -0.071674103496310607 -0.1250344835198243 0 -0.060446148579459319 -0.1303024678998376 0 -0.073596501371478315 -0.1364787996572045 0 -0.071674103496310607 -0.1250344835198243 0 -0.06059931965736505 -0.14742373122833671 0 -0.073596501371478315 -0.1364787996572045 0 -0.077236065216807342 -0.1460130695171887 0 -0.057687804487617317 -0.16516521689311761 0 -0.06059931965736505 -0.14742373122833671 0 -0.072985053953480025 -0.15595005707556001 0 -0.06059931965736505 -0.14742373122833671 0 -0.077236065216807342 -0.1460130695171887 0 -0.072985053953480025 -0.15595005707556001 0 -0.057687804487617317 -0.16516521689311761 0 -0.079873013630956835 -0.17374950274023659 0 -0.057687804487617317 -0.16516521689311761 0 -0.072985053953480025 -0.15595005707556001 0 -0.079873013630956835 -0.17374950274023659 0 -0.072928541530643487 -0.1948487939390374 0 -0.079873013630956835 -0.17374950274023659 0 -0.057687804487617317 -0.16516521689311761 0 -0.063770138428779252 -0.18079669395549949 0 -0.079873013630956835 -0.17374950274023659 0 -0.072928541530643487 -0.1948487939390374 0 -0.063770138428779252 -0.18079669395549949 0 -0.079873013630956835 -0.17374950274023659 0 -0.072928541530643487 -0.1948487939390374 0 -0.088647710124579282 -0.1895137930351245 0 -0.079873013630956835 -0.17374950274023659 0 -0.079873013630956835 -0.17374950274023659 0 -0.1039428787252024 -0.18306303235069041 0 -0.088647710124579282 -0.1895137930351245 0 -0.079873013630956835 -0.17374950274023659 0 -0.1039428787252024 -0.18306303235069041 0 -0.088441251280713618 -0.1477167476767523 0 -0.079873013630956835 -0.17374950274023659 0 -0.079873013630956835 -0.17374950274023659 0 -0.093538562727787294 -0.15940564464812701 0 -0.098088850166783578 -0.16700629557107341 0 -0.088441251280713618 -0.1477167476767523 0 -0.079873013630956835 -0.17374950274023659 0 -0.093538562727787294 -0.15940564464812701 0 -0.088441251280713618 -0.1477167476767523 0 -0.072985053953480025 -0.15595005707556001 0 -0.079873013630956835 -0.17374950274023659 0 -0.093538562727787294 -0.15940564464812701 0 -0.098088850166783578 -0.16700629557107341 0 -0.1023953877876435 -0.15903546935389351 0 -0.098088850166783578 -0.16700629557107341 0 -0.1039428787252024 -0.18306303235069041 0 -0.1119878388851908 -0.16231915977259129 0 -0.098088850166783578 -0.16700629557107341 0 -0.1023953877876435 -0.15903546935389351 0 -0.1119878388851908 -0.16231915977259129 0 -0.079873013630956835 -0.17374950274023659 0 -0.098088850166783578 -0.16700629557107341 0 -0.1039428787252024 -0.18306303235069041 0 -0.1039428787252024 -0.18306303235069041 0 -0.11859204859796291 -0.17560578940816099 0 -0.1119878388851908 -0.16231915977259129 0 -0.1039428787252024 -0.18306303235069041 0 -0.11859204859796291 -0.17560578940816099 0 -0.1280127438194481 -0.19237656196114411 0 -0.1023953877876435 -0.15903546935389351 0 -0.1119878388851908 -0.16231915977259129 0 -0.1169630623746598 -0.14907522687480429 0 -0.11859204859796291 -0.17560578940816099 0 -0.1119878388851908 -0.16231915977259129 0 -0.12588679133122799 -0.1624874708491951 0 -0.1119878388851908 -0.16231915977259129 0 -0.1169630623746598 -0.14907522687480429 0 -0.12588679133122799 -0.1624874708491951 0 -0.1119878388851908 -0.16231915977259129 0 -0.1169630623746598 -0.14907522687480429 0 -0.1023953877876435 -0.15903546935389351 0 -0.1169630623746598 -0.14907522687480429 0 -0.098894310772838973 -0.14952020789867901 0 -0.1169630623746598 -0.14907522687480429 0 -0.098894310772838973 -0.14952020789867901 0 -0.1169630623746598 -0.14907522687480429 0 -0.098894310772838973 -0.14952020789867901 0 -0.1074786708911218 -0.1384404444482458 0 -0.088441251280713618 -0.1477167476767523 0 -0.098894310772838973 -0.14952020789867901 0 -0.095252038160572317 -0.1406191133899993 0 -0.098894310772838973 -0.14952020789867901 0 -0.095252038160572317 -0.1406191133899993 0 -0.1074786708911218 -0.1384404444482458 0 -0.093538562727787294 -0.15940564464812701 0 -0.1023953877876435 -0.15903546935389351 0 -0.098894310772838973 -0.14952020789867901 0 -0.1085913382140784 -0.11903379143832921 0 -0.095971306836852913 -0.13086642389395989 0 -0.1074786708911218 -0.1384404444482458 0 -0.095971306836852913 -0.13086642389395989 0 -0.095252038160572317 -0.1406191133899993 0 -0.1074786708911218 -0.1384404444482458 0 -0.1085913382140784 -0.11903379143832921 0 -0.1074786708911218 -0.1384404444482458 0 -0.12736410167423581 -0.1213878944680517 0 -0.1169630623746598 -0.14907522687480429 0 -0.1074786708911218 -0.1384404444482458 0 -0.12736410167423581 -0.1213878944680517 0 -0.1169630623746598 -0.14907522687480429 0 -0.12736410167423581 -0.1213878944680517 0 -0.13746664940214659 -0.13470709103134659 0 -0.12736410167423581 -0.1213878944680517 0 -0.14737054533773081 -0.1208951937003558 0 -0.1169630623746598 -0.14907522687480429 0 -0.13746664940214659 -0.13470709103134659 0 -0.12736410167423581 -0.1213878944680517 0 -0.1569759497016511 -0.14808982533941309 0 -0.14737054533773081 -0.1208951937003558 0 -0.13746664940214659 -0.13470709103134659 0 -0.1569759497016511 -0.14808982533941309 0 -0.14737054533773081 -0.1208951937003558 0 -0.1369695060381555 -0.1485825261071109 0 -0.1526603788815559 -0.1573596194762775 0 -0.1569759497016511 -0.14808982533941309 0 -0.13746664940214659 -0.13470709103134659 0 -0.1369695060381555 -0.1485825261071109 0 -0.1569759497016511 -0.14808982533941309 0 -0.1369695060381555 -0.1485825261071109 0 -0.1569759497016511 -0.14808982533941309 0 -0.1169630623746598 -0.14907522687480429 0 -0.1369695060381555 -0.1485825261071109 0 -0.1169630623746598 -0.14907522687480429 0 -0.1369695060381555 -0.1485825261071109 0 -0.12588679133122799 -0.1624874708491951 0 -0.1169630623746598 -0.14907522687480429 0 -0.13746664940214659 -0.13470709103134659 0 -0.1369695060381555 -0.1485825261071109 0 -0.11859204859796291 -0.17560578940816099 0 -0.12588679133122799 -0.1624874708491951 0 -0.13147554750711021 -0.17522771154146191 0 -0.12588679133122799 -0.1624874708491951 0 -0.13147554750711021 -0.17522771154146191 0 -0.14107140235061469 -0.16358211752318311 0 -0.13147554750711021 -0.17522771154146191 0 -0.14520517551865919 -0.17294749126987599 0 -0.14107140235061469 -0.16358211752318311 0 -0.1369695060381555 -0.1485825261071109 0 -0.12588679133122799 -0.1624874708491951 0 -0.14107140235061469 -0.16358211752318311 0 -0.11859204859796291 -0.17560578940816099 0 -0.13147554750711021 -0.17522771154146191 0 -0.1280127438194481 -0.19237656196114411 0 -0.13147554750711021 -0.17522771154146191 0 -0.1398254013782112 -0.18365029146927231 0 -0.1280127438194481 -0.19237656196114411 0 -0.13147554750711021 -0.17522771154146191 0 -0.1398254013782112 -0.18365029146927231 0 -0.14520517551865919 -0.17294749126987599 0 -0.1398254013782112 -0.18365029146927231 0 -0.14820117369214661 -0.18035874543477601 0 -0.1498687104188495 -0.18767128888863599 0 -0.1398254013782112 -0.18365029146927231 0 -0.14820117369214661 -0.18035874543477601 0 -0.14520517551865919 -0.17294749126987599 0 -0.14820117369214661 -0.18035874543477601 0 -0.14520517551865919 -0.17294749126987599 0 -0.1568216795970071 -0.17538216601134321 0 -0.14820117369214661 -0.18035874543477601 0 -0.15608754076248521 -0.18190001438557629 0 -0.1568216795970071 -0.17538216601134321 0 -0.14520517551865919 -0.17294749126987599 0 -0.15263532751206779 -0.16758471640843459 0 -0.1568216795970071 -0.17538216601134321 0 -0.14820117369214661 -0.18035874543477601 0 -0.15608754076248521 -0.18190001438557629 0 -0.1498687104188495 -0.18767128888863599 0 -0.15608754076248521 -0.18190001438557629 0 -0.1607184616130248 -0.18728683910860641 0 -0.1498687104188495 -0.18767128888863599 0 -0.1369695060381555 -0.1485825261071109 0 -0.14107140235061469 -0.16358211752318311 0 -0.1526603788815559 -0.1573596194762775 0 -0.14520517551865919 -0.17294749126987599 0 -0.14107140235061469 -0.16358211752318311 0 -0.15263532751206779 -0.16758471640843459 0 -0.15263532751206779 -0.16758471640843459 0 -0.1526603788815559 -0.1573596194762775 0 -0.16142564196989831 -0.16655703171874039 0 -0.14107140235061469 -0.16358211752318311 0 -0.15263532751206779 -0.16758471640843459 0 -0.1526603788815559 -0.1573596194762775 0 -0.1526603788815559 -0.1573596194762775 0 -0.16142564196989831 -0.16655703171874039 0 -0.16326087804426159 -0.16588359066980229 0 -0.16326087804426159 -0.16588359066980229 0 -0.1569759497016511 -0.14808982533941309 0 -0.1526603788815559 -0.1573596194762775 0 -0.16326087804426159 -0.16588359066980229 0 -0.1569759497016511 -0.14808982533941309 0 -0.1594122663447772 -0.17133307891758459 0 -0.16142564196989831 -0.16655703171874039 0 -0.16676641630013581 -0.17580840153182001 0 -0.15263532751206779 -0.16758471640843459 0 -0.1594122663447772 -0.17133307891758459 0 -0.16142564196989831 -0.16655703171874039 0 -0.16142564196989831 -0.16655703171874039 0 -0.16326087804426159 -0.16588359066980229 0 -0.16676641630013581 -0.17580840153182001 0 -0.15263532751206779 -0.16758471640843459 0 -0.1594122663447772 -0.17133307891758459 0 -0.1568216795970071 -0.17538216601134321 0 -0.16142564196989831 -0.16655703171874039 0 -0.16326087804426159 -0.16588359066980229 0 -0.16326087804426159 -0.16588359066980229 0 -0.16676641630013581 -0.17580840153182001 0 -0.1783922457352059 -0.17293489930968209 0 -0.16326087804426159 -0.16588359066980229 0 -0.16676641630013581 -0.17580840153182001 0 -0.15608754076248521 -0.18190001438557629 0 -0.1607184616130248 -0.18728683910860641 0 -0.16676641630013581 -0.17580840153182001 0 -0.15608754076248521 -0.18190001438557629 0 -0.1568216795970071 -0.17538216601134321 0 -0.16676641630013581 -0.17580840153182001 0 -0.1594122663447772 -0.17133307891758459 0 -0.1568216795970071 -0.17538216601134321 0 -0.16676641630013581 -0.17580840153182001 0 -0.1607184616130248 -0.18728683910860641 0 -0.16676641630013581 -0.17580840153182001 0 -0.17547527524387041 -0.1884338249559952 0 -0.17547527524387041 -0.1884338249559952 0 -0.1969820185962792 -0.17828497948479149 0 -0.1783922457352059 -0.17293489930968209 0 -0.17547527524387041 -0.1884338249559952 0 -0.1969820185962792 -0.17828497948479149 0 -0.16676641630013581 -0.17580840153182001 0 -0.1783922457352059 -0.17293489930968209 0 -0.17547527524387041 -0.1884338249559952 0 -0.16326087804426159 -0.16588359066980229 0 -0.18947664049148261 -0.1562636999060015 0 -0.16326087804426159 -0.16588359066980229 0 -0.18633417632017751 -0.14736681724080919 0 -0.18947664049148261 -0.1562636999060015 0 -0.16326087804426159 -0.16588359066980229 0 -0.1783922457352059 -0.17293489930968209 0 -0.18947664049148261 -0.1562636999060015 0 -0.18633417632017751 -0.14736681724080919 0 -0.16621773075288121 -0.1295318635244681 0 -0.18400621351090571 -0.1217110611121094 0 -0.16621773075288121 -0.1295318635244681 0 -0.1569759497016511 -0.14808982533941309 0 -0.14737054533773081 -0.1208951937003558 0 -0.18633417632017751 -0.14736681724080919 0 -0.16621773075288121 -0.1295318635244681 0 -0.1569759497016511 -0.14808982533941309 0 -0.18633417632017751 -0.14736681724080919 0 -0.1569759497016511 -0.14808982533941309 0 -0.16326087804426159 -0.16588359066980229 0 -0.18633417632017751 -0.14736681724080919 0 -0.1569759497016511 -0.14808982533941309 0 -0.1377523016625678 -0.25581657194563601 0 -0.15263230708737521 -0.24356194903458239 0 -0.13476861079800859 -0.2391754021203874 0 -0.15263230708737521 -0.24356194903458239 0 -0.13476861079800859 -0.2391754021203874 0 -0.14055595197029169 -0.22979662500526149 0 -0.1377523016625678 -0.25581657194563601 0 -0.1223681628105569 -0.24044891992886891 0 -0.13476861079800859 -0.2391754021203874 0 -0.1377523016625678 -0.25581657194563601 0 -0.1223681628105569 -0.24044891992886891 0 -0.1238233973506119 -0.23541481827178831 0 -0.13476861079800859 -0.2391754021203874 0 -0.13139441447274411 -0.22962184130071481 0 -0.1223681628105569 -0.24044891992886891 0 -0.1238233973506119 -0.23541481827178831 0 -0.13476861079800859 -0.2391754021203874 0 -0.13476861079800859 -0.2391754021203874 0 -0.14055595197029169 -0.22979662500526149 0 -0.13139441447274411 -0.22962184130071481 0 -0.12407830270498089 -0.22426790937284519 0 -0.1238233973506119 -0.23541481827178831 0 -0.13139441447274411 -0.22962184130071481 0 -0.12407830270498089 -0.22426790937284519 0 -0.13139441447274411 -0.22962184130071481 0 -0.13441394179160859 -0.22010184774946731 0 -0.14055595197029169 -0.22979662500526149 0 -0.13139441447274411 -0.22962184130071481 0 -0.13441394179160859 -0.22010184774946731 0 -0.14055595197029169 -0.22979662500526149 0 -0.13441394179160859 -0.22010184774946731 0 -0.14940536450650499 -0.21373664043116339 0 -0.15263230708737521 -0.24356194903458239 0 -0.14940536450650499 -0.21373664043116339 0 -0.15263230708737521 -0.24356194903458239 0 -0.14940536450650499 -0.21373664043116339 0 -0.16621803193972459 -0.22739125443424221 0 -0.15263230708737521 -0.24356194903458239 0 -0.14055595197029169 -0.22979662500526149 0 -0.14940536450650499 -0.21373664043116339 0 -0.14940536450650499 -0.21373664043116339 0 -0.13246178853905299 -0.20873151589840269 0 -0.1539685318914617 -0.1985826704271989 0 -0.13246178853905299 -0.20873151589840269 0 -0.1539685318914617 -0.1985826704271989 0 -0.13441394179160859 -0.22010184774946731 0 -0.14940536450650499 -0.21373664043116339 0 -0.13246178853905299 -0.20873151589840269 0 -0.12407830270498089 -0.22426790937284519 0 -0.13441394179160859 -0.22010184774946731 0 -0.13246178853905299 -0.20873151589840269 0 -0.1178174188303993 -0.20556040013348681 0 -0.13246178853905299 -0.20873151589840269 0 -0.1280127438194481 -0.19237656196114411 0 -0.13246178853905299 -0.20873151589840269 0 -0.1280127438194481 -0.19237656196114411 0 -0.14041115317576749 -0.19424917250638599 0 -0.1398254013782112 -0.18365029146927231 0 -0.1280127438194481 -0.19237656196114411 0 -0.14041115317576749 -0.19424917250638599 0 -0.13246178853905299 -0.20873151589840269 0 -0.14041115317576749 -0.19424917250638599 0 -0.1539685318914617 -0.1985826704271989 0 -0.14041115317576749 -0.19424917250638599 0 -0.1539685318914617 -0.1985826704271989 0 -0.1498687104188495 -0.18767128888863599 0 -0.1398254013782112 -0.18365029146927231 0 -0.14041115317576749 -0.19424917250638599 0 -0.1498687104188495 -0.18767128888863599 0 -0.1607184616130248 -0.18728683910860641 0 -0.1539685318914617 -0.1985826704271989 0 -0.1498687104188495 -0.18767128888863599 0 -0.1607184616130248 -0.18728683910860641 0 -0.1539685318914617 -0.1985826704271989 0 -0.17547527524387041 -0.1884338249559952 0 -0.1539685318914617 -0.1985826704271989 0 -0.17547527524387041 -0.1884338249559952 0 -0.16825702714884239 -0.20885775366498019 0 -0.1539685318914617 -0.1985826704271989 0 -0.17547527524387041 -0.1884338249559952 0 -0.17547527524387041 -0.1884338249559952 0 -0.18277425339256639 -0.2026996383603622 0 -0.16825702714884239 -0.20885775366498019 0 -0.17547527524387041 -0.1884338249559952 0 -0.18277425339256639 -0.2026996383603622 0 -0.1902080517791363 -0.1917922864575213 0 -0.18277425339256639 -0.2026996383603622 0 -0.16825702714884239 -0.20885775366498019 0 -0.18626938338499441 -0.22517712183416291 0 -0.14940536450650499 -0.21373664043116339 0 -0.1539685318914617 -0.1985826704271989 0 -0.16825702714884239 -0.20885775366498019 0 -0.14940536450650499 -0.21373664043116339 0 -0.16825702714884239 -0.20885775366498019 0 -0.16621803193972459 -0.22739125443424221 0 -0.16825702714884239 -0.20885775366498019 0 -0.16621803193972459 -0.22739125443424221 0 -0.18626938338499441 -0.22517712183416291 0 -0.16621803193972459 -0.22739125443424221 0 -0.18626938338499441 -0.22517712183416291 0 -0.1745260775709061 -0.24562280720632229 0 -0.18626938338499441 -0.22517712183416291 0 -0.1745260775709061 -0.24562280720632229 0 -0.19988453840298659 -0.24176205441804 0 -0.18626938338499441 -0.22517712183416291 0 -0.1745260775709061 -0.24562280720632229 0 -0.15263230708737521 -0.24356194903458239 0 -0.16621803193972459 -0.22739125443424221 0 -0.1745260775709061 -0.24562280720632229 0 -0.1689202540561075 -0.25519621835756329 0 -0.15263230708737521 -0.24356194903458239 0 -0.1745260775709061 -0.24562280720632229 0 -0.21854221021918649 -0.25236034283526498 0 -0.19988453840298659 -0.24176205441804 0 -0.21493562756427159 -0.22243862284749449 0 -0.19160736129165659 -0.25262396586623759 0 -0.1745260775709061 -0.24562280720632229 0 -0.19988453840298659 -0.24176205441804 0 -0.18626938338499441 -0.22517712183416291 0 -0.19988453840298659 -0.24176205441804 0 -0.21493562756427159 -0.22243862284749449 0 -0.21493562756427159 -0.22243862284749449 0 -0.19801268919908249 -0.2047314364620034 0 -0.21541309520260529 -0.20113031717637361 0 -0.18626938338499441 -0.22517712183416291 0 -0.19801268919908249 -0.2047314364620034 0 -0.18277425339256639 -0.2026996383603622 0 -0.18626938338499441 -0.22517712183416291 0 -0.19801268919908249 -0.2047314364620034 0 -0.18626938338499441 -0.22517712183416291 0 -0.21493562756427159 -0.22243862284749449 0 -0.19801268919908249 -0.2047314364620034 0 -0.19801268919908249 -0.2047314364620034 0 -0.1902080517791363 -0.1917922864575213 0 -0.20975599501317069 -0.18428575108984399 0 -0.18277425339256639 -0.2026996383603622 0 -0.19801268919908249 -0.2047314364620034 0 -0.1902080517791363 -0.1917922864575213 0 -0.21541309520260529 -0.20113031717637361 0 -0.20975599501317069 -0.18428575108984399 0 -0.229896455205026 -0.18225842567294781 0 -0.19801268919908249 -0.2047314364620034 0 -0.21541309520260529 -0.20113031717637361 0 -0.20975599501317069 -0.18428575108984399 0 -0.19801268919908249 -0.2047314364620034 0 -0.20975599501317069 -0.18428575108984399 0 -0.21541309520260529 -0.20113031717637361 0 -0.23384346774119599 -0.2034651679104556 0 -0.229896455205026 -0.18225842567294781 0 -0.24262172765942899 -0.19089247064050549 0 -0.25644706280453389 -0.1995927939493197 0 -0.25029992488695979 -0.1782534950292988 0 -0.24262172765942899 -0.19089247064050549 0 -0.23384346774119599 -0.2034651679104556 0 -0.25644706280453389 -0.1995927939493197 0 -0.24262172765942899 -0.19089247064050549 0 -0.23384346774119599 -0.2034651679104556 0 -0.229896455205026 -0.18225842567294781 0 -0.23384346774119599 -0.2034651679104556 0 -0.2377451423251814 -0.23136366228574551 0 -0.25674041691710447 -0.22108212323078871 0 -0.23384346774119599 -0.2034651679104556 0 -0.25674041691710447 -0.22108212323078871 0 -0.25644706280453389 -0.1995927939493197 0 -0.21493562756427159 -0.22243862284749449 0 -0.21541309520260529 -0.20113031717637361 0 -0.23384346774119599 -0.2034651679104556 0 -0.21493562756427159 -0.22243862284749449 0 -0.23384346774119599 -0.2034651679104556 0 -0.2377451423251814 -0.23136366228574551 0 -0.24465976002352091 -0.25387891845332877 0 -0.2377451423251814 -0.23136366228574551 0 -0.25992972331208369 -0.2410680052130979 0 -0.24465976002352091 -0.25387891845332877 0 -0.21854221021918649 -0.25236034283526498 0 -0.2377451423251814 -0.23136366228574551 0 -0.21854221021918649 -0.25236034283526498 0 -0.21493562756427159 -0.22243862284749449 0 -0.2377451423251814 -0.23136366228574551 0 -0.21854221021918649 -0.25236034283526498 0 -0.2377451423251814 -0.23136366228574551 0 -0.21569240293870359 -0.1466438091422006 0 -0.18947664049148261 -0.1562636999060015 0 -0.2105647825198341 -0.15627799774793921 0 -0.2105647825198341 -0.15627799774793921 0 -0.22149930082725899 -0.1638400657176845 0 -0.22047208921520459 -0.14652609931143951 0 -0.21569240293870359 -0.1466438091422006 0 -0.2105647825198341 -0.15627799774793921 0 -0.22047208921520459 -0.14652609931143951 0 -0.21569240293870359 -0.1466438091422006 0 -0.22047208921520459 -0.14652609931143951 0 -0.20228853596836749 -0.13187567246267581 0 -0.2244809527826766 -0.1321180186971766 0 -0.2129261089666101 -0.1196792574727195 0 -0.21569240293870359 -0.1466438091422006 0 -0.20228853596836749 -0.13187567246267581 0 -0.2244809527826766 -0.1321180186971766 0 -0.18633417632017751 -0.14736681724080919 0 -0.20228853596836749 -0.13187567246267581 0 -0.18400621351090571 -0.1217110611121094 0 -0.21569240293870359 -0.1466438091422006 0 -0.18947664049148261 -0.1562636999060015 0 -0.18633417632017751 -0.14736681724080919 0 -0.21569240293870359 -0.1466438091422006 0 -0.18947664049148261 -0.1562636999060015 0 -0.18633417632017751 -0.14736681724080919 0 -0.21569240293870359 -0.1466438091422006 0 -0.18633417632017751 -0.14736681724080919 0 -0.21569240293870359 -0.1466438091422006 0 -0.20228853596836749 -0.13187567246267581 0 -0.1783922457352059 -0.17293489930968209 0 -0.18947664049148261 -0.1562636999060015 0 -0.1969820185962792 -0.17828497948479149 0 -0.18947664049148261 -0.1562636999060015 0 -0.1969820185962792 -0.17828497948479149 0 -0.20568347912652049 -0.16811631466237001 0 -0.18947664049148261 -0.1562636999060015 0 -0.20568347912652049 -0.16811631466237001 0 -0.2105647825198341 -0.15627799774793921 0 -0.1902080517791363 -0.1917922864575213 0 -0.1969820185962792 -0.17828497948479149 0 -0.20975599501317069 -0.18428575108984399 0 -0.17547527524387041 -0.1884338249559952 0 -0.1902080517791363 -0.1917922864575213 0 -0.1969820185962792 -0.17828497948479149 0 -0.20975599501317069 -0.18428575108984399 0 -0.22149930082725899 -0.1638400657176845 0 -0.20975599501317069 -0.18428575108984399 0 -0.20568347912652049 -0.16811631466237001 0 -0.22149930082725899 -0.1638400657176845 0 -0.1969820185962792 -0.17828497948479149 0 -0.20975599501317069 -0.18428575108984399 0 -0.20568347912652049 -0.16811631466237001 0 -0.20568347912652049 -0.16811631466237001 0 -0.2105647825198341 -0.15627799774793921 0 -0.22149930082725899 -0.1638400657176845 0 -0.22149930082725899 -0.1638400657176845 0 -0.2402834514435094 -0.1667894474332684 0 -0.2341322288468432 -0.15422277024092529 0 -0.22149930082725899 -0.1638400657176845 0 -0.229896455205026 -0.18225842567294781 0 -0.2402834514435094 -0.1667894474332684 0 -0.20975599501317069 -0.18428575108984399 0 -0.22149930082725899 -0.1638400657176845 0 -0.229896455205026 -0.18225842567294781 0 -0.229896455205026 -0.18225842567294781 0 -0.2402834514435094 -0.1667894474332684 0 -0.25029992488695979 -0.1782534950292988 0 -0.24262172765942899 -0.19089247064050549 0 -0.229896455205026 -0.18225842567294781 0 -0.25029992488695979 -0.1782534950292988 0 -0.2402834514435094 -0.1667894474332684 0 -0.25029992488695979 -0.1782534950292988 0 -0.25761979100978533 -0.16665415002795461 0 -0.2402834514435094 -0.1667894474332684 0 -0.24825300788518309 -0.1555077779107997 0 -0.25761979100978533 -0.16665415002795461 0 -0.2402834514435094 -0.1667894474332684 0 -0.24825300788518309 -0.1555077779107997 0 -0.2341322288468432 -0.15422277024092529 0 -0.24825300788518309 -0.1555077779107997 0 -0.2405789555143194 -0.1375116727892334 0 -0.25601133851015478 -0.1487044986697981 0 -0.24825300788518309 -0.1555077779107997 0 -0.2341322288468432 -0.15422277024092529 0 -0.2405789555143194 -0.1375116727892334 0 -0.21569240293870359 -0.1466438091422006 0 -0.22047208921520459 -0.14652609931143951 0 -0.2405789555143194 -0.1375116727892334 0 -0.22149930082725899 -0.1638400657176845 0 -0.2341322288468432 -0.15422277024092529 0 -0.22047208921520459 -0.14652609931143951 0 -0.21569240293870359 -0.1466438091422006 0 -0.2405789555143194 -0.1375116727892334 0 -0.2341322288468432 -0.15422277024092529 0 -0.22047208921520459 -0.14652609931143951 0 -0.2405789555143194 -0.1375116727892334 0 -0.21569240293870359 -0.1466438091422006 0 -0.2244809527826766 -0.1321180186971766 0 -0.2405789555143194 -0.1375116727892334 0 -0.2244809527826766 -0.1321180186971766 0 -0.2405789555143194 -0.1375116727892334 0 -0.23651179230599079 -0.1199754775459997 0 -0.2405789555143194 -0.1375116727892334 0 -0.23651179230599079 -0.1199754775459997 0 -0.25054446979338107 -0.12912519928877991 0 -0.23651179230599079 -0.1199754775459997 0 -0.24959534238117709 -0.1078054475449232 0 -0.26009747564537128 -0.1202716976192799 0 -0.23651179230599079 -0.1199754775459997 0 -0.26009747564537128 -0.1202716976192799 0 -0.23651179230599079 -0.1199754775459997 0 -0.26009747564537128 -0.1202716976192799 0 -0.25054446979338107 -0.12912519928877991 0 -0.23651179230599079 -0.1199754775459997 0 -0.24959534238117709 -0.1078054475449232 0 -0.23746734258601571 -0.1067534300414448 0 -0.24098124084432149 -0.095291905336151436 0 -0.23746734258601571 -0.1067534300414448 0 -0.22473934926471251 -0.1042306158888877 0 -0.24959534238117709 -0.1078054475449232 0 -0.24098124084432149 -0.095291905336151436 0 -0.25687551172258971 -0.095275519396915032 0 -0.24959534238117709 -0.1078054475449232 0 -0.24098124084432149 -0.095291905336151436 0 -0.23746734258601571 -0.1067534300414448 0 -0.22473934926471251 -0.1042306158888877 0 -0.22774604229393439 -0.087804120453188278 0 -0.20897213189474381 -0.093424031558921927 0 -0.24098124084432149 -0.095291905336151436 0 -0.22473934926471251 -0.1042306158888877 0 -0.22774604229393439 -0.087804120453188278 0 -0.2244809527826766 -0.1321180186971766 0 -0.23651179230599079 -0.1199754775459997 0 -0.2129261089666101 -0.1196792574727195 0 -0.23651179230599079 -0.1199754775459997 0 -0.2129261089666101 -0.1196792574727195 0 -0.23651179230599079 -0.1199754775459997 0 -0.23746734258601571 -0.1067534300414448 0 -0.22473934926471251 -0.1042306158888877 0 -0.23651179230599079 -0.1199754775459997 0 -0.22473934926471251 -0.1042306158888877 0 -0.2129261089666101 -0.1196792574727195 0 -0.2466384096447127 -0.069214282175018252 0 -0.23144064811545881 -0.071679072189906365 0 -0.24006258296416741 -0.059977364163272567 0 -0.2466384096447127 -0.069214282175018252 0 -0.23867713564867771 -0.0818228939715063 0 -0.25106785873748549 -0.083001848322642804 0 -0.2466384096447127 -0.069214282175018252 0 -0.23867713564867771 -0.0818228939715063 0 -0.23144064811545881 -0.071679072189906365 0 -0.24098124084432149 -0.095291905336151436 0 -0.25106785873748549 -0.083001848322642804 0 -0.25687551172258971 -0.095275519396915032 0 -0.24098124084432149 -0.095291905336151436 0 -0.23867713564867771 -0.0818228939715063 0 -0.25106785873748549 -0.083001848322642804 0 -0.24098124084432149 -0.095291905336151436 0 -0.23867713564867771 -0.0818228939715063 0 -0.22774604229393439 -0.087804120453188278 0 -0.22048160989483939 -0.080833284582646742 0 -0.22774604229393439 -0.087804120453188278 0 -0.23144064811545881 -0.071679072189906365 0 -0.23867713564867771 -0.0818228939715063 0 -0.22774604229393439 -0.087804120453188278 0 -0.23144064811545881 -0.071679072189906365 0 -0.22048160989483939 -0.080833284582646742 0 -0.22774604229393439 -0.087804120453188278 0 -0.20897213189474381 -0.093424031558921927 0 -0.23144064811545881 -0.071679072189906365 0 -0.2137676172752207 -0.070425914128570383 0 -0.21856310265569601 -0.047427796698218422 0 -0.22048160989483939 -0.080833284582646742 0 -0.23144064811545881 -0.071679072189906365 0 -0.2137676172752207 -0.070425914128570383 0 -0.23144064811545881 -0.071679072189906365 0 -0.23092663332862359 -0.057189961691847993 0 -0.24006258296416741 -0.059977364163272567 0 -0.20335705558913081 -0.063140738221072371 0 -0.2137676172752207 -0.070425914128570383 0 -0.20224544779007569 -0.076575791796341275 0 -0.2137676172752207 -0.070425914128570383 0 -0.20897213189474381 -0.093424031558921927 0 -0.20224544779007569 -0.076575791796341275 0 -0.2137676172752207 -0.070425914128570383 0 -0.20897213189474381 -0.093424031558921927 0 -0.22048160989483939 -0.080833284582646742 0 -0.2137676172752207 -0.070425914128570383 0 -0.20897213189474381 -0.093424031558921927 0 -0.20897213189474381 -0.093424031558921927 0 -0.18864483179057751 -0.079783658531738119 0 -0.20224544779007569 -0.076575791796341275 0 -0.20897213189474381 -0.093424031558921927 0 -0.18864483179057751 -0.079783658531738119 0 -0.1843208979706715 -0.098582101900239388 0 -0.20335705558913081 -0.063140738221072371 0 -0.18864483179057751 -0.079783658531738119 0 -0.20224544779007569 -0.076575791796341275 0 -0.20335705558913081 -0.063140738221072371 0 -0.18864483179057751 -0.079783658531738119 0 -0.20335705558913081 -0.063140738221072371 0 -0.18864483179057751 -0.079783658531738119 0 -0.18476368522970901 -0.060313507398174523 0 -0.22473934926471251 -0.1042306158888877 0 -0.2129261089666101 -0.1196792574727195 0 -0.1994025973422491 -0.10829052452779669 0 -0.20228853596836749 -0.13187567246267581 0 -0.2129261089666101 -0.1196792574727195 0 -0.1994025973422491 -0.10829052452779669 0 -0.22473934926471251 -0.1042306158888877 0 -0.20897213189474381 -0.093424031558921927 0 -0.1994025973422491 -0.10829052452779669 0 -0.20897213189474381 -0.093424031558921927 0 -0.1994025973422491 -0.10829052452779669 0 -0.1843208979706715 -0.098582101900239388 0 -0.20228853596836749 -0.13187567246267581 0 -0.1994025973422491 -0.10829052452779669 0 -0.18400621351090571 -0.1217110611121094 0 -0.1994025973422491 -0.10829052452779669 0 -0.18400621351090571 -0.1217110611121094 0 -0.1843208979706715 -0.098582101900239388 0 -0.16621773075288121 -0.1295318635244681 0 -0.18400621351090571 -0.1217110611121094 0 -0.16647442841019139 -0.11035058163789351 0 -0.18400621351090571 -0.1217110611121094 0 -0.16647442841019139 -0.11035058163789351 0 -0.1843208979706715 -0.098582101900239388 0 -0.16621773075288121 -0.1295318635244681 0 -0.16647442841019139 -0.11035058163789351 0 -0.14737054533773081 -0.1208951937003558 0 -0.16647442841019139 -0.11035058163789351 0 -0.16521255597131029 -0.094363556792246006 0 -0.15171862691764881 -0.097019712797942706 0 -0.16647442841019139 -0.11035058163789351 0 -0.16521255597131029 -0.094363556792246006 0 -0.1843208979706715 -0.098582101900239388 0 -0.16521255597131029 -0.094363556792246006 0 -0.1843208979706715 -0.098582101900239388 0 -0.1718657805157274 -0.077566403117392158 0 -0.18864483179057751 -0.079783658531738119 0 -0.1843208979706715 -0.098582101900239388 0 -0.1718657805157274 -0.077566403117392158 0 -0.18864483179057751 -0.079783658531738119 0 -0.1718657805157274 -0.077566403117392158 0 -0.18476368522970901 -0.060313507398174523 0 -0.1718657805157274 -0.077566403117392158 0 -0.16766997596840549 -0.055069670457126463 0 -0.18476368522970901 -0.060313507398174523 0 -0.1718657805157274 -0.077566403117392158 0 -0.1555984100513392 -0.067553704814911478 0 -0.16766997596840549 -0.055069670457126463 0 -0.1718657805157274 -0.077566403117392158 0 -0.15451520526235171 -0.083858215916353424 0 -0.1555984100513392 -0.067553704814911478 0 -0.16521255597131029 -0.094363556792246006 0 -0.1718657805157274 -0.077566403117392158 0 -0.15451520526235171 -0.083858215916353424 0 -0.16521255597131029 -0.094363556792246006 0 -0.15451520526235171 -0.083858215916353424 0 -0.15171862691764881 -0.097019712797942706 0 -0.15451520526235171 -0.083858215916353424 0 -0.14334301715898221 -0.074859018030624863 0 -0.13903100861317999 -0.090330850909877913 0 -0.15451520526235171 -0.083858215916353424 0 -0.13903100861317999 -0.090330850909877913 0 -0.15171862691764881 -0.097019712797942706 0 -0.1377651409738101 -0.093700562061298426 0 -0.13903100861317999 -0.090330850909877913 0 -0.15171862691764881 -0.097019712797942706 0 -0.15451520526235171 -0.083858215916353424 0 -0.1555984100513392 -0.067553704814911478 0 -0.14334301715898221 -0.074859018030624863 0 -0.1555984100513392 -0.067553704814911478 0 -0.14334301715898221 -0.074859018030624863 0 -0.13945189113323761 -0.059806177835795588 0 -0.14334301715898221 -0.074859018030624863 0 -0.12930964035960699 -0.069761515268982097 0 -0.13945189113323761 -0.059806177835795588 0 -0.12930964035960699 -0.069761515268982097 0 -0.1377651409738101 -0.093700562061298426 0 -0.12930964035960699 -0.069761515268982097 0 -0.1377651409738101 -0.093700562061298426 0 -0.13903100861317999 -0.090330850909877913 0 -0.1189291253072135 -0.086669643832799348 0 -0.12930964035960699 -0.069761515268982097 0 -0.1377651409738101 -0.093700562061298426 0 -0.14334301715898221 -0.074859018030624863 0 -0.12930964035960699 -0.069761515268982097 0 -0.13903100861317999 -0.090330850909877913 0 -0.1377651409738101 -0.093700562061298426 0 -0.13903100861317999 -0.090330850909877913 0 -0.11893842975153809 -0.10446969177473921 0 -0.1377651409738101 -0.093700562061298426 0 -0.12736410167423581 -0.1213878944680517 0 -0.1377651409738101 -0.093700562061298426 0 -0.12736410167423581 -0.1213878944680517 0 -0.11893842975153809 -0.10446969177473921 0 -0.1189291253072135 -0.086669643832799348 0 -0.1377651409738101 -0.093700562061298426 0 -0.1377651409738101 -0.093700562061298426 0 -0.12736410167423581 -0.1213878944680517 0 -0.14737054533773081 -0.1208951937003558 0 -0.16647442841019139 -0.11035058163789351 0 -0.14737054533773081 -0.1208951937003558 0 -0.15171862691764881 -0.097019712797942706 0 -0.1377651409738101 -0.093700562061298426 0 -0.14737054533773081 -0.1208951937003558 0 -0.15171862691764881 -0.097019712797942706 0 -0.1377651409738101 -0.093700562061298426 0 -0.14737054533773081 -0.1208951937003558 0 -0.14925834278157041 -0.027771983247297551 0 -0.15381676672243971 -0.0048344028756085976 0 -0.16158573310271521 -0.019122381719964599 0 -0.14925834278157041 -0.027771983247297551 0 -0.15381676672243971 -0.0048344028756085976 0 -0.14925834278157041 -0.027771983247297551 0 -0.13622810944285851 -0.025664644749336048 0 -0.13728148428220571 -0.03631729474545041 0 -0.15381676672243971 -0.0048344028756085976 0 -0.13373576905839379 -0.01378162565115138 0 -0.13796817939809339 -7.5853332940862265e-05 0 -0.14925834278157041 -0.027771983247297551 0 -0.15381676672243971 -0.0048344028756085976 0 -0.13373576905839379 -0.01378162565115138 0 -0.1244522405185825 -0.00038769298458709092 0 -0.1246368416492639 -0.024787675353444869 0 -0.13373576905839379 -0.01378162565115138 0 -0.1244522405185825 -0.00038769298458709092 0 -0.13373576905839379 -0.01378162565115138 0 -0.13796817939809339 -7.5853332940862265e-05 0 -0.1244522405185825 -0.00038769298458709092 0 -0.13373576905839379 -0.01378162565115138 0 -0.1246368416492639 -0.024787675353444869 0 -0.13373576905839379 -0.01378162565115138 0 -0.13622810944285851 -0.025664644749336048 0 -0.14925834278157041 -0.027771983247297551 0 -0.13373576905839379 -0.01378162565115138 0 -0.13622810944285851 -0.025664644749336048 0 -0.1246368416492639 -0.024787675353444869 0 -0.13622810944285851 -0.025664644749336048 0 -0.13728148428220571 -0.03631729474545041 0 -0.1248214427799455 -0.0491876577223027 0 -0.1246368416492639 -0.024787675353444869 0 -0.13067566527459321 -0.039597081228004503 0 -0.1246368416492639 -0.024787675353444869 0 -0.13067566527459321 -0.039597081228004503 0 -0.13728148428220571 -0.03631729474545041 0 -0.1248214427799455 -0.0491876577223027 0 -0.13067566527459321 -0.039597081228004503 0 -0.1359628923869578 -0.048095697090820053 0 -0.13067566527459321 -0.039597081228004503 0 -0.13728148428220571 -0.03631729474545041 0 -0.1359628923869578 -0.048095697090820053 0 -0.13728148428220571 -0.03631729474545041 0 -0.1359628923869578 -0.048095697090820053 0 -0.14767594406259391 -0.049379474087132447 0 -0.1248214427799455 -0.0491876577223027 0 -0.12930964035960699 -0.069761515268982097 0 -0.13945189113323761 -0.059806177835795588 0 -0.1208541397454049 -0.045822468476665427 0 -0.12930964035960699 -0.069761515268982097 0 -0.1248214427799455 -0.0491876577223027 0 -0.1359628923869578 -0.048095697090820053 0 -0.13945189113323761 -0.059806177835795588 0 -0.1555984100513392 -0.067553704814911478 0 -0.13945189113323761 -0.059806177835795588 0 -0.14767594406259391 -0.049379474087132447 0 -0.1359628923869578 -0.048095697090820053 0 -0.13945189113323761 -0.059806177835795588 0 -0.14767594406259391 -0.049379474087132447 0 -0.14925834278157041 -0.027771983247297551 0 -0.14767594406259391 -0.049379474087132447 0 -0.16346190388351911 -0.035477368974388322 0 -0.14925834278157041 -0.027771983247297551 0 -0.13728148428220571 -0.03631729474545041 0 -0.14767594406259391 -0.049379474087132447 0 -0.14767594406259391 -0.049379474087132447 0 -0.16346190388351911 -0.035477368974388322 0 -0.16766997596840549 -0.055069670457126463 0 -0.16346190388351911 -0.035477368974388322 0 -0.16766997596840549 -0.055069670457126463 0 -0.1792130821544009 -0.041655239440509813 0 -0.1555984100513392 -0.067553704814911478 0 -0.14767594406259391 -0.049379474087132447 0 -0.16766997596840549 -0.055069670457126463 0 -0.16766997596840549 -0.055069670457126463 0 -0.18476368522970901 -0.060313507398174523 0 -0.1792130821544009 -0.041655239440509813 0 -0.18476368522970901 -0.060313507398174523 0 -0.1792130821544009 -0.041655239440509813 0 -0.19607578221694649 -0.043845816873478577 0 -0.16346190388351911 -0.035477368974388322 0 -0.1792130821544009 -0.041655239440509813 0 -0.1747539590121796 -0.02148713112583673 0 -0.1792130821544009 -0.041655239440509813 0 -0.1747539590121796 -0.02148713112583673 0 -0.18874747204970219 -0.028974905836781941 0 -0.1747539590121796 -0.02148713112583673 0 -0.18814241231787171 -0.014961103822567131 0 -0.18874747204970219 -0.028974905836781941 0 -0.14925834278157041 -0.027771983247297551 0 -0.16346190388351911 -0.035477368974388322 0 -0.16158573310271521 -0.019122381719964599 0 -0.16346190388351911 -0.035477368974388322 0 -0.1747539590121796 -0.02148713112583673 0 -0.16158573310271521 -0.019122381719964599 0 -0.1747539590121796 -0.02148713112583673 0 -0.16158573310271521 -0.019122381719964599 0 -0.1670666400728934 -0.0075955490013497832 0 -0.15381676672243971 -0.0048344028756085976 0 -0.1670666400728934 -0.0075955490013497832 0 -0.16872927738725291 0.0066655648670224509 0 -0.15381676672243971 -0.0048344028756085976 0 -0.16158573310271521 -0.019122381719964599 0 -0.1670666400728934 -0.0075955490013497832 0 -0.1670666400728934 -0.0075955490013497832 0 -0.1785064095432054 -0.0066611219507198768 0 -0.16872927738725291 0.0066655648670224509 0 -0.1747539590121796 -0.02148713112583673 0 -0.1670666400728934 -0.0075955490013497832 0 -0.1785064095432054 -0.0066611219507198768 0 -0.1747539590121796 -0.02148713112583673 0 -0.1785064095432054 -0.0066611219507198768 0 -0.18814241231787171 -0.014961103822567131 0 -0.1785064095432054 -0.0066611219507198768 0 -0.18814241231787171 -0.014961103822567131 0 -0.193034969706537 0.00064734206737222756 0 -0.20555212454711219 -0.022925237921517471 0 -0.20993853639106591 -0.0035380738047605968 0 -0.193034969706537 0.00064734206737222756 0 -0.18814241231787171 -0.014961103822567131 0 -0.20555212454711219 -0.022925237921517471 0 -0.193034969706537 0.00064734206737222756 0 -0.20555212454711219 -0.022925237921517471 0 -0.193034969706537 0.00064734206737222756 0 -0.20993853639106591 -0.0035380738047605968 0 -0.193034969706537 0.00064734206737222756 0 -0.18814241231787171 -0.014961103822567131 0 -0.18874747204970219 -0.028974905836781941 0 -0.20555212454711219 -0.022925237921517471 0 -0.20555212454711219 -0.022925237921517471 0 -0.21630961893328751 -0.01519709454307171 0 -0.22290571171937651 -0.026601576769118469 0 -0.20993853639106591 -0.0035380738047605968 0 -0.22684210307559549 -0.0077234896768903086 0 -0.21568563774484731 0.0082874278720449449 0 -0.20993853639106591 -0.0035380738047605968 0 -0.21630961893328751 -0.01519709454307171 0 -0.22684210307559549 -0.0077234896768903086 0 -0.20555212454711219 -0.022925237921517471 0 -0.20993853639106591 -0.0035380738047605968 0 -0.21630961893328751 -0.01519709454307171 0 -0.20993853639106591 -0.0035380738047605968 0 -0.22684210307559549 -0.0077234896768903086 0 -0.20335705558913081 -0.063140738221072371 0 -0.18476368522970901 -0.060313507398174523 0 -0.19607578221694649 -0.043845816873478577 0 -0.1792130821544009 -0.041655239440509813 0 -0.18874747204970219 -0.028974905836781941 0 -0.19607578221694649 -0.043845816873478577 0 -0.18874747204970219 -0.028974905836781941 0 -0.20555212454711219 -0.022925237921517471 0 -0.19607578221694649 -0.043845816873478577 0 -0.20555212454711219 -0.022925237921517471 0 -0.21856310265569601 -0.047427796698218422 0 -0.20555212454711219 -0.022925237921517471 0 -0.21856310265569601 -0.047427796698218422 0 -0.21896932036315811 -0.045479663861346789 0 -0.20555212454711219 -0.022925237921517471 0 -0.19607578221694649 -0.043845816873478577 0 -0.21856310265569601 -0.047427796698218422 0 -0.20555212454711219 -0.022925237921517471 0 -0.21896932036315811 -0.045479663861346789 0 -0.22290571171937651 -0.026601576769118469 0 -0.2137676172752207 -0.070425914128570383 0 -0.21856310265569601 -0.047427796698218422 0 -0.20335705558913081 -0.063140738221072371 0 -0.2137676172752207 -0.070425914128570383 0 -0.21856310265569601 -0.047427796698218422 0 -0.20335705558913081 -0.063140738221072371 0 -0.19607578221694649 -0.043845816873478577 0 -0.21856310265569601 -0.047427796698218422 0 -0.20335705558913081 -0.063140738221072371 0 -0.21856310265569601 -0.047427796698218422 0 -0.23144064811545881 -0.071679072189906365 0 -0.21856310265569601 -0.047427796698218422 0 -0.23092663332862359 -0.057189961691847993 0 -0.23144064811545881 -0.071679072189906365 0 -0.21856310265569601 -0.047427796698218422 0 -0.21856310265569601 -0.047427796698218422 0 -0.23092663332862359 -0.057189961691847993 0 -0.22458774444026389 -0.046948698447319907 0 -0.23092663332862359 -0.057189961691847993 0 -0.2320274706224234 -0.04981915803055513 0 -0.23892230415514151 -0.050781370399802413 0 -0.23092663332862359 -0.057189961691847993 0 -0.22458774444026389 -0.046948698447319907 0 -0.2320274706224234 -0.04981915803055513 0 -0.21896932036315811 -0.045479663861346789 0 -0.2306307955349908 -0.032287844280089482 0 -0.22290571171937651 -0.026601576769118469 0 -0.21896932036315811 -0.045479663861346789 0 -0.22290571171937651 -0.026601576769118469 0 -0.22458774444026389 -0.046948698447319907 0 -0.2320274706224234 -0.04981915803055513 0 -0.23529860714157019 -0.041169280456794459 0 -0.22458774444026389 -0.046948698447319907 0 -0.2306307955349908 -0.032287844280089482 0 -0.23529860714157019 -0.041169280456794459 0 -0.22458774444026389 -0.046948698447319907 0 -0.21896932036315811 -0.045479663861346789 0 -0.2306307955349908 -0.032287844280089482 0 -0.21856310265569601 -0.047427796698218422 0 -0.22458774444026389 -0.046948698447319907 0 -0.21896932036315811 -0.045479663861346789 0 -0.21856310265569601 -0.047427796698218422 0 -0.21896932036315811 -0.045479663861346789 0 -0.21896932036315811 -0.045479663861346789 0 -0.2306307955349908 -0.032287844280089482 0 -0.2306307955349908 -0.032287844280089482 0 -0.23529860714157019 -0.041169280456794459 0 -0.241537864008738 -0.030171217790278881 0 -0.24798951326795751 -0.035882587373858313 0 -0.23529860714157019 -0.041169280456794459 0 -0.241537864008738 -0.030171217790278881 0 -0.24798951326795751 -0.035882587373858313 0 -0.24357205858261219 -0.044359355700093257 0 -0.23529860714157019 -0.041169280456794459 0 -0.24798951326795751 -0.035882587373858313 0 -0.24357205858261219 -0.044359355700093257 0 -0.25238491957690051 -0.051022134359787842 0 -0.24357205858261219 -0.044359355700093257 0 -0.23529860714157019 -0.041169280456794459 0 -0.23892230415514151 -0.050781370399802413 0 -0.2466384096447127 -0.069214282175018252 0 -0.24006258296416741 -0.059977364163272567 0 -0.25238491957690051 -0.051022134359787842 0 -0.2320274706224234 -0.04981915803055513 0 -0.23529860714157019 -0.041169280456794459 0 -0.23892230415514151 -0.050781370399802413 0 -0.23892230415514151 -0.050781370399802413 0 -0.24006258296416741 -0.059977364163272567 0 -0.25238491957690051 -0.051022134359787842 0 -0.24357205858261219 -0.044359355700093257 0 -0.23892230415514151 -0.050781370399802413 0 -0.25238491957690051 -0.051022134359787842 0 -0.23092663332862359 -0.057189961691847993 0 -0.23892230415514151 -0.050781370399802413 0 -0.24006258296416741 -0.059977364163272567 0 -0.21630961893328751 -0.01519709454307171 0 -0.22684210307559549 -0.0077234896768903086 0 -0.22290571171937651 -0.026601576769118469 0 -0.22684210307559549 -0.0077234896768903086 0 -0.22290571171937651 -0.026601576769118469 0 -0.23226271327452069 -0.02198020745377605 0 -0.22684210307559549 -0.0077234896768903086 0 -0.22290571171937651 -0.026601576769118469 0 -0.2306307955349908 -0.032287844280089482 0 -0.22290571171937651 -0.026601576769118469 0 -0.23226271327452069 -0.02198020745377605 0 -0.22684210307559549 -0.0077234896768903086 0 -0.23226271327452069 -0.02198020745377605 0 -0.24229227070682269 -0.019096024698831499 0 -0.2306307955349908 -0.032287844280089482 0 -0.241537864008738 -0.030171217790278881 0 -0.24229227070682269 -0.019096024698831499 0 -0.2306307955349908 -0.032287844280089482 0 -0.23226271327452069 -0.02198020745377605 0 -0.24229227070682269 -0.019096024698831499 0 -0.2306307955349908 -0.032287844280089482 0 -0.24229227070682269 -0.019096024698831499 0 -0.24798951326795751 -0.035882587373858313 0 -0.241537864008738 -0.030171217790278881 0 -0.25387676547985721 -0.02452441136234379 0 -0.241537864008738 -0.030171217790278881 0 -0.24229227070682269 -0.019096024698831499 0 -0.25387676547985721 -0.02452441136234379 0 -0.24229227070682269 -0.019096024698831499 0 -0.24826461013585729 -0.013027819984466921 0 -0.25387676547985721 -0.02452441136234379 0 -0.22684210307559549 -0.0077234896768903086 0 -0.24826461013585729 -0.013027819984466921 0 -0.24598119983726671 0.0037338506766126851 0 -0.22684210307559549 -0.0077234896768903086 0 -0.24229227070682269 -0.019096024698831499 0 -0.24826461013585729 -0.013027819984466921 0 -0.22684210307559549 -0.0077234896768903086 0 -0.24826461013585729 -0.013027819984466921 0 -0.24826461013585729 -0.013027819984466921 0 -0.26003022337954462 -0.0038093911555793728 0 -0.24598119983726671 0.0037338506766126851 0 -0.24826461013585729 -0.013027819984466921 0 -0.26003022337954462 -0.0038093911555793728 0 -0.26968711719611937 -0.018332150292041979 0 -0.24826461013585729 -0.013027819984466921 0 -0.26968711719611937 -0.018332150292041979 0 -0.25387676547985721 -0.02452441136234379 0 -0.26968711719611937 -0.018332150292041979 0 -0.26155562347943467 -0.037861138146123199 0 -0.24826461013585729 -0.013027819984466921 0 -0.25387676547985721 -0.02452441136234379 0 -0.26968711719611937 -0.018332150292041979 0 -0.26968711719611937 -0.018332150292041979 0 -0.28953187906397732 -0.034281883787379987 0 -0.27524211720584768 -0.038538427260779863 0 -0.26003022337954462 -0.0038093911555793728 0 -0.26968711719611937 -0.018332150292041979 0 -0.27433688946420332 -0.0007833753365484626 0 -0.26968711719611937 -0.018332150292041979 0 -0.27433688946420332 -0.0007833753365484626 0 -0.28631392786639209 -0.0070506759659385472 0 -0.28631392786639209 -0.0070506759659385472 0 -0.29653674479957171 -0.021015146411400301 0 -0.3025805037907468 -0.0027432771802810229 0 -0.28631392786639209 -0.0070506759659385472 0 -0.3025805037907468 -0.0027432771802810229 0 -0.28842838408131971 0.0076205693905790281 0 -0.27433688946420332 -0.0007833753365484626 0 -0.28631392786639209 -0.0070506759659385472 0 -0.28842838408131971 0.0076205693905790281 0 -0.26968711719611937 -0.018332150292041979 0 -0.28631392786639209 -0.0070506759659385472 0 -0.29653674479957171 -0.021015146411400301 0 -0.26968711719611937 -0.018332150292041979 0 -0.29653674479957171 -0.021015146411400301 0 -0.28953187906397732 -0.034281883787379987 0 -0.29653674479957171 -0.021015146411400301 0 -0.28953187906397732 -0.034281883787379987 0 -0.31718310516035308 -0.038172790333745737 0 -0.29653674479957171 -0.021015146411400301 0 -0.31459326366374579 -0.01532774276474733 0 -0.31718310516035308 -0.038172790333745737 0 -0.29653674479957171 -0.021015146411400301 0 -0.3025805037907468 -0.0027432771802810229 0 -0.31459326366374579 -0.01532774276474733 0 -0.30229462048881822 -0.056161209871372138 0 -0.29850594913894141 -0.055440370537233663 0 -0.30849544073550722 -0.074776909133231664 0 -0.30229462048881822 -0.056161209871372138 0 -0.29366820665513949 -0.048519954280836622 0 -0.31370341578724742 -0.051143824177853653 0 -0.30229462048881822 -0.056161209871372138 0 -0.29850594913894141 -0.055440370537233663 0 -0.29366820665513949 -0.048519954280836622 0 -0.30229462048881822 -0.056161209871372138 0 -0.31629816603535338 -0.060261719535131632 0 -0.30229462048881822 -0.056161209871372138 0 -0.31178497446605258 -0.064623658022855565 0 -0.31629816603535338 -0.060261719535131632 0 -0.30229462048881822 -0.056161209871372138 0 -0.31370341578724742 -0.051143824177853653 0 -0.31629816603535338 -0.060261719535131632 0 -0.29366820665513949 -0.048519954280836622 0 -0.31718310516035308 -0.038172790333745737 0 -0.29366820665513949 -0.048519954280836622 0 -0.31718310516035308 -0.038172790333745737 0 -0.31370341578724742 -0.051143824177853653 0 -0.28953187906397732 -0.034281883787379987 0 -0.29366820665513949 -0.048519954280836622 0 -0.31718310516035308 -0.038172790333745737 0 -0.28953187906397732 -0.034281883787379987 0 -0.29366820665513949 -0.048519954280836622 0 -0.27524211720584768 -0.038538427260779863 0 -0.29366820665513949 -0.048519954280836622 0 -0.27015330814992611 -0.058867118227927437 0 -0.29366820665513949 -0.048519954280836622 0 -0.28660483069534037 -0.061918496488246169 0 -0.27015330814992611 -0.058867118227927437 0 -0.29850594913894141 -0.055440370537233663 0 -0.28660483069534037 -0.061918496488246169 0 -0.29557893925590151 -0.069462416794053169 0 -0.29850594913894141 -0.055440370537233663 0 -0.29366820665513949 -0.048519954280836622 0 -0.28660483069534037 -0.061918496488246169 0 -0.29366820665513949 -0.048519954280836622 0 -0.27015330814992611 -0.058867118227927437 0 -0.27524211720584768 -0.038538427260779863 0 -0.26968711719611937 -0.018332150292041979 0 -0.27524211720584768 -0.038538427260779863 0 -0.26155562347943467 -0.037861138146123199 0 -0.27015330814992611 -0.058867118227927437 0 -0.27524211720584768 -0.038538427260779863 0 -0.26155562347943467 -0.037861138146123199 0 -0.24798951326795751 -0.035882587373858313 0 -0.26155562347943467 -0.037861138146123199 0 -0.25238491957690051 -0.051022134359787842 0 -0.24798951326795751 -0.035882587373858313 0 -0.25387676547985721 -0.02452441136234379 0 -0.26155562347943467 -0.037861138146123199 0 -0.27015330814992611 -0.058867118227927437 0 -0.26155562347943467 -0.037861138146123199 0 -0.25238491957690051 -0.051022134359787842 0 -0.2466384096447127 -0.069214282175018252 0 -0.27015330814992611 -0.058867118227927437 0 -0.25238491957690051 -0.051022134359787842 0 -0.2466384096447127 -0.069214282175018252 0 -0.27015330814992611 -0.058867118227927437 0 -0.26102584033089798 -0.073534373921212107 0 -0.2466384096447127 -0.069214282175018252 0 -0.27015330814992611 -0.058867118227927437 0 -0.2466384096447127 -0.069214282175018252 0 -0.26102584033089798 -0.073534373921212107 0 -0.25106785873748549 -0.083001848322642804 0 -0.25106785873748549 -0.083001848322642804 0 -0.26431637422662529 -0.083961298504163229 0 -0.25687551172258971 -0.095275519396915032 0 -0.26431637422662529 -0.083961298504163229 0 -0.25687551172258971 -0.095275519396915032 0 -0.26922948176741379 -0.094556007429682482 0 -0.26102584033089798 -0.073534373921212107 0 -0.25106785873748549 -0.083001848322642804 0 -0.26431637422662529 -0.083961298504163229 0 -0.26431637422662529 -0.083961298504163229 0 -0.27622487875609619 -0.085738752979791055 0 -0.27411142324960069 -0.07331497732508381 0 -0.26431637422662529 -0.083961298504163229 0 -0.27622487875609619 -0.085738752979791055 0 -0.26922948176741379 -0.094556007429682482 0 -0.27622487875609619 -0.085738752979791055 0 -0.26922948176741379 -0.094556007429682482 0 -0.28208733676033698 -0.099544680508420066 0 -0.27622487875609619 -0.085738752979791055 0 -0.27411142324960069 -0.07331497732508381 0 -0.28634330733871821 -0.075869823829162894 0 -0.28660483069534037 -0.061918496488246169 0 -0.27015330814992611 -0.058867118227927437 0 -0.27411142324960069 -0.07331497732508381 0 -0.27015330814992611 -0.058867118227927437 0 -0.26102584033089798 -0.073534373921212107 0 -0.27411142324960069 -0.07331497732508381 0 -0.26102584033089798 -0.073534373921212107 0 -0.26431637422662529 -0.083961298504163229 0 -0.27411142324960069 -0.07331497732508381 0 -0.24959534238117709 -0.1078054475449232 0 -0.26009747564537128 -0.1202716976192799 0 -0.26511094786836592 -0.1069062435210571 0 -0.24959534238117709 -0.1078054475449232 0 -0.26511094786836592 -0.1069062435210571 0 -0.25687551172258971 -0.095275519396915032 0 -0.26511094786836592 -0.1069062435210571 0 -0.25687551172258971 -0.095275519396915032 0 -0.26922948176741379 -0.094556007429682482 0 -0.26511094786836592 -0.1069062435210571 0 -0.27676276389741278 -0.11052104179975 0 -0.28208733676033698 -0.099544680508420066 0 -0.26511094786836592 -0.1069062435210571 0 -0.26922948176741379 -0.094556007429682482 0 -0.28208733676033698 -0.099544680508420066 0 -0.26511094786836592 -0.1069062435210571 0 -0.28208733676033698 -0.099544680508420066 0 -0.26009747564537128 -0.1202716976192799 0 -0.28368315898475188 -0.1205679176925603 0 -0.26697405985724948 -0.1304210152969853 0 -0.26009747564537128 -0.1202716976192799 0 -0.27676276389741278 -0.11052104179975 0 -0.28368315898475188 -0.1205679176925603 0 -0.26009747564537128 -0.1202716976192799 0 -0.28368315898475188 -0.1205679176925603 0 -0.26009747564537128 -0.1202716976192799 0 -0.26511094786836592 -0.1069062435210571 0 -0.27676276389741278 -0.11052104179975 0 -0.28368315898475188 -0.1205679176925603 0 -0.30807566230962469 -0.12087427087378499 0 -0.28368315898475188 -0.1205679176925603 0 -0.29137344231852969 -0.1063755175941712 0 -0.30807566230962469 -0.12087427087378499 0 -0.27676276389741278 -0.11052104179975 0 -0.28368315898475188 -0.1205679176925603 0 -0.29137344231852969 -0.1063755175941712 0 -0.28368315898475188 -0.1205679176925603 0 -0.29137344231852969 -0.1063755175941712 0 -0.29137344231852969 -0.1063755175941712 0 -0.28208733676033698 -0.099544680508420066 0 -0.29906372565230788 -0.092183117495782341 0 -0.28208733676033698 -0.099544680508420066 0 -0.29906372565230788 -0.092183117495782341 0 -0.27676276389741278 -0.11052104179975 0 -0.29137344231852969 -0.1063755175941712 0 -0.28208733676033698 -0.099544680508420066 0 -0.29137344231852969 -0.1063755175941712 0 -0.29906372565230788 -0.092183117495782341 0 -0.30690970986333499 -0.10413412755240679 0 -0.29906372565230788 -0.092183117495782341 0 -0.31411573014289268 -0.085656035662949492 0 -0.29137344231852969 -0.1063755175941712 0 -0.30690970986333499 -0.10413412755240679 0 -0.29906372565230788 -0.092183117495782341 0 -0.28368315898475188 -0.1205679176925603 0 -0.30807566230962469 -0.12087427087378499 0 -0.30140371581860798 -0.1292511186866305 0 -0.29137344231852969 -0.1063755175941712 0 -0.30690970986333499 -0.10413412755240679 0 -0.30807566230962469 -0.12087427087378499 0 -0.29557893925590151 -0.069462416794053169 0 -0.28634330733871821 -0.075869823829162894 0 -0.29528406594296941 -0.079953964946478426 0 -0.28660483069534037 -0.061918496488246169 0 -0.29557893925590151 -0.069462416794053169 0 -0.28634330733871821 -0.075869823829162894 0 -0.28660483069534037 -0.061918496488246169 0 -0.27411142324960069 -0.07331497732508381 0 -0.28634330733871821 -0.075869823829162894 0 -0.27622487875609619 -0.085738752979791055 0 -0.28634330733871821 -0.075869823829162894 0 -0.28693891673241251 -0.08747755748016231 0 -0.28208733676033698 -0.099544680508420066 0 -0.28693891673241251 -0.08747755748016231 0 -0.29906372565230788 -0.092183117495782341 0 -0.27622487875609619 -0.085738752979791055 0 -0.28208733676033698 -0.099544680508420066 0 -0.28693891673241251 -0.08747755748016231 0 -0.28693891673241251 -0.08747755748016231 0 -0.29528406594296941 -0.079953964946478426 0 -0.29906372565230788 -0.092183117495782341 0 -0.28634330733871821 -0.075869823829162894 0 -0.28693891673241251 -0.08747755748016231 0 -0.29528406594296941 -0.079953964946478426 0 -0.29528406594296941 -0.079953964946478426 0 -0.29906372565230788 -0.092183117495782341 0 -0.30849544073550722 -0.074776909133231664 0 -0.29906372565230788 -0.092183117495782341 0 -0.30849544073550722 -0.074776909133231664 0 -0.29906372565230788 -0.092183117495782341 0 -0.30849544073550722 -0.074776909133231664 0 -0.31411573014289268 -0.085656035662949492 0 -0.29906372565230788 -0.092183117495782341 0 -0.31411573014289268 -0.085656035662949492 0 -0.30849544073550722 -0.074776909133231664 0 -0.31411573014289268 -0.085656035662949492 0 -0.30229462048881822 -0.056161209871372138 0 -0.30849544073550722 -0.074776909133231664 0 -0.31178497446605258 -0.064623658022855565 0 -0.29850594913894141 -0.055440370537233663 0 -0.29557893925590151 -0.069462416794053169 0 -0.30849544073550722 -0.074776909133231664 0 -0.30849544073550722 -0.074776909133231664 0 -0.31286059459191501 -0.066721027791507209 0 -0.29850594913894141 -0.055440370537233663 0 -0.30849544073550722 -0.074776909133231664 0 -0.29557893925590151 -0.069462416794053169 0 -0.29528406594296941 -0.079953964946478426 0 -0.30849544073550722 -0.074776909133231664 0 -0.30849544073550722 -0.074776909133231664 0 -0.31178497446605258 -0.064623658022855565 0 -0.31286059459191501 -0.066721027791507209 0 -0.31178497446605258 -0.064623658022855565 0 -0.31286059459191501 -0.066721027791507209 0 -0.31286059459191501 -0.066721027791507209 0 -0.32103296817657878 -0.082656476452658639 0 -0.31286059459191501 -0.066721027791507209 0 -0.32103296817657878 -0.082656476452658639 0 -0.32352590008436471 -0.062378140209921912 0 -0.31178497446605258 -0.064623658022855565 0 -0.31286059459191501 -0.066721027791507209 0 -0.31629816603535338 -0.060261719535131632 0 -0.30849544073550722 -0.074776909133231664 0 -0.31286059459191501 -0.066721027791507209 0 -0.32103296817657878 -0.082656476452658639 0 -0.31286059459191501 -0.066721027791507209 0 -0.31629816603535338 -0.060261719535131632 0 -0.31286059459191501 -0.066721027791507209 0 -0.31629816603535338 -0.060261719535131632 0 -0.32352590008436471 -0.062378140209921912 0 -0.32103296817657878 -0.082656476452658639 0 -0.33093834944883532 -0.101971145942244 0 -0.30849544073550722 -0.074776909133231664 0 -0.31411573014289268 -0.085656035662949492 0 -0.32103296817657878 -0.082656476452658639 0 -0.31411573014289268 -0.085656035662949492 0 -0.32103296817657878 -0.082656476452658639 0 -0.32329194788869442 -0.1034183298589804 0 -0.31411573014289268 -0.085656035662949492 0 -0.32103296817657878 -0.082656476452658639 0 -0.32103296817657878 -0.082656476452658639 0 -0.33692687914299491 -0.089632102483736459 0 -0.33093834944883532 -0.101971145942244 0 -0.32103296817657878 -0.082656476452658639 0 -0.33692687914299491 -0.089632102483736459 0 -0.3453529791357649 -0.07211045902320197 0 -0.32103296817657878 -0.082656476452658639 0 -0.3453529791357649 -0.07211045902320197 0 -0.32352590008436471 -0.062378140209921912 0 -0.34475717967991132 -0.068595070548471249 0 -0.3453529791357649 -0.07211045902320197 0 -0.32352590008436471 -0.062378140209921912 0 -0.34475717967991132 -0.068595070548471249 0 -0.32352590008436471 -0.062378140209921912 0 -0.32103296817657878 -0.082656476452658639 0 -0.3453529791357649 -0.07211045902320197 0 -0.30807566230962469 -0.12087427087378499 0 -0.32329194788869442 -0.1034183298589804 0 -0.33246816563449738 -0.1211806240550105 0 -0.30807566230962469 -0.12087427087378499 0 -0.33246816563449738 -0.1211806240550105 0 -0.30807566230962469 -0.12087427087378499 0 -0.32007374605487132 -0.12494213909402439 0 -0.33246816563449738 -0.1211806240550105 0 -0.30690970986333499 -0.10413412755240679 0 -0.30807566230962469 -0.12087427087378499 0 -0.32329194788869442 -0.1034183298589804 0 -0.32329194788869442 -0.1034183298589804 0 -0.33246816563449738 -0.1211806240550105 0 -0.32007374605487132 -0.12494213909402439 0 -0.33441303965894859 -0.1249452932850653 0 -0.30690970986333499 -0.10413412755240679 0 -0.31411573014289268 -0.085656035662949492 0 -0.32329194788869442 -0.1034183298589804 0 -0.32103296817657878 -0.082656476452658639 0 -0.32329194788869442 -0.1034183298589804 0 -0.33093834944883532 -0.101971145942244 0 -0.31411573014289268 -0.085656035662949492 0 -0.32329194788869442 -0.1034183298589804 0 -0.32329194788869442 -0.1034183298589804 0 -0.33093834944883532 -0.101971145942244 0 -0.33246816563449738 -0.1211806240550105 0 -0.33692687914299491 -0.089632102483736459 0 -0.33093834944883532 -0.101971145942244 0 -0.35038321981080389 -0.10179032851684799 0 -0.33093834944883532 -0.101971145942244 0 -0.34773438721257438 -0.1121772477149196 0 -0.35038321981080389 -0.10179032851684799 0 -0.33093834944883532 -0.101971145942244 0 -0.3408437307210912 -0.1212858154318297 0 -0.33093834944883532 -0.101971145942244 0 -0.3408437307210912 -0.1212858154318297 0 -0.33246816563449738 -0.1211806240550105 0 -0.33093834944883532 -0.101971145942244 0 -0.3408437307210912 -0.1212858154318297 0 -0.34773438721257438 -0.1121772477149196 0 -0.34272140335036932 -0.124947120862287 0 -0.3408437307210912 -0.1212858154318297 0 -0.33441303965894859 -0.1249452932850653 0 -0.3408437307210912 -0.1212858154318297 0 -0.33246816563449738 -0.1211806240550105 0 -0.34272140335036932 -0.124947120862287 0 -0.33441303965894859 -0.1249452932850653 0 -0.34272140335036932 -0.124947120862287 0 -0.3408437307210912 -0.1212858154318297 0 -0.32007374605487132 -0.12494213909402439 0 -0.33441303965894859 -0.1249452932850653 0 -0.33246816563449738 -0.1211806240550105 0 -0.3408437307210912 -0.1212858154318297 0 -0.33441303965894859 -0.1249452932850653 0 -0.33246816563449738 -0.1211806240550105 0 -0.33441303965894859 -0.1249452932850653 0 -0.33246816563449738 -0.1211806240550105 0 -0.34272140335036932 -0.124947120862287 0 -0.35433435295871402 -0.1214552484327875 0 -0.36893450279197471 -0.1249528869149899 0 -0.34272140335036932 -0.124947120862287 0 -0.36893450279197471 -0.1249528869149899 0 -0.3408437307210912 -0.1212858154318297 0 -0.35433435295871402 -0.1214552484327875 0 -0.3408437307210912 -0.1212858154318297 0 -0.35433435295871402 -0.1214552484327875 0 -0.34773438721257438 -0.1121772477149196 0 -0.34272140335036932 -0.124947120862287 0 -0.3408437307210912 -0.1212858154318297 0 -0.35433435295871402 -0.1214552484327875 0 -0.35433435295871402 -0.1214552484327875 0 -0.34773438721257438 -0.1121772477149196 0 -0.3623387343604032 -0.1125517513480446 0 -0.34773438721257438 -0.1121772477149196 0 -0.35038321981080389 -0.10179032851684799 0 -0.3623387343604032 -0.1125517513480446 0 -0.37380044498630338 -0.100392191664622 0 -0.3623387343604032 -0.1125517513480446 0 -0.3789649235099295 -0.11270856972454819 0 -0.35038321981080389 -0.10179032851684799 0 -0.37380044498630338 -0.100392191664622 0 -0.36747037526515469 -0.088210616938563927 0 -0.35038321981080389 -0.10179032851684799 0 -0.37380044498630338 -0.100392191664622 0 -0.3623387343604032 -0.1125517513480446 0 -0.3623387343604032 -0.1125517513480446 0 -0.36893450279197471 -0.1249528869149899 0 -0.3789649235099295 -0.11270856972454819 0 -0.35433435295871402 -0.1214552484327875 0 -0.3623387343604032 -0.1125517513480446 0 -0.36893450279197471 -0.1249528869149899 0 -0.34995192587724822 -0.070116192960804249 0 -0.35645509357982358 -0.081628608772215283 0 -0.36843110820579178 -0.075527255856609146 0 -0.34995192587724822 -0.070116192960804249 0 -0.36608399240098949 -0.063120758007335118 0 -0.35494834161021771 -0.06194377696909157 0 -0.34995192587724822 -0.070116192960804249 0 -0.36843110820579178 -0.075527255856609146 0 -0.34995192587724822 -0.070116192960804249 0 -0.36608399240098949 -0.063120758007335118 0 -0.34995192587724822 -0.070116192960804249 0 -0.34475717967991132 -0.068595070548471249 0 -0.35494834161021771 -0.06194377696909157 0 -0.34995192587724822 -0.070116192960804249 0 -0.34475717967991132 -0.068595070548471249 0 -0.34995192587724822 -0.070116192960804249 0 -0.34475717967991132 -0.068595070548471249 0 -0.3453529791357649 -0.07211045902320197 0 -0.34995192587724822 -0.070116192960804249 0 -0.3453529791357649 -0.07211045902320197 0 -0.34995192587724822 -0.070116192960804249 0 -0.3453529791357649 -0.07211045902320197 0 -0.35645509357982358 -0.081628608772215283 0 -0.34475717967991132 -0.068595070548471249 0 -0.3453529791357649 -0.07211045902320197 0 -0.35038321981080389 -0.10179032851684799 0 -0.35645509357982358 -0.081628608772215283 0 -0.36747037526515469 -0.088210616938563927 0 -0.35038321981080389 -0.10179032851684799 0 -0.3453529791357649 -0.07211045902320197 0 -0.35645509357982358 -0.081628608772215283 0 -0.33692687914299491 -0.089632102483736459 0 -0.35038321981080389 -0.10179032851684799 0 -0.3453529791357649 -0.07211045902320197 0 -0.35038321981080389 -0.10179032851684799 0 -0.3453529791357649 -0.07211045902320197 0 -0.36747037526515469 -0.088210616938563927 0 -0.36843110820579178 -0.075527255856609146 0 -0.38691029053433551 -0.080938318752413793 0 -0.35645509357982358 -0.081628608772215283 0 -0.36747037526515469 -0.088210616938563927 0 -0.36843110820579178 -0.075527255856609146 0 -0.34995192587724822 -0.070116192960804249 0 -0.36843110820579178 -0.075527255856609146 0 -0.36608399240098949 -0.063120758007335118 0 -0.36843110820579178 -0.075527255856609146 0 -0.36608399240098949 -0.063120758007335118 0 -0.37978412082390189 -0.068029865631836883 0 -0.36608399240098949 -0.063120758007335118 0 -0.37085155020467431 -0.050438611479832557 0 -0.38221605892473098 -0.056125323053866277 0 -0.36608399240098949 -0.063120758007335118 0 -0.38221605892473098 -0.056125323053866277 0 -0.37085155020467431 -0.050438611479832557 0 -0.36177701350261748 -0.054750595911384127 0 -0.36329546327126672 -0.041142767418341691 0 -0.36608399240098949 -0.063120758007335118 0 -0.36177701350261748 -0.054750595911384127 0 -0.35494834161021771 -0.06194377696909157 0 -0.36608399240098949 -0.063120758007335118 0 -0.37085155020467431 -0.050438611479832557 0 -0.36177701350261748 -0.054750595911384127 0 -0.36177701350261748 -0.054750595911384127 0 -0.35494834161021771 -0.06194377696909157 0 -0.35217159659032232 -0.05313626741746251 0 -0.34475717967991132 -0.068595070548471249 0 -0.35217159659032232 -0.05313626741746251 0 -0.34008173660725832 -0.04100860914713586 0 -0.36177701350261748 -0.054750595911384127 0 -0.35217159659032232 -0.05313626741746251 0 -0.36329546327126672 -0.041142767418341691 0 -0.34475717967991132 -0.068595070548471249 0 -0.35494834161021771 -0.06194377696909157 0 -0.35217159659032232 -0.05313626741746251 0 -0.35217159659032232 -0.05313626741746251 0 -0.35233090603521772 -0.034345905606361089 0 -0.36329546327126672 -0.041142767418341691 0 -0.35217159659032232 -0.05313626741746251 0 -0.35233090603521772 -0.034345905606361089 0 -0.34008173660725832 -0.04100860914713586 0 -0.35233090603521772 -0.034345905606361089 0 -0.34677261788783459 -0.022263095799622792 0 -0.34008173660725832 -0.04100860914713586 0 -0.35233090603521772 -0.034345905606361089 0 -0.36329546327126672 -0.041142767418341691 0 -0.36125368123050811 -0.029816691131076791 0 -0.36329546327126672 -0.041142767418341691 0 -0.37015544225173291 -0.03012439130571171 0 -0.36125368123050811 -0.029816691131076791 0 -0.37085155020467431 -0.050438611479832557 0 -0.36329546327126672 -0.041142767418341691 0 -0.37439980638912518 -0.038891661293645137 0 -0.36329546327126672 -0.041142767418341691 0 -0.37439980638912518 -0.038891661293645137 0 -0.37015544225173291 -0.03012439130571171 0 -0.37439980638912518 -0.038891661293645137 0 -0.37015544225173291 -0.03012439130571171 0 -0.37866743010551202 -0.02906954498465647 0 -0.37015544225173291 -0.03012439130571171 0 -0.37402384376206249 -0.023759624541515059 0 -0.37866743010551202 -0.02906954498465647 0 -0.37015544225173291 -0.03012439130571171 0 -0.37402384376206249 -0.023759624541515059 0 -0.36652472594663232 -0.022500501643346649 0 -0.37402384376206249 -0.023759624541515059 0 -0.37465439862472261 -0.016787835852634068 0 -0.36652472594663232 -0.022500501643346649 0 -0.37465439862472261 -0.016787835852634068 0 -0.36652472594663232 -0.022500501643346649 0 -0.3596530522362773 -0.017262546391789129 0 -0.36652472594663232 -0.022500501643346649 0 -0.3596530522362773 -0.017262546391789129 0 -0.35649867437881472 -0.022585523222405649 0 -0.36652472594663232 -0.022500501643346649 0 -0.36125368123050811 -0.029816691131076791 0 -0.35649867437881472 -0.022585523222405649 0 -0.37015544225173291 -0.03012439130571171 0 -0.36652472594663232 -0.022500501643346649 0 -0.36125368123050811 -0.029816691131076791 0 -0.37465439862472261 -0.016787835852634068 0 -0.3596530522362773 -0.017262546391789129 0 -0.34857824671955512 -0.007874197240844389 0 -0.37465439862472261 -0.016787835852634068 0 -0.3597652811465577 -0.0058215117475868012 0 -0.34857824671955512 -0.007874197240844389 0 -0.37465439862472261 -0.016787835852634068 0 -0.34857824671955512 -0.007874197240844389 0 -0.37126952376897032 -0.00085078512189483576 0 -0.36867541047690239 -0.006920070417115203 0 -0.36494834593608783 -0.001298186014321303 0 -0.37126952376897032 -0.00085078512189483576 0 -0.37464851222799189 -0.0076089195940836872 0 -0.37774077980655368 -0.001289555558904682 0 -0.37126952376897032 -0.00085078512189483576 0 -0.37464851222799189 -0.0076089195940836872 0 -0.36867541047690239 -0.006920070417115203 0 -0.37465439862472261 -0.016787835852634068 0 -0.36867541047690239 -0.006920070417115203 0 -0.3597652811465577 -0.0058215117475868012 0 -0.37465439862472261 -0.016787835852634068 0 -0.37464851222799189 -0.0076089195940836872 0 -0.36867541047690239 -0.006920070417115203 0 -0.36867541047690239 -0.006920070417115203 0 -0.3597652811465577 -0.0058215117475868012 0 -0.36494834593608783 -0.001298186014321303 0 -0.3597652811465577 -0.0058215117475868012 0 -0.36494834593608783 -0.001298186014321303 0 -0.35900139338342918 0.0020097317905480609 0 -0.3597652811465577 -0.0058215117475868012 0 -0.35221409618436439 -0.0049109655465913588 0 -0.34857824671955512 -0.007874197240844389 0 -0.3597652811465577 -0.0058215117475868012 0 -0.35509488683577939 -0.0004162838960613095 0 -0.35900139338342918 0.0020097317905480609 0 -0.3597652811465577 -0.0058215117475868012 0 -0.35509488683577939 -0.0004162838960613095 0 -0.35221409618436439 -0.0049109655465913588 0 -0.3596530522362773 -0.017262546391789129 0 -0.34857824671955512 -0.007874197240844389 0 -0.35200921551166209 -0.0165646739997149 0 -0.34857824671955512 -0.007874197240844389 0 -0.34618108527798752 -0.01472783018749277 0 -0.35200921551166209 -0.0165646739997149 0 -0.35233090603521772 -0.034345905606361089 0 -0.36125368123050811 -0.029816691131076791 0 -0.35649867437881472 -0.022585523222405649 0 -0.35233090603521772 -0.034345905606361089 0 -0.35649867437881472 -0.022585523222405649 0 -0.34677261788783459 -0.022263095799622792 0 -0.35649867437881472 -0.022585523222405649 0 -0.35200921551166209 -0.0165646739997149 0 -0.34677261788783459 -0.022263095799622792 0 -0.3596530522362773 -0.017262546391789129 0 -0.35649867437881472 -0.022585523222405649 0 -0.35200921551166209 -0.0165646739997149 0 -0.34618108527798752 -0.01472783018749277 0 -0.35200921551166209 -0.0165646739997149 0 -0.34677261788783459 -0.022263095799622792 0 -0.33540629353460438 -0.01342214774580049 0 -0.31718310516035308 -0.038172790333745737 0 -0.34008173660725832 -0.04100860914713586 0 -0.33540629353460438 -0.01342214774580049 0 -0.34008173660725832 -0.04100860914713586 0 -0.34677261788783459 -0.022263095799622792 0 -0.33540629353460438 -0.01342214774580049 0 -0.34008173660725832 -0.04100860914713586 0 -0.34618108527798752 -0.01472783018749277 0 -0.34677261788783459 -0.022263095799622792 0 -0.33540629353460438 -0.01342214774580049 0 -0.33540629353460438 -0.01342214774580049 0 -0.3204068892458079 -0.0014125807301150939 0 -0.33073085046195078 0.01416431365553468 0 -0.34857824671955512 -0.007874197240844389 0 -0.33540629353460438 -0.01342214774580049 0 -0.33073085046195078 0.01416431365553468 0 -0.34857824671955512 -0.007874197240844389 0 -0.34618108527798752 -0.01472783018749277 0 -0.33540629353460438 -0.01342214774580049 0 -0.3025805037907468 -0.0027432771802810229 0 -0.31459326366374579 -0.01532774276474733 0 -0.3204068892458079 -0.0014125807301150939 0 -0.33540629353460438 -0.01342214774580049 0 -0.31459326366374579 -0.01532774276474733 0 -0.3204068892458079 -0.0014125807301150939 0 -0.33540629353460438 -0.01342214774580049 0 -0.31459326366374579 -0.01532774276474733 0 -0.31718310516035308 -0.038172790333745737 0 -0.31718310516035308 -0.038172790333745737 0 -0.3268834079531176 -0.05023453433316457 0 -0.34008173660725832 -0.04100860914713586 0 -0.31718310516035308 -0.038172790333745737 0 -0.31370341578724742 -0.051143824177853653 0 -0.3268834079531176 -0.05023453433316457 0 -0.31370341578724742 -0.051143824177853653 0 -0.31629816603535338 -0.060261719535131632 0 -0.32352590008436471 -0.062378140209921912 0 -0.31629816603535338 -0.060261719535131632 0 -0.32352590008436471 -0.062378140209921912 0 -0.32352590008436471 -0.062378140209921912 0 -0.3268834079531176 -0.05023453433316457 0 -0.33381205608116321 -0.055554088559673351 0 -0.31370341578724742 -0.051143824177853653 0 -0.32352590008436471 -0.062378140209921912 0 -0.3268834079531176 -0.05023453433316457 0 -0.34475717967991132 -0.068595070548471249 0 -0.32352590008436471 -0.062378140209921912 0 -0.33381205608116321 -0.055554088559673351 0 -0.34475717967991132 -0.068595070548471249 0 -0.33381205608116321 -0.055554088559673351 0 -0.34008173660725832 -0.04100860914713586 0 -0.3268834079531176 -0.05023453433316457 0 -0.33381205608116321 -0.055554088559673351 0 -0.34008173660725832 -0.04100860914713586 0 -0.34475717967991132 -0.068595070548471249 0 -0.34008173660725832 -0.04100860914713586 0 -0.29131753467172561 -0.25675805269722002 0 -0.30769212114973271 -0.24578220261295139 0 -0.29241592956139478 -0.23974284613727589 0 -0.30769212114973271 -0.24578220261295139 0 -0.30829656048542242 -0.23127198481015249 0 -0.29241592956139478 -0.23974284613727589 0 -0.30829656048542242 -0.23127198481015249 0 -0.29279532374442052 -0.2217612167757172 0 -0.3129652712195421 -0.2114706657937139 0 -0.30829656048542242 -0.23127198481015249 0 -0.29279532374442052 -0.2217612167757172 0 -0.29241592956139478 -0.23974284613727589 0 -0.29279532374442052 -0.2217612167757172 0 -0.29241592956139478 -0.23974284613727589 0 -0.27798049023744681 -0.23352671123603991 0 -0.29279532374442052 -0.2217612167757172 0 -0.27798049023744681 -0.23352671123603991 0 -0.27449661508218531 -0.21747639879007349 0 -0.29131753467172561 -0.25675805269722002 0 -0.29241592956139478 -0.23974284613727589 0 -0.27722523139620658 -0.24922189107985179 0 -0.29241592956139478 -0.23974284613727589 0 -0.27722523139620658 -0.24922189107985179 0 -0.27798049023744681 -0.23352671123603991 0 -0.27722523139620658 -0.24922189107985179 0 -0.25992972331208369 -0.2410680052130979 0 -0.27798049023744681 -0.23352671123603991 0 -0.26398002587916253 -0.25656090854441049 0 -0.27722523139620658 -0.24922189107985179 0 -0.25992972331208369 -0.2410680052130979 0 -0.25992972331208369 -0.2410680052130979 0 -0.25674041691710447 -0.22108212323078871 0 -0.27798049023744681 -0.23352671123603991 0 -0.2377451423251814 -0.23136366228574551 0 -0.25992972331208369 -0.2410680052130979 0 -0.25674041691710447 -0.22108212323078871 0 -0.25674041691710447 -0.22108212323078871 0 -0.27798049023744681 -0.23352671123603991 0 -0.27449661508218531 -0.21747639879007349 0 -0.27449661508218531 -0.21747639879007349 0 -0.25644706280453389 -0.1995927939493197 0 -0.27817485521465529 -0.19463925610534399 0 -0.27449661508218531 -0.21747639879007349 0 -0.27817485521465529 -0.19463925610534399 0 -0.25674041691710447 -0.22108212323078871 0 -0.27449661508218531 -0.21747639879007349 0 -0.25644706280453389 -0.1995927939493197 0 -0.25644706280453389 -0.1995927939493197 0 -0.27817485521465529 -0.19463925610534399 0 -0.26629571781906192 -0.18034234132084431 0 -0.27817485521465529 -0.19463925610534399 0 -0.29367807880863189 -0.20345752952089671 0 -0.29386082525749962 -0.1848532680646672 0 -0.27449661508218531 -0.21747639879007349 0 -0.27817485521465529 -0.19463925610534399 0 -0.29367807880863189 -0.20345752952089671 0 -0.29279532374442052 -0.2217612167757172 0 -0.27449661508218531 -0.21747639879007349 0 -0.29367807880863189 -0.20345752952089671 0 -0.29279532374442052 -0.2217612167757172 0 -0.29367807880863189 -0.20345752952089671 0 -0.3129652712195421 -0.2114706657937139 0 -0.29367807880863189 -0.20345752952089671 0 -0.30717411826112789 -0.1920401195635244 0 -0.29386082525749962 -0.1848532680646672 0 -0.29367807880863189 -0.20345752952089671 0 -0.30717411826112789 -0.1920401195635244 0 -0.3129652712195421 -0.2114706657937139 0 -0.30551265723832022 -0.17938492804960809 0 -0.29677214667513702 -0.1677956617280158 0 -0.29386082525749962 -0.1848532680646672 0 -0.30717411826112789 -0.1920401195635244 0 -0.30551265723832022 -0.17938492804960809 0 -0.29386082525749962 -0.1848532680646672 0 -0.30717411826112789 -0.1920401195635244 0 -0.30551265723832022 -0.17938492804960809 0 -0.31489114071409963 -0.18333745750317351 0 -0.30551265723832022 -0.17938492804960809 0 -0.31220508881165993 -0.16846949012138551 0 -0.29677214667513702 -0.1677956617280158 0 -0.30551265723832022 -0.17938492804960809 0 -0.31220508881165993 -0.16846949012138551 0 -0.31489114071409963 -0.18333745750317351 0 -0.31220508881165993 -0.16846949012138551 0 -0.2949530938874384 -0.15245549241185349 0 -0.31498630483336881 -0.15987728715749039 0 -0.31220508881165993 -0.16846949012138551 0 -0.2949530938874384 -0.15245549241185349 0 -0.31220508881165993 -0.16846949012138551 0 -0.29677214667513702 -0.1677956617280158 0 -0.2949530938874384 -0.15245549241185349 0 -0.28185309534712533 -0.17180211342061449 0 -0.28553133547959519 -0.14896497073588499 0 -0.29677214667513702 -0.1677956617280158 0 -0.28185309534712533 -0.17180211342061449 0 -0.2949530938874384 -0.15245549241185349 0 -0.28185309534712533 -0.17180211342061449 0 -0.28553133547959519 -0.14896497073588499 0 -0.2949530938874384 -0.15245549241185349 0 -0.27817485521465529 -0.19463925610534399 0 -0.28185309534712533 -0.17180211342061449 0 -0.29386082525749962 -0.1848532680646672 0 -0.29677214667513702 -0.1677956617280158 0 -0.28185309534712533 -0.17180211342061449 0 -0.29386082525749962 -0.1848532680646672 0 -0.27817485521465529 -0.19463925610534399 0 -0.28185309534712533 -0.17180211342061449 0 -0.27817485521465529 -0.19463925610534399 0 -0.28185309534712533 -0.17180211342061449 0 -0.26629571781906192 -0.18034234132084431 0 -0.26629571781906192 -0.18034234132084431 0 -0.25029992488695979 -0.1782534950292988 0 -0.25761979100978533 -0.16665415002795461 0 -0.25644706280453389 -0.1995927939493197 0 -0.26629571781906192 -0.18034234132084431 0 -0.25029992488695979 -0.1782534950292988 0 -0.26629571781906192 -0.18034234132084431 0 -0.25761979100978533 -0.16665415002795461 0 -0.26933386928146391 -0.16300442301689841 0 -0.24825300788518309 -0.1555077779107997 0 -0.25761979100978533 -0.16665415002795461 0 -0.26108146703715113 -0.15708396540124031 0 -0.25761979100978533 -0.16665415002795461 0 -0.26108146703715113 -0.15708396540124031 0 -0.26933386928146391 -0.16300442301689841 0 -0.28185309534712533 -0.17180211342061449 0 -0.27598770130958522 -0.15333886838191951 0 -0.28553133547959519 -0.14896497073588499 0 -0.28185309534712533 -0.17180211342061449 0 -0.26629571781906192 -0.18034234132084431 0 -0.26933386928146391 -0.16300442301689841 0 -0.26108146703715113 -0.15708396540124031 0 -0.26933386928146391 -0.16300442301689841 0 -0.26726071412102442 -0.15087550168963329 0 -0.28185309534712533 -0.17180211342061449 0 -0.26933386928146391 -0.16300442301689841 0 -0.27598770130958522 -0.15333886838191951 0 -0.27598770130958522 -0.15333886838191951 0 -0.271177428866754 -0.14364721368904659 0 -0.28553133547959519 -0.14896497073588499 0 -0.271177428866754 -0.14364721368904659 0 -0.28662611268527088 -0.1421678116724244 0 -0.28553133547959519 -0.14896497073588499 0 -0.271177428866754 -0.14364721368904659 0 -0.28553133547959519 -0.14896497073588499 0 -0.271177428866754 -0.14364721368904659 0 -0.26726071412102442 -0.15087550168963329 0 -0.25891484533836889 -0.13910423861407881 0 -0.271177428866754 -0.14364721368904659 0 -0.26726071412102442 -0.15087550168963329 0 -0.27598770130958522 -0.15333886838191951 0 -0.271177428866754 -0.14364721368904659 0 -0.26726071412102442 -0.15087550168963329 0 -0.26933386928146391 -0.16300442301689841 0 -0.27598770130958522 -0.15333886838191951 0 -0.26726071412102442 -0.15087550168963329 0 -0.2405789555143194 -0.1375116727892334 0 -0.25601133851015478 -0.1487044986697981 0 -0.25891484533836889 -0.13910423861407881 0 -0.26108146703715113 -0.15708396540124031 0 -0.26726071412102442 -0.15087550168963329 0 -0.25601133851015478 -0.1487044986697981 0 -0.271177428866754 -0.14364721368904659 0 -0.25891484533836889 -0.13910423861407881 0 -0.26726071412102442 -0.15087550168963329 0 -0.25601133851015478 -0.1487044986697981 0 -0.25891484533836889 -0.13910423861407881 0 -0.24825300788518309 -0.1555077779107997 0 -0.26108146703715113 -0.15708396540124031 0 -0.25601133851015478 -0.1487044986697981 0 -0.26009747564537128 -0.1202716976192799 0 -0.25054446979338107 -0.12912519928877991 0 -0.26697405985724948 -0.1304210152969853 0 -0.25054446979338107 -0.12912519928877991 0 -0.25891484533836889 -0.13910423861407881 0 -0.26697405985724948 -0.1304210152969853 0 -0.2405789555143194 -0.1375116727892334 0 -0.25054446979338107 -0.12912519928877991 0 -0.25891484533836889 -0.13910423861407881 0 -0.28368315898475188 -0.1205679176925603 0 -0.271177428866754 -0.14364721368904659 0 -0.26697405985724948 -0.1304210152969853 0 -0.28368315898475188 -0.1205679176925603 0 -0.271177428866754 -0.14364721368904659 0 -0.28514813781506088 -0.1345929107172644 0 -0.28368315898475188 -0.1205679176925603 0 -0.271177428866754 -0.14364721368904659 0 -0.271177428866754 -0.14364721368904659 0 -0.25891484533836889 -0.13910423861407881 0 -0.26697405985724948 -0.1304210152969853 0 -0.271177428866754 -0.14364721368904659 0 -0.28514813781506088 -0.1345929107172644 0 -0.28662611268527088 -0.1421678116724244 0 -0.28368315898475188 -0.1205679176925603 0 -0.29492821592448881 -0.13453805291007029 0 -0.28514813781506088 -0.1345929107172644 0 -0.28368315898475188 -0.1205679176925603 0 -0.29492821592448881 -0.13453805291007029 0 -0.30140371581860798 -0.1292511186866305 0 -0.29492821592448881 -0.13453805291007029 0 -0.2912775948780732 -0.1389862943003273 0 -0.28514813781506088 -0.1345929107172644 0 -0.29657756063899582 -0.140013172184488 0 -0.29492821592448881 -0.13453805291007029 0 -0.2912775948780732 -0.1389862943003273 0 -0.2912775948780732 -0.1389862943003273 0 -0.28514813781506088 -0.1345929107172644 0 -0.28662611268527088 -0.1421678116724244 0 -0.28662611268527088 -0.1421678116724244 0 -0.28553133547959519 -0.14896497073588499 0 -0.28662611268527088 -0.1421678116724244 0 -0.28553133547959519 -0.14896497073588499 0 -0.28937009998544028 -0.14621975116982991 0 -0.28553133547959519 -0.14896497073588499 0 -0.2922536480049423 -0.1499497578362777 0 -0.28937009998544028 -0.14621975116982991 0 -0.28553133547959519 -0.14896497073588499 0 -0.2922536480049423 -0.1499497578362777 0 -0.2949530938874384 -0.15245549241185349 0 -0.28553133547959519 -0.14896497073588499 0 -0.2949530938874384 -0.15245549241185349 0 -0.2922536480049423 -0.1499497578362777 0 -0.2949530938874384 -0.15245549241185349 0 -0.29617843115691228 -0.14802272380236281 0 -0.2922536480049423 -0.1499497578362777 0 -0.2949530938874384 -0.15245549241185349 0 -0.2912775948780732 -0.1389862943003273 0 -0.28662611268527088 -0.1421678116724244 0 -0.29310794732654949 -0.1436195240173895 0 -0.28662611268527088 -0.1421678116724244 0 -0.28937009998544028 -0.14621975116982991 0 -0.29310794732654949 -0.1436195240173895 0 -0.2922536480049423 -0.1499497578362777 0 -0.28937009998544028 -0.14621975116982991 0 -0.29310794732654949 -0.1436195240173895 0 -0.29617843115691228 -0.14802272380236281 0 -0.29310794732654949 -0.1436195240173895 0 -0.29956135480037449 -0.14472193576336759 0 -0.2922536480049423 -0.1499497578362777 0 -0.29617843115691228 -0.14802272380236281 0 -0.29310794732654949 -0.1436195240173895 0 -0.29657756063899582 -0.140013172184488 0 -0.2912775948780732 -0.1389862943003273 0 -0.29310794732654949 -0.1436195240173895 0 -0.29657756063899582 -0.140013172184488 0 -0.29310794732654949 -0.1436195240173895 0 -0.29956135480037449 -0.14472193576336759 0 -0.29956135480037449 -0.14472193576336759 0 -0.30554397810907652 -0.146919348525368 0 -0.30456114821214081 -0.13888567554976469 0 -0.2949530938874384 -0.15245549241185349 0 -0.30620642865757891 -0.15285211384445899 0 -0.31498630483336881 -0.15987728715749039 0 -0.2949530938874384 -0.15245549241185349 0 -0.31498630483336881 -0.15987728715749039 0 -0.29657756063899582 -0.140013172184488 0 -0.29956135480037449 -0.14472193576336759 0 -0.30456114821214081 -0.13888567554976469 0 -0.29617843115691228 -0.14802272380236281 0 -0.29956135480037449 -0.14472193576336759 0 -0.30052761464898298 -0.14908162957255741 0 -0.29956135480037449 -0.14472193576336759 0 -0.30052761464898298 -0.14908162957255741 0 -0.30554397810907652 -0.146919348525368 0 -0.2949530938874384 -0.15245549241185349 0 -0.30052761464898298 -0.14908162957255741 0 -0.30620642865757891 -0.15285211384445899 0 -0.2949530938874384 -0.15245549241185349 0 -0.29617843115691228 -0.14802272380236281 0 -0.30052761464898298 -0.14908162957255741 0 -0.30052761464898298 -0.14908162957255741 0 -0.30620642865757891 -0.15285211384445899 0 -0.30554397810907652 -0.146919348525368 0 -0.30620642865757891 -0.15285211384445899 0 -0.31211863317072019 -0.1538765410016501 0 -0.31498630483336881 -0.15987728715749039 0 -0.30620642865757891 -0.15285211384445899 0 -0.31071230574427161 -0.15022116190891349 0 -0.30554397810907652 -0.146919348525368 0 -0.30620642865757891 -0.15285211384445899 0 -0.31071230574427161 -0.15022116190891349 0 -0.31211863317072019 -0.1538765410016501 0 -0.31246836027323899 -0.14497521722301901 0 -0.31246708178415561 -0.13872402753426441 0 -0.30456114821214081 -0.13888567554976469 0 -0.30554397810907652 -0.146919348525368 0 -0.31246836027323899 -0.14497521722301901 0 -0.30456114821214081 -0.13888567554976469 0 -0.31071230574427161 -0.15022116190891349 0 -0.30554397810907652 -0.146919348525368 0 -0.31246836027323899 -0.14497521722301901 0 -0.30140371581860798 -0.1292511186866305 0 -0.30456114821214081 -0.13888567554976469 0 -0.31280589771709483 -0.13181614145056869 0 -0.31246708178415561 -0.13872402753426441 0 -0.30456114821214081 -0.13888567554976469 0 -0.31280589771709483 -0.13181614145056869 0 -0.30807566230962469 -0.12087427087378499 0 -0.30140371581860798 -0.1292511186866305 0 -0.31280589771709483 -0.13181614145056869 0 -0.29657756063899582 -0.140013172184488 0 -0.29492821592448881 -0.13453805291007029 0 -0.30456114821214081 -0.13888567554976469 0 -0.29492821592448881 -0.13453805291007029 0 -0.30140371581860798 -0.1292511186866305 0 -0.30456114821214081 -0.13888567554976469 0 -0.3226930215385343 -0.13395567837890529 0 -0.31855308997834159 -0.13934265221991729 0 -0.32506280578504959 -0.14064102607364051 0 -0.3226930215385343 -0.13395567837890529 0 -0.32506280578504959 -0.14064102607364051 0 -0.33047387389575927 -0.1369340691945744 0 -0.3226930215385343 -0.13395567837890529 0 -0.32807010768985068 -0.12986880773923029 0 -0.33047387389575927 -0.1369340691945744 0 -0.32007374605487132 -0.12494213909402439 0 -0.33441303965894859 -0.1249452932850653 0 -0.32807010768985068 -0.12986880773923029 0 -0.32007374605487132 -0.12494213909402439 0 -0.3226930215385343 -0.13395567837890529 0 -0.32807010768985068 -0.12986880773923029 0 -0.32007374605487132 -0.12494213909402439 0 -0.3226930215385343 -0.13395567837890529 0 -0.31280589771709483 -0.13181614145056869 0 -0.30807566230962469 -0.12087427087378499 0 -0.32007374605487132 -0.12494213909402439 0 -0.31280589771709483 -0.13181614145056869 0 -0.3226930215385343 -0.13395567837890529 0 -0.31280589771709483 -0.13181614145056869 0 -0.31855308997834159 -0.13934265221991729 0 -0.31246708178415561 -0.13872402753426441 0 -0.31280589771709483 -0.13181614145056869 0 -0.31855308997834159 -0.13934265221991729 0 -0.31246836027323899 -0.14497521722301901 0 -0.31246708178415561 -0.13872402753426441 0 -0.31855308997834159 -0.13934265221991729 0 -0.31246836027323899 -0.14497521722301901 0 -0.31855308997834159 -0.13934265221991729 0 -0.32096396999162452 -0.14503749675666289 0 -0.31246836027323899 -0.14497521722301901 0 -0.31722412851074311 -0.15248258895007169 0 -0.32096396999162452 -0.14503749675666289 0 -0.31211863317072019 -0.1538765410016501 0 -0.31722412851074311 -0.15248258895007169 0 -0.31498630483336881 -0.15987728715749039 0 -0.31071230574427161 -0.15022116190891349 0 -0.31246836027323899 -0.14497521722301901 0 -0.31722412851074311 -0.15248258895007169 0 -0.31071230574427161 -0.15022116190891349 0 -0.31211863317072019 -0.1538765410016501 0 -0.31722412851074311 -0.15248258895007169 0 -0.32096396999162452 -0.14503749675666289 0 -0.32506280578504959 -0.14064102607364051 0 -0.33039285730051032 -0.1475567648151897 0 -0.31722412851074311 -0.15248258895007169 0 -0.32096396999162452 -0.14503749675666289 0 -0.33039285730051032 -0.1475567648151897 0 -0.31855308997834159 -0.13934265221991729 0 -0.32096396999162452 -0.14503749675666289 0 -0.32506280578504959 -0.14064102607364051 0 -0.33039285730051032 -0.1475567648151897 0 -0.33813688440009898 -0.15615522653291031 0 -0.34198145815712638 -0.1395953898376964 0 -0.32506280578504959 -0.14064102607364051 0 -0.33039285730051032 -0.1475567648151897 0 -0.33047387389575927 -0.1369340691945744 0 -0.31722412851074311 -0.15248258895007169 0 -0.33039285730051032 -0.1475567648151897 0 -0.33813688440009898 -0.15615522653291031 0 -0.33039285730051032 -0.1475567648151897 0 -0.34198145815712638 -0.1395953898376964 0 -0.33047387389575927 -0.1369340691945744 0 -0.33813688440009898 -0.15615522653291031 0 -0.34198145815712638 -0.1395953898376964 0 -0.34954987665533299 -0.15424548639031271 0 -0.34198145815712638 -0.1395953898376964 0 -0.3337346198504213 -0.1328358900141379 0 -0.33047387389575927 -0.1369340691945744 0 -0.32807010768985068 -0.12986880773923029 0 -0.3337346198504213 -0.1328358900141379 0 -0.33047387389575927 -0.1369340691945744 0 -0.33441303965894859 -0.1249452932850653 0 -0.32807010768985068 -0.12986880773923029 0 -0.3337346198504213 -0.1328358900141379 0 -0.33441303965894859 -0.1249452932850653 0 -0.34198145815712638 -0.1395953898376964 0 -0.34272140335036932 -0.124947120862287 0 -0.33441303965894859 -0.1249452932850653 0 -0.34198145815712638 -0.1395953898376964 0 -0.33441303965894859 -0.1249452932850653 0 -0.34198145815712638 -0.1395953898376964 0 -0.3337346198504213 -0.1328358900141379 0 -0.34272140335036932 -0.124947120862287 0 -0.35413341494744088 -0.14719959415449421 0 -0.34272140335036932 -0.124947120862287 0 -0.35599685079288468 -0.13305792836185981 0 -0.35413341494744088 -0.14719959415449421 0 -0.34272140335036932 -0.124947120862287 0 -0.34198145815712638 -0.1395953898376964 0 -0.35413341494744088 -0.14719959415449421 0 -0.34272140335036932 -0.124947120862287 0 -0.36893450279197471 -0.1249528869149899 0 -0.35599685079288468 -0.13305792836185981 0 -0.35599685079288468 -0.13305792836185981 0 -0.36484224068191412 -0.14157370685753851 0 -0.35413341494744088 -0.14719959415449421 0 -0.36893450279197471 -0.1249528869149899 0 -0.35599685079288468 -0.13305792836185981 0 -0.36484224068191412 -0.14157370685753851 0 -0.36893450279197471 -0.1249528869149899 0 -0.36484224068191412 -0.14157370685753851 0 -0.3777566452334315 -0.14913711856379011 0 -0.3679743334396014 -0.15408772885571331 0 -0.37696591512674532 -0.1609827341034305 0 -0.3777566452334315 -0.14913711856379011 0 -0.3679743334396014 -0.15408772885571331 0 -0.36484224068191412 -0.14157370685753851 0 -0.3777566452334315 -0.14913711856379011 0 -0.3679743334396014 -0.15408772885571331 0 -0.36484224068191412 -0.14157370685753851 0 -0.35413341494744088 -0.14719959415449421 0 -0.35413341494744088 -0.14719959415449421 0 -0.34954987665533299 -0.15424548639031271 0 -0.35445721343992059 -0.1619675590177023 0 -0.34198145815712638 -0.1395953898376964 0 -0.34954987665533299 -0.15424548639031271 0 -0.34198145815712638 -0.1395953898376964 0 -0.35413341494744088 -0.14719959415449421 0 -0.34954987665533299 -0.15424548639031271 0 -0.33813688440009898 -0.15615522653291031 0 -0.34954987665533299 -0.15424548639031271 0 -0.34648545334868369 -0.16311147615285329 0 -0.34648545334868369 -0.16311147615285329 0 -0.35788001493839611 -0.17576831496813999 0 -0.33501951577929873 -0.16729908190312789 0 -0.34954987665533299 -0.15424548639031271 0 -0.34648545334868369 -0.16311147615285329 0 -0.35445721343992059 -0.1619675590177023 0 -0.35413341494744088 -0.14719959415449421 0 -0.35445721343992059 -0.1619675590177023 0 -0.36554542654456429 -0.16945206744667471 0 -0.35788001493839611 -0.17576831496813999 0 -0.33501951577929873 -0.16729908190312789 0 -0.34648545334868369 -0.16311147615285329 0 -0.35445721343992059 -0.1619675590177023 0 -0.35788001493839611 -0.17576831496813999 0 -0.35445721343992059 -0.1619675590177023 0 -0.36554542654456429 -0.16945206744667471 0 -0.35788001493839611 -0.17576831496813999 0 -0.35413341494744088 -0.14719959415449421 0 -0.36554542654456429 -0.16945206744667471 0 -0.3679743334396014 -0.15408772885571331 0 -0.35413341494744088 -0.14719959415449421 0 -0.36554542654456429 -0.16945206744667471 0 -0.3679743334396014 -0.15408772885571331 0 -0.36554542654456429 -0.16945206744667471 0 -0.37696591512674532 -0.1609827341034305 0 -0.37016556171889331 -0.18126023377528719 0 -0.3536864721015115 -0.18284124587119119 0 -0.37235342842372432 -0.19838340983925429 0 -0.36554542654456429 -0.16945206744667471 0 -0.37016556171889331 -0.18126023377528719 0 -0.38426477739238413 -0.17192867897072969 0 -0.37016556171889331 -0.18126023377528719 0 -0.3536864721015115 -0.18284124587119119 0 -0.35788001493839611 -0.17576831496813999 0 -0.36554542654456429 -0.16945206744667471 0 -0.37016556171889331 -0.18126023377528719 0 -0.35788001493839611 -0.17576831496813999 0 -0.3536864721015115 -0.18284124587119119 0 -0.33501951577929873 -0.16729908190312789 0 -0.3536864721015115 -0.18284124587119119 0 -0.35788001493839611 -0.17576831496813999 0 -0.33501951577929873 -0.16729908190312789 0 -0.3536864721015115 -0.18284124587119119 0 -0.32945708373588178 -0.18448348783091689 0 -0.33501951577929873 -0.16729908190312789 0 -0.31722412851074311 -0.15248258895007169 0 -0.33813688440009898 -0.15615522653291031 0 -0.33501951577929873 -0.16729908190312789 0 -0.33813688440009898 -0.15615522653291031 0 -0.34648545334868369 -0.16311147615285329 0 -0.33501951577929873 -0.16729908190312789 0 -0.31722412851074311 -0.15248258895007169 0 -0.33501951577929873 -0.16729908190312789 0 -0.31722412851074311 -0.15248258895007169 0 -0.33501951577929873 -0.16729908190312789 0 -0.31498630483336881 -0.15987728715749039 0 -0.31220508881165993 -0.16846949012138551 0 -0.33501951577929873 -0.16729908190312789 0 -0.31498630483336881 -0.15987728715749039 0 -0.33501951577929873 -0.16729908190312789 0 -0.31498630483336881 -0.15987728715749039 0 -0.31220508881165993 -0.16846949012138551 0 -0.32945708373588178 -0.18448348783091689 0 -0.31489114071409963 -0.18333745750317351 0 -0.31220508881165993 -0.16846949012138551 0 -0.32945708373588178 -0.18448348783091689 0 -0.31220508881165993 -0.16846949012138551 0 -0.32945708373588178 -0.18448348783091689 0 -0.33501951577929873 -0.16729908190312789 0 -0.32945708373588178 -0.18448348783091689 0 -0.31489114071409963 -0.18333745750317351 0 -0.32010675552350842 -0.19230926195043291 0 -0.30717411826112789 -0.1920401195635244 0 -0.32010675552350842 -0.19230926195043291 0 -0.3129652712195421 -0.2114706657937139 0 -0.32945708373588178 -0.18448348783091689 0 -0.32010675552350842 -0.19230926195043291 0 -0.32566449460190838 -0.20326261146105551 0 -0.32010675552350842 -0.19230926195043291 0 -0.3129652712195421 -0.2114706657937139 0 -0.32566449460190838 -0.20326261146105551 0 -0.30717411826112789 -0.1920401195635244 0 -0.31489114071409963 -0.18333745750317351 0 -0.32010675552350842 -0.19230926195043291 0 -0.3129652712195421 -0.2114706657937139 0 -0.32566449460190838 -0.20326261146105551 0 -0.33208474862113468 -0.21873250337862821 0 -0.33208474862113468 -0.21873250337862821 0 -0.34670907866010381 -0.20049748554044841 0 -0.34896881396179619 -0.22434135344573131 0 -0.32566449460190838 -0.20326261146105551 0 -0.33208474862113468 -0.21873250337862821 0 -0.34670907866010381 -0.20049748554044841 0 -0.3536864721015115 -0.18284124587119119 0 -0.32945708373588178 -0.18448348783091689 0 -0.34670907866010381 -0.20049748554044841 0 -0.32945708373588178 -0.18448348783091689 0 -0.32566449460190838 -0.20326261146105551 0 -0.34670907866010381 -0.20049748554044841 0 -0.32945708373588178 -0.18448348783091689 0 -0.34670907866010381 -0.20049748554044841 0 -0.3536864721015115 -0.18284124587119119 0 -0.35917751319241631 -0.19955840612521841 0 -0.34670907866010381 -0.20049748554044841 0 -0.3536864721015115 -0.18284124587119119 0 -0.37235342842372432 -0.19838340983925429 0 -0.3536864721015115 -0.18284124587119119 0 -0.35917751319241631 -0.19955840612521841 0 -0.37235342842372432 -0.19838340983925429 0 -0.37235342842372432 -0.19838340983925429 0 -0.36396107358432572 -0.21651148324997979 0 -0.37772562505684643 -0.22219038377974651 0 -0.35917751319241631 -0.19955840612521841 0 -0.37235342842372432 -0.19838340983925429 0 -0.36396107358432572 -0.21651148324997979 0 -0.34670907866010381 -0.20049748554044841 0 -0.36396107358432572 -0.21651148324997979 0 -0.34896881396179619 -0.22434135344573131 0 -0.34670907866010381 -0.20049748554044841 0 -0.36396107358432572 -0.21651148324997979 0 -0.35917751319241631 -0.19955840612521841 0 -0.34670907866010381 -0.20049748554044841 0 -0.36396107358432572 -0.21651148324997979 0 -0.34896881396179619 -0.22434135344573131 0 -0.36764811873304098 -0.23322730847002751 0 -0.35305879752332059 -0.24486073726717009 0 -0.36396107358432572 -0.21651148324997979 0 -0.36764811873304098 -0.23322730847002751 0 -0.37772562505684643 -0.22219038377974651 0 -0.36396107358432572 -0.21651148324997979 0 -0.34896881396179619 -0.22434135344573131 0 -0.36764811873304098 -0.23322730847002751 0 -0.37533687834285862 -0.25417213976024849 0 -0.36764811873304098 -0.23322730847002751 0 -0.35305879752332059 -0.24486073726717009 0 -0.34896881396179619 -0.22434135344573131 0 -0.35305879752332059 -0.24486073726717009 0 -0.33568364413539042 -0.23615154195274179 0 -0.33623326073948312 -0.25365348176558788 0 -0.33568364413539042 -0.23615154195274179 0 -0.32213598881581812 -0.2442700999577708 0 -0.33623326073948312 -0.25365348176558788 0 -0.35305879752332059 -0.24486073726717009 0 -0.33568364413539042 -0.23615154195274179 0 -0.33208474862113468 -0.21873250337862821 0 -0.33568364413539042 -0.23615154195274179 0 -0.32219037366776621 -0.22897372759534659 0 -0.33208474862113468 -0.21873250337862821 0 -0.34896881396179619 -0.22434135344573131 0 -0.33568364413539042 -0.23615154195274179 0 -0.30829656048542242 -0.23127198481015249 0 -0.3129652712195421 -0.2114706657937139 0 -0.32219037366776621 -0.22897372759534659 0 -0.3129652712195421 -0.2114706657937139 0 -0.33208474862113468 -0.21873250337862821 0 -0.32219037366776621 -0.22897372759534659 0 -0.30769212114973271 -0.24578220261295139 0 -0.30829656048542242 -0.23127198481015249 0 -0.32213598881581812 -0.2442700999577708 0 -0.30829656048542242 -0.23127198481015249 0 -0.32219037366776621 -0.22897372759534659 0 -0.32213598881581812 -0.2442700999577708 0 -0.31968345090478489 -0.25798973640781447 0 -0.30769212114973271 -0.24578220261295139 0 -0.32213598881581812 -0.2442700999577708 0 -0.33568364413539042 -0.23615154195274179 0 -0.32219037366776621 -0.22897372759534659 0 -0.32213598881581812 -0.2442700999577708 0 -0.43598079583492633 -0.24721882136819351 0 -0.42311134176242837 -0.2304528026464861 0 -0.41615383063077721 -0.2466412503256647 0 -0.43598079583492633 -0.24721882136819351 0 -0.42311134176242837 -0.2304528026464861 0 -0.43908324849522451 -0.2287046610080686 0 -0.42311134176242837 -0.2304528026464861 0 -0.41411505562058892 -0.2091502018577929 0 -0.42948217154750851 -0.21815887616964899 0 -0.42311134176242837 -0.2304528026464861 0 -0.42948217154750851 -0.21815887616964899 0 -0.43908324849522451 -0.2287046610080686 0 -0.42948217154750851 -0.21815887616964899 0 -0.43955036875351089 -0.21658504913102711 0 -0.43908324849522451 -0.2287046610080686 0 -0.40619246279161347 -0.2313797712556602 0 -0.41411505562058892 -0.2091502018577929 0 -0.42311134176242837 -0.2304528026464861 0 -0.40619246279161347 -0.2313797712556602 0 -0.41411505562058892 -0.2091502018577929 0 -0.39826986996263802 -0.25360934065352753 0 -0.41615383063077721 -0.2466412503256647 0 -0.40619246279161347 -0.2313797712556602 0 -0.42311134176242837 -0.2304528026464861 0 -0.41615383063077721 -0.2466412503256647 0 -0.40619246279161347 -0.2313797712556602 0 -0.39826986996263802 -0.25360934065352753 0 -0.38632210934187061 -0.2364082567837591 0 -0.40619246279161347 -0.2313797712556602 0 -0.39826986996263802 -0.25360934065352753 0 -0.40619246279161347 -0.2313797712556602 0 -0.37533687834285862 -0.25417213976024849 0 -0.36764811873304098 -0.23322730847002751 0 -0.38632210934187061 -0.2364082567837591 0 -0.37533687834285862 -0.25417213976024849 0 -0.39826986996263802 -0.25360934065352753 0 -0.38632210934187061 -0.2364082567837591 0 -0.36764811873304098 -0.23322730847002751 0 -0.38632210934187061 -0.2364082567837591 0 -0.37772562505684643 -0.22219038377974651 0 -0.38632210934187061 -0.2364082567837591 0 -0.37772562505684643 -0.22219038377974651 0 -0.39102038474593709 -0.2139255738073175 0 -0.38632210934187061 -0.2364082567837591 0 -0.40619246279161347 -0.2313797712556602 0 -0.39102038474593709 -0.2139255738073175 0 -0.39102038474593709 -0.2139255738073175 0 -0.40351751052996843 -0.1957217498792192 0 -0.41411505562058892 -0.2091502018577929 0 -0.40619246279161347 -0.2313797712556602 0 -0.39102038474593709 -0.2139255738073175 0 -0.41411505562058892 -0.2091502018577929 0 -0.37235342842372432 -0.19838340983925429 0 -0.39102038474593709 -0.2139255738073175 0 -0.37235342842372432 -0.19838340983925429 0 -0.37772562505684643 -0.22219038377974651 0 -0.39102038474593709 -0.2139255738073175 0 -0.37016556171889331 -0.18126023377528719 0 -0.37235342842372432 -0.19838340983925429 0 -0.38726325091278008 -0.18918768555573329 0 -0.37235342842372432 -0.19838340983925429 0 -0.39102038474593709 -0.2139255738073175 0 -0.38726325091278008 -0.18918768555573329 0 -0.38726325091278008 -0.18918768555573329 0 -0.40351751052996843 -0.1957217498792192 0 -0.40315121292097328 -0.17942465571532731 0 -0.39102038474593709 -0.2139255738073175 0 -0.38726325091278008 -0.18918768555573329 0 -0.40351751052996843 -0.1957217498792192 0 -0.41411505562058892 -0.2091502018577929 0 -0.42203764844956237 -0.18692063245992491 0 -0.40351751052996843 -0.1957217498792192 0 -0.41411505562058892 -0.2091502018577929 0 -0.42203764844956237 -0.18692063245992491 0 -0.41411505562058892 -0.2091502018577929 0 -0.42948217154750851 -0.21815887616964899 0 -0.43155084310578928 -0.2059016662048701 0 -0.42948217154750851 -0.21815887616964899 0 -0.43155084310578928 -0.2059016662048701 0 -0.43955036875351089 -0.21658504913102711 0 -0.42203764844956237 -0.18692063245992491 0 -0.44484374680150301 -0.19597231310248839 0 -0.41411505562058892 -0.2091502018577929 0 -0.43155084310578928 -0.2059016662048701 0 -0.42203764844956237 -0.18692063245992491 0 -0.43155084310578928 -0.2059016662048701 0 -0.42203764844956237 -0.18692063245992491 0 -0.44484374680150301 -0.19597231310248839 0 -0.42203764844956237 -0.18692063245992491 0 -0.44134853753678083 -0.18159229851429221 0 -0.44484374680150301 -0.19597231310248839 0 -0.42203764844956237 -0.18692063245992491 0 -0.42880774722037651 -0.1679247830322266 0 -0.42203764844956237 -0.18692063245992491 0 -0.42880774722037651 -0.1679247830322266 0 -0.44134853753678083 -0.18159229851429221 0 -0.42880774722037651 -0.1679247830322266 0 -0.43557784599118871 -0.14892893360452769 0 -0.44631139980808621 -0.1631836851414229 0 -0.42880774722037651 -0.1679247830322266 0 -0.43557784599118871 -0.14892893360452769 0 -0.42880774722037651 -0.1679247830322266 0 -0.41236960909879722 -0.16540507401591409 0 -0.42079860369606048 -0.15043713941075901 0 -0.42203764844956237 -0.18692063245992491 0 -0.42880774722037651 -0.1679247830322266 0 -0.41236960909879722 -0.16540507401591409 0 -0.40351751052996843 -0.1957217498792192 0 -0.42203764844956237 -0.18692063245992491 0 -0.40315121292097328 -0.17942465571532731 0 -0.42203764844956237 -0.18692063245992491 0 -0.40315121292097328 -0.17942465571532731 0 -0.42203764844956237 -0.18692063245992491 0 -0.41236960909879722 -0.16540507401591409 0 -0.40315121292097328 -0.17942465571532731 0 -0.38726325091278008 -0.18918768555573329 0 -0.40315121292097328 -0.17942465571532731 0 -0.38426477739238413 -0.17192867897072969 0 -0.40315121292097328 -0.17942465571532731 0 -0.38426477739238413 -0.17192867897072969 0 -0.37016556171889331 -0.18126023377528719 0 -0.38726325091278008 -0.18918768555573329 0 -0.38426477739238413 -0.17192867897072969 0 -0.36554542654456429 -0.16945206744667471 0 -0.38426477739238413 -0.17192867897072969 0 -0.37696591512674532 -0.1609827341034305 0 -0.38426477739238413 -0.17192867897072969 0 -0.37696591512674532 -0.1609827341034305 0 -0.39230106084837368 -0.15838844905994759 0 -0.40315121292097328 -0.17942465571532731 0 -0.38426477739238413 -0.17192867897072969 0 -0.39230106084837368 -0.15838844905994759 0 -0.41236960909879722 -0.16540507401591409 0 -0.39230106084837368 -0.15838844905994759 0 -0.40587711449475489 -0.1449624873806776 0 -0.41236960909879722 -0.16540507401591409 0 -0.40315121292097328 -0.17942465571532731 0 -0.39230106084837368 -0.15838844905994759 0 -0.39230106084837368 -0.15838844905994759 0 -0.39162863389564362 -0.14105630786861159 0 -0.40587711449475489 -0.1449624873806776 0 -0.39230106084837368 -0.15838844905994759 0 -0.39162863389564362 -0.14105630786861159 0 -0.3777566452334315 -0.14913711856379011 0 -0.37696591512674532 -0.1609827341034305 0 -0.39230106084837368 -0.15838844905994759 0 -0.3777566452334315 -0.14913711856379011 0 -0.36893450279197471 -0.1249528869149899 0 -0.39162863389564362 -0.14105630786861159 0 -0.3777566452334315 -0.14913711856379011 0 -0.36893450279197471 -0.1249528869149899 0 -0.39162863389564362 -0.14105630786861159 0 -0.39514760223357998 -0.1249586529677193 0 -0.39162863389564362 -0.14105630786861159 0 -0.40587711449475489 -0.1449624873806776 0 -0.39514760223357998 -0.1249586529677193 0 -0.40587711449475489 -0.1449624873806776 0 -0.39514760223357998 -0.1249586529677193 0 -0.42136070167518519 -0.1249644190204488 0 -0.40587711449475489 -0.1449624873806776 0 -0.42079860369606048 -0.15043713941075901 0 -0.42136070167518519 -0.1249644190204488 0 -0.41236960909879722 -0.16540507401591409 0 -0.40587711449475489 -0.1449624873806776 0 -0.42079860369606048 -0.15043713941075901 0 -0.42079860369606048 -0.15043713941075901 0 -0.43557784599118871 -0.14892893360452769 0 -0.42136070167518519 -0.1249644190204488 0 -0.42880774722037651 -0.1679247830322266 0 -0.42079860369606048 -0.15043713941075901 0 -0.43557784599118871 -0.14892893360452769 0 -0.43557784599118871 -0.14892893360452769 0 -0.42136070167518519 -0.1249644190204488 0 -0.44757380111679052 -0.12497018507317829 0 -0.43557784599118871 -0.14892893360452769 0 -0.45596445488588 -0.14427568033770541 0 -0.44757380111679052 -0.12497018507317829 0 -0.43557784599118871 -0.14892893360452769 0 -0.45596445488588 -0.14427568033770541 0 -0.44631139980808621 -0.1631836851414229 0 -0.45596445488588 -0.14427568033770541 0 -0.46278066629215481 -0.1610158872753634 0 -0.44631139980808621 -0.1631836851414229 0 -0.45596445488588 -0.14427568033770541 0 -0.47930750267908417 -0.1480635854121114 0 -0.46278066629215481 -0.1610158872753634 0 -0.45596445488588 -0.14427568033770541 0 -0.44757380111679052 -0.12497018507317829 0 -0.47378690055839578 -0.1249759511259078 0 -0.48827360080937021 -0.13531742911399189 0 -0.47930750267908417 -0.1480635854121114 0 -0.47378690055839578 -0.1249759511259078 0 -0.45596445488588 -0.14427568033770541 0 -0.47930750267908417 -0.1480635854121114 0 -0.47378690055839578 -0.1249759511259078 0 -0.48827360080937021 -0.13531742911399189 0 -0.5 -0.14324846273931111 0 -0.50000000000000111 -0.12498171717863731 0 -0.48827360080937021 -0.13531742911399189 0 -0.47378690055839578 -0.1249759511259078 0 -0.50000000000000111 -0.12498171717863731 0 -0.5 -0.14324846273931111 0 -0.47930750267908417 -0.1480635854121114 0 -0.49999999999999961 -0.161515208299985 0 -0.48827360080937021 -0.13531742911399189 0 -0.5 -0.14324846273931111 0 -0.47930750267908417 -0.1480635854121114 0 -0.47930750267908417 -0.1480635854121114 0 -0.47738728335761421 -0.1682509267597351 0 -0.46278066629215481 -0.1610158872753634 0 -0.47738728335761421 -0.1682509267597351 0 -0.49999999999999961 -0.161515208299985 0 -0.48839409620634278 -0.18039624849769001 0 -0.49999999999999961 -0.161515208299985 0 -0.48839409620634278 -0.18039624849769001 0 -0.47930750267908417 -0.1480635854121114 0 -0.47738728335761421 -0.1682509267597351 0 -0.49999999999999961 -0.161515208299985 0 -0.49999999999999961 -0.161515208299985 0 -0.5 -0.18618779176616679 0 -0.48839409620634278 -0.18039624849769001 0 -0.5 -0.18618779176616679 0 -0.48839409620634278 -0.18039624849769001 0 -0.48957789370491162 -0.19386933705848941 0 -0.47738728335761421 -0.1682509267597351 0 -0.48839409620634278 -0.18039624849769001 0 -0.47328693949397721 -0.18411760774338479 0 -0.47738728335761421 -0.1682509267597351 0 -0.47328693949397721 -0.18411760774338479 0 -0.45860677246597031 -0.17520894370368309 0 -0.47328693949397721 -0.18411760774338479 0 -0.45860677246597031 -0.17520894370368309 0 -0.45906836497473352 -0.19043479360484361 0 -0.47738728335761421 -0.1682509267597351 0 -0.45860677246597031 -0.17520894370368309 0 -0.46278066629215481 -0.1610158872753634 0 -0.45860677246597031 -0.17520894370368309 0 -0.46278066629215481 -0.1610158872753634 0 -0.44631139980808621 -0.1631836851414229 0 -0.42880774722037651 -0.1679247830322266 0 -0.44631139980808621 -0.1631836851414229 0 -0.44134853753678083 -0.18159229851429221 0 -0.45860677246597031 -0.17520894370368309 0 -0.44631139980808621 -0.1631836851414229 0 -0.44134853753678083 -0.18159229851429221 0 -0.45860677246597031 -0.17520894370368309 0 -0.44134853753678083 -0.18159229851429221 0 -0.45906836497473352 -0.19043479360484361 0 -0.44134853753678083 -0.18159229851429221 0 -0.45906836497473352 -0.19043479360484361 0 -0.44134853753678083 -0.18159229851429221 0 -0.44484374680150301 -0.19597231310248839 0 -0.45906836497473352 -0.19043479360484361 0 -0.43155084310578928 -0.2059016662048701 0 -0.44484374680150301 -0.19597231310248839 0 -0.44343463088850471 -0.20721188330797369 0 -0.43155084310578928 -0.2059016662048701 0 -0.44343463088850471 -0.20721188330797369 0 -0.43955036875351089 -0.21658504913102711 0 -0.44343463088850471 -0.20721188330797369 0 -0.43955036875351089 -0.21658504913102711 0 -0.44966782191270221 -0.21345696714665749 0 -0.44966782191270221 -0.21345696714665749 0 -0.45691127413918359 -0.218140336649912 0 -0.44903912237987481 -0.22310222333220869 0 -0.43955036875351089 -0.21658504913102711 0 -0.44966782191270221 -0.21345696714665749 0 -0.44903912237987481 -0.22310222333220869 0 -0.44484374680150301 -0.19597231310248839 0 -0.44343463088850471 -0.20721188330797369 0 -0.45285363365211462 -0.2065344908709397 0 -0.44343463088850471 -0.20721188330797369 0 -0.44966782191270221 -0.21345696714665749 0 -0.45285363365211462 -0.2065344908709397 0 -0.45285363365211462 -0.2065344908709397 0 -0.4586721235044201 -0.2110072970525271 0 -0.46764984515344349 -0.20502399374505181 0 -0.44966782191270221 -0.21345696714665749 0 -0.45285363365211462 -0.2065344908709397 0 -0.4586721235044201 -0.2110072970525271 0 -0.44966782191270221 -0.21345696714665749 0 -0.4586721235044201 -0.2110072970525271 0 -0.45691127413918359 -0.218140336649912 0 -0.4586721235044201 -0.2110072970525271 0 -0.45691127413918359 -0.218140336649912 0 -0.46757130244775341 -0.21427176676618889 0 -0.4586721235044201 -0.2110072970525271 0 -0.46757130244775341 -0.21427176676618889 0 -0.46764984515344349 -0.20502399374505181 0 -0.44484374680150301 -0.19597231310248839 0 -0.46764984515344349 -0.20502399374505181 0 -0.45906836497473352 -0.19043479360484361 0 -0.44484374680150301 -0.19597231310248839 0 -0.45285363365211462 -0.2065344908709397 0 -0.46764984515344349 -0.20502399374505181 0 -0.45906836497473352 -0.19043479360484361 0 -0.47678819241268611 -0.1992772886953951 0 -0.44484374680150301 -0.19597231310248839 0 -0.46764984515344349 -0.20502399374505181 0 -0.46764984515344349 -0.20502399374505181 0 -0.45906836497473352 -0.19043479360484361 0 -0.47678819241268611 -0.1992772886953951 0 -0.47328693949397721 -0.18411760774338479 0 -0.45906836497473352 -0.19043479360484361 0 -0.47678819241268611 -0.1992772886953951 0 -0.48839409620634278 -0.18039624849769001 0 -0.47328693949397721 -0.18411760774338479 0 -0.47678819241268611 -0.1992772886953951 0 -0.48839409620634278 -0.18039624849769001 0 -0.47678819241268611 -0.1992772886953951 0 -0.47678819241268611 -0.1992772886953951 0 -0.48957789370491162 -0.19386933705848941 0 -0.50000000000000222 -0.21086037523234849 0 -0.48839409620634278 -0.18039624849769001 0 -0.47678819241268611 -0.1992772886953951 0 -0.48957789370491162 -0.19386933705848941 0 -0.5 -0.18618779176616679 0 -0.48957789370491162 -0.19386933705848941 0 -0.50000000000000222 -0.21086037523234849 0 -0.50000000000000222 -0.21086037523234849 0 -0.48101414991814051 -0.21220490785157131 0 -0.4775447229854059 -0.22535576830415929 0 -0.47678819241268611 -0.1992772886953951 0 -0.50000000000000222 -0.21086037523234849 0 -0.47678819241268611 -0.1992772886953951 0 -0.50000000000000222 -0.21086037523234849 0 -0.48101414991814051 -0.21220490785157131 0 -0.46757130244775341 -0.21427176676618889 0 -0.47678819241268611 -0.1992772886953951 0 -0.48101414991814051 -0.21220490785157131 0 -0.46757130244775341 -0.21427176676618889 0 -0.47678819241268611 -0.1992772886953951 0 -0.46757130244775341 -0.21427176676618889 0 -0.46764984515344349 -0.20502399374505181 0 -0.47678819241268611 -0.1992772886953951 0 -0.46757130244775341 -0.21427176676618889 0 -0.48101414991814051 -0.21220490785157131 0 -0.4775447229854059 -0.22535576830415929 0 -0.46757130244775341 -0.21427176676618889 0 -0.4775447229854059 -0.22535576830415929 0 -0.46571952953094348 -0.22577651025912229 0 -0.4775447229854059 -0.22535576830415929 0 -0.4726071657750785 -0.240360200228666 0 -0.45676275941016609 -0.23628729483617639 0 -0.50000000000000222 -0.21086037523234849 0 -0.4775447229854059 -0.22535576830415929 0 -0.48548116721245049 -0.23774912910784329 0 -0.50000000000000222 -0.21086037523234849 0 -0.5 -0.2401545466321974 0 -0.48548116721245049 -0.23774912910784329 0 -0.48050148842732221 -0.25523221810557922 0 -0.5 -0.2401545466321974 0 -0.48548116721245049 -0.23774912910784329 0 -0.48050148842732221 -0.25523221810557922 0 -0.4726071657750785 -0.240360200228666 0 -0.46267023581878858 -0.24817136713935201 0 -0.48050148842732221 -0.25523221810557922 0 -0.48548116721245049 -0.23774912910784329 0 -0.4726071657750785 -0.240360200228666 0 -0.4775447229854059 -0.22535576830415929 0 -0.48548116721245049 -0.23774912910784329 0 -0.4726071657750785 -0.240360200228666 0 -0.4726071657750785 -0.240360200228666 0 -0.46267023581878858 -0.24817136713935201 0 -0.45676275941016609 -0.23628729483617639 0 -0.46267023581878858 -0.24817136713935201 0 -0.45676275941016609 -0.23628729483617639 0 -0.45139902778349827 -0.24711062934306771 0 -0.4775447229854059 -0.22535576830415929 0 -0.45676275941016609 -0.23628729483617639 0 -0.46571952953094348 -0.22577651025912229 0 -0.4775447229854059 -0.22535576830415929 0 -0.45676275941016609 -0.23628729483617639 0 -0.46757130244775341 -0.21427176676618889 0 -0.45835441248282049 -0.22926624483698249 0 -0.45691127413918359 -0.218140336649912 0 -0.46757130244775341 -0.21427176676618889 0 -0.45835441248282049 -0.22926624483698249 0 -0.46757130244775341 -0.21427176676618889 0 -0.46571952953094348 -0.22577651025912229 0 -0.45835441248282049 -0.22926624483698249 0 -0.45691127413918359 -0.218140336649912 0 -0.45835441248282049 -0.22926624483698249 0 -0.44903912237987481 -0.22310222333220869 0 -0.45676275941016609 -0.23628729483617639 0 -0.46571952953094348 -0.22577651025912229 0 -0.45835441248282049 -0.22926624483698249 0 -0.45676275941016609 -0.23628729483617639 0 -0.45835441248282049 -0.22926624483698249 0 -0.44784406772060242 -0.23291584907632601 0 -0.45835441248282049 -0.22926624483698249 0 -0.44784406772060242 -0.23291584907632601 0 -0.44903912237987481 -0.22310222333220869 0 -0.44784406772060242 -0.23291584907632601 0 -0.44903912237987481 -0.22310222333220869 0 -0.43908324849522451 -0.2287046610080686 0 -0.43955036875351089 -0.21658504913102711 0 -0.44903912237987481 -0.22310222333220869 0 -0.43908324849522451 -0.2287046610080686 0 -0.43598079583492633 -0.24721882136819351 0 -0.44784406772060242 -0.23291584907632601 0 -0.43908324849522451 -0.2287046610080686 0 -0.43598079583492633 -0.24721882136819351 0 -0.45676275941016609 -0.23628729483617639 0 -0.45139902778349827 -0.24711062934306771 0 -0.43598079583492633 -0.24721882136819351 0 -0.45676275941016609 -0.23628729483617639 0 -0.44784406772060242 -0.23291584907632601 0 -0.43598079583492633 -0.24721882136819351 0 -0.45676275941016609 -0.23628729483617639 0 -0.41513049604948221 -0.033942569896895612 0 -0.42680670243505803 -0.034615113076212713 0 -0.40073055052989021 -0.025701474464423758 0 -0.41513049604948221 -0.033942569896895612 0 -0.42462943043776058 -0.041038039404546971 0 -0.40237332615973681 -0.030676944162886681 0 -0.42462943043776058 -0.041038039404546971 0 -0.40237332615973681 -0.030676944162886681 0 -0.41105872637709778 -0.041104419315527559 0 -0.42462943043776058 -0.041038039404546971 0 -0.40237332615973681 -0.030676944162886681 0 -0.41795689190558921 -0.046390941043723911 0 -0.41105872637709778 -0.041104419315527559 0 -0.42462943043776058 -0.041038039404546971 0 -0.41513049604948221 -0.033942569896895612 0 -0.42462943043776058 -0.041038039404546971 0 -0.4243569293735685 -0.037306081984415762 0 -0.41105872637709778 -0.041104419315527559 0 -0.4050251302254127 -0.045922345921936697 0 -0.40306291723554027 -0.039039715031688543 0 -0.41795689190558921 -0.046390941043723911 0 -0.41105872637709778 -0.041104419315527559 0 -0.41174405323292163 -0.047949206462353358 0 -0.41105872637709778 -0.041104419315527559 0 -0.41174405323292163 -0.047949206462353358 0 -0.4050251302254127 -0.045922345921936697 0 -0.41174405323292163 -0.047949206462353358 0 -0.4050251302254127 -0.045922345921936697 0 -0.40603099279739802 -0.054788986838451827 0 -0.41174405323292163 -0.047949206462353358 0 -0.4187470457232762 -0.053937065845881961 0 -0.40603099279739802 -0.054788986838451827 0 -0.4187470457232762 -0.053937065845881961 0 -0.40603099279739802 -0.054788986838451827 0 -0.41284572228237681 -0.064006668923108523 0 -0.4187470457232762 -0.053937065845881961 0 -0.41284572228237681 -0.064006668923108523 0 -0.42746868386642678 -0.066478460468227696 0 -0.41795689190558921 -0.046390941043723911 0 -0.41174405323292163 -0.047949206462353358 0 -0.4187470457232762 -0.053937065845881961 0 -0.41795689190558921 -0.046390941043723911 0 -0.4187470457232762 -0.053937065845881961 0 -0.42320145590089769 -0.048540393412862697 0 -0.42320145590089769 -0.048540393412862697 0 -0.43147245553696489 -0.05279552735729795 0 -0.42462943043776058 -0.041038039404546971 0 -0.4187470457232762 -0.053937065845881961 0 -0.42320145590089769 -0.048540393412862697 0 -0.43147245553696489 -0.05279552735729795 0 -0.43147245553696489 -0.05279552735729795 0 -0.42462943043776058 -0.041038039404546971 0 -0.44688553471578463 -0.051399134646207288 0 -0.4187470457232762 -0.053937065845881961 0 -0.43147245553696489 -0.05279552735729795 0 -0.42746868386642678 -0.066478460468227696 0 -0.43147245553696489 -0.05279552735729795 0 -0.42746868386642678 -0.066478460468227696 0 -0.43950717444435422 -0.063784996514660589 0 -0.42818951741271921 -0.038310772776573528 0 -0.43628267576141971 -0.035329403205585218 0 -0.44688553471578463 -0.051399134646207288 0 -0.42462943043776058 -0.041038039404546971 0 -0.42818951741271921 -0.038310772776573528 0 -0.44688553471578463 -0.051399134646207288 0 -0.42462943043776058 -0.041038039404546971 0 -0.44688553471578463 -0.051399134646207288 0 -0.41795689190558921 -0.046390941043723911 0 -0.42320145590089769 -0.048540393412862697 0 -0.42462943043776058 -0.041038039404546971 0 -0.41513049604948221 -0.033942569896895612 0 -0.4243569293735685 -0.037306081984415762 0 -0.42680670243505803 -0.034615113076212713 0 -0.42462943043776058 -0.041038039404546971 0 -0.4243569293735685 -0.037306081984415762 0 -0.42818951741271921 -0.038310772776573528 0 -0.42818951741271921 -0.038310772776573528 0 -0.42680670243505803 -0.034615113076212713 0 -0.4243569293735685 -0.037306081984415762 0 -0.42818951741271921 -0.038310772776573528 0 -0.42680670243505803 -0.034615113076212713 0 -0.42818951741271921 -0.038310772776573528 0 -0.42680670243505803 -0.034615113076212713 0 -0.42995577540377822 -0.032900560567165532 0 -0.42818951741271921 -0.038310772776573528 0 -0.42995577540377822 -0.032900560567165532 0 -0.43628267576141971 -0.035329403205585218 0 -0.42995577540377822 -0.032900560567165532 0 -0.43628267576141971 -0.035329403205585218 0 -0.4327931004709421 -0.029092843067932112 0 -0.42680670243505803 -0.034615113076212713 0 -0.4285090787839364 -0.025262373234060161 0 -0.41794895562780338 -0.01094222954485795 0 -0.42680670243505803 -0.034615113076212713 0 -0.41794895562780338 -0.01094222954485795 0 -0.43628267576141971 -0.035329403205585218 0 -0.4327931004709421 -0.029092843067932112 0 -0.43710875721387199 -0.026668229939385779 0 -0.42995577540377822 -0.032900560567165532 0 -0.4327931004709421 -0.029092843067932112 0 -0.4285090787839364 -0.025262373234060161 0 -0.43210921519170409 -0.025303648393463829 0 -0.43710875721387199 -0.026668229939385779 0 -0.43108579893039811 -0.01948839847471974 0 -0.4327931004709421 -0.029092843067932112 0 -0.43210921519170409 -0.025303648393463829 0 -0.4285090787839364 -0.025262373234060161 0 -0.4327931004709421 -0.029092843067932112 0 -0.43210921519170409 -0.025303648393463829 0 -0.43710875721387199 -0.026668229939385779 0 -0.43108579893039811 -0.01948839847471974 0 -0.43397544616601241 -0.014244232554068349 0 -0.43928417642389239 -0.017661557407765791 0 -0.43710875721387199 -0.026668229939385779 0 -0.43108579893039811 -0.01948839847471974 0 -0.43928417642389239 -0.017661557407765791 0 -0.43210921519170409 -0.025303648393463829 0 -0.43108579893039811 -0.01948839847471974 0 -0.4285090787839364 -0.025262373234060161 0 -0.43108579893039811 -0.01948839847471974 0 -0.4285090787839364 -0.025262373234060161 0 -0.41794895562780338 -0.01094222954485795 0 -0.42680670243505803 -0.034615113076212713 0 -0.42995577540377822 -0.032900560567165532 0 -0.4285090787839364 -0.025262373234060161 0 -0.43591977417237449 -0.008065469867085449 0 -0.42907061680018699 -0.010664914002041091 0 -0.42583279771702431 0.00046528033667210148 0 -0.43108579893039811 -0.01948839847471974 0 -0.43397544616601241 -0.014244232554068349 0 -0.42907061680018699 -0.010664914002041091 0 -0.43591977417237449 -0.008065469867085449 0 -0.43397544616601241 -0.014244232554068349 0 -0.43928417642389239 -0.017661557407765791 0 -0.43591977417237449 -0.008065469867085449 0 -0.43397544616601241 -0.014244232554068349 0 -0.42907061680018699 -0.010664914002041091 0 -0.43108579893039811 -0.01948839847471974 0 -0.42907061680018699 -0.010664914002041091 0 -0.41794895562780338 -0.01094222954485795 0 -0.42907061680018699 -0.010664914002041091 0 -0.41794895562780338 -0.01094222954485795 0 -0.42583279771702431 0.00046528033667210148 0 -0.41794895562780338 -0.01094222954485795 0 -0.4102220184461346 -0.019351118920435541 0 -0.40021295305484711 -0.013852611056198059 0 -0.41794895562780338 -0.01094222954485795 0 -0.40352261506359649 -0.001038070178381474 0 -0.40021295305484711 -0.013852611056198059 0 -0.42680670243505803 -0.034615113076212713 0 -0.41794895562780338 -0.01094222954485795 0 -0.4102220184461346 -0.019351118920435541 0 -0.42680670243505803 -0.034615113076212713 0 -0.4102220184461346 -0.019351118920435541 0 -0.40073055052989021 -0.025701474464423758 0 -0.42680670243505803 -0.034615113076212713 0 -0.40073055052989021 -0.025701474464423758 0 -0.41513049604948221 -0.033942569896895612 0 -0.40073055052989021 -0.025701474464423758 0 -0.40237332615973681 -0.030676944162886681 0 -0.40073055052989021 -0.025701474464423758 0 -0.40237332615973681 -0.030676944162886681 0 -0.38011722188171299 -0.020315848921226409 0 -0.40237332615973681 -0.030676944162886681 0 -0.38011722188171299 -0.020315848921226409 0 -0.4102220184461346 -0.019351118920435541 0 -0.40073055052989021 -0.025701474464423758 0 -0.40021295305484711 -0.013852611056198059 0 -0.40073055052989021 -0.025701474464423758 0 -0.40021295305484711 -0.013852611056198059 0 -0.38745402304870558 -0.01483805838738575 0 -0.40352261506359649 -0.001038070178381474 0 -0.40021295305484711 -0.013852611056198059 0 -0.39408165103759368 -0.0019794594859314238 0 -0.40021295305484711 -0.013852611056198059 0 -0.39408165103759368 -0.0019794594859314238 0 -0.39005949432245718 -0.0085411321607220259 0 -0.40021295305484711 -0.013852611056198059 0 -0.39005949432245718 -0.0085411321607220259 0 -0.38745402304870558 -0.01483805838738575 0 -0.39408165103759368 -0.0019794594859314238 0 -0.3848191179490616 -0.0027051675553946518 0 -0.39005949432245718 -0.0085411321607220259 0 -0.3848191179490616 -0.0027051675553946518 0 -0.38372972652207787 -0.0093303643187002475 0 -0.39005949432245718 -0.0085411321607220259 0 -0.38372972652207787 -0.0093303643187002475 0 -0.38745402304870558 -0.01483805838738575 0 -0.3791207175096093 -0.01135650732177081 0 -0.38372972652207787 -0.0093303643187002475 0 -0.39005949432245718 -0.0085411321607220259 0 -0.38745402304870558 -0.01483805838738575 0 -0.37465439862472261 -0.016787835852634068 0 -0.37464851222799189 -0.0076089195940836872 0 -0.3791207175096093 -0.01135650732177081 0 -0.37465439862472261 -0.016787835852634068 0 -0.38745402304870558 -0.01483805838738575 0 -0.3791207175096093 -0.01135650732177081 0 -0.37464851222799189 -0.0076089195940836872 0 -0.3791207175096093 -0.01135650732177081 0 -0.37960876280762101 -0.0064231604720931881 0 -0.38372972652207787 -0.0093303643187002475 0 -0.3791207175096093 -0.01135650732177081 0 -0.37960876280762101 -0.0064231604720931881 0 -0.3848191179490616 -0.0027051675553946518 0 -0.38372972652207787 -0.0093303643187002475 0 -0.37960876280762101 -0.0064231604720931881 0 -0.37464851222799189 -0.0076089195940836872 0 -0.37960876280762101 -0.0064231604720931881 0 -0.37774077980655368 -0.001289555558904682 0 -0.3848191179490616 -0.0027051675553946518 0 -0.37960876280762101 -0.0064231604720931881 0 -0.37774077980655368 -0.001289555558904682 0 -0.37465439862472261 -0.016787835852634068 0 -0.40073055052989021 -0.025701474464423758 0 -0.38745402304870558 -0.01483805838738575 0 -0.40237332615973681 -0.030676944162886681 0 -0.38781453024876661 -0.02996800237218563 0 -0.38011722188171299 -0.020315848921226409 0 -0.37465439862472261 -0.016787835852634068 0 -0.40073055052989021 -0.025701474464423758 0 -0.38011722188171299 -0.020315848921226409 0 -0.37465439862472261 -0.016787835852634068 0 -0.40073055052989021 -0.025701474464423758 0 -0.37402384376206249 -0.023759624541515059 0 -0.37465439862472261 -0.016787835852634068 0 -0.38011722188171299 -0.020315848921226409 0 -0.37402384376206249 -0.023759624541515059 0 -0.38011722188171299 -0.020315848921226409 0 -0.37866743010551202 -0.02906954498465647 0 -0.38781453024876661 -0.02996800237218563 0 -0.38011722188171299 -0.020315848921226409 0 -0.37866743010551202 -0.02906954498465647 0 -0.37439980638912518 -0.038891661293645137 0 -0.37866743010551202 -0.02906954498465647 0 -0.38394575501216083 -0.036535335565972972 0 -0.37439980638912518 -0.038891661293645137 0 -0.37993408630244868 -0.045501240077299353 0 -0.38394575501216083 -0.036535335565972972 0 -0.37085155020467431 -0.050438611479832557 0 -0.37439980638912518 -0.038891661293645137 0 -0.37993408630244868 -0.045501240077299353 0 -0.37993408630244868 -0.045501240077299353 0 -0.38895054345211377 -0.045335196083553769 0 -0.38394575501216083 -0.036535335565972972 0 -0.38895054345211377 -0.045335196083553769 0 -0.38394575501216083 -0.036535335565972972 0 -0.39396365166307989 -0.03445798481758762 0 -0.38781453024876661 -0.02996800237218563 0 -0.38394575501216083 -0.036535335565972972 0 -0.39396365166307989 -0.03445798481758762 0 -0.38781453024876661 -0.02996800237218563 0 -0.37866743010551202 -0.02906954498465647 0 -0.38394575501216083 -0.036535335565972972 0 -0.40237332615973681 -0.030676944162886681 0 -0.38781453024876661 -0.02996800237218563 0 -0.39396365166307989 -0.03445798481758762 0 -0.39396365166307989 -0.03445798481758762 0 -0.39750411751227832 -0.042292212187568533 0 -0.39928834571923882 -0.035924112998793431 0 -0.38895054345211377 -0.045335196083553769 0 -0.39396365166307989 -0.03445798481758762 0 -0.39750411751227832 -0.042292212187568533 0 -0.39750411751227832 -0.042292212187568533 0 -0.4050251302254127 -0.045922345921936697 0 -0.40306291723554027 -0.039039715031688543 0 -0.39750411751227832 -0.042292212187568533 0 -0.40306291723554027 -0.039039715031688543 0 -0.39928834571923882 -0.035924112998793431 0 -0.40237332615973681 -0.030676944162886681 0 -0.39396365166307989 -0.03445798481758762 0 -0.39928834571923882 -0.035924112998793431 0 -0.41105872637709778 -0.041104419315527559 0 -0.40237332615973681 -0.030676944162886681 0 -0.40306291723554027 -0.039039715031688543 0 -0.40237332615973681 -0.030676944162886681 0 -0.40306291723554027 -0.039039715031688543 0 -0.39928834571923882 -0.035924112998793431 0 -0.40603099279739802 -0.054788986838451827 0 -0.39527915405366182 -0.064437672488960096 0 -0.41284572228237681 -0.064006668923108523 0 -0.40603099279739802 -0.054788986838451827 0 -0.39443592701229091 -0.053019652188425637 0 -0.39527915405366182 -0.064437672488960096 0 -0.4050251302254127 -0.045922345921936697 0 -0.40603099279739802 -0.054788986838451827 0 -0.39443592701229091 -0.053019652188425637 0 -0.39750411751227832 -0.042292212187568533 0 -0.4050251302254127 -0.045922345921936697 0 -0.39443592701229091 -0.053019652188425637 0 -0.38895054345211377 -0.045335196083553769 0 -0.39750411751227832 -0.042292212187568533 0 -0.39443592701229091 -0.053019652188425637 0 -0.39443592701229091 -0.053019652188425637 0 -0.38221605892473098 -0.056125323053866277 0 -0.39527915405366182 -0.064437672488960096 0 -0.36608399240098949 -0.063120758007335118 0 -0.38221605892473098 -0.056125323053866277 0 -0.37978412082390189 -0.068029865631836883 0 -0.38895054345211377 -0.045335196083553769 0 -0.39443592701229091 -0.053019652188425637 0 -0.38221605892473098 -0.056125323053866277 0 -0.37993408630244868 -0.045501240077299353 0 -0.38895054345211377 -0.045335196083553769 0 -0.38221605892473098 -0.056125323053866277 0 -0.37085155020467431 -0.050438611479832557 0 -0.37993408630244868 -0.045501240077299353 0 -0.38221605892473098 -0.056125323053866277 0 -0.36843110820579178 -0.075527255856609146 0 -0.37978412082390189 -0.068029865631836883 0 -0.38691029053433551 -0.080938318752413793 0 -0.37978412082390189 -0.068029865631836883 0 -0.38691029053433551 -0.080938318752413793 0 -0.39527915405366182 -0.064437672488960096 0 -0.38221605892473098 -0.056125323053866277 0 -0.37978412082390189 -0.068029865631836883 0 -0.39527915405366182 -0.064437672488960096 0 -0.37380044498630338 -0.100392191664622 0 -0.36747037526515469 -0.088210616938563927 0 -0.38691029053433551 -0.080938318752413793 0 -0.36843110820579178 -0.075527255856609146 0 -0.38691029053433551 -0.080938318752413793 0 -0.40007542381043809 -0.086939242353532731 0 -0.39460333317738627 -0.1006873657273652 0 -0.41352047356827321 -0.0909948847898496 0 -0.38691029053433551 -0.080938318752413793 0 -0.40007542381043809 -0.086939242353532731 0 -0.40767355229219521 -0.074626636544090755 0 -0.38691029053433551 -0.080938318752413793 0 -0.40007542381043809 -0.086939242353532731 0 -0.39460333317738627 -0.1006873657273652 0 -0.38691029053433551 -0.080938318752413793 0 -0.39527915405366182 -0.064437672488960096 0 -0.40767355229219521 -0.074626636544090755 0 -0.39527915405366182 -0.064437672488960096 0 -0.41284572228237681 -0.064006668923108523 0 -0.40767355229219521 -0.074626636544090755 0 -0.36893450279197471 -0.1249528869149899 0 -0.3789649235099295 -0.11270856972454819 0 -0.39514760223357998 -0.1249586529677193 0 -0.36893450279197471 -0.1249528869149899 0 -0.39514760223357998 -0.1249586529677193 0 -0.3789649235099295 -0.11270856972454819 0 -0.39460333317738627 -0.1006873657273652 0 -0.39514760223357998 -0.1249586529677193 0 -0.37380044498630338 -0.100392191664622 0 -0.38691029053433551 -0.080938318752413793 0 -0.39460333317738627 -0.1006873657273652 0 -0.37380044498630338 -0.100392191664622 0 -0.3789649235099295 -0.11270856972454819 0 -0.39460333317738627 -0.1006873657273652 0 -0.39460333317738627 -0.1006873657273652 0 -0.39514760223357998 -0.1249586529677193 0 -0.4114708495464785 -0.1093321351213095 0 -0.42136070167518519 -0.1249644190204488 0 -0.4114708495464785 -0.1093321351213095 0 -0.43272213707796769 -0.1050553531011644 0 -0.39514760223357998 -0.1249586529677193 0 -0.42136070167518519 -0.1249644190204488 0 -0.39514760223357998 -0.1249586529677193 0 -0.42136070167518519 -0.1249644190204488 0 -0.4114708495464785 -0.1093321351213095 0 -0.39460333317738627 -0.1006873657273652 0 -0.4114708495464785 -0.1093321351213095 0 -0.41352047356827321 -0.0909948847898496 0 -0.4114708495464785 -0.1093321351213095 0 -0.43272213707796769 -0.1050553531011644 0 -0.41352047356827321 -0.0909948847898496 0 -0.42136070167518519 -0.1249644190204488 0 -0.43272213707796769 -0.1050553531011644 0 -0.44757380111679052 -0.12497018507317829 0 -0.42136070167518519 -0.1249644190204488 0 -0.44757380111679052 -0.12497018507317829 0 -0.42023793718526542 -0.076451056482049876 0 -0.41284572228237681 -0.064006668923108523 0 -0.42746868386642678 -0.066478460468227696 0 -0.42023793718526542 -0.076451056482049876 0 -0.41284572228237681 -0.064006668923108523 0 -0.40767355229219521 -0.074626636544090755 0 -0.42023793718526542 -0.076451056482049876 0 -0.40767355229219521 -0.074626636544090755 0 -0.41352047356827321 -0.0909948847898496 0 -0.40007542381043809 -0.086939242353532731 0 -0.40767355229219521 -0.074626636544090755 0 -0.41352047356827321 -0.0909948847898496 0 -0.42023793718526542 -0.076451056482049876 0 -0.41352047356827321 -0.0909948847898496 0 -0.43051036701793649 -0.083964229305721505 0 -0.43272213707796769 -0.1050553531011644 0 -0.41352047356827321 -0.0909948847898496 0 -0.43051036701793649 -0.083964229305721505 0 -0.43272213707796769 -0.1050553531011644 0 -0.43051036701793649 -0.083964229305721505 0 -0.44869793539396702 -0.090613631575090198 0 -0.43051036701793649 -0.083964229305721505 0 -0.42746868386642678 -0.066478460468227696 0 -0.43938561630945938 -0.075374003134316428 0 -0.42023793718526542 -0.076451056482049876 0 -0.43051036701793649 -0.083964229305721505 0 -0.42746868386642678 -0.066478460468227696 0 -0.42746868386642678 -0.066478460468227696 0 -0.43950717444435422 -0.063784996514660589 0 -0.43938561630945938 -0.075374003134316428 0 -0.43950717444435422 -0.063784996514660589 0 -0.45074392082461212 -0.072028697807882153 0 -0.43938561630945938 -0.075374003134316428 0 -0.43051036701793649 -0.083964229305721505 0 -0.43938561630945938 -0.075374003134316428 0 -0.44869793539396702 -0.090613631575090198 0 -0.45074392082461212 -0.072028697807882153 0 -0.43938561630945938 -0.075374003134316428 0 -0.44869793539396702 -0.090613631575090198 0 -0.45074392082461212 -0.072028697807882153 0 -0.44869793539396702 -0.090613631575090198 0 -0.4647336852437608 -0.080388630180202481 0 -0.44869793539396702 -0.090613631575090198 0 -0.4647336852437608 -0.080388630180202481 0 -0.47380622041468068 -0.096022360055862885 0 -0.4647336852437608 -0.080388630180202481 0 -0.46264955769922828 -0.069236149835977229 0 -0.47254815090776853 -0.069469283055039688 0 -0.45074392082461212 -0.072028697807882153 0 -0.46264955769922828 -0.069236149835977229 0 -0.44688553471578463 -0.051399134646207288 0 -0.46264955769922828 -0.069236149835977229 0 -0.47254815090776853 -0.069469283055039688 0 -0.46914163899380801 -0.061760229887868598 0 -0.45074392082461212 -0.072028697807882153 0 -0.4647336852437608 -0.080388630180202481 0 -0.46264955769922828 -0.069236149835977229 0 -0.43272213707796769 -0.1050553531011644 0 -0.44757380111679052 -0.12497018507317829 0 -0.46022938895027038 -0.10869066194517669 0 -0.43272213707796769 -0.1050553531011644 0 -0.44869793539396702 -0.090613631575090198 0 -0.46022938895027038 -0.10869066194517669 0 -0.44869793539396702 -0.090613631575090198 0 -0.46022938895027038 -0.10869066194517669 0 -0.47380622041468068 -0.096022360055862885 0 -0.44757380111679052 -0.12497018507317829 0 -0.47378690055839578 -0.1249759511259078 0 -0.44757380111679052 -0.12497018507317829 0 -0.46022938895027038 -0.10869066194517669 0 -0.47378690055839578 -0.1249759511259078 0 -0.46022938895027038 -0.10869066194517669 0 -0.47378690055839578 -0.1249759511259078 0 -0.48374478807960558 -0.1092121363906397 0 -0.46022938895027038 -0.10869066194517669 0 -0.48374478807960558 -0.1092121363906397 0 -0.47380622041468068 -0.096022360055862885 0 -0.48374478807960558 -0.1092121363906397 0 -0.47380622041468068 -0.096022360055862885 0 -0.48832582805197727 -0.092109142267116931 0 -0.48374478807960558 -0.1092121363906397 0 -0.5 -0.10055386622176241 0 -0.48832582805197727 -0.092109142267116931 0 -0.47378690055839578 -0.1249759511259078 0 -0.48374478807960558 -0.1092121363906397 0 -0.50000000000000111 -0.12498171717863731 0 -0.48374478807960558 -0.1092121363906397 0 -0.5 -0.10055386622176241 0 -0.50000000000000111 -0.12498171717863731 0 -0.47378690055839578 -0.1249759511259078 0 -0.50000000000000111 -0.12498171717863731 0 -0.47254815090776853 -0.069469283055039688 0 -0.47913967023945842 -0.082463322467565006 0 -0.48457081949690362 -0.068943122576377761 0 -0.47913967023945842 -0.082463322467565006 0 -0.48808502354595151 -0.080031310268457945 0 -0.48457081949690362 -0.068943122576377761 0 -0.48457081949690362 -0.068943122576377761 0 -0.46914163899380801 -0.061760229887868598 0 -0.48457081949690362 -0.068943122576377761 0 -0.48230491698392047 -0.057318093012348498 0 -0.46914163899380801 -0.061760229887868598 0 -0.47254815090776853 -0.069469283055039688 0 -0.48457081949690362 -0.068943122576377761 0 -0.46914163899380801 -0.061760229887868598 0 -0.47254815090776853 -0.069469283055039688 0 -0.46914163899380801 -0.061760229887868598 0 -0.4647336852437608 -0.080388630180202481 0 -0.47254815090776853 -0.069469283055039688 0 -0.47913967023945842 -0.082463322467565006 0 -0.4647336852437608 -0.080388630180202481 0 -0.47380622041468068 -0.096022360055862885 0 -0.47913967023945842 -0.082463322467565006 0 -0.47380622041468068 -0.096022360055862885 0 -0.47913967023945842 -0.082463322467565006 0 -0.48832582805197727 -0.092109142267116931 0 -0.5 -0.10055386622176241 0 -0.48832582805197727 -0.092109142267116931 0 -0.499999999999999 -0.07612601526488752 0 -0.48808502354595151 -0.080031310268457945 0 -0.48832582805197727 -0.092109142267116931 0 -0.499999999999999 -0.07612601526488752 0 -0.47913967023945842 -0.082463322467565006 0 -0.48808502354595151 -0.080031310268457945 0 -0.48832582805197727 -0.092109142267116931 0 -0.499999999999999 -0.07612601526488752 0 -0.48457081949690362 -0.068943122576377761 0 -0.499999999999999 -0.07612601526488752 0 -0.48457081949690362 -0.068943122576377761 0 -0.5 -0.055081012739928707 0 -0.48808502354595151 -0.080031310268457945 0 -0.499999999999999 -0.07612601526488752 0 -0.48457081949690362 -0.068943122576377761 0 -0.48457081949690362 -0.068943122576377761 0 -0.5 -0.055081012739928707 0 -0.48230491698392047 -0.057318093012348498 0 -0.5 -0.055081012739928707 0 -0.48157039955536241 -0.044558511477442143 0 -0.48230491698392047 -0.057318093012348498 0 -0.5 -0.055081012739928707 0 -0.500000000000004 -0.034036010214970061 0 -0.48157039955536241 -0.044558511477442143 0 -0.500000000000004 -0.034036010214970061 0 -0.48157039955536241 -0.044558511477442143 0 -0.48148290990478199 -0.029591545163434652 0 -0.48157039955536241 -0.044558511477442143 0 -0.45768975774058179 -0.035844230274481748 0 -0.48148290990478199 -0.029591545163434652 0 -0.48157039955536241 -0.044558511477442143 0 -0.46914163899380801 -0.061760229887868598 0 -0.45768975774058179 -0.035844230274481748 0 -0.48157039955536241 -0.044558511477442143 0 -0.48230491698392047 -0.057318093012348498 0 -0.46914163899380801 -0.061760229887868598 0 -0.46914163899380801 -0.061760229887868598 0 -0.45768975774058179 -0.035844230274481748 0 -0.44688553471578463 -0.051399134646207288 0 -0.46914163899380801 -0.061760229887868598 0 -0.45768975774058179 -0.035844230274481748 0 -0.46264955769922828 -0.069236149835977229 0 -0.46914163899380801 -0.061760229887868598 0 -0.44688553471578463 -0.051399134646207288 0 -0.46914163899380801 -0.061760229887868598 0 -0.44688553471578463 -0.051399134646207288 0 -0.43628267576141971 -0.035329403205585218 0 -0.44354830351403418 -0.034418653902415733 0 -0.44688553471578463 -0.051399134646207288 0 -0.45768975774058179 -0.035844230274481748 0 -0.44354830351403418 -0.034418653902415733 0 -0.44688553471578463 -0.051399134646207288 0 -0.45768975774058179 -0.035844230274481748 0 -0.44354830351403418 -0.034418653902415733 0 -0.44312252706978628 -0.024928407146411868 0 -0.43628267576141971 -0.035329403205585218 0 -0.43710875721387199 -0.026668229939385779 0 -0.44354830351403418 -0.034418653902415733 0 -0.43950717444435422 -0.063784996514660589 0 -0.45074392082461212 -0.072028697807882153 0 -0.44688553471578463 -0.051399134646207288 0 -0.43147245553696489 -0.05279552735729795 0 -0.43950717444435422 -0.063784996514660589 0 -0.44688553471578463 -0.051399134646207288 0 -0.43591977417237449 -0.008065469867085449 0 -0.44623787648735791 -0.0099282306610938807 0 -0.43740981058492812 0.01004998492246997 0 -0.43591977417237449 -0.008065469867085449 0 -0.44623787648735791 -0.0099282306610938807 0 -0.43928417642389239 -0.017661557407765791 0 -0.43591977417237449 -0.008065469867085449 0 -0.44623787648735791 -0.0099282306610938807 0 -0.43710875721387199 -0.026668229939385779 0 -0.43928417642389239 -0.017661557407765791 0 -0.44312252706978628 -0.024928407146411868 0 -0.45768975774058179 -0.035844230274481748 0 -0.44623787648735791 -0.0099282306610938807 0 -0.44312252706978628 -0.024928407146411868 0 -0.45768975774058179 -0.035844230274481748 0 -0.44623787648735791 -0.0099282306610938807 0 -0.44623787648735791 -0.0099282306610938807 0 -0.43928417642389239 -0.017661557407765791 0 -0.44312252706978628 -0.024928407146411868 0 -0.43710875721387199 -0.026668229939385779 0 -0.44354830351403418 -0.034418653902415733 0 -0.44312252706978628 -0.024928407146411868 0 -0.45768975774058179 -0.035844230274481748 0 -0.44623787648735791 -0.0099282306610938807 0 -0.47146408957177099 -0.01448240150379307 0 -0.44623787648735791 -0.0099282306610938807 0 -0.47146408957177099 -0.01448240150379307 0 -0.44623787648735791 -0.0099282306610938807 0 -0.47146408957177099 -0.01448240150379307 0 -0.46048772545436639 0.0043098071123656434 0 -0.47146408957177099 -0.01448240150379307 0 -0.47882554305316488 -0.0018417715126103191 0 -0.46048772545436639 0.0043098071123656434 0 -0.47146408957177099 -0.01448240150379307 0 -0.47882554305316488 -0.0018417715126103191 0 -0.49669030265618502 -0.01903657234648758 0 -0.47146408957177099 -0.01448240150379307 0 -0.49669030265618502 -0.01903657234648758 0 -0.47146408957177099 -0.01448240150379307 0 -0.48148290990478199 -0.029591545163434652 0 -0.49669030265618502 -0.01903657234648758 0 -0.45768975774058179 -0.035844230274481748 0 -0.47146408957177099 -0.01448240150379307 0 -0.48148290990478199 -0.029591545163434652 0 -0.500000000000004 -0.034036010214970061 0 -0.48148290990478199 -0.029591545163434652 0 -0.49669030265618502 -0.01903657234648758 0 -0.49669030265618502 -0.01903657234648758 0 -0.50000000000000056 -0.019634082844440681 0 -0.500000000000004 -0.034036010214970061 0 -0.49669030265618502 -0.01903657234648758 0 -0.500000000000004 -0.034036010214970061 0 -0.49669030265618502 -0.01903657234648758 0 -0.50000000000000056 -0.019634082844440681 0 -0.47882554305316488 -0.0018417715126103191 0 -0.49669030265618502 -0.01903657234648758 0 -0.49160980924365538 0.0039880541876541054 0 -0.49669030265618502 -0.01903657234648758 0 -0.49160980924365538 0.0039880541876541054 0 -0.49669030265618502 -0.01903657234648758 0 -0.50000000000000056 -0.019634082844440681 0 -0.49160980924365538 0.0039880541876541054 0 -0.50000000000000056 -0.019634082844440681 0 -0.49160980924365538 0.0039880541876541054 0 -0.50000000000000033 0.009303662189531537 0 -0.49160980924365538 0.0039880541876541054 0 -0.48652931583112352 0.027012680721795381 0 -0.49160980924365538 0.0039880541876541054 0 -0.50000000000000033 0.009303662189531537 0 -0.48652931583112352 0.027012680721795381 0 -0.50000000000000033 0.009303662189531537 0 -0.5 0.03611151152349279 0 -0.49175907743105379 0.031398254416965428 0 -0.50000000000000033 0.009303662189531537 0 -0.49175907743105379 0.031398254416965428 0 -0.50000000000000033 0.009303662189531537 0 -0.48652931583112352 0.027012680721795381 0 -0.49175907743105379 0.031398254416965428 0 -0.48652931583112352 0.027012680721795381 0 -0.47387578833984401 0.016012254987208822 0 -0.46815351836101687 0.031449839152918539 0 -0.49160980924365538 0.0039880541876541054 0 -0.48652931583112352 0.027012680721795381 0 -0.47387578833984401 0.016012254987208822 0 -0.47882554305316488 -0.0018417715126103191 0 -0.49160980924365538 0.0039880541876541054 0 -0.47387578833984401 0.016012254987208822 0 -0.47882554305316488 -0.0018417715126103191 0 -0.47387578833984401 0.016012254987208822 0 -0.46048772545436639 0.0043098071123656434 0 -0.49282352307895688 0.045257754500502748 0 -0.5 0.03611151152349279 0 -0.5 0.062919360857453976 0 -0.49282352307895688 0.045257754500502748 0 -0.48351815486210709 0.053492846644399093 0 -0.5 0.062919360857453976 0 -0.49175907743105379 0.031398254416965428 0 -0.48144882241859149 0.050037307255936581 0 -0.48351815486210709 0.053492846644399093 0 -0.48652931583112352 0.027012680721795381 0 -0.49175907743105379 0.031398254416965428 0 -0.48144882241859149 0.050037307255936581 0 -0.49175907743105379 0.031398254416965428 0 -0.48351815486210709 0.053492846644399093 0 -0.49282352307895688 0.045257754500502748 0 -0.49175907743105379 0.031398254416965428 0 -0.48351815486210709 0.053492846644399093 0 -0.49282352307895688 0.045257754500502748 0 -0.5 0.03611151152349279 0 -0.49175907743105379 0.031398254416965428 0 -0.48144882241859149 0.050037307255936581 0 -0.4639696453013944 0.043374392403556838 0 -0.46815351836101687 0.031449839152918539 0 -0.48652931583112352 0.027012680721795381 0 -0.48144882241859149 0.050037307255936581 0 -0.48652931583112352 0.027012680721795381 0 -0.48144882241859149 0.050037307255936581 0 -0.46815351836101687 0.031449839152918539 0 -0.48144882241859149 0.050037307255936581 0 -0.45709786057011947 0.055708105081253657 0 -0.47636832900606041 0.073061933790077832 0 -0.48144882241859149 0.050037307255936581 0 -0.48351815486210709 0.053492846644399093 0 -0.47636832900606041 0.073061933790077832 0 -0.48144882241859149 0.050037307255936581 0 -0.47636832900606041 0.073061933790077832 0 -0.48144882241859149 0.050037307255936581 0 -0.45709786057011947 0.055708105081253657 0 -0.4639696453013944 0.043374392403556838 0 -0.45709786057011947 0.055708105081253657 0 -0.4639696453013944 0.043374392403556838 0 -0.45299045524759751 0.034902057762674861 0 -0.4639696453013944 0.043374392403556838 0 -0.46815351836101687 0.031449839152918539 0 -0.45299045524759751 0.034902057762674861 0 -0.46815351836101687 0.031449839152918539 0 -0.45299045524759751 0.034902057762674861 0 -0.45709786057011947 0.055708105081253657 0 -0.45299045524759751 0.034902057762674861 0 -0.43782739213417787 0.038354276372430232 0 -0.45299045524759751 0.034902057762674861 0 -0.43782739213417787 0.038354276372430232 0 -0.45299045524759751 0.034902057762674861 0 -0.43782739213417787 0.038354276372430232 0 -0.44297011017848281 0.02707887027054981 0 -0.45709786057011947 0.055708105081253657 0 -0.43782739213417787 0.038354276372430232 0 -0.43187248081207541 0.055496176207803817 0 -0.45709786057011947 0.055708105081253657 0 -0.43782739213417787 0.038354276372430232 0 -0.45709786057011947 0.055708105081253657 0 -0.43187248081207541 0.055496176207803817 0 -0.43763284036668942 0.072255399145110422 0 -0.47387578833984401 0.016012254987208822 0 -0.46048772545436639 0.0043098071123656434 0 -0.45598123469437257 0.020633802368031268 0 -0.47387578833984401 0.016012254987208822 0 -0.46815351836101687 0.031449839152918539 0 -0.45598123469437257 0.020633802368031268 0 -0.46815351836101687 0.031449839152918539 0 -0.45299045524759751 0.034902057762674861 0 -0.45598123469437257 0.020633802368031268 0 -0.45598123469437257 0.020633802368031268 0 -0.44297011017848281 0.02707887027054981 0 -0.43740981058492812 0.01004998492246997 0 -0.45299045524759751 0.034902057762674861 0 -0.45598123469437257 0.020633802368031268 0 -0.44297011017848281 0.02707887027054981 0 -0.46048772545436639 0.0043098071123656434 0 -0.45598123469437257 0.020633802368031268 0 -0.43740981058492812 0.01004998492246997 0 -0.44623787648735791 -0.0099282306610938807 0 -0.46048772545436639 0.0043098071123656434 0 -0.43740981058492812 0.01004998492246997 0 -0.44623787648735791 -0.0099282306610938807 0 -0.43740981058492812 0.01004998492246997 0 -0.43591977417237449 -0.008065469867085449 0 -0.43740981058492812 0.01004998492246997 0 -0.42583279771702431 0.00046528033667210148 0 -0.43740981058492812 0.01004998492246997 0 -0.42292027786463471 0.01349413118407828 0 -0.42583279771702431 0.00046528033667210148 0 -0.41794895562780338 -0.01094222954485795 0 -0.40909120882054839 0.01273065398649661 0 -0.41794895562780338 -0.01094222954485795 0 -0.40352261506359649 -0.001038070178381474 0 -0.40909120882054839 0.01273065398649661 0 -0.42292027786463471 0.01349413118407828 0 -0.42583279771702431 0.00046528033667210148 0 -0.40909120882054839 0.01273065398649661 0 -0.41794895562780338 -0.01094222954485795 0 -0.42583279771702431 0.00046528033667210148 0 -0.40909120882054839 0.01273065398649661 0 -0.40909120882054839 0.01273065398649661 0 -0.41494363987246979 0.023236645495722939 0 -0.40023346201329341 0.036403537517851137 0 -0.41494363987246979 0.023236645495722939 0 -0.41436175989852531 0.033604495869393458 0 -0.40023346201329341 0.036403537517851137 0 -0.42292027786463471 0.01349413118407828 0 -0.41494363987246979 0.023236645495722939 0 -0.424969395700869 0.026775135554755129 0 -0.42292027786463471 0.01349413118407828 0 -0.40909120882054839 0.01273065398649661 0 -0.41494363987246979 0.023236645495722939 0 -0.41494363987246979 0.023236645495722939 0 -0.41896391809246269 0.029132761591660509 0 -0.41436175989852531 0.033604495869393458 0 -0.41494363987246979 0.023236645495722939 0 -0.41896391809246269 0.029132761591660509 0 -0.424969395700869 0.026775135554755129 0 -0.41896391809246269 0.029132761591660509 0 -0.424969395700869 0.026775135554755129 0 -0.42158087689798668 0.032914769446770492 0 -0.424969395700869 0.026775135554755129 0 -0.42858174468249838 0.030028200506033911 0 -0.42158087689798668 0.032914769446770492 0 -0.44297011017848281 0.02707887027054981 0 -0.43740981058492812 0.01004998492246997 0 -0.42858174468249838 0.030028200506033911 0 -0.43740981058492812 0.01004998492246997 0 -0.42292027786463471 0.01349413118407828 0 -0.424969395700869 0.026775135554755129 0 -0.43740981058492812 0.01004998492246997 0 -0.42858174468249838 0.030028200506033911 0 -0.43740981058492812 0.01004998492246997 0 -0.424969395700869 0.026775135554755129 0 -0.42858174468249838 0.030028200506033911 0 -0.424969395700869 0.026775135554755129 0 -0.42858174468249838 0.030028200506033911 0 -0.43782739213417787 0.038354276372430232 0 -0.44297011017848281 0.02707887027054981 0 -0.42858174468249838 0.030028200506033911 0 -0.43782739213417787 0.038354276372430232 0 -0.42858174468249838 0.030028200506033911 0 -0.42345682706553001 0.041626064651069543 0 -0.43782739213417787 0.038354276372430232 0 -0.42345682706553001 0.041626064651069543 0 -0.43187248081207541 0.055496176207803817 0 -0.43782739213417787 0.038354276372430232 0 -0.42858174468249838 0.030028200506033911 0 -0.43782739213417787 0.038354276372430232 0 -0.42345682706553001 0.041626064651069543 0 -0.42858174468249838 0.030028200506033911 0 -0.42345682706553001 0.041626064651069543 0 -0.42158087689798668 0.032914769446770492 0 -0.42858174468249838 0.030028200506033911 0 -0.42345682706553001 0.041626064651069543 0 -0.42345682706553001 0.041626064651069543 0 -0.43187248081207541 0.055496176207803817 0 -0.4177568865966339 0.054525225210098782 0 -0.43187248081207541 0.055496176207803817 0 -0.4177568865966339 0.054525225210098782 0 -0.41753301535116211 0.067129086497859855 0 -0.42345682706553001 0.041626064651069543 0 -0.4177568865966339 0.054525225210098782 0 -0.40276573021624068 0.046336866753853997 0 -0.4177568865966339 0.054525225210098782 0 -0.40750332447406851 0.057375884956624552 0 -0.41753301535116211 0.067129086497859855 0 -0.42345682706553001 0.041626064651069543 0 -0.4177568865966339 0.054525225210098782 0 -0.4177568865966339 0.054525225210098782 0 -0.40750332447406851 0.057375884956624552 0 -0.40276573021624068 0.046336866753853997 0 -0.42345682706553001 0.041626064651069543 0 -0.40276573021624068 0.046336866753853997 0 -0.42345682706553001 0.041626064651069543 0 -0.41020444479839763 0.039492741198042178 0 -0.40276573021624068 0.046336866753853997 0 -0.42345682706553001 0.041626064651069543 0 -0.41436175989852531 0.033604495869393458 0 -0.42158087689798668 0.032914769446770492 0 -0.42345682706553001 0.041626064651069543 0 -0.41436175989852531 0.033604495869393458 0 -0.41020444479839763 0.039492741198042178 0 -0.41896391809246269 0.029132761591660509 0 -0.41436175989852531 0.033604495869393458 0 -0.42158087689798668 0.032914769446770492 0 -0.41436175989852531 0.033604495869393458 0 -0.41020444479839763 0.039492741198042178 0 -0.40023346201329341 0.036403537517851137 0 -0.40276573021624068 0.046336866753853997 0 -0.38207463336695202 0.051047668856640811 0 -0.38772007791329738 0.03985096685417347 0 -0.41020444479839763 0.039492741198042178 0 -0.40023346201329341 0.036403537517851137 0 -0.40276573021624068 0.046336866753853997 0 -0.40023346201329341 0.036403537517851137 0 -0.40276573021624068 0.046336866753853997 0 -0.38772007791329738 0.03985096685417347 0 -0.40023346201329341 0.036403537517851137 0 -0.38772007791329738 0.03985096685417347 0 -0.38925836826538629 0.030805614435688099 0 -0.40276573021624068 0.046336866753853997 0 -0.38207463336695202 0.051047668856640811 0 -0.40276573021624068 0.046336866753853997 0 -0.39689466156197101 0.057407184083191301 0 -0.38207463336695202 0.051047668856640811 0 -0.40750332447406851 0.057375884956624552 0 -0.39689466156197101 0.057407184083191301 0 -0.40210564328563447 0.066115584712721373 0 -0.40750332447406851 0.057375884956624552 0 -0.40276573021624068 0.046336866753853997 0 -0.39689466156197101 0.057407184083191301 0 -0.38207463336695202 0.051047668856640811 0 -0.38848633305814179 0.065600711414542545 0 -0.36891219827968119 0.060077996683558232 0 -0.39689466156197101 0.057407184083191301 0 -0.38207463336695202 0.051047668856640811 0 -0.38848633305814179 0.065600711414542545 0 -0.38772007791329738 0.03985096685417347 0 -0.37937813184432773 0.031366277704107569 0 -0.38925836826538629 0.030805614435688099 0 -0.38207463336695202 0.051047668856640811 0 -0.38772007791329738 0.03985096685417347 0 -0.37261014177358448 0.043145835856899219 0 -0.38772007791329738 0.03985096685417347 0 -0.37937813184432773 0.031366277704107569 0 -0.37261014177358448 0.043145835856899219 0 -0.37937813184432773 0.031366277704107569 0 -0.38391758338059062 0.022870450659759161 0 -0.37479293228070759 0.022502646493578662 0 -0.37937813184432773 0.031366277704107569 0 -0.38925836826538629 0.030805614435688099 0 -0.38391758338059062 0.022870450659759161 0 -0.38925836826538629 0.030805614435688099 0 -0.38391758338059062 0.022870450659759161 0 -0.3946160130735708 0.021551959563878339 0 -0.38391758338059062 0.022870450659759161 0 -0.38667067902898572 0.013842153393714489 0 -0.3946160130735708 0.021551959563878339 0 -0.38391758338059062 0.022870450659759161 0 -0.3778438638662554 0.014761087644765769 0 -0.38667067902898572 0.013842153393714489 0 -0.38391758338059062 0.022870450659759161 0 -0.3778438638662554 0.014761087644765769 0 -0.37479293228070759 0.022502646493578662 0 -0.3778438638662554 0.014761087644765769 0 -0.38165634421242611 0.0056742618597281089 0 -0.38667067902898572 0.013842153393714489 0 -0.3778438638662554 0.014761087644765769 0 -0.38165634421242611 0.0056742618597281089 0 -0.37464316483836829 0.0066416053135349984 0 -0.37774077980655368 -0.001289555558904682 0 -0.38165634421242611 0.0056742618597281089 0 -0.37464316483836829 0.0066416053135349984 0 -0.3848191179490616 -0.0027051675553946518 0 -0.37774077980655368 -0.001289555558904682 0 -0.38165634421242611 0.0056742618597281089 0 -0.3848191179490616 -0.0027051675553946518 0 -0.38165634421242611 0.0056742618597281089 0 -0.38845980705381639 0.0057813395070211177 0 -0.39408165103759368 -0.0019794594859314238 0 -0.3848191179490616 -0.0027051675553946518 0 -0.38845980705381639 0.0057813395070211177 0 -0.38845980705381639 0.0057813395070211177 0 -0.38667067902898572 0.013842153393714489 0 -0.39627830677719 0.008853295208583448 0 -0.38165634421242611 0.0056742618597281089 0 -0.38845980705381639 0.0057813395070211177 0 -0.38667067902898572 0.013842153393714489 0 -0.38667067902898572 0.013842153393714489 0 -0.39627830677719 0.008853295208583448 0 -0.3946160130735708 0.021551959563878339 0 -0.39408165103759368 -0.0019794594859314238 0 -0.38845980705381639 0.0057813395070211177 0 -0.39627830677719 0.008853295208583448 0 -0.40352261506359649 -0.001038070178381474 0 -0.39408165103759368 -0.0019794594859314238 0 -0.39627830677719 0.008853295208583448 0 -0.40352261506359649 -0.001038070178381474 0 -0.40909120882054839 0.01273065398649661 0 -0.39627830677719 0.008853295208583448 0 -0.40909120882054839 0.01273065398649661 0 -0.39627830677719 0.008853295208583448 0 -0.3946160130735708 0.021551959563878339 0 -0.40909120882054839 0.01273065398649661 0 -0.40023346201329341 0.036403537517851137 0 -0.3946160130735708 0.021551959563878339 0 -0.40909120882054839 0.01273065398649661 0 -0.40023346201329341 0.036403537517851137 0 -0.40023346201329341 0.036403537517851137 0 -0.38925836826538629 0.030805614435688099 0 -0.3946160130735708 0.021551959563878339 0 -0.38696142946532958 0.1003701901717608 0 -0.40164011277457379 0.081352107660276216 0 -0.40864304721671202 0.1107171055473533 0 -0.38750957741872682 0.11885909540365321 0 -0.40864304721671202 0.1107171055473533 0 -0.39401402549175851 0.1361747599337243 0 -0.38750957741872682 0.11885909540365321 0 -0.38696142946532958 0.1003701901717608 0 -0.40864304721671202 0.1107171055473533 0 -0.38750957741872682 0.11885909540365321 0 -0.38696142946532958 0.1003701901717608 0 -0.36904533532088801 0.1177582563576956 0 -0.38696142946532958 0.1003701901717608 0 -0.37090825683648998 0.098456277756480637 0 -0.36904533532088801 0.1177582563576956 0 -0.37929074908003868 0.077603726490867345 0 -0.40164011277457379 0.081352107660276216 0 -0.38696142946532958 0.1003701901717608 0 -0.37929074908003868 0.077603726490867345 0 -0.40164011277457379 0.081352107660276216 0 -0.38696142946532958 0.1003701901717608 0 -0.37929074908003868 0.077603726490867345 0 -0.37090825683648998 0.098456277756480637 0 -0.37929074908003868 0.077603726490867345 0 -0.38848633305814179 0.065600711414542545 0 -0.36891219827968119 0.060077996683558232 0 -0.37929074908003868 0.077603726490867345 0 -0.38848633305814179 0.065600711414542545 0 -0.40164011277457379 0.081352107660276216 0 -0.38848633305814179 0.065600711414542545 0 -0.40210564328563447 0.066115584712721373 0 -0.40164011277457379 0.081352107660276216 0 -0.39689466156197101 0.057407184083191301 0 -0.38848633305814179 0.065600711414542545 0 -0.40210564328563447 0.066115584712721373 0 -0.40164011277457379 0.081352107660276216 0 -0.42398947646910912 0.085100488829685086 0 -0.40164011277457379 0.081352107660276216 0 -0.42398947646910912 0.085100488829685086 0 -0.40864304721671202 0.1107171055473533 0 -0.40210564328563447 0.066115584712721373 0 -0.40164011277457379 0.081352107660276216 0 -0.41753301535116211 0.067129086497859855 0 -0.40164011277457379 0.081352107660276216 0 -0.41753301535116211 0.067129086497859855 0 -0.42398947646910912 0.085100488829685086 0 -0.40750332447406851 0.057375884956624552 0 -0.40210564328563447 0.066115584712721373 0 -0.41753301535116211 0.067129086497859855 0 -0.41753301535116211 0.067129086497859855 0 -0.42398947646910912 0.085100488829685086 0 -0.43763284036668942 0.072255399145110422 0 -0.43187248081207541 0.055496176207803817 0 -0.41753301535116211 0.067129086497859855 0 -0.43763284036668942 0.072255399145110422 0 -0.42398947646910912 0.085100488829685086 0 -0.44633884016364428 0.088848869999093971 0 -0.42398947646910912 0.085100488829685086 0 -0.43763284036668942 0.072255399145110422 0 -0.44633884016364428 0.088848869999093971 0 -0.42398947646910912 0.085100488829685086 0 -0.42906186480059683 0.10519001099972999 0 -0.44633884016364428 0.088848869999093971 0 -0.42398947646910912 0.085100488829685086 0 -0.42906186480059683 0.10519001099972999 0 -0.40864304721671202 0.1107171055473533 0 -0.40864304721671202 0.1107171055473533 0 -0.43267942878230348 0.12559175737704789 0 -0.42906186480059683 0.10519001099972999 0 -0.40864304721671202 0.1107171055473533 0 -0.43267942878230348 0.12559175737704789 0 -0.42906186480059683 0.10519001099972999 0 -0.4489383204882843 0.11104189391905871 0 -0.43267942878230348 0.12559175737704789 0 -0.4489383204882843 0.11104189391905871 0 -0.45289828098281221 0.1241297055338681 0 -0.43267942878230348 0.12559175737704789 0 -0.4489383204882843 0.11104189391905871 0 -0.43267942878230348 0.12559175737704789 0 -0.42906186480059683 0.10519001099972999 0 -0.4489383204882843 0.11104189391905871 0 -0.44633884016364428 0.088848869999093971 0 -0.4489383204882843 0.11104189391905871 0 -0.44633884016364428 0.088848869999093971 0 -0.47121921728662652 0.096397536200283296 0 -0.46607010556719342 0.11973313861048911 0 -0.47121921728662652 0.096397536200283296 0 -0.4489383204882843 0.11104189391905871 0 -0.46607010556719342 0.11973313861048911 0 -0.47121921728662652 0.096397536200283296 0 -0.4489383204882843 0.11104189391905871 0 -0.45289828098281221 0.1241297055338681 0 -0.46607010556719342 0.11973313861048911 0 -0.45709786057011947 0.055708105081253657 0 -0.43763284036668942 0.072255399145110422 0 -0.45544766770060358 0.07348919590478746 0 -0.43763284036668942 0.072255399145110422 0 -0.44633884016364428 0.088848869999093971 0 -0.45544766770060358 0.07348919590478746 0 -0.44633884016364428 0.088848869999093971 0 -0.45544766770060358 0.07348919590478746 0 -0.47121921728662652 0.096397536200283296 0 -0.45544766770060358 0.07348919590478746 0 -0.47636832900606041 0.073061933790077832 0 -0.47121921728662652 0.096397536200283296 0 -0.45709786057011947 0.055708105081253657 0 -0.47636832900606041 0.073061933790077832 0 -0.45709786057011947 0.055708105081253657 0 -0.45544766770060358 0.07348919590478746 0 -0.47636832900606041 0.073061933790077832 0 -0.48351815486210709 0.053492846644399093 0 -0.47636832900606041 0.073061933790077832 0 -0.49140909277123612 0.074197219851226057 0 -0.47636832900606041 0.073061933790077832 0 -0.48274454235378189 0.091705374172880549 0 -0.47121921728662652 0.096397536200283296 0 -0.47636832900606041 0.073061933790077832 0 -0.47121921728662652 0.096397536200283296 0 -0.47636832900606041 0.073061933790077832 0 -0.49715897998801373 0.091784747772784503 0 -0.5 0.089727210191415163 0 -0.49715897998801373 0.091784747772784503 0 -0.49140909277123612 0.074197219851226057 0 -0.47636832900606041 0.073061933790077832 0 -0.48274454235378189 0.091705374172880549 0 -0.49715897998801373 0.091784747772784503 0 -0.47636832900606041 0.073061933790077832 0 -0.49715897998801373 0.091784747772784503 0 -0.49140909277123612 0.074197219851226057 0 -0.5 0.089727210191415163 0 -0.5 0.062919360857453976 0 -0.49140909277123612 0.074197219851226057 0 -0.48351815486210709 0.053492846644399093 0 -0.5 0.062919360857453976 0 -0.49140909277123612 0.074197219851226057 0 -0.46607010556719342 0.11973313861048911 0 -0.48623164313442779 0.1055772789283768 0 -0.48453668432005692 0.123143207324586 0 -0.46607010556719342 0.11973313861048911 0 -0.47121921728662652 0.096397536200283296 0 -0.48623164313442779 0.1055772789283768 0 -0.48274454235378189 0.091705374172880549 0 -0.47121921728662652 0.096397536200283296 0 -0.48623164313442779 0.1055772789283768 0 -0.5 0.089727210191415163 0 -0.49715897998801373 0.091784747772784503 0 -0.5 0.1165350595253765 0 -0.49715897998801373 0.091784747772784503 0 -0.48623164313442779 0.1055772789283768 0 -0.5 0.1165350595253765 0 -0.48274454235378189 0.091705374172880549 0 -0.49715897998801373 0.091784747772784503 0 -0.48623164313442779 0.1055772789283768 0 -0.48623164313442779 0.1055772789283768 0 -0.5 0.1165350595253765 0 -0.48453668432005692 0.123143207324586 0 -0.5 0.1165350595253765 0 -0.48453668432005692 0.123143207324586 0 -0.5 0.1433429088593379 0 -0.48453668432005692 0.123143207324586 0 -0.48049738108946538 0.1379484740379 0 -0.5 0.1433429088593379 0 -0.46607010556719342 0.11973313861048911 0 -0.48453668432005692 0.123143207324586 0 -0.48049738108946538 0.1379484740379 0 -0.46607010556719342 0.11973313861048911 0 -0.48049738108946538 0.1379484740379 0 -0.46092099384776192 0.14306874102069511 0 -0.48464943840857888 0.15775282940309851 0 -0.46990863904630059 0.1670362475492525 0 -0.46092099384776192 0.14306874102069511 0 -0.48464943840857888 0.15775282940309851 0 -0.46092099384776192 0.14306874102069511 0 -0.48049738108946538 0.1379484740379 0 -0.48464943840857888 0.15775282940309851 0 -0.46092099384776192 0.14306874102069511 0 -0.48049738108946538 0.1379484740379 0 -0.5 0.1433429088593379 0 -0.48464943840857888 0.15775282940309851 0 -0.48464943840857888 0.15775282940309851 0 -0.5 0.17015075819329931 0 -0.4898809761324775 0.17912292006808481 0 -0.5 0.1433429088593379 0 -0.48464943840857888 0.15775282940309851 0 -0.5 0.17015075819329931 0 -0.48464943840857888 0.15775282940309851 0 -0.4898809761324775 0.17912292006808481 0 -0.47865635922375932 0.17909963177513319 0 -0.5 0.17015075819329931 0 -0.4898809761324775 0.17912292006808481 0 -0.5 0.19695860752726069 0 -0.4898809761324775 0.17912292006808481 0 -0.47865635922375932 0.17909963177513319 0 -0.48609908303004917 0.1916527734416324 0 -0.47865635922375932 0.17909963177513319 0 -0.47279817792341111 0.1948006201282925 0 -0.47865635922375932 0.17909963177513319 0 -0.46589335310649882 0.18744802338852329 0 -0.47279817792341111 0.1948006201282925 0 -0.47865635922375932 0.17909963177513319 0 -0.46927870962167312 0.17493875400548389 0 -0.46990863904630059 0.1670362475492525 0 -0.47865635922375932 0.17909963177513319 0 -0.46927870962167312 0.17493875400548389 0 -0.46555461593459269 0.18128722400797501 0 -0.47865635922375932 0.17909963177513319 0 -0.46589335310649882 0.18744802338852329 0 -0.46555461593459269 0.18128722400797501 0 -0.48464943840857888 0.15775282940309851 0 -0.47865635922375932 0.17909963177513319 0 -0.46990863904630059 0.1670362475492525 0 -0.45742932361540911 0.15889287394486271 0 -0.45393765338305497 0.17471700686903011 0 -0.46990863904630059 0.1670362475492525 0 -0.45742932361540911 0.15889287394486271 0 -0.46092099384776192 0.14306874102069511 0 -0.45742932361540911 0.15889287394486271 0 -0.46299522428203971 0.17233191268957501 0 -0.45393765338305497 0.17471700686903011 0 -0.46927870962167312 0.17493875400548389 0 -0.46990863904630059 0.1670362475492525 0 -0.46299522428203971 0.17233191268957501 0 -0.46990863904630059 0.1670362475492525 0 -0.45742932361540911 0.15889287394486271 0 -0.46299522428203971 0.17233191268957501 0 -0.46589335310649882 0.18744802338852329 0 -0.46555461593459269 0.18128722400797501 0 -0.45393765338305497 0.17471700686903011 0 -0.46589335310649882 0.18744802338852329 0 -0.46555461593459269 0.18128722400797501 0 -0.46927870962167312 0.17493875400548389 0 -0.46555461593459269 0.18128722400797501 0 -0.46299522428203971 0.17233191268957501 0 -0.46555461593459269 0.18128722400797501 0 -0.46299522428203971 0.17233191268957501 0 -0.45393765338305497 0.17471700686903011 0 -0.46589335310649882 0.18744802338852329 0 -0.45393765338305497 0.17471700686903011 0 -0.45393765338305497 0.17471700686903011 0 -0.44047241453070329 0.18324079402305421 0 -0.44820564853932793 0.20069426145875721 0 -0.45393765338305497 0.17471700686903011 0 -0.44047241453070329 0.18324079402305421 0 -0.44174290600336708 0.16173144065936321 0 -0.45742932361540911 0.15889287394486271 0 -0.44174290600336708 0.16173144065936321 0 -0.44616928685712581 0.1494742970518641 0 -0.45742932361540911 0.15889287394486271 0 -0.45393765338305497 0.17471700686903011 0 -0.44174290600336708 0.16173144065936321 0 -0.45393765338305497 0.17471700686903011 0 -0.44174290600336708 0.16173144065936321 0 -0.44174290600336708 0.16173144065936321 0 -0.44616928685712581 0.1494742970518641 0 -0.43187713239064979 0.1573343508491826 0 -0.44616928685712581 0.1494742970518641 0 -0.43700896048386301 0.14249666109927989 0 -0.43187713239064979 0.1573343508491826 0 -0.44616928685712581 0.1494742970518641 0 -0.44680021131503311 0.13433024919887079 0 -0.46092099384776192 0.14306874102069511 0 -0.44616928685712581 0.1494742970518641 0 -0.44680021131503311 0.13433024919887079 0 -0.43700896048386301 0.14249666109927989 0 -0.45289828098281221 0.1241297055338681 0 -0.44680021131503311 0.13433024919887079 0 -0.43267942878230348 0.12559175737704789 0 -0.44680021131503311 0.13433024919887079 0 -0.43267942878230348 0.12559175737704789 0 -0.43700896048386301 0.14249666109927989 0 -0.44680021131503311 0.13433024919887079 0 -0.43267942878230348 0.12559175737704789 0 -0.45289828098281221 0.1241297055338681 0 -0.44680021131503311 0.13433024919887079 0 -0.46092099384776192 0.14306874102069511 0 -0.46607010556719342 0.11973313861048911 0 -0.46092099384776192 0.14306874102069511 0 -0.45289828098281221 0.1241297055338681 0 -0.46607010556719342 0.11973313861048911 0 -0.46092099384776192 0.14306874102069511 0 -0.44680021131503311 0.13433024919887079 0 -0.46092099384776192 0.14306874102069511 0 -0.45742932361540911 0.15889287394486271 0 -0.46092099384776192 0.14306874102069511 0 -0.45742932361540911 0.15889287394486271 0 -0.44616928685712581 0.1494742970518641 0 -0.46092099384776192 0.14306874102069511 0 -0.46853242371352971 0.23544625301742969 0 -0.46993231893463527 0.26090691788180947 0 -0.48177750529808522 0.24619974485466931 0 -0.46853242371352971 0.23544625301742969 0 -0.46993231893463527 0.26090691788180947 0 -0.48177750529808522 0.24619974485466931 0 -0.48375626182904402 0.22755154475287301 0 -0.46853242371352971 0.23544625301742969 0 -0.48177750529808522 0.24619974485466931 0 -0.5 0.2461359573144368 0 -0.48375626182904402 0.22755154475287301 0 -0.5 0.2461359573144368 0 -0.48375626182904402 0.22755154475287301 0 -0.49999999999999978 0.22376645686122221 0 -0.48375626182904402 0.22755154475287301 0 -0.48639908896170481 0.20928353849475789 0 -0.5 0.2461359573144368 0 -0.49999999999999978 0.22376645686122221 0 -0.48375626182904402 0.22755154475287301 0 -0.47173343442327142 0.22048762952866541 0 -0.46713252849242448 0.20998558815304991 0 -0.46853242371352971 0.23544625301742969 0 -0.48375626182904402 0.22755154475287301 0 -0.47173343442327142 0.22048762952866541 0 -0.4670472636537164 0.20843482960316059 0 -0.48375626182904402 0.22755154475287301 0 -0.47173343442327142 0.22048762952866541 0 -0.46853242371352971 0.23544625301742969 0 -0.48375626182904402 0.22755154475287301 0 -0.4670472636537164 0.20843482960316059 0 -0.48639908896170481 0.20928353849475789 0 -0.47279817792341111 0.1948006201282925 0 -0.4670472636537164 0.20843482960316059 0 -0.48375626182904402 0.22755154475287301 0 -0.48639908896170481 0.20928353849475789 0 -0.4670472636537164 0.20843482960316059 0 -0.49999999999999978 0.22376645686122221 0 -0.48639908896170481 0.20928353849475789 0 -0.5 0.19695860752726069 0 -0.49999999999999978 0.22376645686122221 0 -0.48639908896170481 0.20928353849475789 0 -0.48639908896170481 0.20928353849475789 0 -0.5 0.19695860752726069 0 -0.48609908303004917 0.1916527734416324 0 -0.4898809761324775 0.17912292006808481 0 -0.5 0.19695860752726069 0 -0.48609908303004917 0.1916527734416324 0 -0.48639908896170481 0.20928353849475789 0 -0.48609908303004917 0.1916527734416324 0 -0.47279817792341111 0.1948006201282925 0 -0.47865635922375932 0.17909963177513319 0 -0.48609908303004917 0.1916527734416324 0 -0.47279817792341111 0.1948006201282925 0 -0.48639908896170481 0.20928353849475789 0 -0.47279817792341111 0.1948006201282925 0 -0.47279817792341111 0.1948006201282925 0 -0.4670472636537164 0.20843482960316059 0 -0.46589335310649882 0.18744802338852329 0 -0.47279817792341111 0.1948006201282925 0 -0.46589335310649882 0.18744802338852329 0 -0.4603250720810298 0.20074399020462361 0 -0.4670472636537164 0.20843482960316059 0 -0.46589335310649882 0.18744802338852329 0 -0.45393765338305497 0.17471700686903011 0 -0.44820564853932793 0.20069426145875721 0 -0.46589335310649882 0.18744802338852329 0 -0.4603250720810298 0.20074399020462361 0 -0.44820564853932793 0.20069426145875721 0 -0.46589335310649882 0.18744802338852329 0 -0.47279817792341111 0.1948006201282925 0 -0.4670472636537164 0.20843482960316059 0 -0.46589335310649882 0.18744802338852329 0 -0.4670472636537164 0.20843482960316059 0 -0.45393765338305497 0.17471700686903011 0 -0.44820564853932793 0.20069426145875721 0 -0.44820564853932793 0.20069426145875721 0 -0.45427794118362658 0.21265328965042851 0 -0.44247364369559788 0.22667151604848371 0 -0.44820564853932793 0.20069426145875721 0 -0.44247364369559788 0.22667151604848371 0 -0.44820564853932793 0.20069426145875721 0 -0.44247364369559788 0.22667151604848371 0 -0.42336320141575168 0.21609666274764849 0 -0.45880341375183131 0.2186303689721085 0 -0.45427794118362658 0.21265328965042851 0 -0.46188137931700068 0.21002659871962689 0 -0.45880341375183131 0.2186303689721085 0 -0.45427794118362658 0.21265328965042851 0 -0.4536201791639074 0.2236252940046442 0 -0.4603250720810298 0.20074399020462361 0 -0.45427794118362658 0.21265328965042851 0 -0.46188137931700068 0.21002659871962689 0 -0.4603250720810298 0.20074399020462361 0 -0.44820564853932793 0.20069426145875721 0 -0.45427794118362658 0.21265328965042851 0 -0.4603250720810298 0.20074399020462361 0 -0.46188137931700068 0.21002659871962689 0 -0.4670472636537164 0.20843482960316059 0 -0.4603250720810298 0.20074399020462361 0 -0.4670472636537164 0.20843482960316059 0 -0.46188137931700068 0.21002659871962689 0 -0.4670472636537164 0.20843482960316059 0 -0.46713252849242448 0.20998558815304991 0 -0.4670472636537164 0.20843482960316059 0 -0.46713252849242448 0.20998558815304991 0 -0.47173343442327142 0.22048762952866541 0 -0.4670472636537164 0.20843482960316059 0 -0.46713252849242448 0.20998558815304991 0 -0.45880341375183131 0.2186303689721085 0 -0.46188137931700068 0.21002659871962689 0 -0.46713252849242448 0.20998558815304991 0 -0.46713252849242448 0.20998558815304991 0 -0.45710504060219709 0.23686107433279269 0 -0.46713252849242448 0.20998558815304991 0 -0.45710504060219709 0.23686107433279269 0 -0.46853242371352971 0.23544625301742969 0 -0.45880341375183131 0.2186303689721085 0 -0.46713252849242448 0.20998558815304991 0 -0.45710504060219709 0.23686107433279269 0 -0.45880341375183131 0.2186303689721085 0 -0.4536201791639074 0.2236252940046442 0 -0.45710504060219709 0.23686107433279269 0 -0.46713252849242448 0.20998558815304991 0 -0.46853242371352971 0.23544625301742969 0 -0.45427794118362658 0.21265328965042851 0 -0.4536201791639074 0.2236252940046442 0 -0.44247364369559788 0.22667151604848371 0 -0.4536201791639074 0.2236252940046442 0 -0.44247364369559788 0.22667151604848371 0 -0.45710504060219709 0.23686107433279269 0 -0.44247364369559788 0.22667151604848371 0 -0.4367416388518679 0.25264877063821017 0 -0.44247364369559788 0.22667151604848371 0 -0.45710504060219709 0.23686107433279269 0 -0.4367416388518679 0.25264877063821017 0 -0.45710504060219709 0.23686107433279269 0 -0.46853242371352971 0.23544625301742969 0 -0.46993231893463527 0.26090691788180947 0 -0.41931835140954682 0.23739665832436521 0 -0.40367044579520373 0.24132688110038639 0 -0.41175872593851298 0.2549478601346914 0 -0.41931835140954682 0.23739665832436521 0 -0.40790513800462019 0.22799805468035339 0 -0.40367044579520373 0.24132688110038639 0 -0.41931835140954682 0.23739665832436521 0 -0.4367416388518679 0.25264877063821017 0 -0.41175872593851298 0.2549478601346914 0 -0.44247364369559788 0.22667151604848371 0 -0.41931835140954682 0.23739665832436521 0 -0.4367416388518679 0.25264877063821017 0 -0.44247364369559788 0.22667151604848371 0 -0.41931835140954682 0.23739665832436521 0 -0.42336320141575168 0.21609666274764849 0 -0.41931835140954682 0.23739665832436521 0 -0.40790513800462019 0.22799805468035339 0 -0.42336320141575168 0.21609666274764849 0 -0.40790513800462019 0.22799805468035339 0 -0.42336320141575168 0.21609666274764849 0 -0.40538393777915788 0.2123952851453417 0 -0.42336320141575168 0.21609666274764849 0 -0.42071240458675369 0.1920614743917832 0 -0.40538393777915788 0.2123952851453417 0 -0.44820564853932793 0.20069426145875721 0 -0.42336320141575168 0.21609666274764849 0 -0.42071240458675369 0.1920614743917832 0 -0.44047241453070329 0.18324079402305421 0 -0.44820564853932793 0.20069426145875721 0 -0.42071240458675369 0.1920614743917832 0 -0.42071240458675369 0.1920614743917832 0 -0.40538393777915788 0.2123952851453417 0 -0.42071240458675369 0.1920614743917832 0 -0.4022878927449296 0.1970928012265635 0 -0.40298680868332198 0.18508216307238631 0 -0.42071240458675369 0.1920614743917832 0 -0.4022878927449296 0.1970928012265635 0 -0.40538393777915788 0.2123952851453417 0 -0.4022878927449296 0.1970928012265635 0 -0.39286614404695941 0.1920732104686422 0 -0.40298680868332198 0.18508216307238631 0 -0.4022878927449296 0.1970928012265635 0 -0.39286614404695941 0.1920732104686422 0 -0.39380007669083689 0.206464460861051 0 -0.38422654444444693 0.2008322729754812 0 -0.38088029112643113 0.1825210369279657 0 -0.38422654444444693 0.2008322729754812 0 -0.38088029112643113 0.1825210369279657 0 -0.36802074197771562 0.19700904511440151 0 -0.38422654444444693 0.2008322729754812 0 -0.37368745339656201 0.20924711939208951 0 -0.36802074197771562 0.19700904511440151 0 -0.39286614404695941 0.1920732104686422 0 -0.38422654444444693 0.2008322729754812 0 -0.38088029112643113 0.1825210369279657 0 -0.39286614404695941 0.1920732104686422 0 -0.38422654444444693 0.2008322729754812 0 -0.39380007669083689 0.206464460861051 0 -0.38422654444444693 0.2008322729754812 0 -0.38757279776246373 0.21914350902299659 0 -0.38757279776246373 0.21914350902299659 0 -0.36800338097472479 0.22147713987588341 0 -0.37368745339656201 0.20924711939208951 0 -0.38422654444444693 0.2008322729754812 0 -0.39380007669083689 0.206464460861051 0 -0.38757279776246373 0.21914350902299659 0 -0.38422654444444693 0.2008322729754812 0 -0.38757279776246373 0.21914350902299659 0 -0.37368745339656201 0.20924711939208951 0 -0.39141353052387118 0.2186855059784025 0 -0.39380007669083689 0.206464460861051 0 -0.38757279776246373 0.21914350902299659 0 -0.39141353052387118 0.2186855059784025 0 -0.39380007669083689 0.206464460861051 0 -0.40538393777915788 0.2123952851453417 0 -0.4022878927449296 0.1970928012265635 0 -0.39380007669083689 0.206464460861051 0 -0.40538393777915788 0.2123952851453417 0 -0.40790513800462019 0.22799805468035339 0 -0.39005547097156312 0.23272909589890109 0 -0.40367044579520373 0.24132688110038639 0 -0.39141353052387118 0.2186855059784025 0 -0.40538393777915788 0.2123952851453417 0 -0.39005547097156312 0.23272909589890109 0 -0.40790513800462019 0.22799805468035339 0 -0.40538393777915788 0.2123952851453417 0 -0.39005547097156312 0.23272909589890109 0 -0.40538393777915788 0.2123952851453417 0 -0.39005547097156312 0.23272909589890109 0 -0.38757279776246373 0.21914350902299659 0 -0.39005547097156312 0.23272909589890109 0 -0.38757279776246373 0.21914350902299659 0 -0.36800338097472479 0.22147713987588341 0 -0.39141353052387118 0.2186855059784025 0 -0.38757279776246373 0.21914350902299659 0 -0.39005547097156312 0.23272909589890109 0 -0.38757279776246373 0.21914350902299659 0 -0.37939186114838758 0.22424627805714001 0 -0.36800338097472479 0.22147713987588341 0 -0.38757279776246373 0.21914350902299659 0 -0.37939186114838758 0.22424627805714001 0 -0.39005547097156312 0.23272909589890109 0 -0.39141353052387118 0.2186855059784025 0 -0.38757279776246373 0.21914350902299659 0 -0.37939186114838758 0.22424627805714001 0 -0.37477717689163992 0.25299635056682518 0 -0.39005547097156312 0.23272909589890109 0 -0.39384597734802013 0.25347135609337229 0 -0.37477717689163992 0.25299635056682518 0 -0.37939186114838758 0.22424627805714001 0 -0.39005547097156312 0.23272909589890109 0 -0.37477717689163992 0.25299635056682518 0 -0.39005547097156312 0.23272909589890109 0 -0.37477717689163992 0.25299635056682518 0 -0.40367044579520373 0.24132688110038639 0 -0.41175872593851298 0.2549478601346914 0 -0.39384597734802013 0.25347135609337229 0 -0.39005547097156312 0.23272909589890109 0 -0.39384597734802013 0.25347135609337229 0 -0.39005547097156312 0.23272909589890109 0 -0.40367044579520373 0.24132688110038639 0 -0.39384597734802013 0.25347135609337229 0 -0.41485942150404181 0.14153864215909739 0 -0.41553858058260518 0.15317901213210369 0 -0.42574561826610652 0.14613969243370301 0 -0.41553858058260518 0.15317901213210369 0 -0.42574561826610652 0.14613969243370301 0 -0.42127399236650492 0.15770626544657529 0 -0.41485942150404181 0.14153864215909739 0 -0.41553858058260518 0.15317901213210369 0 -0.4044664398419977 0.15594807455379561 0 -0.40864304721671202 0.1107171055473533 0 -0.41485942150404181 0.14153864215909739 0 -0.43267942878230348 0.12559175737704789 0 -0.41485942150404181 0.14153864215909739 0 -0.43267942878230348 0.12559175737704789 0 -0.42574561826610652 0.14613969243370301 0 -0.43267942878230348 0.12559175737704789 0 -0.43700896048386301 0.14249666109927989 0 -0.42574561826610652 0.14613969243370301 0 -0.41485942150404181 0.14153864215909739 0 -0.43267942878230348 0.12559175737704789 0 -0.42574561826610652 0.14613969243370301 0 -0.43187713239064979 0.1573343508491826 0 -0.42127399236650492 0.15770626544657529 0 -0.43700896048386301 0.14249666109927989 0 -0.42574561826610652 0.14613969243370301 0 -0.43187713239064979 0.1573343508491826 0 -0.43187713239064979 0.1573343508491826 0 -0.42946357341586749 0.17496324995209989 0 -0.4216380035134229 0.16659483191912641 0 -0.44174290600336708 0.16173144065936321 0 -0.43187713239064979 0.1573343508491826 0 -0.42946357341586749 0.17496324995209989 0 -0.43187713239064979 0.1573343508491826 0 -0.42127399236650492 0.15770626544657529 0 -0.4216380035134229 0.16659483191912641 0 -0.44047241453070329 0.18324079402305421 0 -0.44174290600336708 0.16173144065936321 0 -0.42946357341586749 0.17496324995209989 0 -0.44047241453070329 0.18324079402305421 0 -0.42071240458675369 0.1920614743917832 0 -0.42946357341586749 0.17496324995209989 0 -0.42071240458675369 0.1920614743917832 0 -0.42946357341586749 0.17496324995209989 0 -0.41235879422937732 0.17543682721938669 0 -0.42071240458675369 0.1920614743917832 0 -0.41235879422937732 0.17543682721938669 0 -0.40298680868332198 0.18508216307238631 0 -0.42946357341586749 0.17496324995209989 0 -0.41235879422937732 0.17543682721938669 0 -0.4216380035134229 0.16659483191912641 0 -0.41553858058260518 0.15317901213210369 0 -0.42127399236650492 0.15770626544657529 0 -0.41302135350813218 0.1630654313638546 0 -0.42127399236650492 0.15770626544657529 0 -0.4216380035134229 0.16659483191912641 0 -0.41302135350813218 0.1630654313638546 0 -0.41235879422937732 0.17543682721938669 0 -0.4216380035134229 0.16659483191912641 0 -0.41302135350813218 0.1630654313638546 0 -0.41235879422937732 0.17543682721938669 0 -0.41302135350813218 0.1630654313638546 0 -0.40449990094882532 0.16792382984329149 0 -0.41302135350813218 0.1630654313638546 0 -0.40449990094882532 0.16792382984329149 0 -0.4044664398419977 0.15594807455379561 0 -0.41553858058260518 0.15317901213210369 0 -0.41302135350813218 0.1630654313638546 0 -0.4044664398419977 0.15594807455379561 0 -0.3926733654842145 0.1692345557408807 0 -0.4044664398419977 0.15594807455379561 0 -0.40449990094882532 0.16792382984329149 0 -0.3926733654842145 0.1692345557408807 0 -0.40078474618547688 0.17571320347163299 0 -0.40449990094882532 0.16792382984329149 0 -0.3926733654842145 0.1692345557408807 0 -0.4044664398419977 0.15594807455379561 0 -0.3926733654842145 0.1692345557408807 0 -0.39703941422577987 0.15748552694114659 0 -0.4044664398419977 0.15594807455379561 0 -0.40298680868332198 0.18508216307238631 0 -0.40078474618547688 0.17571320347163299 0 -0.39301525059178999 0.18044652774840561 0 -0.41235879422937732 0.17543682721938669 0 -0.40298680868332198 0.18508216307238631 0 -0.40078474618547688 0.17571320347163299 0 -0.41235879422937732 0.17543682721938669 0 -0.40449990094882532 0.16792382984329149 0 -0.40078474618547688 0.17571320347163299 0 -0.3926733654842145 0.1692345557408807 0 -0.40078474618547688 0.17571320347163299 0 -0.39301525059178999 0.18044652774840561 0 -0.39286614404695941 0.1920732104686422 0 -0.40298680868332198 0.18508216307238631 0 -0.39301525059178999 0.18044652774840561 0 -0.39286614404695941 0.1920732104686422 0 -0.39301525059178999 0.18044652774840561 0 -0.38088029112643113 0.1825210369279657 0 -0.3926733654842145 0.1692345557408807 0 -0.38088029112643113 0.1825210369279657 0 -0.3926733654842145 0.1692345557408807 0 -0.39301525059178999 0.18044652774840561 0 -0.38088029112643113 0.1825210369279657 0 -0.3926733654842145 0.1692345557408807 0 -0.37921940694751782 0.17343241172319571 0 -0.38088029112643113 0.1825210369279657 0 -0.37921940694751782 0.17343241172319571 0 -0.38088029112643113 0.1825210369279657 0 -0.37921940694751782 0.17343241172319571 0 -0.38088029112643113 0.1825210369279657 0 -0.37283571032282492 0.1791450959532255 0 -0.3784015845151173 0.16895715591276281 0 -0.37283571032282492 0.1791450959532255 0 -0.37921940694751782 0.17343241172319571 0 -0.3784015845151173 0.16895715591276281 0 -0.37283571032282492 0.1791450959532255 0 -0.37921940694751782 0.17343241172319571 0 -0.37283571032282492 0.1791450959532255 0 -0.39703941422577987 0.15748552694114659 0 -0.37921940694751782 0.17343241172319571 0 -0.38193020105096481 0.16249827228531991 0 -0.3784015845151173 0.16895715591276281 0 -0.38193020105096481 0.16249827228531991 0 -0.37372345991800282 0.14335770613522919 0 -0.39703941422577987 0.15748552694114659 0 -0.37921940694751782 0.17343241172319571 0 -0.3926733654842145 0.1692345557408807 0 -0.39703941422577987 0.15748552694114659 0 -0.37921940694751782 0.17343241172319571 0 -0.39703941422577987 0.15748552694114659 0 -0.38193020105096481 0.16249827228531991 0 -0.38598126975628672 0.1494316781992327 0 -0.37921940694751782 0.17343241172319571 0 -0.3784015845151173 0.16895715591276281 0 -0.38193020105096481 0.16249827228531991 0 -0.3784015845151173 0.16895715591276281 0 -0.38193020105096481 0.16249827228531991 0 -0.37921940694751782 0.17343241172319571 0 -0.3784015845151173 0.16895715591276281 0 -0.38598126975628672 0.1494316781992327 0 -0.39401402549175851 0.1361747599337243 0 -0.37372345991800282 0.14335770613522919 0 -0.38193020105096481 0.16249827228531991 0 -0.38598126975628672 0.1494316781992327 0 -0.37372345991800282 0.14335770613522919 0 -0.3784015845151173 0.16895715591276281 0 -0.37372345991800282 0.14335770613522919 0 -0.39703941422577987 0.15748552694114659 0 -0.38598126975628672 0.1494316781992327 0 -0.39401402549175851 0.1361747599337243 0 -0.41485942150404181 0.14153864215909739 0 -0.39703941422577987 0.15748552694114659 0 -0.39401402549175851 0.1361747599337243 0 -0.41485942150404181 0.14153864215909739 0 -0.39703941422577987 0.15748552694114659 0 -0.4044664398419977 0.15594807455379561 0 -0.41485942150404181 0.14153864215909739 0 -0.39703941422577987 0.15748552694114659 0 -0.40864304721671202 0.1107171055473533 0 -0.41485942150404181 0.14153864215909739 0 -0.39401402549175851 0.1361747599337243 0 -0.38750957741872682 0.11885909540365321 0 -0.37372345991800282 0.14335770613522919 0 -0.36904533532088801 0.1177582563576956 0 -0.38750957741872682 0.11885909540365321 0 -0.39401402549175851 0.1361747599337243 0 -0.37372345991800282 0.14335770613522919 0 -0.35823941519022368 0.13573745574644491 0 -0.37372345991800282 0.14335770613522919 0 -0.36904533532088801 0.1177582563576956 0 -0.37372345991800282 0.14335770613522919 0 -0.36904533532088801 0.1177582563576956 0 -0.35823941519022368 0.13573745574644491 0 -0.34455851703438989 0.13305210298766909 0 -0.35158166360451942 0.11704707172714621 0 -0.35823941519022368 0.13573745574644491 0 -0.34455851703438989 0.13305210298766909 0 -0.34873147585397152 0.15030858297792049 0 -0.35823941519022368 0.13573745574644491 0 -0.34873147585397152 0.15030858297792049 0 -0.36179603940957061 0.15290101429300901 0 -0.34873147585397152 0.15030858297792049 0 -0.34720568730415252 0.1616956217090188 0 -0.33647431770126862 0.14798842126345041 0 -0.34873147585397152 0.15030858297792049 0 -0.36179603940957061 0.15290101429300901 0 -0.35552330674067661 0.16014073544654131 0 -0.35823941519022368 0.13573745574644491 0 -0.36179603940957061 0.15290101429300901 0 -0.37372345991800282 0.14335770613522919 0 -0.3784015845151173 0.16895715591276281 0 -0.36179603940957061 0.15290101429300901 0 -0.37372345991800282 0.14335770613522919 0 -0.3784015845151173 0.16895715591276281 0 -0.36179603940957061 0.15290101429300901 0 -0.3628088848288224 0.16705289795690309 0 -0.3784015845151173 0.16895715591276281 0 -0.3628088848288224 0.16705289795690309 0 -0.36959790597703868 0.17377317275203899 0 -0.36179603940957061 0.15290101429300901 0 -0.3628088848288224 0.16705289795690309 0 -0.35552330674067661 0.16014073544654131 0 -0.38088029112643113 0.1825210369279657 0 -0.37283571032282492 0.1791450959532255 0 -0.36802074197771562 0.19700904511440151 0 -0.37283571032282492 0.1791450959532255 0 -0.36399845157591232 0.19532107462703119 0 -0.37283571032282492 0.1791450959532255 0 -0.36261880381503758 0.18828806813974089 0 -0.3784015845151173 0.16895715591276281 0 -0.36959790597703868 0.17377317275203899 0 -0.37283571032282492 0.1791450959532255 0 -0.36959790597703868 0.17377317275203899 0 -0.37283571032282492 0.1791450959532255 0 -0.36409588864576692 0.17933358541092431 0 -0.3628088848288224 0.16705289795690309 0 -0.36959790597703868 0.17377317275203899 0 -0.36409588864576692 0.17933358541092431 0 -0.3628088848288224 0.16705289795690309 0 -0.36409588864576692 0.17933358541092431 0 -0.35614161380151321 0.17761165346375071 0 -0.36409588864576692 0.17933358541092431 0 -0.35797279878738592 0.18411861580098379 0 -0.35614161380151321 0.17761165346375071 0 -0.36409588864576692 0.17933358541092431 0 -0.35797279878738592 0.18411861580098379 0 -0.36261880381503758 0.18828806813974089 0 -0.37283571032282492 0.1791450959532255 0 -0.36409588864576692 0.17933358541092431 0 -0.36261880381503758 0.18828806813974089 0 -0.35797279878738592 0.18411861580098379 0 -0.35614161380151321 0.17761165346375071 0 -0.35065229879255438 0.18593262723135329 0 -0.35797279878738592 0.18411861580098379 0 -0.35065229879255438 0.18593262723135329 0 -0.35645772166264922 0.19211102842263869 0 -0.35614161380151321 0.17761165346375071 0 -0.34811061985946878 0.17434540014992381 0 -0.35436851446084039 0.1683048517912053 0 -0.35614161380151321 0.17761165346375071 0 -0.34811061985946878 0.17434540014992381 0 -0.35065229879255438 0.18593262723135329 0 -0.35065229879255438 0.18593262723135329 0 -0.34227569468909552 0.1811403169530669 0 -0.33993633525554889 0.19055096072852831 0 -0.34811061985946878 0.17434540014992381 0 -0.35065229879255438 0.18593262723135329 0 -0.34227569468909552 0.1811403169530669 0 -0.35552330674067661 0.16014073544654131 0 -0.35436851446084039 0.1683048517912053 0 -0.34720568730415252 0.1616956217090188 0 -0.3628088848288224 0.16705289795690309 0 -0.35614161380151321 0.17761165346375071 0 -0.35436851446084039 0.1683048517912053 0 -0.3628088848288224 0.16705289795690309 0 -0.35552330674067661 0.16014073544654131 0 -0.35436851446084039 0.1683048517912053 0 -0.34811061985946878 0.17434540014992381 0 -0.34720568730415252 0.1616956217090188 0 -0.33801991010865667 0.17138732975114751 0 -0.34811061985946878 0.17434540014992381 0 -0.35436851446084039 0.1683048517912053 0 -0.34720568730415252 0.1616956217090188 0 -0.34873147585397152 0.15030858297792049 0 -0.35552330674067661 0.16014073544654131 0 -0.34720568730415252 0.1616956217090188 0 -0.34720568730415252 0.1616956217090188 0 -0.33801991010865667 0.17138732975114751 0 -0.33092539158612982 0.1609515407851054 0 -0.34720568730415252 0.1616956217090188 0 -0.33092539158612982 0.1609515407851054 0 -0.33647431770126862 0.14798842126345041 0 -0.33801991010865667 0.17138732975114751 0 -0.33092539158612982 0.1609515407851054 0 -0.3265778886375873 0.17202186172735501 0 -0.34227569468909552 0.1811403169530669 0 -0.33183788287013261 0.1831818366374682 0 -0.33993633525554889 0.19055096072852831 0 -0.34811061985946878 0.17434540014992381 0 -0.33801991010865667 0.17138732975114751 0 -0.34227569468909552 0.1811403169530669 0 -0.33801991010865667 0.17138732975114751 0 -0.34227569468909552 0.1811403169530669 0 -0.33183788287013261 0.1831818366374682 0 -0.33801991010865667 0.17138732975114751 0 -0.33183788287013261 0.1831818366374682 0 -0.3265778886375873 0.17202186172735501 0 -0.3265778886375873 0.17202186172735501 0 -0.31632076704925127 0.18575639557221951 0 -0.3167678101826048 0.16359462978275929 0 -0.33183788287013261 0.1831818366374682 0 -0.3265778886375873 0.17202186172735501 0 -0.31632076704925127 0.18575639557221951 0 -0.33092539158612982 0.1609515407851054 0 -0.3167678101826048 0.16359462978275929 0 -0.32050673558250908 0.1490213804769015 0 -0.33092539158612982 0.1609515407851054 0 -0.3265778886375873 0.17202186172735501 0 -0.3167678101826048 0.16359462978275929 0 -0.32050673558250908 0.1490213804769015 0 -0.30739524272803709 0.15185112365938391 0 -0.31211500736378339 0.1240031522641292 0 -0.3167678101826048 0.16359462978275929 0 -0.32050673558250908 0.1490213804769015 0 -0.30739524272803709 0.15185112365938391 0 -0.32050673558250908 0.1490213804769015 0 -0.30739524272803709 0.15185112365938391 0 -0.32919359534549508 0.13424827028365749 0 -0.31211500736378339 0.1240031522641292 0 -0.33231339904552459 0.1171762944261375 0 -0.32050673558250908 0.1490213804769015 0 -0.32919359534549508 0.13424827028365749 0 -0.31211500736378339 0.1240031522641292 0 -0.34455851703438989 0.13305210298766909 0 -0.32919359534549508 0.13424827028365749 0 -0.33231339904552459 0.1171762944261375 0 -0.34455851703438989 0.13305210298766909 0 -0.32919359534549508 0.13424827028365749 0 -0.33647431770126862 0.14798842126345041 0 -0.32050673558250908 0.1490213804769015 0 -0.32919359534549508 0.13424827028365749 0 -0.33647431770126862 0.14798842126345041 0 -0.33092539158612982 0.1609515407851054 0 -0.32050673558250908 0.1490213804769015 0 -0.33647431770126862 0.14798842126345041 0 -0.34455851703438989 0.13305210298766909 0 -0.34873147585397152 0.15030858297792049 0 -0.33647431770126862 0.14798842126345041 0 -0.35416421148584648 0.23888623464626721 0 -0.34843396418698602 0.22381077072877051 0 -0.33845336435013867 0.242079554605789 0 -0.35416421148584648 0.23888623464626721 0 -0.33845336435013867 0.242079554605789 0 -0.35464358931248319 0.25491115920099722 0 -0.37939186114838758 0.22424627805714001 0 -0.37013679196984273 0.23750613219799629 0 -0.37477717689163992 0.25299635056682518 0 -0.37013679196984273 0.23750613219799629 0 -0.35464358931248319 0.25491115920099722 0 -0.37477717689163992 0.25299635056682518 0 -0.35416421148584648 0.23888623464626721 0 -0.37013679196984273 0.23750613219799629 0 -0.35464358931248319 0.25491115920099722 0 -0.35416421148584648 0.23888623464626721 0 -0.37013679196984273 0.23750613219799629 0 -0.36148561266771267 0.2305011068434443 0 -0.36148561266771267 0.2305011068434443 0 -0.36975441169016687 0.228432664243616 0 -0.36800338097472479 0.22147713987588341 0 -0.37013679196984273 0.23750613219799629 0 -0.36148561266771267 0.2305011068434443 0 -0.36975441169016687 0.228432664243616 0 -0.37939186114838758 0.22424627805714001 0 -0.37013679196984273 0.23750613219799629 0 -0.36975441169016687 0.228432664243616 0 -0.37939186114838758 0.22424627805714001 0 -0.36975441169016687 0.228432664243616 0 -0.36800338097472479 0.22147713987588341 0 -0.36800338097472479 0.22147713987588341 0 -0.34843396418698602 0.22381077072877051 0 -0.35516119282899983 0.21149705330083701 0 -0.36148561266771267 0.2305011068434443 0 -0.36800338097472479 0.22147713987588341 0 -0.34843396418698602 0.22381077072877051 0 -0.36800338097472479 0.22147713987588341 0 -0.34843396418698602 0.22381077072877051 0 -0.35416421148584648 0.23888623464626721 0 -0.36148561266771267 0.2305011068434443 0 -0.34843396418698602 0.22381077072877051 0 -0.34843396418698602 0.22381077072877051 0 -0.34802604401402371 0.21953575615482759 0 -0.33982416592956399 0.21665757569738961 0 -0.34802604401402371 0.21953575615482759 0 -0.34581283434165899 0.20861347152532789 0 -0.33982416592956399 0.21665757569738961 0 -0.34802604401402371 0.21953575615482759 0 -0.34581283434165899 0.20861347152532789 0 -0.35516119282899983 0.21149705330083701 0 -0.34843396418698602 0.22381077072877051 0 -0.34802604401402371 0.21953575615482759 0 -0.35516119282899983 0.21149705330083701 0 -0.34581283434165899 0.20861347152532789 0 -0.35516119282899983 0.21149705330083701 0 -0.35389383475621161 0.20092716755479181 0 -0.34802604401402371 0.21953575615482759 0 -0.35516119282899983 0.21149705330083701 0 -0.34843396418698602 0.22381077072877051 0 -0.35516119282899983 0.21149705330083701 0 -0.36800338097472479 0.22147713987588341 0 -0.35516119282899983 0.21149705330083701 0 -0.37368745339656201 0.20924711939208951 0 -0.35516119282899983 0.21149705330083701 0 -0.37368745339656201 0.20924711939208951 0 -0.36802074197771562 0.19700904511440151 0 -0.35516119282899983 0.21149705330083701 0 -0.36399845157591232 0.19532107462703119 0 -0.35516119282899983 0.21149705330083701 0 -0.36802074197771562 0.19700904511440151 0 -0.37283571032282492 0.1791450959532255 0 -0.36399845157591232 0.19532107462703119 0 -0.36261880381503758 0.18828806813974089 0 -0.37283571032282492 0.1791450959532255 0 -0.36399845157591232 0.19532107462703119 0 -0.36802074197771562 0.19700904511440151 0 -0.35516119282899983 0.21149705330083701 0 -0.36399845157591232 0.19532107462703119 0 -0.36802074197771562 0.19700904511440151 0 -0.38088029112643113 0.1825210369279657 0 -0.36802074197771562 0.19700904511440151 0 -0.36399845157591232 0.19532107462703119 0 -0.36261880381503758 0.18828806813974089 0 -0.35645772166264922 0.19211102842263869 0 -0.35797279878738592 0.18411861580098379 0 -0.36261880381503758 0.18828806813974089 0 -0.35645772166264922 0.19211102842263869 0 -0.35065229879255438 0.18593262723135329 0 -0.35645772166264922 0.19211102842263869 0 -0.34803897337183792 0.19709320989812409 0 -0.35516119282899983 0.21149705330083701 0 -0.36399845157591232 0.19532107462703119 0 -0.35389383475621161 0.20092716755479181 0 -0.35645772166264922 0.19211102842263869 0 -0.35389383475621161 0.20092716755479181 0 -0.34803897337183792 0.19709320989812409 0 -0.36399845157591232 0.19532107462703119 0 -0.35645772166264922 0.19211102842263869 0 -0.35389383475621161 0.20092716755479181 0 -0.34581283434165899 0.20861347152532789 0 -0.35389383475621161 0.20092716755479181 0 -0.34803897337183792 0.19709320989812409 0 -0.34581283434165899 0.20861347152532789 0 -0.34803897337183792 0.19709320989812409 0 -0.33933674095816863 0.19971543786353729 0 -0.35065229879255438 0.18593262723135329 0 -0.34803897337183792 0.19709320989812409 0 -0.33993633525554889 0.19055096072852831 0 -0.33993633525554889 0.19055096072852831 0 -0.33933674095816863 0.19971543786353729 0 -0.33069942903629101 0.19625725860753851 0 -0.34803897337183792 0.19709320989812409 0 -0.33993633525554889 0.19055096072852831 0 -0.33933674095816863 0.19971543786353729 0 -0.33933674095816863 0.19971543786353729 0 -0.33069942903629101 0.19625725860753851 0 -0.33422481296465362 0.2080963853910347 0 -0.33183788287013261 0.1831818366374682 0 -0.33993633525554889 0.19055096072852831 0 -0.33069942903629101 0.19625725860753851 0 -0.31632076704925127 0.18575639557221951 0 -0.33069942903629101 0.19625725860753851 0 -0.32036655352850157 0.2095523693350691 0 -0.33183788287013261 0.1831818366374682 0 -0.31632076704925127 0.18575639557221951 0 -0.33069942903629101 0.19625725860753851 0 -0.32036655352850157 0.2095523693350691 0 -0.32458589997660492 0.2266546254550818 0 -0.30779163400160159 0.21927945841494459 0 -0.32036655352850157 0.2095523693350691 0 -0.32934906837639222 0.21536895119528529 0 -0.32458589997660492 0.2266546254550818 0 -0.32036655352850157 0.2095523693350691 0 -0.32934906837639222 0.21536895119528529 0 -0.33422481296465362 0.2080963853910347 0 -0.32934906837639222 0.21536895119528529 0 -0.33422481296465362 0.2080963853910347 0 -0.33982416592956399 0.21665757569738961 0 -0.33069942903629101 0.19625725860753851 0 -0.32036655352850157 0.2095523693350691 0 -0.33422481296465362 0.2080963853910347 0 -0.34581283434165899 0.20861347152532789 0 -0.33933674095816863 0.19971543786353729 0 -0.33422481296465362 0.2080963853910347 0 -0.34581283434165899 0.20861347152532789 0 -0.33422481296465362 0.2080963853910347 0 -0.33982416592956399 0.21665757569738961 0 -0.34843396418698602 0.22381077072877051 0 -0.33982416592956399 0.21665757569738961 0 -0.32458589997660492 0.2266546254550818 0 -0.34843396418698602 0.22381077072877051 0 -0.32458589997660492 0.2266546254550818 0 -0.34843396418698602 0.22381077072877051 0 -0.32458589997660492 0.2266546254550818 0 -0.33845336435013867 0.242079554605789 0 -0.34843396418698602 0.22381077072877051 0 -0.33845336435013867 0.242079554605789 0 -0.32934906837639222 0.21536895119528529 0 -0.33982416592956399 0.21665757569738961 0 -0.32458589997660492 0.2266546254550818 0 -0.32458589997660492 0.2266546254550818 0 -0.30073783576622393 0.22949848018139329 0 -0.32458589997660492 0.2266546254550818 0 -0.32455092720978362 0.24357057421839101 0 -0.31122576982003303 0.23714335435801151 0 -0.32455092720978362 0.24357057421839101 0 -0.311575650220281 0.24878047680599949 0 -0.31122576982003303 0.23714335435801151 0 -0.32458589997660492 0.2266546254550818 0 -0.32455092720978362 0.24357057421839101 0 -0.33845336435013867 0.242079554605789 0 -0.32455092720978362 0.24357057421839101 0 -0.33845336435013867 0.242079554605789 0 -0.32847276451329022 0.26034833848280681 0 -0.29310990672191722 0.23613872254877591 0 -0.29467853592727078 0.23721261512919359 0 -0.28985028671148488 0.25537141990030859 0 -0.29310990672191722 0.23613872254877591 0 -0.27131573767068418 0.22826101281380451 0 -0.28058301219108422 0.24181621635705669 0 -0.29310990672191722 0.23613872254877591 0 -0.28985028671148488 0.25537141990030859 0 -0.29310990672191722 0.23613872254877591 0 -0.28058301219108422 0.24181621635705669 0 -0.28985028671148488 0.25537141990030859 0 -0.28058301219108422 0.24181621635705669 0 -0.28985028671148488 0.25537141990030859 0 -0.29310990672191722 0.23613872254877591 0 -0.29467853592727078 0.23721261512919359 0 -0.29467853592727078 0.23721261512919359 0 -0.31122576982003303 0.23714335435801151 0 -0.30073783576622393 0.22949848018139329 0 -0.29467853592727078 0.23721261512919359 0 -0.311575650220281 0.24878047680599949 0 -0.31122576982003303 0.23714335435801151 0 -0.29467853592727078 0.23721261512919359 0 -0.311575650220281 0.24878047680599949 0 -0.29467853592727078 0.23721261512919359 0 -0.311575650220281 0.24878047680599949 0 -0.29523766041035199 0.26325150879709891 0 -0.32458589997660492 0.2266546254550818 0 -0.30073783576622393 0.22949848018139329 0 -0.30779163400160159 0.21927945841494459 0 -0.32458589997660492 0.2266546254550818 0 -0.31122576982003303 0.23714335435801151 0 -0.30073783576622393 0.22949848018139329 0 -0.30073783576622393 0.22949848018139329 0 -0.30779163400160159 0.21927945841494459 0 -0.29448167989639912 0.22804486553003031 0 -0.29310990672191722 0.23613872254877591 0 -0.29448167989639912 0.22804486553003031 0 -0.27369133376421262 0.22284465576077489 0 -0.29448167989639912 0.22804486553003031 0 -0.2838712618875629 0.21479465795795599 0 -0.27369133376421262 0.22284465576077489 0 -0.29448167989639912 0.22804486553003031 0 -0.29413635243235581 0.21196267741475219 0 -0.29310990672191722 0.23613872254877591 0 -0.27369133376421262 0.22284465576077489 0 -0.29467853592727078 0.23721261512919359 0 -0.30073783576622393 0.22949848018139329 0 -0.29448167989639912 0.22804486553003031 0 -0.29310990672191722 0.23613872254877591 0 -0.29467853592727078 0.23721261512919359 0 -0.29448167989639912 0.22804486553003031 0 -0.29467853592727078 0.23721261512919359 0 -0.29448167989639912 0.22804486553003031 0 -0.29310990672191722 0.23613872254877591 0 -0.29448167989639912 0.22804486553003031 0 -0.29413635243235581 0.21196267741475219 0 -0.29878620084027852 0.20264695157314819 0 -0.29379102496831272 0.19588048929947419 0 -0.29448167989639912 0.22804486553003031 0 -0.29413635243235581 0.21196267741475219 0 -0.29878620084027852 0.20264695157314819 0 -0.29448167989639912 0.22804486553003031 0 -0.29878620084027852 0.20264695157314819 0 -0.29413635243235581 0.21196267741475219 0 -0.29379102496831272 0.19588048929947419 0 -0.28522308967114912 0.20452327137286261 0 -0.29413635243235581 0.21196267741475219 0 -0.29379102496831272 0.19588048929947419 0 -0.29448167989639912 0.22804486553003031 0 -0.2838712618875629 0.21479465795795599 0 -0.29413635243235581 0.21196267741475219 0 -0.2838712618875629 0.21479465795795599 0 -0.28522308967114912 0.20452327137286261 0 -0.29413635243235581 0.21196267741475219 0 -0.32036655352850157 0.2095523693350691 0 -0.30779163400160159 0.21927945841494459 0 -0.29878620084027852 0.20264695157314819 0 -0.30779163400160159 0.21927945841494459 0 -0.29448167989639912 0.22804486553003031 0 -0.29878620084027852 0.20264695157314819 0 -0.29878620084027852 0.20264695157314819 0 -0.29379102496831272 0.19588048929947419 0 -0.30309072178415769 0.17724903761626601 0 -0.31632076704925127 0.18575639557221951 0 -0.29878620084027852 0.20264695157314819 0 -0.30309072178415769 0.17724903761626601 0 -0.31632076704925127 0.18575639557221951 0 -0.32036655352850157 0.2095523693350691 0 -0.29878620084027852 0.20264695157314819 0 -0.29878620084027852 0.20264695157314819 0 -0.30309072178415769 0.17724903761626601 0 -0.28522308967114912 0.20452327137286261 0 -0.29379102496831272 0.19588048929947419 0 -0.28124953787461371 0.1935735916895788 0 -0.29379102496831272 0.19588048929947419 0 -0.28124953787461371 0.1935735916895788 0 -0.28752446549241689 0.1832489647230989 0 -0.28124953787461371 0.1935735916895788 0 -0.2659766044530758 0.19238405035351089 0 -0.27494974420821611 0.1793112011395637 0 -0.28522308967114912 0.20452327137286261 0 -0.28124953787461371 0.1935735916895788 0 -0.27431068871210279 0.20621206129374381 0 -0.28124953787461371 0.1935735916895788 0 -0.2659766044530758 0.19238405035351089 0 -0.27431068871210279 0.20621206129374381 0 -0.25427276080650663 0.20955058897277601 0 -0.24947341468037071 0.1874691479585941 0 -0.2659766044530758 0.19238405035351089 0 -0.25427276080650663 0.20955058897277601 0 -0.24947341468037071 0.1874691479585941 0 -0.2659766044530758 0.19238405035351089 0 -0.25427276080650663 0.20955058897277601 0 -0.27431068871210279 0.20621206129374381 0 -0.25427276080650663 0.20955058897277601 0 -0.27369133376421262 0.22284465576077489 0 -0.25427276080650663 0.20955058897277601 0 -0.25977281016601761 0.2185578892770178 0 -0.27369133376421262 0.22284465576077489 0 -0.25427276080650663 0.20955058897277601 0 -0.25561524088587501 0.21572724177218369 0 -0.25977281016601761 0.2185578892770178 0 -0.25427276080650663 0.20955058897277601 0 -0.25561524088587501 0.21572724177218369 0 -0.24333230173327219 0.21221501244476959 0 -0.25427276080650663 0.20955058897277601 0 -0.25561524088587501 0.21572724177218369 0 -0.25427276080650663 0.20955058897277601 0 -0.27431068871210279 0.20621206129374381 0 -0.27369133376421262 0.22284465576077489 0 -0.2838712618875629 0.21479465795795599 0 -0.27431068871210279 0.20621206129374381 0 -0.27369133376421262 0.22284465576077489 0 -0.2838712618875629 0.21479465795795599 0 -0.28522308967114912 0.20452327137286261 0 -0.27431068871210279 0.20621206129374381 0 -0.29310990672191722 0.23613872254877591 0 -0.27369133376421262 0.22284465576077489 0 -0.27131573767068418 0.22826101281380451 0 -0.27131573767068418 0.22826101281380451 0 -0.26439065681250729 0.2289784260688752 0 -0.26819560602517328 0.23507842756581021 0 -0.27131573767068418 0.22826101281380451 0 -0.26675876456119929 0.22568570462696191 0 -0.26439065681250729 0.2289784260688752 0 -0.27369133376421262 0.22284465576077489 0 -0.26675876456119929 0.22568570462696191 0 -0.26371349664181459 0.22286429712754721 0 -0.25977281016601761 0.2185578892770178 0 -0.27369133376421262 0.22284465576077489 0 -0.26371349664181459 0.22286429712754721 0 -0.27369133376421262 0.22284465576077489 0 -0.27131573767068418 0.22826101281380451 0 -0.26675876456119929 0.22568570462696191 0 -0.26675876456119929 0.22568570462696191 0 -0.26371349664181459 0.22286429712754721 0 -0.26068259791677789 0.22548013136380779 0 -0.26068259791677789 0.22548013136380779 0 -0.25678634991227811 0.22260498734460241 0 -0.2574101570832959 0.22971939663687391 0 -0.26371349664181459 0.22286429712754721 0 -0.26068259791677789 0.22548013136380779 0 -0.25678634991227811 0.22260498734460241 0 -0.25977281016601761 0.2185578892770178 0 -0.26371349664181459 0.22286429712754721 0 -0.25678634991227811 0.22260498734460241 0 -0.25561524088587501 0.21572724177218369 0 -0.25977281016601761 0.2185578892770178 0 -0.25678634991227811 0.22260498734460241 0 -0.25678634991227811 0.22260498734460241 0 -0.249817319625419 0.2274340479663062 0 -0.24904636230289101 0.22050689045355901 0 -0.25561524088587501 0.21572724177218369 0 -0.25678634991227811 0.22260498734460241 0 -0.24904636230289101 0.22050689045355901 0 -0.25109603964961891 0.234366577265785 0 -0.2574101570832959 0.22971939663687391 0 -0.249817319625419 0.2274340479663062 0 -0.25678634991227811 0.22260498734460241 0 -0.2574101570832959 0.22971939663687391 0 -0.249817319625419 0.2274340479663062 0 -0.2574101570832959 0.22971939663687391 0 -0.26439065681250729 0.2289784260688752 0 -0.26193406046231932 0.2344272911270443 0 -0.26068259791677789 0.22548013136380779 0 -0.2574101570832959 0.22971939663687391 0 -0.26439065681250729 0.2289784260688752 0 -0.26675876456119929 0.22568570462696191 0 -0.26068259791677789 0.22548013136380779 0 -0.26439065681250729 0.2289784260688752 0 -0.26439065681250729 0.2289784260688752 0 -0.26193406046231932 0.2344272911270443 0 -0.26819560602517328 0.23507842756581021 0 -0.26193406046231932 0.2344272911270443 0 -0.26614348890836192 0.24293385421211869 0 -0.26819560602517328 0.23507842756581021 0 -0.2574101570832959 0.22971939663687391 0 -0.26193406046231932 0.2344272911270443 0 -0.25699538715464082 0.23905233796863981 0 -0.26193406046231932 0.2344272911270443 0 -0.25699538715464082 0.23905233796863981 0 -0.26614348890836192 0.24293385421211869 0 -0.25109603964961891 0.234366577265785 0 -0.25699538715464082 0.23905233796863981 0 -0.2470081454867771 0.2422065880623451 0 -0.25109603964961891 0.234366577265785 0 -0.2574101570832959 0.22971939663687391 0 -0.25699538715464082 0.23905233796863981 0 -0.25699538715464082 0.23905233796863981 0 -0.25693865295534157 0.25278860643768353 0 -0.2470081454867771 0.2422065880623451 0 -0.25699538715464082 0.23905233796863981 0 -0.26614348890836192 0.24293385421211869 0 -0.25693865295534157 0.25278860643768353 0 -0.26614348890836192 0.24293385421211869 0 -0.2724296921133022 0.25217156250687062 0 -0.25693865295534157 0.25278860643768353 0 -0.26614348890836192 0.24293385421211869 0 -0.28058301219108422 0.24181621635705669 0 -0.2724296921133022 0.25217156250687062 0 -0.28058301219108422 0.24181621635705669 0 -0.28985028671148488 0.25537141990030859 0 -0.2724296921133022 0.25217156250687062 0 -0.26614348890836192 0.24293385421211869 0 -0.26819560602517328 0.23507842756581021 0 -0.28058301219108422 0.24181621635705669 0 -0.27131573767068418 0.22826101281380451 0 -0.26819560602517328 0.23507842756581021 0 -0.28058301219108422 0.24181621635705669 0 -0.27131573767068418 0.22826101281380451 0 -0.28058301219108422 0.24181621635705669 0 -0.29326612220823411 0.13512644163735801 0 -0.28648818467010168 0.15636331808772699 0 -0.27141175194646833 0.1445184244171912 0 -0.29326612220823411 0.13512644163735801 0 -0.30739524272803709 0.15185112365938391 0 -0.28648818467010168 0.15636331808772699 0 -0.30739524272803709 0.15185112365938391 0 -0.31211500736378339 0.1240031522641292 0 -0.29326612220823411 0.13512644163735801 0 -0.30739524272803709 0.15185112365938391 0 -0.31211500736378339 0.1240031522641292 0 -0.30739524272803709 0.15185112365938391 0 -0.28648818467010168 0.15636331808772699 0 -0.30739524272803709 0.15185112365938391 0 -0.30309072178415769 0.17724903761626601 0 -0.3167678101826048 0.16359462978275929 0 -0.30739524272803709 0.15185112365938391 0 -0.30309072178415769 0.17724903761626601 0 -0.30739524272803709 0.15185112365938391 0 -0.30309072178415769 0.17724903761626601 0 -0.28648818467010168 0.15636331808772699 0 -0.31632076704925127 0.18575639557221951 0 -0.3167678101826048 0.16359462978275929 0 -0.30309072178415769 0.17724903761626601 0 -0.30309072178415769 0.17724903761626601 0 -0.28752446549241689 0.1832489647230989 0 -0.28381669143151822 0.17107272026056419 0 -0.29379102496831272 0.19588048929947419 0 -0.30309072178415769 0.17724903761626601 0 -0.28752446549241689 0.1832489647230989 0 -0.28752446549241689 0.1832489647230989 0 -0.28381669143151822 0.17107272026056419 0 -0.27494974420821611 0.1793112011395637 0 -0.30309072178415769 0.17724903761626601 0 -0.28648818467010168 0.15636331808772699 0 -0.28381669143151822 0.17107272026056419 0 -0.28648818467010168 0.15636331808772699 0 -0.28381669143151822 0.17107272026056419 0 -0.26558112661216632 0.16087551251606999 0 -0.28381669143151822 0.17107272026056419 0 -0.27494974420821611 0.1793112011395637 0 -0.26558112661216632 0.16087551251606999 0 -0.28648818467010168 0.15636331808772699 0 -0.26558112661216632 0.16087551251606999 0 -0.27494974420821611 0.1793112011395637 0 -0.26084394980388648 0.17618123618614701 0 -0.26558112661216632 0.16087551251606999 0 -0.2659766044530758 0.19238405035351089 0 -0.27494974420821611 0.1793112011395637 0 -0.26084394980388648 0.17618123618614701 0 -0.28124953787461371 0.1935735916895788 0 -0.28752446549241689 0.1832489647230989 0 -0.27494974420821611 0.1793112011395637 0 -0.2659766044530758 0.19238405035351089 0 -0.26084394980388648 0.17618123618614701 0 -0.24947341468037071 0.1874691479585941 0 -0.26084394980388648 0.17618123618614701 0 -0.24467406855423091 0.1653877069444131 0 -0.24947341468037071 0.1874691479585941 0 -0.26558112661216632 0.16087551251606999 0 -0.24467406855423091 0.1653877069444131 0 -0.26558112661216632 0.16087551251606999 0 -0.2543915534089356 0.15018751405662761 0 -0.24467406855423091 0.1653877069444131 0 -0.26084394980388648 0.17618123618614701 0 -0.26558112661216632 0.16087551251606999 0 -0.24467406855423091 0.1653877069444131 0 -0.26558112661216632 0.16087551251606999 0 -0.2543915534089356 0.15018751405662761 0 -0.27141175194646833 0.1445184244171912 0 -0.2543915534089356 0.15018751405662761 0 -0.27141175194646833 0.1445184244171912 0 -0.25477231595188199 0.13792181725732239 0 -0.28648818467010168 0.15636331808772699 0 -0.26558112661216632 0.16087551251606999 0 -0.27141175194646833 0.1445184244171912 0 -0.29326612220823411 0.13512644163735801 0 -0.27141175194646833 0.1445184244171912 0 -0.27545980130109921 0.1239996051278405 0 -0.27141175194646833 0.1445184244171912 0 -0.25477231595188199 0.13792181725732239 0 -0.27545980130109921 0.1239996051278405 0 -0.25477231595188199 0.13792181725732239 0 -0.27545980130109921 0.1239996051278405 0 -0.25477231595188199 0.13792181725732239 0 -0.27545980130109921 0.1239996051278405 0 -0.2495823492922267 0.12121763785839371 0 -0.25610310449345419 0.1041046972302731 0 -0.27545980130109921 0.1239996051278405 0 -0.2495823492922267 0.12121763785839371 0 -0.25610310449345419 0.1041046972302731 0 -0.25413031243694739 0.089521027236778197 0 -0.2427234934652894 0.090762762990284518 0 -0.25610310449345419 0.1041046972302731 0 -0.26471001572300679 0.091779207982481292 0 -0.25413031243694739 0.089521027236778197 0 -0.25610310449345419 0.1041046972302731 0 -0.27632390472144541 0.10600366135062909 0 -0.26471001572300679 0.091779207982481292 0 -0.27632390472144541 0.10600366135062909 0 -0.27815219556391091 0.091433986845849968 0 -0.26471001572300679 0.091779207982481292 0 -0.27632390472144541 0.10600366135062909 0 -0.28783094919658059 0.096999283795453681 0 -0.27815219556391091 0.091433986845849968 0 -0.25610310449345419 0.1041046972302731 0 -0.27632390472144541 0.10600366135062909 0 -0.27545980130109921 0.1239996051278405 0 -0.27545980130109921 0.1239996051278405 0 -0.29614728665031642 0.1100773929983587 0 -0.29326612220823411 0.13512644163735801 0 -0.27545980130109921 0.1239996051278405 0 -0.29614728665031642 0.1100773929983587 0 -0.27632390472144541 0.10600366135062909 0 -0.27545980130109921 0.1239996051278405 0 -0.29614728665031642 0.1100773929983587 0 -0.27632390472144541 0.10600366135062909 0 -0.29614728665031642 0.1100773929983587 0 -0.28783094919658059 0.096999283795453681 0 -0.29614728665031642 0.1100773929983587 0 -0.28783094919658059 0.096999283795453681 0 -0.29903425758953422 0.090155638130954882 0 -0.29614728665031642 0.1100773929983587 0 -0.29903425758953422 0.090155638130954882 0 -0.31683477199953253 0.096155180868875256 0 -0.29614728665031642 0.1100773929983587 0 -0.31683477199953253 0.096155180868875256 0 -0.29614728665031642 0.1100773929983587 0 -0.31211500736378339 0.1240031522641292 0 -0.31683477199953253 0.096155180868875256 0 -0.29326612220823411 0.13512644163735801 0 -0.29614728665031642 0.1100773929983587 0 -0.31211500736378339 0.1240031522641292 0 -0.30635830999651792 0.07761242167179265 0 -0.30189037325813839 0.060543452134012458 0 -0.32146679815367007 0.068824891797761426 0 -0.30635830999651792 0.07761242167179265 0 -0.29256534898171721 0.072382945427359638 0 -0.30189037325813839 0.060543452134012458 0 -0.30635830999651792 0.07761242167179265 0 -0.29903425758953422 0.090155638130954882 0 -0.29256534898171721 0.072382945427359638 0 -0.30635830999651792 0.07761242167179265 0 -0.29903425758953422 0.090155638130954882 0 -0.31683477199953253 0.096155180868875256 0 -0.29903425758953422 0.090155638130954882 0 -0.28572263353681682 0.08337299634339973 0 -0.29256534898171721 0.072382945427359638 0 -0.28783094919658059 0.096999283795453681 0 -0.29903425758953422 0.090155638130954882 0 -0.28572263353681682 0.08337299634339973 0 -0.28783094919658059 0.096999283795453681 0 -0.28572263353681682 0.08337299634339973 0 -0.27815219556391091 0.091433986845849968 0 -0.28572263353681682 0.08337299634339973 0 -0.29256534898171721 0.072382945427359638 0 -0.28059357561043269 0.073644623599786935 0 -0.29256534898171721 0.072382945427359638 0 -0.29088471103165969 0.062671374321780771 0 -0.30189037325813839 0.060543452134012458 0 -0.29256534898171721 0.072382945427359638 0 -0.29088471103165969 0.062671374321780771 0 -0.28261649390190829 0.064291953838756216 0 -0.29256534898171721 0.072382945427359638 0 -0.28261649390190829 0.064291953838756216 0 -0.28059357561043269 0.073644623599786935 0 -0.28261649390190829 0.064291953838756216 0 -0.27678196032587499 0.069585006034529676 0 -0.27195195811963518 0.06635492754641531 0 -0.26855373331756138 0.063547936276670339 0 -0.27195195811963518 0.06635492754641531 0 -0.25743728825439521 0.07924270920583569 0 -0.28261649390190829 0.064291953838756216 0 -0.27678196032587499 0.069585006034529676 0 -0.28059357561043269 0.073644623599786935 0 -0.27678196032587499 0.069585006034529676 0 -0.27196581367152378 0.074048519153160283 0 -0.27195195811963518 0.06635492754641531 0 -0.27678196032587499 0.069585006034529676 0 -0.28059357561043269 0.073644623599786935 0 -0.27196581367152378 0.074048519153160283 0 -0.28059357561043269 0.073644623599786935 0 -0.27196581367152378 0.074048519153160283 0 -0.27303575277029413 0.081855029780232597 0 -0.27196581367152378 0.074048519153160283 0 -0.27195195811963518 0.06635492754641531 0 -0.25743728825439521 0.07924270920583569 0 -0.28572263353681682 0.08337299634339973 0 -0.27815219556391091 0.091433986845849968 0 -0.27303575277029413 0.081855029780232597 0 -0.28572263353681682 0.08337299634339973 0 -0.28059357561043269 0.073644623599786935 0 -0.27303575277029413 0.081855029780232597 0 -0.27196581367152378 0.074048519153160283 0 -0.27303575277029413 0.081855029780232597 0 -0.25743728825439521 0.07924270920583569 0 -0.27815219556391091 0.091433986845849968 0 -0.27303575277029413 0.081855029780232597 0 -0.26471001572300679 0.091779207982481292 0 -0.26471001572300679 0.091779207982481292 0 -0.25743728825439521 0.07924270920583569 0 -0.25413031243694739 0.089521027236778197 0 -0.27303575277029413 0.081855029780232597 0 -0.26471001572300679 0.091779207982481292 0 -0.25743728825439521 0.07924270920583569 0 -0.25743728825439521 0.07924270920583569 0 -0.25064083865024739 0.073628726666345984 0 -0.24857020570659841 0.081659589420377987 0 -0.25743728825439521 0.07924270920583569 0 -0.25413031243694739 0.089521027236778197 0 -0.24857020570659841 0.081659589420377987 0 -0.26855373331756138 0.063547936276670339 0 -0.25743728825439521 0.07924270920583569 0 -0.25064083865024739 0.073628726666345984 0 -0.26855373331756138 0.063547936276670339 0 -0.25064083865024739 0.073628726666345984 0 -0.2562734301216873 0.062061687155910393 0 -0.26855373331756138 0.063547936276670339 0 -0.25064083865024739 0.073628726666345984 0 -0.27195195811963518 0.06635492754641531 0 -0.25743728825439521 0.07924270920583569 0 -0.25064083865024739 0.073628726666345984 0 -0.2562734301216873 0.062061687155910393 0 -0.24829977196364941 0.065213336215906109 0 -0.2623477931936597 0.053657636987073307 0 -0.25116276906762952 0.054241108780248931 0 -0.26153642505613889 0.036367366133998442 0 -0.2562734301216873 0.062061687155910393 0 -0.2623477931936597 0.053657636987073307 0 -0.25116276906762952 0.054241108780248931 0 -0.2562734301216873 0.062061687155910393 0 -0.25116276906762952 0.054241108780248931 0 -0.24829977196364941 0.065213336215906109 0 -0.26855373331756138 0.063547936276670339 0 -0.2562734301216873 0.062061687155910393 0 -0.2623477931936597 0.053657636987073307 0 -0.25116276906762952 0.054241108780248931 0 -0.26153642505613889 0.036367366133998442 0 -0.239388393447095 0.04766651035075449 0 -0.2623477931936597 0.053657636987073307 0 -0.26153642505613889 0.036367366133998442 0 -0.27323710809808138 0.049716314049096537 0 -0.26153642505613889 0.036367366133998442 0 -0.28732673365434691 0.040933413293477772 0 -0.26153642505613889 0.036367366133998442 0 -0.2825074511423824 0.030310297232740709 0 -0.28732673365434691 0.040933413293477772 0 -0.26153642505613889 0.036367366133998442 0 -0.27323710809808138 0.049716314049096537 0 -0.28732673365434691 0.040933413293477772 0 -0.26855373331756138 0.063547936276670339 0 -0.27195195811963518 0.06635492754641531 0 -0.28646662798487532 0.053467145886994819 0 -0.26855373331756138 0.063547936276670339 0 -0.28646662798487532 0.053467145886994819 0 -0.26855373331756138 0.063547936276670339 0 -0.27323710809808138 0.049716314049096537 0 -0.28646662798487532 0.053467145886994819 0 -0.27195195811963518 0.06635492754641531 0 -0.28646662798487532 0.053467145886994819 0 -0.28261649390190829 0.064291953838756216 0 -0.27195195811963518 0.06635492754641531 0 -0.28646662798487532 0.053467145886994819 0 -0.26855373331756138 0.063547936276670339 0 -0.2623477931936597 0.053657636987073307 0 -0.27323710809808138 0.049716314049096537 0 -0.26176261374782622 0.0098260211376069873 0 -0.24854849079604721 0.020569936005881421 0 -0.24598119983726671 0.0037338506766126851 0 -0.26003022337954462 -0.0038093911555793728 0 -0.26176261374782622 0.0098260211376069873 0 -0.24598119983726671 0.0037338506766126851 0 -0.26003022337954462 -0.0038093911555793728 0 -0.27433688946420332 -0.0007833753365484626 0 -0.26176261374782622 0.0098260211376069873 0 -0.26153642505613889 0.036367366133998442 0 -0.26176261374782622 0.0098260211376069873 0 -0.24854849079604721 0.020569936005881421 0 -0.26153642505613889 0.036367366133998442 0 -0.26176261374782622 0.0098260211376069873 0 -0.27684491432135683 0.017453585025194441 0 -0.26153642505613889 0.036367366133998442 0 -0.27684491432135683 0.017453585025194441 0 -0.2825074511423824 0.030310297232740709 0 -0.27433688946420332 -0.0007833753365484626 0 -0.26176261374782622 0.0098260211376069873 0 -0.27684491432135683 0.017453585025194441 0 -0.27433688946420332 -0.0007833753365484626 0 -0.27684491432135683 0.017453585025194441 0 -0.28842838408131971 0.0076205693905790281 0 -0.28842838408131971 0.0076205693905790281 0 -0.29131927560690712 0.022062190579302341 0 -0.29989828236451899 0.011495108916467369 0 -0.27684491432135683 0.017453585025194441 0 -0.29131927560690712 0.022062190579302341 0 -0.2825074511423824 0.030310297232740709 0 -0.27684491432135683 0.017453585025194441 0 -0.28842838408131971 0.0076205693905790281 0 -0.29131927560690712 0.022062190579302341 0 -0.29131927560690712 0.022062190579302341 0 -0.2825074511423824 0.030310297232740709 0 -0.29550990707316249 0.034734931131730561 0 -0.29131927560690712 0.022062190579302341 0 -0.30587597075389272 0.02137954460474218 0 -0.29550990707316249 0.034734931131730561 0 -0.30587597075389272 0.02137954460474218 0 -0.29550990707316249 0.034734931131730561 0 -0.30859873922341308 0.03381572977126493 0 -0.29131927560690712 0.022062190579302341 0 -0.30587597075389272 0.02137954460474218 0 -0.29989828236451899 0.011495108916467369 0 -0.3025805037907468 -0.0027432771802810229 0 -0.3204068892458079 -0.0014125807301150939 0 -0.31128727758972891 0.0091565171879943417 0 -0.30587597075389272 0.02137954460474218 0 -0.29989828236451899 0.011495108916467369 0 -0.31128727758972891 0.0091565171879943417 0 -0.3025805037907468 -0.0027432771802810229 0 -0.29989828236451899 0.011495108916467369 0 -0.31128727758972891 0.0091565171879943417 0 -0.3025805037907468 -0.0027432771802810229 0 -0.28842838408131971 0.0076205693905790281 0 -0.29989828236451899 0.011495108916467369 0 -0.28646662798487532 0.053467145886994819 0 -0.304010183261538 0.043594207608826187 0 -0.29088471103165969 0.062671374321780771 0 -0.28646662798487532 0.053467145886994819 0 -0.30189037325813839 0.060543452134012458 0 -0.29088471103165969 0.062671374321780771 0 -0.28261649390190829 0.064291953838756216 0 -0.28646662798487532 0.053467145886994819 0 -0.27323710809808138 0.049716314049096537 0 -0.28646662798487532 0.053467145886994819 0 -0.28732673365434691 0.040933413293477772 0 -0.28646662798487532 0.053467145886994819 0 -0.29550990707316249 0.034734931131730561 0 -0.30859873922341308 0.03381572977126493 0 -0.28646662798487532 0.053467145886994819 0 -0.28732673365434691 0.040933413293477772 0 -0.29550990707316249 0.034734931131730561 0 -0.2825074511423824 0.030310297232740709 0 -0.28732673365434691 0.040933413293477772 0 -0.29550990707316249 0.034734931131730561 0 -0.28646662798487532 0.053467145886994819 0 -0.30859873922341308 0.03381572977126493 0 -0.28646662798487532 0.053467145886994819 0 -0.304010183261538 0.043594207608826187 0 -0.30859873922341308 0.03381572977126493 0 -0.304010183261538 0.043594207608826187 0 -0.30859873922341308 0.03381572977126493 0 -0.32155373853820057 0.033721269330657687 0 -0.304010183261538 0.043594207608826187 0 -0.3137915997446068 0.051476736654279882 0 -0.31549181974187701 0.042926529004151233 0 -0.28646662798487532 0.053467145886994819 0 -0.304010183261538 0.043594207608826187 0 -0.30189037325813839 0.060543452134012458 0 -0.30189037325813839 0.060543452134012458 0 -0.3137915997446068 0.051476736654279882 0 -0.32146679815367007 0.068824891797761426 0 -0.304010183261538 0.043594207608826187 0 -0.30189037325813839 0.060543452134012458 0 -0.3137915997446068 0.051476736654279882 0 -0.3137915997446068 0.051476736654279882 0 -0.32609882430781029 0.041494602726648067 0 -0.32146679815367007 0.068824891797761426 0 -0.32609882430781029 0.041494602726648067 0 -0.32146679815367007 0.068824891797761426 0 -0.3137915997446068 0.051476736654279882 0 -0.31549181974187701 0.042926529004151233 0 -0.32609882430781029 0.041494602726648067 0 -0.304010183261538 0.043594207608826187 0 -0.31549181974187701 0.042926529004151233 0 -0.32155373853820057 0.033721269330657687 0 -0.304010183261538 0.043594207608826187 0 -0.32155373853820057 0.033721269330657687 0 -0.31549181974187701 0.042926529004151233 0 -0.32155373853820057 0.033721269330657687 0 -0.32609882430781029 0.041494602726648067 0 -0.32609882430781029 0.041494602726648067 0 -0.34385517732675519 0.031131612817745031 0 -0.35163198926140088 0.046228739452983239 0 -0.32609882430781029 0.041494602726648067 0 -0.338272543408071 0.060603673933957783 0 -0.32146679815367007 0.068824891797761426 0 -0.32609882430781029 0.041494602726648067 0 -0.338272543408071 0.060603673933957783 0 -0.35163198926140088 0.046228739452983239 0 -0.3204068892458079 -0.0014125807301150939 0 -0.31128727758972891 0.0091565171879943417 0 -0.33073085046195078 0.01416431365553468 0 -0.30587597075389272 0.02137954460474218 0 -0.31128727758972891 0.0091565171879943417 0 -0.33073085046195078 0.01416431365553468 0 -0.30859873922341308 0.03381572977126493 0 -0.33073085046195078 0.01416431365553468 0 -0.30587597075389272 0.02137954460474218 0 -0.30859873922341308 0.03381572977126493 0 -0.33073085046195078 0.01416431365553468 0 -0.32155373853820057 0.033721269330657687 0 -0.32609882430781029 0.041494602726648067 0 -0.33073085046195078 0.01416431365553468 0 -0.30859873922341308 0.03381572977126493 0 -0.32155373853820057 0.033721269330657687 0 -0.33073085046195078 0.01416431365553468 0 -0.32609882430781029 0.041494602726648067 0 -0.33073085046195078 0.01416431365553468 0 -0.33073085046195078 0.01416431365553468 0 -0.34385517732675519 0.031131612817745031 0 -0.35381837275022032 0.01853105722209741 0 -0.32609882430781029 0.041494602726648067 0 -0.33073085046195078 0.01416431365553468 0 -0.34385517732675519 0.031131612817745031 0 -0.33540629353460438 -0.01342214774580049 0 -0.33073085046195078 0.01416431365553468 0 -0.35221409618436439 -0.0049109655465913588 0 -0.33073085046195078 0.01416431365553468 0 -0.35221409618436439 -0.0049109655465913588 0 -0.34857824671955512 -0.007874197240844389 0 -0.33073085046195078 0.01416431365553468 0 -0.35221409618436439 -0.0049109655465913588 0 -0.33073085046195078 0.01416431365553468 0 -0.34939877662876639 0.0070576099193848619 0 -0.33073085046195078 0.01416431365553468 0 -0.34939877662876639 0.0070576099193848619 0 -0.35381837275022032 0.01853105722209741 0 -0.35900139338342918 0.0020097317905480609 0 -0.34939877662876639 0.0070576099193848619 0 -0.35834074471334648 0.0096788928264882005 0 -0.35509488683577939 -0.0004162838960613095 0 -0.35900139338342918 0.0020097317905480609 0 -0.34939877662876639 0.0070576099193848619 0 -0.35509488683577939 -0.0004162838960613095 0 -0.35221409618436439 -0.0049109655465913588 0 -0.34939877662876639 0.0070576099193848619 0 -0.34939877662876639 0.0070576099193848619 0 -0.35834074471334648 0.0096788928264882005 0 -0.35381837275022032 0.01853105722209741 0 -0.34385517732675519 0.031131612817745031 0 -0.35381837275022032 0.01853105722209741 0 -0.36551724687399623 0.028318485711261141 0 -0.37937813184432773 0.031366277704107569 0 -0.36551724687399623 0.028318485711261141 0 -0.37479293228070759 0.022502646493578662 0 -0.36551724687399623 0.028318485711261141 0 -0.37479293228070759 0.022502646493578662 0 -0.36730783543836809 0.01519693074799966 0 -0.3778438638662554 0.014761087644765769 0 -0.37479293228070759 0.022502646493578662 0 -0.36730783543836809 0.01519693074799966 0 -0.35381837275022032 0.01853105722209741 0 -0.36551724687399623 0.028318485711261141 0 -0.36730783543836809 0.01519693074799966 0 -0.35834074471334648 0.0096788928264882005 0 -0.36730783543836809 0.01519693074799966 0 -0.36603012090457948 0.0050917054244422654 0 -0.35834074471334648 0.0096788928264882005 0 -0.35381837275022032 0.01853105722209741 0 -0.36730783543836809 0.01519693074799966 0 -0.36730783543836809 0.01519693074799966 0 -0.37464316483836829 0.0066416053135349984 0 -0.36603012090457948 0.0050917054244422654 0 -0.3778438638662554 0.014761087644765769 0 -0.36730783543836809 0.01519693074799966 0 -0.37464316483836829 0.0066416053135349984 0 -0.37126952376897032 -0.00085078512189483576 0 -0.37774077980655368 -0.001289555558904682 0 -0.37464316483836829 0.0066416053135349984 0 -0.37126952376897032 -0.00085078512189483576 0 -0.37464316483836829 0.0066416053135349984 0 -0.36603012090457948 0.0050917054244422654 0 -0.37126952376897032 -0.00085078512189483576 0 -0.36494834593608783 -0.001298186014321303 0 -0.36603012090457948 0.0050917054244422654 0 -0.36494834593608783 -0.001298186014321303 0 -0.35900139338342918 0.0020097317905480609 0 -0.36603012090457948 0.0050917054244422654 0 -0.35900139338342918 0.0020097317905480609 0 -0.35834074471334648 0.0096788928264882005 0 -0.36603012090457948 0.0050917054244422654 0 -0.35163198926140088 0.046228739452983239 0 -0.36891219827968119 0.060077996683558232 0 -0.35298131256760962 0.063034912088641357 0 -0.338272543408071 0.060603673933957783 0 -0.35163198926140088 0.046228739452983239 0 -0.35298131256760962 0.063034912088641357 0 -0.34385517732675519 0.031131612817745031 0 -0.36551724687399623 0.028318485711261141 0 -0.35163198926140088 0.046228739452983239 0 -0.36551724687399623 0.028318485711261141 0 -0.35163198926140088 0.046228739452983239 0 -0.37261014177358448 0.043145835856899219 0 -0.37937813184432773 0.031366277704107569 0 -0.36551724687399623 0.028318485711261141 0 -0.37261014177358448 0.043145835856899219 0 -0.35163198926140088 0.046228739452983239 0 -0.37261014177358448 0.043145835856899219 0 -0.36891219827968119 0.060077996683558232 0 -0.38207463336695202 0.051047668856640811 0 -0.37261014177358448 0.043145835856899219 0 -0.36891219827968119 0.060077996683558232 0 -0.37929074908003868 0.077603726490867345 0 -0.35694138538550352 0.073855345321458488 0 -0.37929074908003868 0.077603726490867345 0 -0.36891219827968119 0.060077996683558232 0 -0.35694138538550352 0.073855345321458488 0 -0.36891219827968119 0.060077996683558232 0 -0.35298131256760962 0.063034912088641357 0 -0.35694138538550352 0.073855345321458488 0 -0.35298131256760962 0.063034912088641357 0 -0.35694138538550352 0.073855345321458488 0 -0.34914844650339177 0.074408805051249083 0 -0.35694138538550352 0.073855345321458488 0 -0.34914844650339177 0.074408805051249083 0 -0.35387282561504041 0.085789381247760657 0 -0.338272543408071 0.060603673933957783 0 -0.35298131256760962 0.063034912088641357 0 -0.34914844650339177 0.074408805051249083 0 -0.34914844650339177 0.074408805051249083 0 -0.35387282561504041 0.085789381247760657 0 -0.33299160925146271 0.085281992960062933 0 -0.35694138538550352 0.073855345321458488 0 -0.35387282561504041 0.085789381247760657 0 -0.36438159895332511 0.085691586513687634 0 -0.35387282561504041 0.085789381247760657 0 -0.36438159895332511 0.085691586513687634 0 -0.35579278546844412 0.098564625017930646 0 -0.37929074908003868 0.077603726490867345 0 -0.35694138538550352 0.073855345321458488 0 -0.36438159895332511 0.085691586513687634 0 -0.37929074908003868 0.077603726490867345 0 -0.36438159895332511 0.085691586513687634 0 -0.37090825683648998 0.098456277756480637 0 -0.37090825683648998 0.098456277756480637 0 -0.36904533532088801 0.1177582563576956 0 -0.35579278546844412 0.098564625017930646 0 -0.36438159895332511 0.085691586513687634 0 -0.37090825683648998 0.098456277756480637 0 -0.35579278546844412 0.098564625017930646 0 -0.35823941519022368 0.13573745574644491 0 -0.36904533532088801 0.1177582563576956 0 -0.35158166360451942 0.11704707172714621 0 -0.36904533532088801 0.1177582563576956 0 -0.35158166360451942 0.11704707172714621 0 -0.35579278546844412 0.098564625017930646 0 -0.35158166360451942 0.11704707172714621 0 -0.35579278546844412 0.098564625017930646 0 -0.34047962299512569 0.099373871294989508 0 -0.35387282561504041 0.085789381247760657 0 -0.35579278546844412 0.098564625017930646 0 -0.34047962299512569 0.099373871294989508 0 -0.34047962299512569 0.099373871294989508 0 -0.33231339904552459 0.1171762944261375 0 -0.31683477199953253 0.096155180868875256 0 -0.34455851703438989 0.13305210298766909 0 -0.35158166360451942 0.11704707172714621 0 -0.33231339904552459 0.1171762944261375 0 -0.35158166360451942 0.11704707172714621 0 -0.34047962299512569 0.099373871294989508 0 -0.33231339904552459 0.1171762944261375 0 -0.31211500736378339 0.1240031522641292 0 -0.31683477199953253 0.096155180868875256 0 -0.31211500736378339 0.1240031522641292 0 -0.33231339904552459 0.1171762944261375 0 -0.31683477199953253 0.096155180868875256 0 -0.30635830999651792 0.07761242167179265 0 -0.31683477199953253 0.096155180868875256 0 -0.32146679815367007 0.068824891797761426 0 -0.31683477199953253 0.096155180868875256 0 -0.32146679815367007 0.068824891797761426 0 -0.33299160925146271 0.085281992960062933 0 -0.31683477199953253 0.096155180868875256 0 -0.32146679815367007 0.068824891797761426 0 -0.31683477199953253 0.096155180868875256 0 -0.33299160925146271 0.085281992960062933 0 -0.338272543408071 0.060603673933957783 0 -0.32146679815367007 0.068824891797761426 0 -0.33576809196089219 0.072507027900731907 0 -0.32146679815367007 0.068824891797761426 0 -0.33576809196089219 0.072507027900731907 0 -0.33299160925146271 0.085281992960062933 0 -0.34914844650339177 0.074408805051249083 0 -0.33576809196089219 0.072507027900731907 0 -0.33299160925146271 0.085281992960062933 0 -0.338272543408071 0.060603673933957783 0 -0.34914844650339177 0.074408805051249083 0 -0.33576809196089219 0.072507027900731907 0 -0.35387282561504041 0.085789381247760657 0 -0.34047962299512569 0.099373871294989508 0 -0.33299160925146271 0.085281992960062933 0 -0.34914844650339177 0.074408805051249083 0 -0.33299160925146271 0.085281992960062933 0 -0.34047962299512569 0.099373871294989508 0 -0.31683477199953253 0.096155180868875256 0 -0.33299160925146271 0.085281992960062933 0 -0.3938434845513461 0.48000301234504228 0 -0.4154786193197833 0.47000451851756458 0 -0.40908183102320411 0.4845696213484928 0 -0.3938434845513461 0.48000301234504228 0 -0.40110135887996978 0.47332954189399812 0 -0.4154786193197833 0.47000451851756458 0 -0.3938434845513461 0.48000301234504228 0 -0.4154786193197833 0.47000451851756458 0 -0.3938434845513461 0.48000301234504228 0 -0.40110135887996978 0.47332954189399812 0 -0.38930270813857232 0.46778113184491188 0 -0.3938434845513461 0.48000301234504228 0 -0.39546946259238258 0.49128185561313598 0 -0.40908183102320411 0.4845696213484928 0 -0.40521342881326272 0.5 0 -0.39546946259238258 0.49128185561313598 0 -0.37789332191386737 0.5 0 -0.40521342881326272 0.5 0 -0.39546946259238258 0.49128185561313598 0 -0.40908183102320411 0.4845696213484928 0 -0.3938434845513461 0.48000301234504228 0 -0.39546946259238258 0.49128185561313598 0 -0.38517353549973538 0.49039659604947999 0 -0.3938434845513461 0.48000301234504228 0 -0.37220834978290879 0.49000150617251997 0 -0.39546946259238258 0.49128185561313598 0 -0.38517353549973538 0.49039659604947999 0 -0.37789332191386737 0.5 0 -0.3938434845513461 0.48000301234504228 0 -0.38517353549973538 0.49039659604947999 0 -0.37220834978290879 0.49000150617251997 0 -0.38517353549973538 0.49039659604947999 0 -0.37789332191386737 0.5 0 -0.37220834978290879 0.49000150617251997 0 -0.3938434845513461 0.48000301234504228 0 -0.37805640255927542 0.47903421333972468 0 -0.3842367001720054 0.47454362448235632 0 -0.3938434845513461 0.48000301234504228 0 -0.37805640255927542 0.47903421333972468 0 -0.37220834978290879 0.49000150617251997 0 -0.3842367001720054 0.47454362448235632 0 -0.37701653082709469 0.46900635458093531 0 -0.38930270813857232 0.46778113184491188 0 -0.3938434845513461 0.48000301234504228 0 -0.3842367001720054 0.47454362448235632 0 -0.38930270813857232 0.46778113184491188 0 -0.37805640255927542 0.47903421333972468 0 -0.3842367001720054 0.47454362448235632 0 -0.37701653082709469 0.46900635458093531 0 -0.37701653082709469 0.46900635458093531 0 -0.38677844954541418 0.45747132953460651 0 -0.37376195539900242 0.45249759326054367 0 -0.37701653082709469 0.46900635458093531 0 -0.38677844954541418 0.45747132953460651 0 -0.38930270813857232 0.46778113184491188 0 -0.38473584783684761 0.44354080077547992 0 -0.36778315087773072 0.43214877602771662 0 -0.37376195539900242 0.45249759326054367 0 -0.38677844954541418 0.45747132953460651 0 -0.38473584783684761 0.44354080077547992 0 -0.37376195539900242 0.45249759326054367 0 -0.38677844954541418 0.45747132953460651 0 -0.38473584783684761 0.44354080077547992 0 -0.39843898125590987 0.45231631840454728 0 -0.39843898125590987 0.45231631840454728 0 -0.4072920944712265 0.44499890251068641 0 -0.39856520721893041 0.43647578570475237 0 -0.38473584783684761 0.44354080077547992 0 -0.39843898125590987 0.45231631840454728 0 -0.39856520721893041 0.43647578570475237 0 -0.39843898125590987 0.45231631840454728 0 -0.39841490533913748 0.46178879282826651 0 -0.41709791082295028 0.45456801136960878 0 -0.40110135887996978 0.47332954189399812 0 -0.39841490533913748 0.46178879282826651 0 -0.41709791082295028 0.45456801136960878 0 -0.38677844954541418 0.45747132953460651 0 -0.38930270813857232 0.46778113184491188 0 -0.39841490533913748 0.46178879282826651 0 -0.40110135887996978 0.47332954189399812 0 -0.38930270813857232 0.46778113184491188 0 -0.39841490533913748 0.46178879282826651 0 -0.38677844954541418 0.45747132953460651 0 -0.39843898125590987 0.45231631840454728 0 -0.39841490533913748 0.46178879282826651 0 -0.40110135887996978 0.47332954189399812 0 -0.41709791082295028 0.45456801136960878 0 -0.4154786193197833 0.47000451851756458 0 -0.40110135887996978 0.47332954189399812 0 -0.41709791082295028 0.45456801136960878 0 -0.41709791082295028 0.45456801136960878 0 -0.42692569345801529 0.46340213249295897 0 -0.4154786193197833 0.47000451851756458 0 -0.41709791082295028 0.45456801136960878 0 -0.43309446276593089 0.43580648084521972 0 -0.41506627858711548 0.4366354945638371 0 -0.39843898125590987 0.45231631840454728 0 -0.41709791082295028 0.45456801136960878 0 -0.4072920944712265 0.44499890251068641 0 -0.4072920944712265 0.44499890251068641 0 -0.41506627858711548 0.4366354945638371 0 -0.39856520721893041 0.43647578570475237 0 -0.41709791082295028 0.45456801136960878 0 -0.4072920944712265 0.44499890251068641 0 -0.41506627858711548 0.4366354945638371 0 -0.41709791082295028 0.45456801136960878 0 -0.43251943231727258 0.45189802077753072 0 -0.43309446276593089 0.43580648084521972 0 -0.41709791082295028 0.45456801136960878 0 -0.43309446276593089 0.43580648084521972 0 -0.43251943231727258 0.45189802077753072 0 -0.44285055445462801 0.44408738363144917 0 -0.43309446276593089 0.43580648084521972 0 -0.43251943231727258 0.45189802077753072 0 -0.42692569345801529 0.46340213249295897 0 -0.44262854008483871 0.46162609554841733 0 -0.42692569345801529 0.46340213249295897 0 -0.43014133963940671 0.47900644757454591 0 -0.44262854008483871 0.46162609554841733 0 -0.41709791082295028 0.45456801136960878 0 -0.43251943231727258 0.45189802077753072 0 -0.42692569345801529 0.46340213249295897 0 -0.42692569345801529 0.46340213249295897 0 -0.43014133963940671 0.47900644757454591 0 -0.4154786193197833 0.47000451851756458 0 -0.43014133963940671 0.47900644757454591 0 -0.4154786193197833 0.47000451851756458 0 -0.40908183102320411 0.4845696213484928 0 -0.40521342881326272 0.5 0 -0.40908183102320411 0.4845696213484928 0 -0.43253353571265801 0.5 0 -0.43014133963940671 0.47900644757454591 0 -0.40908183102320411 0.4845696213484928 0 -0.43253353571265801 0.5 0 -0.43014133963940671 0.47900644757454591 0 -0.43253353571265801 0.5 0 -0.44984012809851409 0.48033494727474779 0 -0.43253353571265801 0.5 0 -0.44984012809851409 0.48033494727474779 0 -0.45985364261205308 0.50000000000000111 0 -0.43014133963940671 0.47900644757454591 0 -0.44984012809851409 0.48033494727474779 0 -0.44262854008483871 0.46162609554841733 0 -0.44984012809851409 0.48033494727474779 0 -0.47312811744354261 0.47395110078869013 0 -0.45820768181792781 0.46325373185340701 0 -0.45985364261205308 0.50000000000000111 0 -0.47312811744354261 0.47395110078869013 0 -0.44984012809851409 0.48033494727474779 0 -0.45985364261205308 0.50000000000000111 0 -0.47312811744354261 0.47395110078869013 0 -0.5 0.5 0 -0.47312811744354261 0.47395110078869013 0 -0.49999999999999972 0.44664233614409321 0 -0.45985364261205308 0.50000000000000111 0 -0.5 0.5 0 -0.47312811744354261 0.47395110078869013 0 -0.48640259227503152 0.44790220157737892 0 -0.49999999999999972 0.44664233614409321 0 -0.47883616718389621 0.43347798499105172 0 -0.49999999999999972 0.44664233614409321 0 -0.47883616718389621 0.43347798499105172 0 -0.47312811744354261 0.47395110078869013 0 -0.48640259227503152 0.44790220157737892 0 -0.49999999999999972 0.44664233614409321 0 -0.47312811744354261 0.47395110078869013 0 -0.48640259227503152 0.44790220157737892 0 -0.47312811744354261 0.47395110078869013 0 -0.48640259227503152 0.44790220157737892 0 -0.46932328621444303 0.45009797021529852 0 -0.46932328621444303 0.45009797021529852 0 -0.46288197751253979 0.435741310408158 0 -0.47883616718389621 0.43347798499105172 0 -0.48640259227503152 0.44790220157737892 0 -0.46932328621444303 0.45009797021529852 0 -0.47883616718389621 0.43347798499105172 0 -0.46932328621444303 0.45009797021529852 0 -0.45653044061400749 0.44574373859450739 0 -0.46288197751253979 0.435741310408158 0 -0.46932328621444303 0.45009797021529852 0 -0.45653044061400749 0.44574373859450739 0 -0.45820768181792781 0.46325373185340701 0 -0.45653044061400749 0.44574373859450739 0 -0.44988321330808601 0.43264183945635343 0 -0.46288197751253979 0.435741310408158 0 -0.47312811744354261 0.47395110078869013 0 -0.46932328621444303 0.45009797021529852 0 -0.45820768181792781 0.46325373185340701 0 -0.45653044061400749 0.44574373859450739 0 -0.45820768181792781 0.46325373185340701 0 -0.44262854008483871 0.46162609554841733 0 -0.44984012809851409 0.48033494727474779 0 -0.45820768181792781 0.46325373185340701 0 -0.44262854008483871 0.46162609554841733 0 -0.43251943231727258 0.45189802077753072 0 -0.44262854008483871 0.46162609554841733 0 -0.44285055445462801 0.44408738363144917 0 -0.45653044061400749 0.44574373859450739 0 -0.44262854008483871 0.46162609554841733 0 -0.44285055445462801 0.44408738363144917 0 -0.44285055445462801 0.44408738363144917 0 -0.44988321330808601 0.43264183945635343 0 -0.43309446276593089 0.43580648084521972 0 -0.45653044061400749 0.44574373859450739 0 -0.44285055445462801 0.44408738363144917 0 -0.44988321330808601 0.43264183945635343 0 -0.44909101470891138 0.41704495032083061 0 -0.43309446276593089 0.43580648084521972 0 -0.44988321330808601 0.43264183945635343 0 -0.44909101470891138 0.41704495032083061 0 -0.43309446276593089 0.43580648084521972 0 -0.44988321330808601 0.43264183945635343 0 -0.44909101470891138 0.41704495032083061 0 -0.45767233436779298 0.42031363383801013 0 -0.44909101470891138 0.41704495032083061 0 -0.43642708593841462 0.41129790334070748 0 -0.43309446276593089 0.43580648084521972 0 -0.44909101470891138 0.41704495032083061 0 -0.44923652684218601 0.40651161443480333 0 -0.43642708593841462 0.41129790334070748 0 -0.44909101470891138 0.41704495032083061 0 -0.46310762304278369 0.4136785712167641 0 -0.46508756665189233 0.39828341979644161 0 -0.44909101470891138 0.41704495032083061 0 -0.46508756665189233 0.39828341979644161 0 -0.44909101470891138 0.41704495032083061 0 -0.44923652684218601 0.40651161443480333 0 -0.46508756665189233 0.39828341979644161 0 -0.44909101470891138 0.41704495032083061 0 -0.45767233436779298 0.42031363383801013 0 -0.46310762304278369 0.4136785712167641 0 -0.45767233436779298 0.42031363383801013 0 -0.46310762304278369 0.4136785712167641 0 -0.4689935185142321 0.42014913325858988 0 -0.46310762304278369 0.4136785712167641 0 -0.47635794946245552 0.41312634298853379 0 -0.46508756665189233 0.39828341979644161 0 -0.45767233436779298 0.42031363383801013 0 -0.47883616718389621 0.43347798499105172 0 -0.4689935185142321 0.42014913325858988 0 -0.45767233436779298 0.42031363383801013 0 -0.46288197751253979 0.435741310408158 0 -0.47883616718389621 0.43347798499105172 0 -0.45767233436779298 0.42031363383801013 0 -0.47883616718389621 0.43347798499105172 0 -0.44988321330808601 0.43264183945635343 0 -0.45767233436779298 0.42031363383801013 0 -0.46288197751253979 0.435741310408158 0 -0.47883616718389621 0.43347798499105172 0 -0.47635794946245552 0.41312634298853379 0 -0.48714440641974271 0.42351608680749347 0 -0.47883616718389621 0.43347798499105172 0 -0.4689935185142321 0.42014913325858988 0 -0.47635794946245552 0.41312634298853379 0 -0.46310762304278369 0.4136785712167641 0 -0.4689935185142321 0.42014913325858988 0 -0.47635794946245552 0.41312634298853379 0 -0.47635794946245552 0.41312634298853379 0 -0.48901457958177968 0.41012265573874179 0 -0.48254378332594611 0.39722493186941499 0 -0.47635794946245552 0.41312634298853379 0 -0.48901457958177968 0.41012265573874179 0 -0.48714440641974271 0.42351608680749347 0 -0.48901457958177968 0.41012265573874179 0 -0.5 0.42140439004324071 0 -0.49999999999999978 0.39616644394238798 0 -0.48901457958177968 0.41012265573874179 0 -0.5 0.42140439004324071 0 -0.48714440641974271 0.42351608680749347 0 -0.49999999999999972 0.44664233614409321 0 -0.47883616718389621 0.43347798499105172 0 -0.48714440641974271 0.42351608680749347 0 -0.49999999999999972 0.44664233614409321 0 -0.5 0.42140439004324071 0 -0.48714440641974271 0.42351608680749347 0 -0.49007778645481631 0.38142997617552599 0 -0.49999999999999978 0.39616644394238798 0 -0.50000000000000311 0.3685517992903854 0 -0.49007778645481631 0.38142997617552599 0 -0.47611467569506138 0.38535029247959018 0 -0.48714178473823078 0.37241716516273898 0 -0.49999999999999978 0.39616644394238798 0 -0.48254378332594611 0.39722493186941499 0 -0.48901457958177968 0.41012265573874179 0 -0.49999999999999978 0.39616644394238798 0 -0.48254378332594611 0.39722493186941499 0 -0.49007778645481631 0.38142997617552599 0 -0.49999999999999978 0.39616644394238798 0 -0.48254378332594611 0.39722493186941499 0 -0.48254378332594611 0.39722493186941499 0 -0.46508756665189233 0.39828341979644161 0 -0.47635794946245552 0.41312634298853379 0 -0.48254378332594611 0.39722493186941499 0 -0.46508756665189233 0.39828341979644161 0 -0.48254378332594611 0.39722493186941499 0 -0.47611467569506138 0.38535029247959018 0 -0.46508756665189233 0.39828341979644161 0 -0.47611467569506138 0.38535029247959018 0 -0.46508756665189233 0.39828341979644161 0 -0.49007778645481631 0.38142997617552599 0 -0.48254378332594611 0.39722493186941499 0 -0.47611467569506138 0.38535029247959018 0 -0.47611467569506138 0.38535029247959018 0 -0.47397397291215421 0.37493689296344251 0 -0.48714178473823078 0.37241716516273898 0 -0.47611467569506138 0.38535029247959018 0 -0.48714178473823078 0.37241716516273898 0 -0.46871814716203669 0.37906981455344119 0 -0.46360543106569913 0.37231654924431878 0 -0.47397397291215421 0.37493689296344251 0 -0.47611467569506138 0.38535029247959018 0 -0.46871814716203669 0.37906981455344119 0 -0.47397397291215421 0.37493689296344251 0 -0.46871814716203669 0.37906981455344119 0 -0.46117850897523233 0.38367552352641338 0 -0.46360543106569913 0.37231654924431878 0 -0.47611467569506138 0.38535029247959018 0 -0.46871814716203669 0.37906981455344119 0 -0.46117850897523233 0.38367552352641338 0 -0.47611467569506138 0.38535029247959018 0 -0.46117850897523233 0.38367552352641338 0 -0.46508756665189233 0.39828341979644161 0 -0.46117850897523233 0.38367552352641338 0 -0.45400385251667602 0.39093091030285698 0 -0.45110956684876158 0.38402681738971201 0 -0.46117850897523233 0.38367552352641338 0 -0.45110956684876158 0.38402681738971201 0 -0.44813402172652672 0.37354371539476261 0 -0.46117850897523233 0.38367552352641338 0 -0.44813402172652672 0.37354371539476261 0 -0.46360543106569913 0.37231654924431878 0 -0.44923652684218601 0.40651161443480333 0 -0.46508756665189233 0.39828341979644161 0 -0.44634044006952572 0.39942018428123321 0 -0.46508756665189233 0.39828341979644161 0 -0.45400385251667602 0.39093091030285698 0 -0.44634044006952572 0.39942018428123321 0 -0.46508756665189233 0.39828341979644161 0 -0.44634044006952572 0.39942018428123321 0 -0.46117850897523233 0.38367552352641338 0 -0.46508756665189233 0.39828341979644161 0 -0.45400385251667602 0.39093091030285698 0 -0.45400385251667602 0.39093091030285698 0 -0.44634044006952572 0.39942018428123321 0 -0.44518347515021223 0.38837251913440451 0 -0.44634044006952572 0.39942018428123321 0 -0.44518347515021223 0.38837251913440451 0 -0.43728617553129168 0.39370672697544878 0 -0.44923652684218601 0.40651161443480333 0 -0.44634044006952572 0.39942018428123321 0 -0.43642708593841462 0.41129790334070748 0 -0.45110956684876158 0.38402681738971201 0 -0.44480856609964842 0.38185924381796288 0 -0.44813402172652672 0.37354371539476261 0 -0.45400385251667602 0.39093091030285698 0 -0.45110956684876158 0.38402681738971201 0 -0.44518347515021223 0.38837251913440451 0 -0.45110956684876158 0.38402681738971201 0 -0.44518347515021223 0.38837251913440451 0 -0.44480856609964842 0.38185924381796288 0 -0.44518347515021223 0.38837251913440451 0 -0.43913693036841173 0.38484964203092692 0 -0.43002747341826991 0.3864772557201327 0 -0.44518347515021223 0.38837251913440451 0 -0.43002747341826991 0.3864772557201327 0 -0.44518347515021223 0.38837251913440451 0 -0.43913693036841173 0.38484964203092692 0 -0.44480856609964842 0.38185924381796288 0 -0.44480856609964842 0.38185924381796288 0 -0.4393591315165738 0.37762743775392832 0 -0.44813402172652672 0.37354371539476261 0 -0.43913693036841173 0.38484964203092692 0 -0.44480856609964842 0.38185924381796288 0 -0.4393591315165738 0.37762743775392832 0 -0.43913693036841173 0.38484964203092692 0 -0.43173797726570751 0.37658334167695551 0 -0.43913693036841173 0.38484964203092692 0 -0.43173797726570751 0.37658334167695551 0 -0.43002747341826991 0.3864772557201327 0 -0.43913693036841173 0.38484964203092692 0 -0.4393591315165738 0.37762743775392832 0 -0.43173797726570751 0.37658334167695551 0 -0.4393591315165738 0.37762743775392832 0 -0.43173797726570751 0.37658334167695551 0 -0.4325639091043616 0.37180597819459837 0 -0.43173797726570751 0.37658334167695551 0 -0.43002747341826991 0.3864772557201327 0 -0.44518347515021223 0.38837251913440451 0 -0.43002747341826991 0.3864772557201327 0 -0.43728617553129168 0.39370672697544878 0 -0.43002747341826991 0.3864772557201327 0 -0.41472776448615789 0.38456402166930481 0 -0.42117367656598032 0.39254991666010941 0 -0.43002747341826991 0.3864772557201327 0 -0.41472776448615789 0.38456402166930481 0 -0.43002747341826991 0.3864772557201327 0 -0.42328890360694349 0.38021744503538613 0 -0.41472776448615789 0.38456402166930481 0 -0.43173797726570751 0.37658334167695551 0 -0.43002747341826991 0.3864772557201327 0 -0.42328890360694349 0.38021744503538613 0 -0.43173797726570751 0.37658334167695551 0 -0.42328890360694349 0.38021744503538613 0 -0.42689564018809201 0.37117335838025439 0 -0.40881671944059661 0.37920357314115732 0 -0.42689564018809201 0.37117335838025439 0 -0.42328890360694349 0.38021744503538613 0 -0.40881671944059661 0.37920357314115732 0 -0.42689564018809201 0.37117335838025439 0 -0.42328890360694349 0.38021744503538613 0 -0.41472776448615789 0.38456402166930481 0 -0.40881671944059661 0.37920357314115732 0 -0.41472776448615789 0.38456402166930481 0 -0.40724106840129259 0.39428871981441299 0 -0.42117367656598032 0.39254991666010941 0 -0.41472776448615789 0.38456402166930481 0 -0.40826438028753348 0.3817067557430866 0 -0.39942805555404642 0.38265078761847338 0 -0.41472776448615789 0.38456402166930481 0 -0.40724106840129259 0.39428871981441299 0 -0.39942805555404642 0.38265078761847338 0 -0.41472776448615789 0.38456402166930481 0 -0.39942805555404642 0.38265078761847338 0 -0.40881671944059661 0.37920357314115732 0 -0.39942805555404642 0.38265078761847338 0 -0.41098055992701871 0.3693971202961519 0 -0.40826438028753348 0.3817067557430866 0 -0.40881671944059661 0.37920357314115732 0 -0.41472776448615789 0.38456402166930481 0 -0.40826438028753348 0.3817067557430866 0 -0.40881671944059661 0.37920357314115732 0 -0.40724106840129259 0.39428871981441299 0 -0.4157685575788832 0.40127396331749671 0 -0.40157856791931718 0.40704460823596672 0 -0.42117367656598032 0.39254991666010941 0 -0.4157685575788832 0.40127396331749671 0 -0.42759331348715912 0.40055694876602499 0 -0.40724106840129259 0.39428871981441299 0 -0.42117367656598032 0.39254991666010941 0 -0.4157685575788832 0.40127396331749671 0 -0.4157685575788832 0.40127396331749671 0 -0.42759331348715912 0.40055694876602499 0 -0.44634044006952572 0.39942018428123321 0 -0.42759331348715912 0.40055694876602499 0 -0.44634044006952572 0.39942018428123321 0 -0.42759331348715912 0.40055694876602499 0 -0.43728617553129168 0.39370672697544878 0 -0.44634044006952572 0.39942018428123321 0 -0.42759331348715912 0.40055694876602499 0 -0.43642708593841462 0.41129790334070748 0 -0.43002747341826991 0.3864772557201327 0 -0.42117367656598032 0.39254991666010941 0 -0.42759331348715912 0.40055694876602499 0 -0.43002747341826991 0.3864772557201327 0 -0.42759331348715912 0.40055694876602499 0 -0.43002747341826991 0.3864772557201327 0 -0.42759331348715912 0.40055694876602499 0 -0.43728617553129168 0.39370672697544878 0 -0.43642708593841462 0.41129790334070748 0 -0.42449994900394461 0.41844961959922572 0 -0.43309446276593089 0.43580648084521972 0 -0.42759331348715912 0.40055694876602499 0 -0.43642708593841462 0.41129790334070748 0 -0.42449994900394461 0.41844961959922572 0 -0.4157685575788832 0.40127396331749671 0 -0.42759331348715912 0.40055694876602499 0 -0.42449994900394461 0.41844961959922572 0 -0.42759331348715912 0.40055694876602499 0 -0.42449994900394461 0.41844961959922572 0 -0.42449994900394461 0.41844961959922572 0 -0.43309446276593089 0.43580648084521972 0 -0.41506627858711548 0.4366354945638371 0 -0.42449994900394461 0.41844961959922572 0 -0.41506627858711548 0.4366354945638371 0 -0.40746949035714619 0.42222882353716701 0 -0.41506627858711548 0.4366354945638371 0 -0.40746949035714619 0.42222882353716701 0 -0.39856520721893041 0.43647578570475237 0 -0.42449994900394461 0.41844961959922572 0 -0.40746949035714619 0.42222882353716701 0 -0.41232914121482278 0.41224925367246401 0 -0.4157685575788832 0.40127396331749671 0 -0.42449994900394461 0.41844961959922572 0 -0.41232914121482278 0.41224925367246401 0 -0.4157685575788832 0.40127396331749671 0 -0.41232914121482278 0.41224925367246401 0 -0.40157856791931718 0.40704460823596672 0 -0.40746949035714619 0.42222882353716701 0 -0.41232914121482278 0.41224925367246401 0 -0.40157856791931718 0.40704460823596672 0 -0.40746949035714619 0.42222882353716701 0 -0.40157856791931718 0.40704460823596672 0 -0.39298749241221759 0.42119507937603923 0 -0.40746949035714619 0.42222882353716701 0 -0.39298749241221759 0.42119507937603923 0 -0.39856520721893041 0.43647578570475237 0 -0.39298749241221759 0.42119507937603923 0 -0.39856520721893041 0.43647578570475237 0 -0.38373994498284608 0.43043669407259588 0 -0.38373994498284608 0.43043669407259588 0 -0.37668454372729859 0.41206883315114529 0 -0.36778315087773072 0.43214877602771662 0 -0.38473584783684761 0.44354080077547992 0 -0.38373994498284608 0.43043669407259588 0 -0.36778315087773072 0.43214877602771662 0 -0.38473584783684761 0.44354080077547992 0 -0.39856520721893041 0.43647578570475237 0 -0.38373994498284608 0.43043669407259588 0 -0.40157856791931718 0.40704460823596672 0 -0.39298749241221759 0.42119507937603923 0 -0.37668454372729859 0.41206883315114529 0 -0.39298749241221759 0.42119507937603923 0 -0.38373994498284608 0.43043669407259588 0 -0.37668454372729859 0.41206883315114529 0 -0.40157856791931718 0.40704460823596672 0 -0.37668454372729859 0.41206883315114529 0 -0.37668454372729859 0.41206883315114529 0 -0.37844474563582792 0.390355182046278 0 -0.39076978830337122 0.39764902138512792 0 -0.40157856791931718 0.40704460823596672 0 -0.37668454372729859 0.41206883315114529 0 -0.39076978830337122 0.39764902138512792 0 -0.38141148745950948 0.38039780936179463 0 -0.39942805555404642 0.38265078761847338 0 -0.37844474563582792 0.390355182046278 0 -0.39942805555404642 0.38265078761847338 0 -0.38141148745950948 0.38039780936179463 0 -0.37844474563582792 0.390355182046278 0 -0.39942805555404642 0.38265078761847338 0 -0.37844474563582792 0.390355182046278 0 -0.39942805555404642 0.38265078761847338 0 -0.39076978830337122 0.39764902138512792 0 -0.38141148745950948 0.38039780936179463 0 -0.39942805555404642 0.38265078761847338 0 -0.39128338495032239 0.36719877308275878 0 -0.40826438028753348 0.3817067557430866 0 -0.40881671944059661 0.37920357314115732 0 -0.39942805555404642 0.38265078761847338 0 -0.40881671944059661 0.37920357314115732 0 -0.39942805555404642 0.38265078761847338 0 -0.40724106840129259 0.39428871981441299 0 -0.40157856791931718 0.40704460823596672 0 -0.39076978830337122 0.39764902138512792 0 -0.40724106840129259 0.39428871981441299 0 -0.39942805555404642 0.38265078761847338 0 -0.39076978830337122 0.39764902138512792 0 -0.39259889148010241 0.34864188780489069 0 -0.39999637464883392 0.35559476271013252 0 -0.38966798311544332 0.35610238881872369 0 -0.39259889148010241 0.34864188780489069 0 -0.39999637464883392 0.35559476271013252 0 -0.40046159691170069 0.34164056661102238 0 -0.39999637464883392 0.35559476271013252 0 -0.40046159691170069 0.34164056661102238 0 -0.41381361947694889 0.35655778899711688 0 -0.39999637464883392 0.35559476271013252 0 -0.40397412088998857 0.3623881668075713 0 -0.41381361947694889 0.35655778899711688 0 -0.39128338495032239 0.36719877308275878 0 -0.41098055992701871 0.3693971202961519 0 -0.40397412088998857 0.3623881668075713 0 -0.39128338495032239 0.36719877308275878 0 -0.41098055992701871 0.3693971202961519 0 -0.39942805555404642 0.38265078761847338 0 -0.39128338495032239 0.36719877308275878 0 -0.41098055992701871 0.3693971202961519 0 -0.39999637464883392 0.35559476271013252 0 -0.39128338495032239 0.36719877308275878 0 -0.38966798311544332 0.35610238881872369 0 -0.39999637464883392 0.35559476271013252 0 -0.40397412088998857 0.3623881668075713 0 -0.39128338495032239 0.36719877308275878 0 -0.39128338495032239 0.36719877308275878 0 -0.38070440212728118 0.35956436367519867 0 -0.38966798311544332 0.35610238881872369 0 -0.39128338495032239 0.36719877308275878 0 -0.38070440212728118 0.35956436367519867 0 -0.37158620997362618 0.36500042586936587 0 -0.39128338495032239 0.36719877308275878 0 -0.37158620997362618 0.36500042586936587 0 -0.38141148745950948 0.38039780936179463 0 -0.39128338495032239 0.36719877308275878 0 -0.37158620997362618 0.36500042586936587 0 -0.38070440212728118 0.35956436367519867 0 -0.38259242285128608 0.34975193996759602 0 -0.36960199921418602 0.35731180584905542 0 -0.38259242285128608 0.34975193996759602 0 -0.37580907906339922 0.33647878059299557 0 -0.36960199921418602 0.35731180584905542 0 -0.38070440212728118 0.35956436367519867 0 -0.38966798311544332 0.35610238881872369 0 -0.38259242285128608 0.34975193996759602 0 -0.39259889148010241 0.34864188780489069 0 -0.38966798311544332 0.35610238881872369 0 -0.38259242285128608 0.34975193996759602 0 -0.39259889148010241 0.34864188780489069 0 -0.38259242285128608 0.34975193996759602 0 -0.38794720083446621 0.34059934721089508 0 -0.38259242285128608 0.34975193996759602 0 -0.37580907906339922 0.33647878059299557 0 -0.38794720083446621 0.34059934721089508 0 -0.37580907906339922 0.33647878059299557 0 -0.38794720083446621 0.34059934721089508 0 -0.38710957434645199 0.32672334422492838 0 -0.37580907906339922 0.33647878059299557 0 -0.38201615891261242 0.31564575533693578 0 -0.38201615891261242 0.31564575533693578 0 -0.38336946241093189 0.30974931290420182 0 -0.36531193472093021 0.32454274932608829 0 -0.37580907906339922 0.33647878059299557 0 -0.38201615891261242 0.31564575533693578 0 -0.38710957434645199 0.32672334422492838 0 -0.38201615891261242 0.31564575533693578 0 -0.39350880394476312 0.31593875705230262 0 -0.38336946241093189 0.30974931290420182 0 -0.38201615891261242 0.31564575533693578 0 -0.38710957434645199 0.32672334422492838 0 -0.39350880394476312 0.31593875705230262 0 -0.38710957434645199 0.32672334422492838 0 -0.39350880394476312 0.31593875705230262 0 -0.39921774374196328 0.327754485124091 0 -0.39350880394476312 0.31593875705230262 0 -0.39921774374196328 0.327754485124091 0 -0.40602554896887638 0.32011992980008452 0 -0.39921774374196328 0.327754485124091 0 -0.40602554896887638 0.32011992980008452 0 -0.40814721749945931 0.33505042297199122 0 -0.38794720083446621 0.34059934721089508 0 -0.38710957434645199 0.32672334422492838 0 -0.40046159691170069 0.34164056661102238 0 -0.39259889148010241 0.34864188780489069 0 -0.38794720083446621 0.34059934721089508 0 -0.40046159691170069 0.34164056661102238 0 -0.38710957434645199 0.32672334422492838 0 -0.39921774374196328 0.327754485124091 0 -0.40046159691170069 0.34164056661102238 0 -0.38710957434645199 0.32672334422492838 0 -0.40046159691170069 0.34164056661102238 0 -0.39921774374196328 0.327754485124091 0 -0.40046159691170069 0.34164056661102238 0 -0.40814721749945931 0.33505042297199122 0 -0.40814721749945931 0.33505042297199122 0 -0.41954562432067788 0.33058053440738988 0 -0.41381361947694889 0.35655778899711688 0 -0.41954562432067788 0.33058053440738988 0 -0.41381361947694889 0.35655778899711688 0 -0.40602554896887638 0.32011992980008452 0 -0.40814721749945931 0.33505042297199122 0 -0.41954562432067788 0.33058053440738988 0 -0.40602554896887638 0.32011992980008452 0 -0.41954562432067788 0.33058053440738988 0 -0.42527762916440792 0.30460327981766322 0 -0.41954562432067788 0.33058053440738988 0 -0.42527762916440792 0.30460327981766322 0 -0.41954562432067788 0.33058053440738988 0 -0.44001701522470671 0.31606260091672289 0 -0.42527762916440792 0.30460327981766322 0 -0.41954562432067788 0.33058053440738988 0 -0.42420657124029282 0.3485159257420361 0 -0.43843079740841773 0.33787066219507811 0 -0.41954562432067788 0.33058053440738988 0 -0.43843079740841773 0.33787066219507811 0 -0.44001701522470671 0.31606260091672289 0 -0.42420657124029282 0.3485159257420361 0 -0.43459164588172849 0.36007712215754689 0 -0.43843079740841773 0.33787066219507811 0 -0.42420657124029282 0.3485159257420361 0 -0.41381361947694889 0.35655778899711688 0 -0.43459164588172849 0.36007712215754689 0 -0.41381361947694889 0.35655778899711688 0 -0.43459164588172849 0.36007712215754689 0 -0.43459164588172849 0.36007712215754689 0 -0.43843079740841773 0.33787066219507811 0 -0.40046159691170069 0.34164056661102238 0 -0.40814721749945931 0.33505042297199122 0 -0.41381361947694889 0.35655778899711688 0 -0.41954562432067788 0.33058053440738988 0 -0.42420657124029282 0.3485159257420361 0 -0.41381361947694889 0.35655778899711688 0 -0.39999637464883392 0.35559476271013252 0 -0.41381361947694889 0.35655778899711688 0 -0.40046159691170069 0.34164056661102238 0 -0.41381361947694889 0.35655778899711688 0 -0.41381361947694889 0.35655778899711688 0 -0.41098055992701871 0.3693971202961519 0 -0.42689564018809201 0.37117335838025439 0 -0.41098055992701871 0.3693971202961519 0 -0.42689564018809201 0.37117335838025439 0 -0.40881671944059661 0.37920357314115732 0 -0.41098055992701871 0.3693971202961519 0 -0.42689564018809201 0.37117335838025439 0 -0.40881671944059661 0.37920357314115732 0 -0.41098055992701871 0.3693971202961519 0 -0.40397412088998857 0.3623881668075713 0 -0.41381361947694889 0.35655778899711688 0 -0.41098055992701871 0.3693971202961519 0 -0.41381361947694889 0.35655778899711688 0 -0.41098055992701871 0.3693971202961519 0 -0.41381361947694889 0.35655778899711688 0 -0.42689564018809201 0.37117335838025439 0 -0.41381361947694889 0.35655778899711688 0 -0.42907199843085347 0.36486274908666949 0 -0.43459164588172849 0.36007712215754689 0 -0.42689564018809201 0.37117335838025439 0 -0.42907199843085347 0.36486274908666949 0 -0.42980351636605002 0.37149789839679431 0 -0.43173797726570751 0.37658334167695551 0 -0.42689564018809201 0.37117335838025439 0 -0.43173797726570751 0.37658334167695551 0 -0.42689564018809201 0.37117335838025439 0 -0.42980351636605002 0.37149789839679431 0 -0.42689564018809201 0.37117335838025439 0 -0.42980351636605002 0.37149789839679431 0 -0.41381361947694889 0.35655778899711688 0 -0.42689564018809201 0.37117335838025439 0 -0.42907199843085347 0.36486274908666949 0 -0.43459164588172849 0.36007712215754689 0 -0.4325639091043616 0.37180597819459837 0 -0.42907199843085347 0.36486274908666949 0 -0.43459164588172849 0.36007712215754689 0 -0.4325639091043616 0.37180597819459837 0 -0.43173797726570751 0.37658334167695551 0 -0.4325639091043616 0.37180597819459837 0 -0.43173797726570751 0.37658334167695551 0 -0.4325639091043616 0.37180597819459837 0 -0.42980351636605002 0.37149789839679431 0 -0.4325639091043616 0.37180597819459837 0 -0.42980351636605002 0.37149789839679431 0 -0.42907199843085347 0.36486274908666949 0 -0.4325639091043616 0.37180597819459837 0 -0.42980351636605002 0.37149789839679431 0 -0.4393591315165738 0.37762743775392832 0 -0.4325639091043616 0.37180597819459837 0 -0.44813402172652672 0.37354371539476261 0 -0.4325639091043616 0.37180597819459837 0 -0.44813402172652672 0.37354371539476261 0 -0.4325639091043616 0.37180597819459837 0 -0.44813402172652672 0.37354371539476261 0 -0.45404419213644692 0.3625975043188554 0 -0.43459164588172849 0.36007712215754689 0 -0.45404419213644692 0.3625975043188554 0 -0.43459164588172849 0.36007712215754689 0 -0.4325639091043616 0.37180597819459837 0 -0.45404419213644692 0.3625975043188554 0 -0.4325639091043616 0.37180597819459837 0 -0.45404419213644692 0.3625975043188554 0 -0.43459164588172849 0.36007712215754689 0 -0.44549025602952702 0.35300777224981977 0 -0.45404419213644692 0.3625975043188554 0 -0.44549025602952702 0.35300777224981977 0 -0.45575207180717081 0.34762579988211101 0 -0.43843079740841773 0.33787066219507811 0 -0.43459164588172849 0.36007712215754689 0 -0.44549025602952702 0.35300777224981977 0 -0.43843079740841773 0.33787066219507811 0 -0.44549025602952702 0.35300777224981977 0 -0.45575207180717081 0.34762579988211101 0 -0.45404419213644692 0.3625975043188554 0 -0.45575207180717081 0.34762579988211101 0 -0.46674234051517471 0.35793515390827568 0 -0.45404419213644692 0.3625975043188554 0 -0.45575207180717081 0.34762579988211101 0 -0.46674234051517471 0.35793515390827568 0 -0.46933267881425472 0.34565439271282838 0 -0.45404419213644692 0.3625975043188554 0 -0.47441064506165659 0.36523629740895902 0 -0.46674234051517471 0.35793515390827568 0 -0.45404419213644692 0.3625975043188554 0 -0.47441064506165659 0.36523629740895902 0 -0.45404419213644692 0.3625975043188554 0 -0.46360543106569913 0.37231654924431878 0 -0.47441064506165659 0.36523629740895902 0 -0.44813402172652672 0.37354371539476261 0 -0.45404419213644692 0.3625975043188554 0 -0.46360543106569913 0.37231654924431878 0 -0.46674234051517471 0.35793515390827568 0 -0.45404419213644692 0.3625975043188554 0 -0.46360543106569913 0.37231654924431878 0 -0.47397397291215421 0.37493689296344251 0 -0.47441064506165659 0.36523629740895902 0 -0.47441064506165659 0.36523629740895902 0 -0.48058358620238051 0.35168401037216412 0 -0.49477709798686631 0.36787509049906381 0 -0.47397397291215421 0.37493689296344251 0 -0.47441064506165659 0.36523629740895902 0 -0.48714178473823078 0.37241716516273898 0 -0.46674234051517471 0.35793515390827568 0 -0.47441064506165659 0.36523629740895902 0 -0.48058358620238051 0.35168401037216412 0 -0.46674234051517471 0.35793515390827568 0 -0.46933267881425472 0.34565439271282838 0 -0.48058358620238051 0.35168401037216412 0 -0.46933267881425472 0.34565439271282838 0 -0.48058358620238051 0.35168401037216412 0 -0.48121002056386808 0.3369363626790518 0 -0.48058358620238051 0.35168401037216412 0 -0.49703354506598713 0.34759711953555122 0 -0.48121002056386808 0.3369363626790518 0 -0.49703354506598713 0.34759711953555122 0 -0.5 0.34812631329607491 0 -0.49477709798686631 0.36787509049906381 0 -0.48058358620238051 0.35168401037216412 0 -0.49703354506598713 0.34759711953555122 0 -0.49477709798686631 0.36787509049906381 0 -0.49703354506598713 0.34759711953555122 0 -0.49477709798686631 0.36787509049906381 0 -0.5 0.34812631329607491 0 -0.50000000000000311 0.3685517992903854 0 -0.49477709798686631 0.36787509049906381 0 -0.47441064506165659 0.36523629740895902 0 -0.49477709798686631 0.36787509049906381 0 -0.48714178473823078 0.37241716516273898 0 -0.47441064506165659 0.36523629740895902 0 -0.49477709798686631 0.36787509049906381 0 -0.49007778645481631 0.38142997617552599 0 -0.50000000000000311 0.3685517992903854 0 -0.49477709798686631 0.36787509049906381 0 -0.50000000000000311 0.3685517992903854 0 -0.49477709798686631 0.36787509049906381 0 -0.49007778645481631 0.38142997617552599 0 -0.49477709798686631 0.36787509049906381 0 -0.48714178473823078 0.37241716516273898 0 -0.4992899921451075 0.32731914857203848 0 -0.47890896772952718 0.31636292681222472 0 -0.4992899921451075 0.32731914857203848 0 -0.48121002056386808 0.3369363626790518 0 -0.47890896772952718 0.31636292681222472 0 -0.49999999999999989 0.32093853419885771 0 -0.47890896772952718 0.31636292681222472 0 -0.48920120729889771 0.30786362236022019 0 -0.49999999999999989 0.32093853419885771 0 -0.4992899921451075 0.32731914857203848 0 -0.47890896772952718 0.31636292681222472 0 -0.49999999999999989 0.32093853419885771 0 -0.4992899921451075 0.32731914857203848 0 -0.49703354506598713 0.34759711953555122 0 -0.4992899921451075 0.32731914857203848 0 -0.49703354506598713 0.34759711953555122 0 -0.4992899921451075 0.32731914857203848 0 -0.48121002056386808 0.3369363626790518 0 -0.49703354506598713 0.34759711953555122 0 -0.5 0.34812631329607491 0 -0.4992899921451075 0.32731914857203848 0 -0.46933267881425472 0.34565439271282838 0 -0.48121002056386808 0.3369363626790518 0 -0.46237537498267961 0.3340906367225393 0 -0.48121002056386808 0.3369363626790518 0 -0.47890896772952718 0.31636292681222472 0 -0.46237537498267961 0.3340906367225393 0 -0.47890896772952718 0.31636292681222472 0 -0.45636509730576869 0.32029680939338251 0 -0.45852794331394758 0.30540670505240958 0 -0.47890896772952718 0.31636292681222472 0 -0.45636509730576869 0.32029680939338251 0 -0.46237537498267961 0.3340906367225393 0 -0.45575207180717081 0.34762579988211101 0 -0.46933267881425472 0.34565439271282838 0 -0.46237537498267961 0.3340906367225393 0 -0.45575207180717081 0.34762579988211101 0 -0.46237537498267961 0.3340906367225393 0 -0.43843079740841773 0.33787066219507811 0 -0.45636509730576869 0.32029680939338251 0 -0.46237537498267961 0.3340906367225393 0 -0.43843079740841773 0.33787066219507811 0 -0.45636509730576869 0.32029680939338251 0 -0.43843079740841773 0.33787066219507811 0 -0.44001701522470671 0.31606260091672289 0 -0.45636509730576869 0.32029680939338251 0 -0.44001701522470671 0.31606260091672289 0 -0.45852794331394758 0.30540670505240958 0 -0.4381469188983681 0.2944504832925946 0 -0.45852794331394758 0.30540670505240958 0 -0.44001701522470671 0.31606260091672289 0 -0.4381469188983681 0.2944504832925946 0 -0.45852794331394758 0.30540670505240958 0 -0.4381469188983681 0.2944504832925946 0 -0.4447805513699985 0.27737231294201392 0 -0.43100963400813791 0.27862602522793672 0 -0.4381469188983681 0.2944504832925946 0 -0.45724976864254441 0.28334965182257721 0 -0.4447805513699985 0.27737231294201392 0 -0.4381469188983681 0.2944504832925946 0 -0.45724976864254441 0.28334965182257721 0 -0.45852794331394758 0.30540670505240958 0 -0.45724976864254441 0.28334965182257721 0 -0.45852794331394758 0.30540670505240958 0 -0.47789586146606378 0.29814868652574811 0 -0.47890896772952718 0.31636292681222472 0 -0.45852794331394758 0.30540670505240958 0 -0.47890896772952718 0.31636292681222472 0 -0.47789586146606378 0.29814868652574811 0 -0.48920120729889771 0.30786362236022019 0 -0.47890896772952718 0.31636292681222472 0 -0.45852794331394758 0.30540670505240958 0 -0.47789586146606378 0.29814868652574811 0 -0.45724976864254441 0.28334965182257721 0 -0.47789586146606378 0.29814868652574811 0 -0.48102565218130672 0.27929705551177292 0 -0.5 0.29600434190405073 0 -0.5 0.27107014960924369 0 -0.48102565218130672 0.27929705551177292 0 -0.47789586146606378 0.29814868652574811 0 -0.5 0.29600434190405073 0 -0.48102565218130672 0.27929705551177292 0 -0.47789586146606378 0.29814868652574811 0 -0.5 0.29600434190405073 0 -0.48920120729889771 0.30786362236022019 0 -0.49999999999999989 0.32093853419885771 0 -0.5 0.29600434190405073 0 -0.48920120729889771 0.30786362236022019 0 -0.48177750529808522 0.24619974485466931 0 -0.5 0.2461359573144368 0 -0.48654709528280549 0.26072196503438649 0 -0.5 0.2461359573144368 0 -0.48654709528280549 0.26072196503438649 0 -0.5 0.27107014960924369 0 -0.48654709528280549 0.26072196503438649 0 -0.5 0.27107014960924369 0 -0.48102565218130672 0.27929705551177292 0 -0.48654709528280549 0.26072196503438649 0 -0.48102565218130672 0.27929705551177292 0 -0.46993231893463527 0.26090691788180947 0 -0.45724976864254441 0.28334965182257721 0 -0.48102565218130672 0.27929705551177292 0 -0.46993231893463527 0.26090691788180947 0 -0.48177750529808522 0.24619974485466931 0 -0.48654709528280549 0.26072196503438649 0 -0.46993231893463527 0.26090691788180947 0 -0.45710504060219709 0.23686107433279269 0 -0.46993231893463527 0.26090691788180947 0 -0.44707755271196942 0.2637365605125353 0 -0.45724976864254441 0.28334965182257721 0 -0.46993231893463527 0.26090691788180947 0 -0.44707755271196942 0.2637365605125353 0 -0.45724976864254441 0.28334965182257721 0 -0.4447805513699985 0.27737231294201392 0 -0.44707755271196942 0.2637365605125353 0 -0.4447805513699985 0.27737231294201392 0 -0.44707755271196942 0.2637365605125353 0 -0.43100963400813791 0.27862602522793672 0 -0.45710504060219709 0.23686107433279269 0 -0.44707755271196942 0.2637365605125353 0 -0.44707755271196942 0.2637365605125353 0 -0.4367416388518679 0.25264877063821017 0 -0.43100963400813791 0.27862602522793672 0 -0.45710504060219709 0.23686107433279269 0 -0.44707755271196942 0.2637365605125353 0 -0.4367416388518679 0.25264877063821017 0 -0.4367416388518679 0.25264877063821017 0 -0.41175872593851298 0.2549478601346914 0 -0.41885046316002428 0.26850948483906401 0 -0.41175872593851298 0.2549478601346914 0 -0.41885046316002428 0.26850948483906401 0 -0.3976364837244763 0.27421361628784369 0 -0.41885046316002428 0.26850948483906401 0 -0.41710583327712653 0.28211115190663788 0 -0.3976364837244763 0.27421361628784369 0 -0.41885046316002428 0.26850948483906401 0 -0.43100963400813791 0.27862602522793672 0 -0.41710583327712653 0.28211115190663788 0 -0.4367416388518679 0.25264877063821017 0 -0.43100963400813791 0.27862602522793672 0 -0.4367416388518679 0.25264877063821017 0 -0.41885046316002428 0.26850948483906401 0 -0.43100963400813791 0.27862602522793672 0 -0.4381469188983681 0.2944504832925946 0 -0.43100963400813791 0.27862602522793672 0 -0.42527762916440792 0.30460327981766322 0 -0.43100963400813791 0.27862602522793672 0 -0.42527762916440792 0.30460327981766322 0 -0.41710583327712653 0.28211115190663788 0 -0.43100963400813791 0.27862602522793672 0 -0.42527762916440792 0.30460327981766322 0 -0.44001701522470671 0.31606260091672289 0 -0.4381469188983681 0.2944504832925946 0 -0.42527762916440792 0.30460327981766322 0 -0.40602554896887638 0.32011992980008452 0 -0.42527762916440792 0.30460327981766322 0 -0.4014269901009333 0.29495587648231503 0 -0.41710583327712653 0.28211115190663788 0 -0.4014269901009333 0.29495587648231503 0 -0.42527762916440792 0.30460327981766322 0 -0.41710583327712653 0.28211115190663788 0 -0.4014269901009333 0.29495587648231503 0 -0.41710583327712653 0.28211115190663788 0 -0.4014269901009333 0.29495587648231503 0 -0.3976364837244763 0.27421361628784369 0 -0.4014269901009333 0.29495587648231503 0 -0.38389766901197209 0.2919764357376447 0 -0.3976364837244763 0.27421361628784369 0 -0.4014269901009333 0.29495587648231503 0 -0.3976364837244763 0.27421361628784369 0 -0.39350880394476312 0.31593875705230262 0 -0.40602554896887638 0.32011992980008452 0 -0.4014269901009333 0.29495587648231503 0 -0.4014269901009333 0.29495587648231503 0 -0.38336946241093189 0.30974931290420182 0 -0.40602554896887638 0.32011992980008452 0 -0.4014269901009333 0.29495587648231503 0 -0.39350880394476312 0.31593875705230262 0 -0.4014269901009333 0.29495587648231503 0 -0.38336946241093189 0.30974931290420182 0 -0.38336946241093189 0.30974931290420182 0 -0.38389766901197209 0.2919764357376447 0 -0.36596935852520629 0.30787018431111951 0 -0.4014269901009333 0.29495587648231503 0 -0.38336946241093189 0.30974931290420182 0 -0.38389766901197209 0.2919764357376447 0 -0.38389766901197209 0.2919764357376447 0 -0.3839238193794226 0.27871888045260418 0 -0.3976364837244763 0.27421361628784369 0 -0.38389766901197209 0.2919764357376447 0 -0.3839238193794226 0.27871888045260418 0 -0.3703732677084236 0.2804332674389724 0 -0.3839238193794226 0.27871888045260418 0 -0.38378785707281859 0.2682522023459562 0 -0.3703732677084236 0.2804332674389724 0 -0.38378785707281859 0.2682522023459562 0 -0.37477717689163992 0.25299635056682518 0 -0.3703732677084236 0.2804332674389724 0 -0.3839238193794226 0.27871888045260418 0 -0.38378785707281859 0.2682522023459562 0 -0.3976364837244763 0.27421361628784369 0 -0.38378785707281859 0.2682522023459562 0 -0.39384597734802013 0.25347135609337229 0 -0.37477717689163992 0.25299635056682518 0 -0.39384597734802013 0.25347135609337229 0 -0.3976364837244763 0.27421361628784369 0 -0.41175872593851298 0.2549478601346914 0 -0.39384597734802013 0.25347135609337229 0 -0.3976364837244763 0.27421361628784369 0 -0.38378785707281859 0.2682522023459562 0 -0.39384597734802013 0.25347135609337229 0 -0.3976364837244763 0.27421361628784369 0 -0.35834524103505527 0.27479395617319979 0 -0.34490227433735798 0.27909378963084902 0 -0.35045174428906722 0.28677843618767362 0 -0.35834524103505527 0.27479395617319979 0 -0.34490227433735798 0.27909378963084902 0 -0.34728570068091402 0.2661688508290645 0 -0.34728570068091402 0.2661688508290645 0 -0.35464358931248319 0.25491115920099722 0 -0.34150965816976359 0.25817059719828012 0 -0.33845336435013867 0.242079554605789 0 -0.35464358931248319 0.25491115920099722 0 -0.34150965816976359 0.25817059719828012 0 -0.35834524103505527 0.27479395617319979 0 -0.34728570068091402 0.2661688508290645 0 -0.35464358931248319 0.25491115920099722 0 -0.35834524103505527 0.27479395617319979 0 -0.37477717689163992 0.25299635056682518 0 -0.35834524103505527 0.27479395617319979 0 -0.35464358931248319 0.25491115920099722 0 -0.37477717689163992 0.25299635056682518 0 -0.37477717689163992 0.25299635056682518 0 -0.3703732677084236 0.2804332674389724 0 -0.35834524103505527 0.27479395617319979 0 -0.37477717689163992 0.25299635056682518 0 -0.3703732677084236 0.2804332674389724 0 -0.3703732677084236 0.2804332674389724 0 -0.36596935852520629 0.30787018431111951 0 -0.38389766901197209 0.2919764357376447 0 -0.3703732677084236 0.2804332674389724 0 -0.36596935852520629 0.30787018431111951 0 -0.35834524103505527 0.27479395617319979 0 -0.3703732677084236 0.2804332674389724 0 -0.35925388220638338 0.290827281626163 0 -0.3703732677084236 0.2804332674389724 0 -0.36596935852520629 0.30787018431111951 0 -0.35925388220638338 0.290827281626163 0 -0.36596935852520629 0.30787018431111951 0 -0.35645499353340299 0.30154574554434233 0 -0.35925388220638338 0.290827281626163 0 -0.36596935852520629 0.30787018431111951 0 -0.35645499353340299 0.30154574554434233 0 -0.35774913989266272 0.31391262040183171 0 -0.35645499353340299 0.30154574554434233 0 -0.35013945535461871 0.3105838988596446 0 -0.35774913989266272 0.31391262040183171 0 -0.35645499353340299 0.30154574554434233 0 -0.34780240298166087 0.30288468022079579 0 -0.35285886900803182 0.29452238055293539 0 -0.34780240298166087 0.30288468022079579 0 -0.34622635383862083 0.29383585221412489 0 -0.33932813284697128 0.29730713825443927 0 -0.34780240298166087 0.30288468022079579 0 -0.35285886900803182 0.29452238055293539 0 -0.34622635383862083 0.29383585221412489 0 -0.34780240298166087 0.30288468022079579 0 -0.34514961405368982 0.30758965292055213 0 -0.33997231501418312 0.30473657218964828 0 -0.35645499353340299 0.30154574554434233 0 -0.34780240298166087 0.30288468022079579 0 -0.35013945535461871 0.3105838988596446 0 -0.34780240298166087 0.30288468022079579 0 -0.34514961405368982 0.30758965292055213 0 -0.35013945535461871 0.3105838988596446 0 -0.34514961405368982 0.30758965292055213 0 -0.35013945535461871 0.3105838988596446 0 -0.34268428286429659 0.31215346041211978 0 -0.35834524103505527 0.27479395617319979 0 -0.35925388220638338 0.290827281626163 0 -0.35045174428906722 0.28677843618767362 0 -0.35645499353340299 0.30154574554434233 0 -0.35925388220638338 0.290827281626163 0 -0.35285886900803182 0.29452238055293539 0 -0.35925388220638338 0.290827281626163 0 -0.35285886900803182 0.29452238055293539 0 -0.35045174428906722 0.28677843618767362 0 -0.35285886900803182 0.29452238055293539 0 -0.34622635383862083 0.29383585221412489 0 -0.35045174428906722 0.28677843618767362 0 -0.34622635383862083 0.29383585221412489 0 -0.35045174428906722 0.28677843618767362 0 -0.34088660642111013 0.2879281286912172 0 -0.34490227433735798 0.27909378963084902 0 -0.35045174428906722 0.28677843618767362 0 -0.34088660642111013 0.2879281286912172 0 -0.34490227433735798 0.27909378963084902 0 -0.34088660642111013 0.2879281286912172 0 -0.33262910378125132 0.278293493462413 0 -0.34088660642111013 0.2879281286912172 0 -0.33227483086849752 0.29261385498347509 0 -0.33932813284697128 0.29730713825443927 0 -0.34622635383862083 0.29383585221412489 0 -0.34088660642111013 0.2879281286912172 0 -0.33932813284697128 0.29730713825443927 0 -0.33227483086849752 0.29261385498347509 0 -0.32398535199451511 0.28524421774589648 0 -0.33262910378125132 0.278293493462413 0 -0.34088660642111013 0.2879281286912172 0 -0.33227483086849752 0.29261385498347509 0 -0.33262910378125132 0.278293493462413 0 -0.33718535734333338 0.30882123026638569 0 -0.34268428286429659 0.31215346041211978 0 -0.33477104767585758 0.31524888829805342 0 -0.33718535734333338 0.30882123026638569 0 -0.34268428286429659 0.31215346041211978 0 -0.33997231501418312 0.30473657218964828 0 -0.34514961405368982 0.30758965292055213 0 -0.34268428286429659 0.31215346041211978 0 -0.33997231501418312 0.30473657218964828 0 -0.33718535734333338 0.30882123026638569 0 -0.33997231501418312 0.30473657218964828 0 -0.33396296217470239 0.30554582684384218 0 -0.33997231501418312 0.30473657218964828 0 -0.33932813284697128 0.29730713825443927 0 -0.33396296217470239 0.30554582684384218 0 -0.34780240298166087 0.30288468022079579 0 -0.33997231501418312 0.30473657218964828 0 -0.33932813284697128 0.29730713825443927 0 -0.33227483086849752 0.29261385498347509 0 -0.33396296217470239 0.30554582684384218 0 -0.32251037119006698 0.3031431883822347 0 -0.33227483086849752 0.29261385498347509 0 -0.33932813284697128 0.29730713825443927 0 -0.33396296217470239 0.30554582684384218 0 -0.33718535734333338 0.30882123026638569 0 -0.33396296217470239 0.30554582684384218 0 -0.33477104767585758 0.31524888829805342 0 -0.33396296217470239 0.30554582684384218 0 -0.32251037119006698 0.3031431883822347 0 -0.33219148171911272 0.31730370811833031 0 -0.32251037119006698 0.3031431883822347 0 -0.31456388983813333 0.31636814557902659 0 -0.33219148171911272 0.31730370811833031 0 -0.32251037119006698 0.3031431883822347 0 -0.31282926066102218 0.28898266864613842 0 -0.30402337591517081 0.3051012194244167 0 -0.32251037119006698 0.3031431883822347 0 -0.30402337591517081 0.3051012194244167 0 -0.31456388983813333 0.31636814557902659 0 -0.32251037119006698 0.3031431883822347 0 -0.33219148171911272 0.31730370811833031 0 -0.33227483086849752 0.29261385498347509 0 -0.32251037119006698 0.3031431883822347 0 -0.32398535199451511 0.28524421774589648 0 -0.32251037119006698 0.3031431883822347 0 -0.32398535199451511 0.28524421774589648 0 -0.31282926066102218 0.28898266864613842 0 -0.32251037119006698 0.3031431883822347 0 -0.31282926066102218 0.28898266864613842 0 -0.31282926066102218 0.28898266864613842 0 -0.32065101258715689 0.274665503564473 0 -0.32398535199451511 0.28524421774589648 0 -0.31282926066102218 0.28898266864613842 0 -0.32065101258715689 0.274665503564473 0 -0.32065101258715689 0.274665503564473 0 -0.32847276451329022 0.26034833848280681 0 -0.31199410965335322 0.26463258327439948 0 -0.32065101258715689 0.274665503564473 0 -0.33262910378125132 0.278293493462413 0 -0.32847276451329022 0.26034833848280681 0 -0.31282926066102218 0.28898266864613842 0 -0.32065101258715689 0.274665503564473 0 -0.30403346053568642 0.27611708872161922 0 -0.32065101258715689 0.274665503564473 0 -0.32847276451329022 0.26034833848280681 0 -0.32398535199451511 0.28524421774589648 0 -0.32065101258715689 0.274665503564473 0 -0.33262910378125132 0.278293493462413 0 -0.33262910378125132 0.278293493462413 0 -0.33869287199199061 0.26734508287274228 0 -0.32847276451329022 0.26034833848280681 0 -0.34490227433735798 0.27909378963084902 0 -0.34728570068091402 0.2661688508290645 0 -0.33869287199199061 0.26734508287274228 0 -0.34490227433735798 0.27909378963084902 0 -0.33262910378125132 0.278293493462413 0 -0.33869287199199061 0.26734508287274228 0 -0.33845336435013867 0.242079554605789 0 -0.34150965816976359 0.25817059719828012 0 -0.32847276451329022 0.26034833848280681 0 -0.33845336435013867 0.242079554605789 0 -0.32847276451329022 0.26034833848280681 0 -0.34728570068091402 0.2661688508290645 0 -0.33869287199199061 0.26734508287274228 0 -0.34150965816976359 0.25817059719828012 0 -0.33869287199199061 0.26734508287274228 0 -0.34150965816976359 0.25817059719828012 0 -0.32847276451329022 0.26034833848280681 0 -0.33869287199199061 0.26734508287274228 0 -0.32847276451329022 0.26034833848280681 0 -0.311575650220281 0.24878047680599949 0 -0.32847276451329022 0.26034833848280681 0 -0.311575650220281 0.24878047680599949 0 -0.32847276451329022 0.26034833848280681 0 -0.31199410965335322 0.26463258327439948 0 -0.32455092720978362 0.24357057421839101 0 -0.311575650220281 0.24878047680599949 0 -0.32847276451329022 0.26034833848280681 0 -0.311575650220281 0.24878047680599949 0 -0.31199410965335322 0.26463258327439948 0 -0.29523766041035199 0.26325150879709891 0 -0.30403346053568642 0.27611708872161922 0 -0.29523766041035199 0.26325150879709891 0 -0.29574151564778611 0.28671646758259889 0 -0.31199410965335322 0.26463258327439948 0 -0.30403346053568642 0.27611708872161922 0 -0.29523766041035199 0.26325150879709891 0 -0.32065101258715689 0.274665503564473 0 -0.31199410965335322 0.26463258327439948 0 -0.30403346053568642 0.27611708872161922 0 -0.30403346053568642 0.27611708872161922 0 -0.29523766041035199 0.26325150879709891 0 -0.28985028671148488 0.25537141990030859 0 -0.26863301980023729 0.26794771562718522 0 -0.28534189936007232 0.28197220440765719 0 -0.29523766041035199 0.26325150879709891 0 -0.29574151564778611 0.28671646758259889 0 -0.29523766041035199 0.26325150879709891 0 -0.29574151564778611 0.28671646758259889 0 -0.28534189936007232 0.28197220440765719 0 -0.28985028671148488 0.25537141990030859 0 -0.29523766041035199 0.26325150879709891 0 -0.28534189936007232 0.28197220440765719 0 -0.28985028671148488 0.25537141990030859 0 -0.28534189936007232 0.28197220440765719 0 -0.29467853592727078 0.23721261512919359 0 -0.29523766041035199 0.26325150879709891 0 -0.29467853592727078 0.23721261512919359 0 -0.28985028671148488 0.25537141990030859 0 -0.29523766041035199 0.26325150879709891 0 -0.28985028671148488 0.25537141990030859 0 -0.29523766041035199 0.26325150879709891 0 -0.28985028671148488 0.25537141990030859 0 -0.2724296921133022 0.25217156250687062 0 -0.26863301980023729 0.26794771562718522 0 -0.2724296921133022 0.25217156250687062 0 -0.26863301980023729 0.26794771562718522 0 -0.25693865295534157 0.25278860643768353 0 -0.26863301980023729 0.26794771562718522 0 -0.26277913973510902 0.29023342414179659 0 -0.28534189936007232 0.28197220440765719 0 -0.26277913973510902 0.29023342414179659 0 -0.2447247674615598 0.2718938593685879 0 -0.26863301980023729 0.26794771562718522 0 -0.26277913973510902 0.29023342414179659 0 -0.2447247674615598 0.2718938593685879 0 -0.26863301980023729 0.26794771562718522 0 -0.25693865295534157 0.25278860643768353 0 -0.2447247674615598 0.2718938593685879 0 -0.26277913973510902 0.29023342414179659 0 -0.25757488899104952 0.31786411623381933 0 -0.2366570207200871 0.30010935915934539 0 -0.26277913973510902 0.29023342414179659 0 -0.28083351200865853 0.30857298891500562 0 -0.28534189936007232 0.28197220440765719 0 -0.26277913973510902 0.29023342414179659 0 -0.28083351200865853 0.30857298891500562 0 -0.26277913973510902 0.29023342414179659 0 -0.28083351200865853 0.30857298891500562 0 -0.25757488899104952 0.31786411623381933 0 -0.28083351200865853 0.30857298891500562 0 -0.29574151564778611 0.28671646758259889 0 -0.30402337591517081 0.3051012194244167 0 -0.28083351200865853 0.30857298891500562 0 -0.29574151564778611 0.28671646758259889 0 -0.28534189936007232 0.28197220440765719 0 -0.28083351200865853 0.30857298891500562 0 -0.28534189936007232 0.28197220440765719 0 -0.31282926066102218 0.28898266864613842 0 -0.29574151564778611 0.28671646758259889 0 -0.30402337591517081 0.3051012194244167 0 -0.31282926066102218 0.28898266864613842 0 -0.30403346053568642 0.27611708872161922 0 -0.29574151564778611 0.28671646758259889 0 -0.31282926066102218 0.28898266864613842 0 -0.30403346053568642 0.27611708872161922 0 -0.31282926066102218 0.28898266864613842 0 -0.30402337591517081 0.3051012194244167 0 -0.30402337591517081 0.3051012194244167 0 -0.29932851783868691 0.32736014762988469 0 -0.31456388983813333 0.31636814557902659 0 -0.29932851783868691 0.32736014762988469 0 -0.31400963374603508 0.33178692824556621 0 -0.31456388983813333 0.31636814557902659 0 -0.29582778577295937 0.3462701483728044 0 -0.31354931950312093 0.34747342072874071 0 -0.31400963374603508 0.33178692824556621 0 -0.29582778577295937 0.3462701483728044 0 -0.31400963374603508 0.33178692824556621 0 -0.29932851783868691 0.32736014762988469 0 -0.29582778577295937 0.3462701483728044 0 -0.31400963374603508 0.33178692824556621 0 -0.29932851783868691 0.32736014762988469 0 -0.27670802547122531 0.33291454828341721 0 -0.29582778577295937 0.3462701483728044 0 -0.27670802547122531 0.33291454828341721 0 -0.29582778577295937 0.3462701483728044 0 -0.28186865011063378 0.34863084123191301 0 -0.28083351200865853 0.30857298891500562 0 -0.30402337591517081 0.3051012194244167 0 -0.29932851783868691 0.32736014762988469 0 -0.28083351200865853 0.30857298891500562 0 -0.29932851783868691 0.32736014762988469 0 -0.28083351200865853 0.30857298891500562 0 -0.29932851783868691 0.32736014762988469 0 -0.27670802547122531 0.33291454828341721 0 -0.28083351200865853 0.30857298891500562 0 -0.27670802547122531 0.33291454828341721 0 -0.25757488899104952 0.31786411623381933 0 -0.28083351200865853 0.30857298891500562 0 -0.27670802547122531 0.33291454828341721 0 -0.27670802547122531 0.33291454828341721 0 -0.25757488899104952 0.31786411623381933 0 -0.25368472498167011 0.34420349485172652 0 -0.2613799420943046 0.36179346951182628 0 -0.25453646971320443 0.37462232419521813 0 -0.26689531734350652 0.36931705260985792 0 -0.2613799420943046 0.36179346951182628 0 -0.25453646971320443 0.37462232419521813 0 -0.24822911175635759 0.36217347122335058 0 -0.25368472498167011 0.34420349485172652 0 -0.27258253893379292 0.35725610765182902 0 -0.2613799420943046 0.36179346951182628 0 -0.25368472498167011 0.34420349485172652 0 -0.24822911175635759 0.36217347122335058 0 -0.2613799420943046 0.36179346951182628 0 -0.25368472498167011 0.34420349485172652 0 -0.27258253893379292 0.35725610765182902 0 -0.27670802547122531 0.33291454828341721 0 -0.27258253893379292 0.35725610765182902 0 -0.27670802547122531 0.33291454828341721 0 -0.27258253893379292 0.35725610765182902 0 -0.28186865011063378 0.34863084123191301 0 -0.27670802547122531 0.33291454828341721 0 -0.25368472498167011 0.34420349485172652 0 -0.27258253893379292 0.35725610765182902 0 -0.27258253893379292 0.35725610765182902 0 -0.27764593779988228 0.36075336850004069 0 -0.28186865011063378 0.34863084123191301 0 -0.27258253893379292 0.35725610765182902 0 -0.27764593779988228 0.36075336850004069 0 -0.27764593779988228 0.36075336850004069 0 -0.27110701654299552 0.36596211494311248 0 -0.28943519450698252 0.3688961411714532 0 -0.27110701654299552 0.36596211494311248 0 -0.28943519450698252 0.3688961411714532 0 -0.27110701654299552 0.36596211494311248 0 -0.28943519450698252 0.3688961411714532 0 -0.28084635904778937 0.37544065550995409 0 -0.27258253893379292 0.35725610765182902 0 -0.27764593779988228 0.36075336850004069 0 -0.27110701654299552 0.36596211494311248 0 -0.27764593779988228 0.36075336850004069 0 -0.27110701654299552 0.36596211494311248 0 -0.2613799420943046 0.36179346951182628 0 -0.27258253893379292 0.35725610765182902 0 -0.27110701654299552 0.36596211494311248 0 -0.2613799420943046 0.36179346951182628 0 -0.27110701654299552 0.36596211494311248 0 -0.26689531734350652 0.36931705260985792 0 -0.27258253893379292 0.35725610765182902 0 -0.27110701654299552 0.36596211494311248 0 -0.27110701654299552 0.36596211494311248 0 -0.26689531734350652 0.36931705260985792 0 -0.27110701654299552 0.36596211494311248 0 -0.28084635904778937 0.37544065550995409 0 -0.27663284499009211 0.37939207802828528 0 -0.28943519450698252 0.3688961411714532 0 -0.28685204816290072 0.37621819500323123 0 -0.28084635904778937 0.37544065550995409 0 -0.27764593779988228 0.36075336850004069 0 -0.28943519450698252 0.3688961411714532 0 -0.29551252006441958 0.37309371542857861 0 -0.28943519450698252 0.3688961411714532 0 -0.28685204816290072 0.37621819500323123 0 -0.29551252006441958 0.37309371542857861 0 -0.28943519450698252 0.3688961411714532 0 -0.27764593779988228 0.36075336850004069 0 -0.29582778577295937 0.3462701483728044 0 -0.27764593779988228 0.36075336850004069 0 -0.29582778577295937 0.3462701483728044 0 -0.28186865011063378 0.34863084123191301 0 -0.28943519450698252 0.3688961411714532 0 -0.29582778577295937 0.3462701483728044 0 -0.30300283950081008 0.36051339397403093 0 -0.27764593779988228 0.36075336850004069 0 -0.28943519450698252 0.3688961411714532 0 -0.29582778577295937 0.3462701483728044 0 -0.29582778577295937 0.3462701483728044 0 -0.30300283950081008 0.36051339397403093 0 -0.31354931950312093 0.34747342072874071 0 -0.28943519450698252 0.3688961411714532 0 -0.31408843612631249 0.37197903781600761 0 -0.28943519450698252 0.3688961411714532 0 -0.30300283950081008 0.36051339397403093 0 -0.31408843612631249 0.37197903781600761 0 -0.29551252006441958 0.37309371542857861 0 -0.28943519450698252 0.3688961411714532 0 -0.31408843612631249 0.37197903781600761 0 -0.30300283950081008 0.36051339397403093 0 -0.31408843612631249 0.37197903781600761 0 -0.32472866683278162 0.35786931268145811 0 -0.31408843612631249 0.37197903781600761 0 -0.32472866683278162 0.35786931268145811 0 -0.33874167774564268 0.3750619344605613 0 -0.31408843612631249 0.37197903781600761 0 -0.33874167774564268 0.3750619344605613 0 -0.33942470910854639 0.36092010030626542 0 -0.32472866683278162 0.35786931268145811 0 -0.33874167774564268 0.3750619344605613 0 -0.33942470910854639 0.36092010030626542 0 -0.3497530714632448 0.36534695126967459 0 -0.33874167774564268 0.3750619344605613 0 -0.33815763529499693 0.35089104021064632 0 -0.32472866683278162 0.35786931268145811 0 -0.33017767166301859 0.34092732036984391 0 -0.33815763529499693 0.35089104021064632 0 -0.33017767166301859 0.34092732036984391 0 -0.34251680356524339 0.34321741671518669 0 -0.33815763529499693 0.35089104021064632 0 -0.3460879504978186 0.35511096805544279 0 -0.34556584107983002 0.34849125976349993 0 -0.33815763529499693 0.35089104021064632 0 -0.34251680356524339 0.34321741671518669 0 -0.34556584107983002 0.34849125976349993 0 -0.33942470910854639 0.36092010030626542 0 -0.33815763529499693 0.35089104021064632 0 -0.3460879504978186 0.35511096805544279 0 -0.33942470910854639 0.36092010030626542 0 -0.33815763529499693 0.35089104021064632 0 -0.32472866683278162 0.35786931268145811 0 -0.31354931950312093 0.34747342072874071 0 -0.32472866683278162 0.35786931268145811 0 -0.33017767166301859 0.34092732036984391 0 -0.30300283950081008 0.36051339397403093 0 -0.31354931950312093 0.34747342072874071 0 -0.32472866683278162 0.35786931268145811 0 -0.31400963374603508 0.33178692824556621 0 -0.33219148171911272 0.31730370811833031 0 -0.33017767166301859 0.34092732036984391 0 -0.31354931950312093 0.34747342072874071 0 -0.31400963374603508 0.33178692824556621 0 -0.33017767166301859 0.34092732036984391 0 -0.31400963374603508 0.33178692824556621 0 -0.33219148171911272 0.31730370811833031 0 -0.31400963374603508 0.33178692824556621 0 -0.31456388983813333 0.31636814557902659 0 -0.33219148171911272 0.31730370811833031 0 -0.33477104767585758 0.31524888829805342 0 -0.33219148171911272 0.31730370811833031 0 -0.34795343649956839 0.3209401758966518 0 -0.33219148171911272 0.31730370811833031 0 -0.34725440703092858 0.33933618574797492 0 -0.34795343649956839 0.3209401758966518 0 -0.33396296217470239 0.30554582684384218 0 -0.33477104767585758 0.31524888829805342 0 -0.33219148171911272 0.31730370811833031 0 -0.33477104767585758 0.31524888829805342 0 -0.33219148171911272 0.31730370811833031 0 -0.34268428286429659 0.31215346041211978 0 -0.33477104767585758 0.31524888829805342 0 -0.34795343649956839 0.3209401758966518 0 -0.33219148171911272 0.31730370811833031 0 -0.34725440703092858 0.33933618574797492 0 -0.33219148171911272 0.31730370811833031 0 -0.33017767166301859 0.34092732036984391 0 -0.34725440703092858 0.33933618574797492 0 -0.33017767166301859 0.34092732036984391 0 -0.34251680356524339 0.34321741671518669 0 -0.34725440703092858 0.33933618574797492 0 -0.34725440703092858 0.33933618574797492 0 -0.34795343649956839 0.3209401758966518 0 -0.36531193472093021 0.32454274932608829 0 -0.34251680356524339 0.34321741671518669 0 -0.35002774160894051 0.34339273059465159 0 -0.34725440703092858 0.33933618574797492 0 -0.34725440703092858 0.33933618574797492 0 -0.35848812135385522 0.33902175933596412 0 -0.36531193472093021 0.32454274932608829 0 -0.34725440703092858 0.33933618574797492 0 -0.36531193472093021 0.32454274932608829 0 -0.34251680356524339 0.34321741671518669 0 -0.34725440703092858 0.33933618574797492 0 -0.35002774160894051 0.34339273059465159 0 -0.34725440703092858 0.33933618574797492 0 -0.35002774160894051 0.34339273059465159 0 -0.35848812135385522 0.33902175933596412 0 -0.35712059876301439 0.34740413424876382 0 -0.35002774160894051 0.34339273059465159 0 -0.34725440703092858 0.33933618574797492 0 -0.35848812135385522 0.33902175933596412 0 -0.34795343649956839 0.3209401758966518 0 -0.35774913989266272 0.31391262040183171 0 -0.36531193472093021 0.32454274932608829 0 -0.35013945535461871 0.3105838988596446 0 -0.34268428286429659 0.31215346041211978 0 -0.34795343649956839 0.3209401758966518 0 -0.35013945535461871 0.3105838988596446 0 -0.34795343649956839 0.3209401758966518 0 -0.35774913989266272 0.31391262040183171 0 -0.38336946241093189 0.30974931290420182 0 -0.36596935852520629 0.30787018431111951 0 -0.36531193472093021 0.32454274932608829 0 -0.36596935852520629 0.30787018431111951 0 -0.35774913989266272 0.31391262040183171 0 -0.36531193472093021 0.32454274932608829 0 -0.37580907906339922 0.33647878059299557 0 -0.38201615891261242 0.31564575533693578 0 -0.36531193472093021 0.32454274932608829 0 -0.38336946241093189 0.30974931290420182 0 -0.36531193472093021 0.32454274932608829 0 -0.35848812135385522 0.33902175933596412 0 -0.36629538785756799 0.33494858662202331 0 -0.36491865814174967 0.34450616947628299 0 -0.35848812135385522 0.33902175933596412 0 -0.36491865814174967 0.34450616947628299 0 -0.35712059876301439 0.34740413424876382 0 -0.35848812135385522 0.33902175933596412 0 -0.36531193472093021 0.32454274932608829 0 -0.36629538785756799 0.33494858662202331 0 -0.37580907906339922 0.33647878059299557 0 -0.36531193472093021 0.32454274932608829 0 -0.36629538785756799 0.33494858662202331 0 -0.37580907906339922 0.33647878059299557 0 -0.36629538785756799 0.33494858662202331 0 -0.36491865814174967 0.34450616947628299 0 -0.37580907906339922 0.33647878059299557 0 -0.36491865814174967 0.34450616947628299 0 -0.36960199921418602 0.35731180584905542 0 -0.37580907906339922 0.33647878059299557 0 -0.36960199921418602 0.35731180584905542 0 -0.36491865814174967 0.34450616947628299 0 -0.36204010283369881 0.35293053614415609 0 -0.35712059876301439 0.34740413424876382 0 -0.36491865814174967 0.34450616947628299 0 -0.36204010283369881 0.35293053614415609 0 -0.36960199921418602 0.35731180584905542 0 -0.36231373349064938 0.3583368008115923 0 -0.36204010283369881 0.35293053614415609 0 -0.35577634304253192 0.35617190760009498 0 -0.36231373349064938 0.3583368008115923 0 -0.36204010283369881 0.35293053614415609 0 -0.36960199921418602 0.35731180584905542 0 -0.36960199921418602 0.35731180584905542 0 -0.36339491936497281 0.37814483110511521 0 -0.36960199921418602 0.35731180584905542 0 -0.37158620997362618 0.36500042586936587 0 -0.36339491936497281 0.37814483110511521 0 -0.36960199921418602 0.35731180584905542 0 -0.36108579844600058 0.36545797327707619 0 -0.36339491936497281 0.37814483110511521 0 -0.38141148745950948 0.38039780936179463 0 -0.37158620997362618 0.36500042586936587 0 -0.36339491936497281 0.37814483110511521 0 -0.38070440212728118 0.35956436367519867 0 -0.36960199921418602 0.35731180584905542 0 -0.37158620997362618 0.36500042586936587 0 -0.36231373349064938 0.3583368008115923 0 -0.36108579844600058 0.36545797327707619 0 -0.35577634304253192 0.35617190760009498 0 -0.36231373349064938 0.3583368008115923 0 -0.36960199921418602 0.35731180584905542 0 -0.36108579844600058 0.36545797327707619 0 -0.36108579844600058 0.36545797327707619 0 -0.3497530714632448 0.36534695126967459 0 -0.35577634304253192 0.35617190760009498 0 -0.3497530714632448 0.36534695126967459 0 -0.36339491936497281 0.37814483110511521 0 -0.33874167774564268 0.3750619344605613 0 -0.36108579844600058 0.36545797327707619 0 -0.3497530714632448 0.36534695126967459 0 -0.36339491936497281 0.37814483110511521 0 -0.33942470910854639 0.36092010030626542 0 -0.3497530714632448 0.36534695126967459 0 -0.3460879504978186 0.35511096805544279 0 -0.3497530714632448 0.36534695126967459 0 -0.3460879504978186 0.35511096805544279 0 -0.35577634304253192 0.35617190760009498 0 -0.3460879504978186 0.35511096805544279 0 -0.35103907443215082 0.34984414324157243 0 -0.35577634304253192 0.35617190760009498 0 -0.3460879504978186 0.35511096805544279 0 -0.34556584107983002 0.34849125976349993 0 -0.35103907443215082 0.34984414324157243 0 -0.34251680356524339 0.34321741671518669 0 -0.35002774160894051 0.34339273059465159 0 -0.34556584107983002 0.34849125976349993 0 -0.35002774160894051 0.34339273059465159 0 -0.34556584107983002 0.34849125976349993 0 -0.35103907443215082 0.34984414324157243 0 -0.35103907443215082 0.34984414324157243 0 -0.35712059876301439 0.34740413424876382 0 -0.35577634304253192 0.35617190760009498 0 -0.35002774160894051 0.34339273059465159 0 -0.35103907443215082 0.34984414324157243 0 -0.35712059876301439 0.34740413424876382 0 -0.36204010283369881 0.35293053614415609 0 -0.35712059876301439 0.34740413424876382 0 -0.35577634304253192 0.35617190760009498 0 -0.35746143571760969 0.39805957647408341 0 -0.33700984602307921 0.4055687403903776 0 -0.35746143571760969 0.39805957647408341 0 -0.36339491936497281 0.37814483110511521 0 -0.33874167774564268 0.3750619344605613 0 -0.36339491936497281 0.37814483110511521 0 -0.33874167774564268 0.3750619344605613 0 -0.38141148745950948 0.38039780936179463 0 -0.37844474563582792 0.390355182046278 0 -0.36339491936497281 0.37814483110511521 0 -0.37844474563582792 0.390355182046278 0 -0.35746143571760969 0.39805957647408341 0 -0.36339491936497281 0.37814483110511521 0 -0.35746143571760969 0.39805957647408341 0 -0.36339491936497281 0.37814483110511521 0 -0.38141148745950948 0.38039780936179463 0 -0.36339491936497281 0.37814483110511521 0 -0.37668454372729859 0.41206883315114529 0 -0.37844474563582792 0.390355182046278 0 -0.35746143571760969 0.39805957647408341 0 -0.37844474563582792 0.390355182046278 0 -0.35746143571760969 0.39805957647408341 0 -0.37668454372729859 0.41206883315114529 0 -0.36778315087773072 0.43214877602771662 0 -0.35179051953527918 0.41709305806631919 0 -0.37668454372729859 0.41206883315114529 0 -0.35746143571760969 0.39805957647408341 0 -0.35179051953527918 0.41709305806631919 0 -0.37668454372729859 0.41206883315114529 0 -0.35179051953527918 0.41709305806631919 0 -0.36778315087773072 0.43214877602771662 0 -0.35179051953527918 0.41709305806631919 0 -0.34355933144160938 0.44471966407244162 0 -0.35179051953527918 0.41709305806631919 0 -0.34355933144160938 0.44471966407244162 0 -0.35746143571760969 0.39805957647408341 0 -0.35179051953527918 0.41709305806631919 0 -0.33700984602307921 0.4055687403903776 0 -0.35746143571760969 0.39805957647408341 0 -0.35179051953527918 0.41709305806631919 0 -0.35179051953527918 0.41709305806631919 0 -0.33092261172728182 0.42130471390500562 0 -0.33700984602307921 0.4055687403903776 0 -0.35179051953527918 0.41709305806631919 0 -0.33092261172728182 0.42130471390500562 0 -0.33092261172728182 0.42130471390500562 0 -0.31655825632854873 0.41307790430667191 0 -0.33700984602307921 0.4055687403903776 0 -0.35179051953527918 0.41709305806631919 0 -0.33092261172728182 0.42130471390500562 0 -0.34355933144160938 0.44471966407244162 0 -0.33092261172728182 0.42130471390500562 0 -0.32304151796324199 0.43794530689545591 0 -0.34355933144160938 0.44471966407244162 0 -0.33092261172728182 0.42130471390500562 0 -0.31005470391928353 0.42551636974368717 0 -0.32304151796324199 0.43794530689545591 0 -0.33092261172728182 0.42130471390500562 0 -0.31005470391928353 0.42551636974368717 0 -0.31005470391928353 0.42551636974368717 0 -0.30636015846579262 0.44081646755455739 0 -0.32304151796324199 0.43794530689545591 0 -0.31655825632854873 0.41307790430667191 0 -0.32178824989383492 0.40044082628072353 0 -0.33700984602307921 0.4055687403903776 0 -0.33092261172728182 0.42130471390500562 0 -0.31655825632854873 0.41307790430667191 0 -0.31005470391928353 0.42551636974368717 0 -0.31655825632854873 0.41307790430667191 0 -0.33700984602307921 0.4055687403903776 0 -0.31655825632854873 0.41307790430667191 0 -0.32178824989383492 0.40044082628072353 0 -0.30820761894760612 0.40180007281058999 0 -0.31589124725359768 0.39098578459502642 0 -0.32178824989383492 0.40044082628072353 0 -0.30820761894760612 0.40180007281058999 0 -0.31589124725359768 0.39098578459502642 0 -0.32178824989383492 0.40044082628072353 0 -0.33127428091634248 0.39077162930095188 0 -0.35746143571760969 0.39805957647408341 0 -0.33127428091634248 0.39077162930095188 0 -0.33700984602307921 0.4055687403903776 0 -0.32178824989383492 0.40044082628072353 0 -0.33127428091634248 0.39077162930095188 0 -0.33700984602307921 0.4055687403903776 0 -0.35746143571760969 0.39805957647408341 0 -0.33127428091634248 0.39077162930095188 0 -0.33874167774564268 0.3750619344605613 0 -0.31408843612631249 0.37197903781600761 0 -0.33127428091634248 0.39077162930095188 0 -0.33874167774564268 0.3750619344605613 0 -0.31408843612631249 0.37197903781600761 0 -0.31589124725359768 0.39098578459502642 0 -0.33127428091634248 0.39077162930095188 0 -0.29551252006441958 0.37309371542857861 0 -0.31408843612631249 0.37197903781600761 0 -0.30568017353146049 0.38157918508743732 0 -0.31408843612631249 0.37197903781600761 0 -0.31589124725359768 0.39098578459502642 0 -0.30568017353146049 0.38157918508743732 0 -0.31589124725359768 0.39098578459502642 0 -0.30568017353146049 0.38157918508743732 0 -0.30603649680964828 0.39194203915736708 0 -0.30568017353146049 0.38157918508743732 0 -0.29743858983336929 0.38628170497916159 0 -0.30603649680964828 0.39194203915736708 0 -0.29551252006441958 0.37309371542857861 0 -0.30568017353146049 0.38157918508743732 0 -0.29743858983336929 0.38628170497916159 0 -0.31589124725359768 0.39098578459502642 0 -0.30820761894760612 0.40180007281058999 0 -0.30603649680964828 0.39194203915736708 0 -0.30820761894760612 0.40180007281058999 0 -0.30603649680964828 0.39194203915736708 0 -0.29604813782321171 0.40003827384795049 0 -0.29743858983336929 0.38628170497916159 0 -0.30603649680964828 0.39194203915736708 0 -0.29604813782321171 0.40003827384795049 0 -0.30820761894760612 0.40180007281058999 0 -0.29604813782321171 0.40003827384795049 0 -0.2987408814332651 0.40933989620534528 0 -0.29604813782321171 0.40003827384795049 0 -0.28905057763704689 0.40562835892549581 0 -0.28392778011776681 0.39892722844600809 0 -0.29604813782321171 0.40003827384795049 0 -0.28905057763704689 0.40562835892549581 0 -0.2987408814332651 0.40933989620534528 0 -0.29604813782321171 0.40003827384795049 0 -0.28980128107673031 0.39400368344191522 0 -0.28392778011776681 0.39892722844600809 0 -0.29743858983336929 0.38628170497916159 0 -0.29604813782321171 0.40003827384795049 0 -0.28980128107673031 0.39400368344191522 0 -0.28980128107673031 0.39400368344191522 0 -0.28179061653257348 0.3907675264945405 0 -0.28392778011776681 0.39892722844600809 0 -0.28905057763704689 0.40562835892549581 0 -0.28392778011776681 0.39892722844600809 0 -0.27817781655911977 0.40726136879628272 0 -0.29743858983336929 0.38628170497916159 0 -0.28980128107673031 0.39400368344191522 0 -0.28179061653257348 0.3907675264945405 0 -0.29743858983336929 0.38628170497916159 0 -0.28179061653257348 0.3907675264945405 0 -0.28819376848868639 0.38228739672622841 0 -0.29743858983336929 0.38628170497916159 0 -0.28179061653257348 0.3907675264945405 0 -0.29551252006441958 0.37309371542857861 0 -0.29743858983336929 0.38628170497916159 0 -0.28819376848868639 0.38228739672622841 0 -0.29551252006441958 0.37309371542857861 0 -0.28819376848868639 0.38228739672622841 0 -0.28685204816290072 0.37621819500323123 0 -0.28179061653257348 0.3907675264945405 0 -0.28158428542699082 0.38279668863870758 0 -0.28819376848868639 0.38228739672622841 0 -0.28158428542699082 0.38279668863870758 0 -0.28819376848868639 0.38228739672622841 0 -0.28685204816290072 0.37621819500323123 0 -0.28158428542699082 0.38279668863870758 0 -0.28685204816290072 0.37621819500323123 0 -0.28084635904778937 0.37544065550995409 0 -0.27110701654299552 0.36596211494311248 0 -0.26614264323177789 0.39525334800991979 0 -0.27110701654299552 0.36596211494311248 0 -0.27663284499009211 0.37939207802828528 0 -0.27229768174870289 0.38438446135480281 0 -0.27110701654299552 0.36596211494311248 0 -0.27229768174870289 0.38438446135480281 0 -0.26614264323177789 0.39525334800991979 0 -0.27110701654299552 0.36596211494311248 0 -0.26689531734350652 0.36931705260985792 0 -0.26614264323177789 0.39525334800991979 0 -0.28158428542699082 0.38279668863870758 0 -0.28084635904778937 0.37544065550995409 0 -0.27663284499009211 0.37939207802828528 0 -0.27229768174870289 0.38438446135480281 0 -0.27641046434025379 0.38710393959788297 0 -0.26614264323177789 0.39525334800991979 0 -0.28179061653257348 0.3907675264945405 0 -0.28158428542699082 0.38279668863870758 0 -0.27641046434025379 0.38710393959788297 0 -0.27663284499009211 0.37939207802828528 0 -0.27229768174870289 0.38438446135480281 0 -0.27641046434025379 0.38710393959788297 0 -0.28158428542699082 0.38279668863870758 0 -0.27663284499009211 0.37939207802828528 0 -0.27641046434025379 0.38710393959788297 0 -0.28179061653257348 0.3907675264945405 0 -0.27641046434025379 0.38710393959788297 0 -0.26614264323177789 0.39525334800991979 0 -0.28179061653257348 0.3907675264945405 0 -0.27661435207820328 0.39472461325581981 0 -0.26614264323177789 0.39525334800991979 0 -0.28179061653257348 0.3907675264945405 0 -0.28392778011776681 0.39892722844600809 0 -0.27661435207820328 0.39472461325581981 0 -0.28179061653257348 0.3907675264945405 0 -0.26614264323177789 0.39525334800991979 0 -0.28392778011776681 0.39892722844600809 0 -0.27661435207820328 0.39472461325581981 0 -0.27572094251528112 0.40196054452149499 0 -0.28392778011776681 0.39892722844600809 0 -0.27572094251528112 0.40196054452149499 0 -0.27817781655911977 0.40726136879628272 0 -0.27572094251528112 0.40196054452149499 0 -0.26416382130603389 0.40692896758786917 0 -0.27817781655911977 0.40726136879628272 0 -0.27661435207820328 0.39472461325581981 0 -0.27572094251528112 0.40196054452149499 0 -0.26416382130603389 0.40692896758786917 0 -0.27661435207820328 0.39472461325581981 0 -0.26614264323177789 0.39525334800991979 0 -0.26416382130603389 0.40692896758786917 0 -0.27661435207820328 0.39472461325581981 0 -0.26416382130603389 0.40692896758786917 0 -0.26614264323177789 0.39525334800991979 0 -0.24781733580734391 0.38604582424895789 0 -0.24388213391773941 0.40163479241199579 0 -0.26614264323177789 0.39525334800991979 0 -0.25157066981256843 0.40894445920752592 0 -0.24388213391773941 0.40163479241199579 0 -0.26614264323177789 0.39525334800991979 0 -0.24388213391773941 0.40163479241199579 0 -0.26614264323177789 0.39525334800991979 0 -0.26416382130603389 0.40692896758786917 0 -0.26614264323177789 0.39525334800991979 0 -0.25157066981256843 0.40894445920752592 0 -0.26416382130603389 0.40692896758786917 0 -0.25453646971320443 0.37462232419521813 0 -0.26614264323177789 0.39525334800991979 0 -0.24781733580734391 0.38604582424895789 0 -0.25453646971320443 0.37462232419521813 0 -0.26689531734350652 0.36931705260985792 0 -0.26614264323177789 0.39525334800991979 0 -0.26107936510946472 0.42512814796255138 0 -0.25799490891289278 0.4433273283372331 0 -0.26107936510946472 0.42512814796255138 0 -0.27138668263498972 0.43431468825499642 0 -0.25799490891289278 0.4433273283372331 0 -0.26107936510946472 0.42512814796255138 0 -0.25799490891289278 0.4433273283372331 0 -0.24263019791012411 0.42803682032005991 0 -0.25799490891289278 0.4433273283372331 0 -0.24263019791012411 0.42803682032005991 0 -0.26107936510946472 0.42512814796255138 0 -0.26416382130603389 0.40692896758786917 0 -0.26107936510946472 0.42512814796255138 0 -0.26416382130603389 0.40692896758786917 0 -0.24263019791012411 0.42803682032005991 0 -0.26416382130603389 0.40692896758786917 0 -0.24263019791012411 0.42803682032005991 0 -0.25157066981256843 0.40894445920752592 0 -0.26416382130603389 0.40692896758786917 0 -0.24263019791012411 0.42803682032005991 0 -0.26107936510946472 0.42512814796255138 0 -0.26416382130603389 0.40692896758786917 0 -0.27370875903762831 0.41905129137381081 0 -0.26416382130603389 0.40692896758786917 0 -0.27817781655911977 0.40726136879628272 0 -0.27370875903762831 0.41905129137381081 0 -0.27817781655911977 0.40726136879628272 0 -0.27370875903762831 0.41905129137381081 0 -0.28647403122915938 0.41490769911839809 0 -0.27370875903762831 0.41905129137381081 0 -0.27138668263498972 0.43431468825499642 0 -0.28359142860916292 0.42646623900898489 0 -0.26107936510946472 0.42512814796255138 0 -0.27370875903762831 0.41905129137381081 0 -0.27138668263498972 0.43431468825499642 0 -0.27138668263498972 0.43431468825499642 0 -0.28359142860916292 0.42646623900898489 0 -0.28426041238301858 0.43930471826406531 0 -0.28359142860916292 0.42646623900898489 0 -0.29576073289665422 0.43347565529899762 0 -0.28426041238301858 0.43930471826406531 0 -0.28359142860916292 0.42646623900898489 0 -0.29576073289665422 0.43347565529899762 0 -0.29610666663401819 0.4205870682229661 0 -0.28905057763704689 0.40562835892549581 0 -0.27817781655911977 0.40726136879628272 0 -0.28647403122915938 0.41490769911839809 0 -0.27370875903762831 0.41905129137381081 0 -0.28359142860916292 0.42646623900898489 0 -0.28647403122915938 0.41490769911839809 0 -0.28359142860916292 0.42646623900898489 0 -0.28647403122915938 0.41490769911839809 0 -0.29610666663401819 0.4205870682229661 0 -0.28647403122915938 0.41490769911839809 0 -0.29610666663401819 0.4205870682229661 0 -0.2987408814332651 0.40933989620534528 0 -0.28905057763704689 0.40562835892549581 0 -0.28647403122915938 0.41490769911839809 0 -0.2987408814332651 0.40933989620534528 0 -0.31655825632854873 0.41307790430667191 0 -0.29610666663401819 0.4205870682229661 0 -0.2987408814332651 0.40933989620534528 0 -0.31655825632854873 0.41307790430667191 0 -0.29610666663401819 0.4205870682229661 0 -0.31005470391928353 0.42551636974368717 0 -0.31655825632854873 0.41307790430667191 0 -0.29610666663401819 0.4205870682229661 0 -0.31655825632854873 0.41307790430667191 0 -0.30820761894760612 0.40180007281058999 0 -0.2987408814332651 0.40933989620534528 0 -0.29576073289665422 0.43347565529899762 0 -0.31005470391928353 0.42551636974368717 0 -0.30636015846579262 0.44081646755455739 0 -0.29576073289665422 0.43347565529899762 0 -0.29610666663401819 0.4205870682229661 0 -0.31005470391928353 0.42551636974368717 0 -0.29576073289665422 0.43347565529899762 0 -0.30636015846579262 0.44081646755455739 0 -0.2944743431310044 0.45228094752776682 0 -0.30636015846579262 0.44081646755455739 0 -0.30512100021830008 0.46490456032657962 0 -0.30636015846579262 0.44081646755455739 0 -0.30512100021830008 0.46490456032657962 0 -0.2944743431310044 0.45228094752776682 0 -0.30636015846579262 0.44081646755455739 0 -0.30512100021830008 0.46490456032657962 0 -0.32381548421637429 0.45642326981327008 0 -0.30512100021830008 0.46490456032657962 0 -0.2944743431310044 0.45228094752776682 0 -0.28858619761816889 0.47377087817814589 0 -0.2944743431310044 0.45228094752776682 0 -0.27329055326553048 0.45854910325768988 0 -0.28858619761816889 0.47377087817814589 0 -0.2944743431310044 0.45228094752776682 0 -0.28426041238301858 0.43930471826406531 0 -0.27329055326553048 0.45854910325768988 0 -0.29576073289665422 0.43347565529899762 0 -0.2944743431310044 0.45228094752776682 0 -0.28426041238301858 0.43930471826406531 0 -0.27138668263498972 0.43431468825499642 0 -0.28426041238301858 0.43930471826406531 0 -0.27329055326553048 0.45854910325768988 0 -0.27138668263498972 0.43431468825499642 0 -0.27329055326553048 0.45854910325768988 0 -0.25799490891289278 0.4433273283372331 0 -0.27329055326553048 0.45854910325768988 0 -0.25799490891289278 0.4433273283372331 0 -0.27329055326553048 0.45854910325768988 0 -0.28858619761816889 0.47377087817814589 0 -0.27329055326553048 0.45854910325768988 0 -0.25438198006151169 0.46464464965965441 0 -0.25799490891289278 0.4433273283372331 0 -0.27329055326553048 0.45854910325768988 0 -0.25438198006151169 0.46464464965965441 0 -0.26859377699614329 0.4811575177290362 0 -0.25438198006151169 0.46464464965965441 0 -0.25799490891289278 0.4433273283372331 0 -0.25438198006151169 0.46464464965965441 0 -0.25799490891289278 0.4433273283372331 0 -0.24356894722331929 0.44821508210096461 0 -0.25080144613104921 0.5 0 -0.26859377699614329 0.4811575177290362 0 -0.2467553297522557 0.48147402383551691 0 -0.25080144613104921 0.5 0 -0.26859377699614329 0.4811575177290362 0 -0.27705851983630159 0.5 0 -0.25438198006151169 0.46464464965965441 0 -0.26859377699614329 0.4811575177290362 0 -0.2467553297522557 0.48147402383551691 0 -0.27329055326553048 0.45854910325768988 0 -0.26859377699614329 0.4811575177290362 0 -0.28858619761816889 0.47377087817814589 0 -0.26859377699614329 0.4811575177290362 0 -0.27705851983630159 0.5 0 -0.28830299895955541 0.48893487857068268 0 -0.27705851983630159 0.5 0 -0.28830299895955541 0.48893487857068268 0 -0.30331559354155391 0.49999999999999939 0 -0.26859377699614329 0.4811575177290362 0 -0.28830299895955541 0.48893487857068268 0 -0.28858619761816889 0.47377087817814589 0 -0.28830299895955541 0.48893487857068268 0 -0.28858619761816889 0.47377087817814589 0 -0.30388184197080759 0.48899265309860168 0 -0.28858619761816889 0.47377087817814589 0 -0.30388184197080759 0.48899265309860168 0 -0.30512100021830008 0.46490456032657962 0 -0.30388184197080759 0.48899265309860168 0 -0.30512100021830008 0.46490456032657962 0 -0.30388184197080759 0.48899265309860168 0 -0.31654611508668351 0.48621885406126381 0 -0.30512100021830008 0.46490456032657962 0 -0.28858619761816889 0.47377087817814589 0 -0.30388184197080759 0.48899265309860168 0 -0.30331559354155391 0.49999999999999939 0 -0.30388184197080759 0.48899265309860168 0 -0.28830299895955541 0.48893487857068268 0 -0.30331559354155391 0.49999999999999939 0 -0.30388184197080759 0.48899265309860168 0 -0.30388184197080759 0.48899265309860168 0 -0.31494260619507058 0.500000000000002 0 -0.31654611508668351 0.48621885406126381 0 -0.30331559354155391 0.49999999999999939 0 -0.30388184197080759 0.48899265309860168 0 -0.31494260619507058 0.500000000000002 0 -0.30388184197080759 0.48899265309860168 0 -0.31494260619507058 0.500000000000002 0 -0.31654611508668351 0.48621885406126381 0 -0.33275791060477139 0.5 0 -0.32602721644446891 0.47719705688113462 0 -0.31494260619507058 0.500000000000002 0 -0.31654611508668351 0.48621885406126381 0 -0.33275791060477139 0.5 0 -0.33275791060477139 0.5 0 -0.34200011506365208 0.48331572161184322 0 -0.32602721644446891 0.47719705688113462 0 -0.33275791060477139 0.5 0 -0.34200011506365208 0.48331572161184322 0 -0.35057321501447208 0.49999999999999872 0 -0.34200011506365208 0.48331572161184322 0 -0.32602721644446891 0.47719705688113462 0 -0.33593075250063148 0.46750731867274542 0 -0.34200011506365208 0.48331572161184322 0 -0.33593075250063148 0.46750731867274542 0 -0.35201810675435108 0.4676562019538536 0 -0.30512100021830008 0.46490456032657962 0 -0.31654611508668351 0.48621885406126381 0 -0.32602721644446891 0.47719705688113462 0 -0.30512100021830008 0.46490456032657962 0 -0.32602721644446891 0.47719705688113462 0 -0.32381548421637429 0.45642326981327008 0 -0.30636015846579262 0.44081646755455739 0 -0.32381548421637429 0.45642326981327008 0 -0.32304151796324199 0.43794530689545591 0 -0.32381548421637429 0.45642326981327008 0 -0.32304151796324199 0.43794530689545591 0 -0.34355933144160938 0.44471966407244162 0 -0.32381548421637429 0.45642326981327008 0 -0.34355933144160938 0.44471966407244162 0 -0.33593075250063148 0.46750731867274542 0 -0.32602721644446891 0.47719705688113462 0 -0.32381548421637429 0.45642326981327008 0 -0.33593075250063148 0.46750731867274542 0 -0.35201810675435108 0.4676562019538536 0 -0.36028404822733179 0.44939908513577981 0 -0.36566353784044697 0.46257036423753561 0 -0.34355933144160938 0.44471966407244162 0 -0.35201810675435108 0.4676562019538536 0 -0.36028404822733179 0.44939908513577981 0 -0.34355933144160938 0.44471966407244162 0 -0.33593075250063148 0.46750731867274542 0 -0.35201810675435108 0.4676562019538536 0 -0.36778315087773072 0.43214877602771662 0 -0.34355933144160938 0.44471966407244162 0 -0.36028404822733179 0.44939908513577981 0 -0.36778315087773072 0.43214877602771662 0 -0.36028404822733179 0.44939908513577981 0 -0.37376195539900242 0.45249759326054367 0 -0.37701653082709469 0.46900635458093531 0 -0.37376195539900242 0.45249759326054367 0 -0.36566353784044697 0.46257036423753561 0 -0.36028404822733179 0.44939908513577981 0 -0.37376195539900242 0.45249759326054367 0 -0.36566353784044697 0.46257036423753561 0 -0.36552159823955549 0.47691699748014749 0 -0.37220834978290879 0.49000150617251997 0 -0.35595833756876799 0.48470827593500232 0 -0.37701653082709469 0.46900635458093531 0 -0.36566353784044697 0.46257036423753561 0 -0.36552159823955549 0.47691699748014749 0 -0.37805640255927542 0.47903421333972468 0 -0.37701653082709469 0.46900635458093531 0 -0.36552159823955549 0.47691699748014749 0 -0.35201810675435108 0.4676562019538536 0 -0.36566353784044697 0.46257036423753561 0 -0.36552159823955549 0.47691699748014749 0 -0.37805640255927542 0.47903421333972468 0 -0.36552159823955549 0.47691699748014749 0 -0.37220834978290879 0.49000150617251997 0 -0.37220834978290879 0.49000150617251997 0 -0.35057321501447208 0.49999999999999872 0 -0.35595833756876799 0.48470827593500232 0 -0.37789332191386737 0.5 0 -0.37220834978290879 0.49000150617251997 0 -0.35057321501447208 0.49999999999999872 0 -0.37220834978290879 0.49000150617251997 0 -0.35057321501447208 0.49999999999999872 0 -0.34200011506365208 0.48331572161184322 0 -0.35057321501447208 0.49999999999999872 0 -0.35595833756876799 0.48470827593500232 0 -0.34200011506365208 0.48331572161184322 0 -0.35201810675435108 0.4676562019538536 0 -0.35595833756876799 0.48470827593500232 0 -0.35201810675435108 0.4676562019538536 0 -0.36552159823955549 0.47691699748014749 0 -0.35595833756876799 0.48470827593500232 0 -0.142080771754234 0.48212662116497451 0 -0.14744519938683801 0.47523243684594829 0 -0.1380962150490555 0.47248515407185221 0 -0.142080771754234 0.48212662116497451 0 -0.14744519938683801 0.47523243684594829 0 -0.15313912830386001 0.48632871978955722 0 -0.14744519938683801 0.47523243684594829 0 -0.1380962150490555 0.47248515407185221 0 -0.1446941887002707 0.46454185114692792 0 -0.14744519938683801 0.47523243684594829 0 -0.1446941887002707 0.46454185114692792 0 -0.15815775643206659 0.473198332503178 0 -0.14744519938683801 0.47523243684594829 0 -0.15313912830386001 0.48632871978955722 0 -0.15815775643206659 0.473198332503178 0 -0.142080771754234 0.48212662116497451 0 -0.15313912830386001 0.48632871978955722 0 -0.13803845513632401 0.5 0 -0.15313912830386001 0.48632871978955722 0 -0.13803845513632401 0.5 0 -0.1663114266205577 0.50000000000000011 0 -0.142080771754234 0.48212662116497451 0 -0.13803845513632401 0.5 0 -0.12908554574303099 0.47755934496718438 0 -0.13803845513632401 0.5 0 -0.12908554574303099 0.47755934496718438 0 -0.1160402402672886 0.48503019582547341 0 -0.142080771754234 0.48212662116497451 0 -0.12908554574303099 0.47755934496718438 0 -0.1380962150490555 0.47248515407185221 0 -0.12908554574303099 0.47755934496718438 0 -0.1380962150490555 0.47248515407185221 0 -0.13097929143795109 0.46459511115351071 0 -0.12908554574303099 0.47755934496718438 0 -0.13097929143795109 0.46459511115351071 0 -0.1176294132596279 0.46872710166108278 0 -0.13097929143795109 0.46459511115351071 0 -0.1351896940807357 0.45304119368279389 0 -0.1204057133641486 0.45504160574272429 0 -0.13097929143795109 0.46459511115351071 0 -0.1351896940807357 0.45304119368279389 0 -0.1446941887002707 0.46454185114692792 0 -0.1380962150490555 0.47248515407185221 0 -0.13097929143795109 0.46459511115351071 0 -0.1446941887002707 0.46454185114692792 0 -0.1351896940807357 0.45304119368279389 0 -0.13889501351409689 0.43598263237980822 0 -0.1242648033483075 0.43981492828754482 0 -0.1351896940807357 0.45304119368279389 0 -0.1242648033483075 0.43981492828754482 0 -0.1204057133641486 0.45504160574272429 0 -0.15017718620881049 0.45777983735391498 0 -0.13889501351409689 0.43598263237980822 0 -0.1351896940807357 0.45304119368279389 0 -0.15017718620881049 0.45777983735391498 0 -0.13889501351409689 0.43598263237980822 0 -0.15995177900170021 0.44572512983606088 0 -0.15376963845050121 0.4328235067909087 0 -0.13889501351409689 0.43598263237980822 0 -0.15017718620881049 0.45777983735391498 0 -0.15995177900170021 0.44572512983606088 0 -0.13889501351409689 0.43598263237980822 0 -0.15017718620881049 0.45777983735391498 0 -0.15995177900170021 0.44572512983606088 0 -0.1446941887002707 0.46454185114692792 0 -0.15017718620881049 0.45777983735391498 0 -0.1351896940807357 0.45304119368279389 0 -0.1446941887002707 0.46454185114692792 0 -0.15017718620881049 0.45777983735391498 0 -0.1446941887002707 0.46454185114692792 0 -0.15017718620881049 0.45777983735391498 0 -0.15815775643206659 0.473198332503178 0 -0.15017718620881049 0.45777983735391498 0 -0.15868634814382429 0.46531473325554851 0 -0.15815775643206659 0.473198332503178 0 -0.15017718620881049 0.45777983735391498 0 -0.15815775643206659 0.473198332503178 0 -0.160558198289461 0.46047642425523388 0 -0.1655661766345953 0.45099185016729298 0 -0.16585225164495951 0.46980433890986678 0 -0.1655661766345953 0.45099185016729298 0 -0.17867327812258871 0.46114583139567922 0 -0.16585225164495951 0.46980433890986678 0 -0.1655661766345953 0.45099185016729298 0 -0.16585225164495951 0.46980433890986678 0 -0.15868634814382429 0.46531473325554851 0 -0.160558198289461 0.46047642425523388 0 -0.16585225164495951 0.46980433890986678 0 -0.15017718620881049 0.45777983735391498 0 -0.15868634814382429 0.46531473325554851 0 -0.160558198289461 0.46047642425523388 0 -0.15017718620881049 0.45777983735391498 0 -0.160558198289461 0.46047642425523388 0 -0.15995177900170021 0.44572512983606088 0 -0.15995177900170021 0.44572512983606088 0 -0.1655661766345953 0.45099185016729298 0 -0.1697263717945888 0.43367042231820602 0 -0.160558198289461 0.46047642425523388 0 -0.15995177900170021 0.44572512983606088 0 -0.1655661766345953 0.45099185016729298 0 -0.15995177900170021 0.44572512983606088 0 -0.1697263717945888 0.43367042231820602 0 -0.1655661766345953 0.45099185016729298 0 -0.1926513277646352 0.45119866261047992 0 -0.1697263717945888 0.43367042231820602 0 -0.1926513277646352 0.45119866261047992 0 -0.1697263717945888 0.43367042231820602 0 -0.1926513277646352 0.45119866261047992 0 -0.18693863061853061 0.43491447939059907 0 -0.1697263717945888 0.43367042231820602 0 -0.1655661766345953 0.45099185016729298 0 -0.17867327812258871 0.46114583139567922 0 -0.1926513277646352 0.45119866261047992 0 -0.17867327812258871 0.46114583139567922 0 -0.17876854714149509 0.47093865696285842 0 -0.16585225164495951 0.46980433890986678 0 -0.17867327812258871 0.46114583139567922 0 -0.1899884502156329 0.46461586120334353 0 -0.1926513277646352 0.45119866261047992 0 -0.17867327812258871 0.46114583139567922 0 -0.17876854714149509 0.47093865696285842 0 -0.1899884502156329 0.46461586120334353 0 -0.17876854714149509 0.47093865696285842 0 -0.19138341924764241 0.47827032896460842 0 -0.1899884502156329 0.46461586120334353 0 -0.1757986315986971 0.48088398659212228 0 -0.17876854714149509 0.47093865696285842 0 -0.19138341924764241 0.47827032896460842 0 -0.1757986315986971 0.48088398659212228 0 -0.17876854714149509 0.47093865696285842 0 -0.16585225164495951 0.46980433890986678 0 -0.16585225164495951 0.46980433890986678 0 -0.16613832665532341 0.48861682765244069 0 -0.16585225164495951 0.46980433890986678 0 -0.15815775643206659 0.473198332503178 0 -0.16613832665532341 0.48861682765244069 0 -0.1757986315986971 0.48088398659212228 0 -0.16585225164495951 0.46980433890986678 0 -0.16613832665532341 0.48861682765244069 0 -0.15313912830386001 0.48632871978955722 0 -0.15815775643206659 0.473198332503178 0 -0.16613832665532341 0.48861682765244069 0 -0.15815775643206659 0.473198332503178 0 -0.16613832665532341 0.48861682765244069 0 -0.15868634814382429 0.46531473325554851 0 -0.16585225164495951 0.46980433890986678 0 -0.15815775643206659 0.473198332503178 0 -0.15313912830386001 0.48632871978955722 0 -0.16613832665532341 0.48861682765244069 0 -0.1663114266205577 0.50000000000000011 0 -0.16613832665532341 0.48861682765244069 0 -0.1720302250152923 0.50000000000000022 0 -0.16613832665532341 0.48861682765244069 0 -0.1663114266205577 0.50000000000000011 0 -0.1720302250152923 0.50000000000000022 0 -0.16613832665532341 0.48861682765244069 0 -0.1663114266205577 0.50000000000000011 0 -0.16613832665532341 0.48861682765244069 0 -0.17430115969348189 0.49501483184612438 0 -0.1720302250152923 0.50000000000000022 0 -0.17430115969348189 0.49501483184612438 0 -0.1720302250152923 0.50000000000000022 0 -0.1982872987205446 0.5 0 -0.1757986315986971 0.48088398659212228 0 -0.17430115969348189 0.49501483184612438 0 -0.19138341924764241 0.47827032896460842 0 -0.17430115969348189 0.49501483184612438 0 -0.19138341924764241 0.47827032896460842 0 -0.1757986315986971 0.48088398659212228 0 -0.16613832665532341 0.48861682765244069 0 -0.17430115969348189 0.49501483184612438 0 -0.17430115969348189 0.49501483184612438 0 -0.1982872987205446 0.5 0 -0.19138341924764241 0.47827032896460842 0 -0.1982872987205446 0.5 0 -0.19138341924764241 0.47827032896460842 0 -0.21217809917650449 0.48030286392854288 0 -0.19138341924764241 0.47827032896460842 0 -0.208465678801803 0.46152582608309223 0 -0.19138341924764241 0.47827032896460842 0 -0.21217809917650449 0.48030286392854288 0 -0.208465678801803 0.46152582608309223 0 -0.1982872987205446 0.5 0 -0.21217809917650449 0.48030286392854288 0 -0.22454437242579681 0.5 0 -0.22454437242579681 0.5 0 -0.2288960980978284 0.47674808914996208 0 -0.2467553297522557 0.48147402383551691 0 -0.21217809917650449 0.48030286392854288 0 -0.22454437242579681 0.5 0 -0.2288960980978284 0.47674808914996208 0 -0.21217809917650449 0.48030286392854288 0 -0.2288960980978284 0.47674808914996208 0 -0.22325063631842021 0.46203708915627778 0 -0.25438198006151169 0.46464464965965441 0 -0.2467553297522557 0.48147402383551691 0 -0.2372897108761052 0.46028528898629889 0 -0.2288960980978284 0.47674808914996208 0 -0.2467553297522557 0.48147402383551691 0 -0.2372897108761052 0.46028528898629889 0 -0.25080144613104921 0.5 0 -0.22454437242579681 0.5 0 -0.2467553297522557 0.48147402383551691 0 -0.24356894722331929 0.44821508210096461 0 -0.22554793835596351 0.44478132320157598 0 -0.24263019791012411 0.42803682032005991 0 -0.24356894722331929 0.44821508210096461 0 -0.2372897108761052 0.46028528898629889 0 -0.22554793835596351 0.44478132320157598 0 -0.25799490891289278 0.4433273283372331 0 -0.24356894722331929 0.44821508210096461 0 -0.24263019791012411 0.42803682032005991 0 -0.25438198006151169 0.46464464965965441 0 -0.24356894722331929 0.44821508210096461 0 -0.2372897108761052 0.46028528898629889 0 -0.2288960980978284 0.47674808914996208 0 -0.2372897108761052 0.46028528898629889 0 -0.22325063631842021 0.46203708915627778 0 -0.2372897108761052 0.46028528898629889 0 -0.22325063631842021 0.46203708915627778 0 -0.22554793835596351 0.44478132320157598 0 -0.22325063631842021 0.46203708915627778 0 -0.22554793835596351 0.44478132320157598 0 -0.208465678801803 0.46152582608309223 0 -0.22554793835596351 0.44478132320157598 0 -0.20785557032720109 0.44518798724498809 0 -0.21437917226951189 0.43588067273166847 0 -0.22554793835596351 0.44478132320157598 0 -0.20785557032720109 0.44518798724498809 0 -0.208465678801803 0.46152582608309223 0 -0.22554793835596351 0.44478132320157598 0 -0.208465678801803 0.46152582608309223 0 -0.21217809917650449 0.48030286392854288 0 -0.22325063631842021 0.46203708915627778 0 -0.208465678801803 0.46152582608309223 0 -0.19138341924764241 0.47827032896460842 0 -0.208465678801803 0.46152582608309223 0 -0.1899884502156329 0.46461586120334353 0 -0.208465678801803 0.46152582608309223 0 -0.1899884502156329 0.46461586120334353 0 -0.1926513277646352 0.45119866261047992 0 -0.20785557032720109 0.44518798724498809 0 -0.1926513277646352 0.45119866261047992 0 -0.18693863061853061 0.43491447939059907 0 -0.20785557032720109 0.44518798724498809 0 -0.208465678801803 0.46152582608309223 0 -0.1926513277646352 0.45119866261047992 0 -0.19176926968858449 0.42488004754311998 0 -0.20430089696141959 0.42856004989685992 0 -0.18693863061853061 0.43491447939059907 0 -0.20785557032720109 0.44518798724498809 0 -0.20430089696141959 0.42856004989685992 0 -0.18693863061853061 0.43491447939059907 0 -0.19176926968858449 0.42488004754311998 0 -0.19667758679306771 0.41738623802377928 0 -0.20430089696141959 0.42856004989685992 0 -0.19667758679306771 0.41738623802377928 0 -0.19460267291041519 0.40299123798476227 0 -0.182164522352502 0.41833083015148409 0 -0.19460267291041519 0.40299123798476227 0 -0.182164522352502 0.41833083015148409 0 -0.19176926968858449 0.42488004754311998 0 -0.19667758679306771 0.41738623802377928 0 -0.182164522352502 0.41833083015148409 0 -0.19667758679306771 0.41738623802377928 0 -0.2074030129404133 0.4163894186605448 0 -0.20430089696141959 0.42856004989685992 0 -0.19667758679306771 0.41738623802377928 0 -0.2074030129404133 0.4163894186605448 0 -0.19460267291041519 0.40299123798476227 0 -0.2074030129404133 0.4163894186605448 0 -0.21981228343346321 0.42499333058324978 0 -0.22162162460370111 0.40801623681407218 0 -0.2074030129404133 0.4163894186605448 0 -0.22162162460370111 0.40801623681407218 0 -0.19460267291041519 0.40299123798476227 0 -0.20785557032720109 0.44518798724498809 0 -0.20430089696141959 0.42856004989685992 0 -0.21437917226951189 0.43588067273166847 0 -0.2074030129404133 0.4163894186605448 0 -0.20430089696141959 0.42856004989685992 0 -0.21981228343346321 0.42499333058324978 0 -0.20430089696141959 0.42856004989685992 0 -0.21437917226951189 0.43588067273166847 0 -0.21981228343346321 0.42499333058324978 0 -0.22554793835596351 0.44478132320157598 0 -0.24263019791012411 0.42803682032005991 0 -0.22554793835596351 0.44478132320157598 0 -0.2313941741476824 0.42795323546389102 0 -0.24263019791012411 0.42803682032005991 0 -0.22554793835596351 0.44478132320157598 0 -0.21437917226951189 0.43588067273166847 0 -0.21981228343346321 0.42499333058324978 0 -0.22554793835596351 0.44478132320157598 0 -0.2313941741476824 0.42795323546389102 0 -0.21981228343346321 0.42499333058324978 0 -0.2313941741476824 0.42795323546389102 0 -0.21981228343346321 0.42499333058324978 0 -0.2301621318308705 0.41771135234831969 0 -0.2313941741476824 0.42795323546389102 0 -0.2301621318308705 0.41771135234831969 0 -0.23881831920799079 0.42424335086624981 0 -0.21981228343346321 0.42499333058324978 0 -0.22162162460370111 0.40801623681407218 0 -0.2301621318308705 0.41771135234831969 0 -0.22162162460370111 0.40801623681407218 0 -0.2301621318308705 0.41771135234831969 0 -0.241034552697166 0.41286836770778501 0 -0.25157066981256843 0.40894445920752592 0 -0.241034552697166 0.41286836770778501 0 -0.24263019791012411 0.42803682032005991 0 -0.241034552697166 0.41286836770778501 0 -0.24263019791012411 0.42803682032005991 0 -0.23881831920799079 0.42424335086624981 0 -0.22162162460370111 0.40801623681407218 0 -0.241034552697166 0.41286836770778501 0 -0.24388213391773941 0.40163479241199579 0 -0.2301621318308705 0.41771135234831969 0 -0.241034552697166 0.41286836770778501 0 -0.23881831920799079 0.42424335086624981 0 -0.25157066981256843 0.40894445920752592 0 -0.241034552697166 0.41286836770778501 0 -0.24388213391773941 0.40163479241199579 0 -0.2313941741476824 0.42795323546389102 0 -0.24263019791012411 0.42803682032005991 0 -0.23881831920799079 0.42424335086624981 0 -0.24263019791012411 0.42803682032005991 0 -0.23881831920799079 0.42424335086624981 0 -0.25453646971320443 0.37462232419521813 0 -0.24781733580734391 0.38604582424895789 0 -0.23735930512057779 0.37349779701461089 0 -0.2365264908337599 0.38834162546439549 0 -0.24781733580734391 0.38604582424895789 0 -0.23735930512057779 0.37349779701461089 0 -0.2365264908337599 0.38834162546439549 0 -0.24781733580734391 0.38604582424895789 0 -0.24388213391773941 0.40163479241199579 0 -0.22162162460370111 0.40801623681407218 0 -0.24388213391773941 0.40163479241199579 0 -0.22162162460370111 0.40801623681407218 0 -0.2365264908337599 0.38834162546439549 0 -0.2225569648072106 0.38059728391652659 0 -0.22162162460370111 0.40801623681407218 0 -0.2365264908337599 0.38834162546439549 0 -0.24388213391773941 0.40163479241199579 0 -0.2365264908337599 0.38834162546439549 0 -0.2225569648072106 0.38059728391652659 0 -0.23735930512057779 0.37349779701461089 0 -0.2225569648072106 0.38059728391652659 0 -0.20545957084956781 0.38789926664213359 0 -0.1994770785436861 0.36691897370504389 0 -0.22162162460370111 0.40801623681407218 0 -0.2225569648072106 0.38059728391652659 0 -0.20545957084956781 0.38789926664213359 0 -0.22162162460370111 0.40801623681407218 0 -0.20545957084956781 0.38789926664213359 0 -0.19460267291041519 0.40299123798476227 0 -0.20545957084956781 0.38789926664213359 0 -0.19460267291041519 0.40299123798476227 0 -0.18736095772118591 0.3836472042370111 0 -0.20545957084956781 0.38789926664213359 0 -0.18736095772118591 0.3836472042370111 0 -0.1994770785436861 0.36691897370504389 0 -0.18736095772118591 0.3836472042370111 0 -0.16248792359233191 0.38534127627451031 0 -0.17644948136236779 0.3976803029940168 0 -0.18736095772118591 0.3836472042370111 0 -0.16248792359233191 0.38534127627451031 0 -0.1741500565645078 0.37123080613525078 0 -0.16248792359233191 0.38534127627451031 0 -0.16330635783110381 0.4038062271485704 0 -0.14438589058212131 0.3948348353259919 0 -0.16248792359233191 0.38534127627451031 0 -0.16330635783110381 0.4038062271485704 0 -0.17644948136236779 0.3976803029940168 0 -0.19460267291041519 0.40299123798476227 0 -0.17644948136236779 0.3976803029940168 0 -0.17778078602166139 0.40821888849324761 0 -0.19460267291041519 0.40299123798476227 0 -0.18736095772118591 0.3836472042370111 0 -0.17644948136236779 0.3976803029940168 0 -0.16330635783110381 0.4038062271485704 0 -0.17644948136236779 0.3976803029940168 0 -0.17778078602166139 0.40821888849324761 0 -0.19460267291041519 0.40299123798476227 0 -0.182164522352502 0.41833083015148409 0 -0.17778078602166139 0.40821888849324761 0 -0.182164522352502 0.41833083015148409 0 -0.1723808956519178 0.41828584418740389 0 -0.17778078602166139 0.40821888849324761 0 -0.19176926968858449 0.42488004754311998 0 -0.182164522352502 0.41833083015148409 0 -0.18693863061853061 0.43491447939059907 0 -0.182164522352502 0.41833083015148409 0 -0.18693863061853061 0.43491447939059907 0 -0.1697263717945888 0.43367042231820602 0 -0.182164522352502 0.41833083015148409 0 -0.1697263717945888 0.43367042231820602 0 -0.182164522352502 0.41833083015148409 0 -0.1723808956519178 0.41828584418740389 0 -0.1697263717945888 0.43367042231820602 0 -0.15995177900170021 0.44572512983606088 0 -0.1697263717945888 0.43367042231820602 0 -0.15376963845050121 0.4328235067909087 0 -0.1697263717945888 0.43367042231820602 0 -0.14650538949161929 0.41591584262955861 0 -0.15376963845050121 0.4328235067909087 0 -0.1697263717945888 0.43367042231820602 0 -0.14650538949161929 0.41591584262955861 0 -0.1723808956519178 0.41828584418740389 0 -0.1697263717945888 0.43367042231820602 0 -0.14650538949161929 0.41591584262955861 0 -0.1723808956519178 0.41828584418740389 0 -0.14650538949161929 0.41591584262955861 0 -0.16330635783110381 0.4038062271485704 0 -0.1723808956519178 0.41828584418740389 0 -0.14650538949161929 0.41591584262955861 0 -0.16330635783110381 0.4038062271485704 0 -0.1723808956519178 0.41828584418740389 0 -0.17778078602166139 0.40821888849324761 0 -0.14650538949161929 0.41591584262955861 0 -0.15376963845050121 0.4328235067909087 0 -0.13889501351409689 0.43598263237980822 0 -0.13889501351409689 0.43598263237980822 0 -0.12761284081938409 0.41418542740570108 0 -0.14650538949161929 0.41591584262955861 0 -0.13889501351409689 0.43598263237980822 0 -0.12761284081938409 0.41418542740570108 0 -0.13889501351409689 0.43598263237980822 0 -0.12761284081938409 0.41418542740570108 0 -0.1242648033483075 0.43981492828754482 0 -0.14650538949161929 0.41591584262955861 0 -0.12761284081938409 0.41418542740570108 0 -0.12644786621320531 0.40058001872868543 0 -0.14650538949161929 0.41591584262955861 0 -0.12644786621320531 0.40058001872868543 0 -0.14650538949161929 0.41591584262955861 0 -0.12761284081938409 0.41418542740570108 0 -0.14650538949161929 0.41591584262955861 0 -0.12644786621320531 0.40058001872868543 0 -0.14438589058212131 0.3948348353259919 0 -0.12644786621320531 0.40058001872868543 0 -0.12826940643264259 0.38638828685515292 0 -0.14438589058212131 0.3948348353259919 0 -0.1399268433138337 0.37661104245066729 0 -0.12826940643264259 0.38638828685515292 0 -0.1198206075896991 0.37069234566290138 0 -0.1399268433138337 0.37661104245066729 0 -0.12826940643264259 0.38638828685515292 0 -0.14438589058212131 0.3948348353259919 0 -0.16248792359233191 0.38534127627451031 0 -0.1399268433138337 0.37661104245066729 0 -0.1571746455416145 0.36408416689185819 0 -0.16248792359233191 0.38534127627451031 0 -0.1399268433138337 0.37661104245066729 0 -0.14438589058212131 0.3948348353259919 0 -0.16330635783110381 0.4038062271485704 0 -0.14650538949161929 0.41591584262955861 0 -0.14438589058212131 0.3948348353259919 0 -0.1367685514822152 0.35851885971508118 0 -0.13367478836053351 0.33932016938713638 0 -0.15331730601663701 0.3395623532820784 0 -0.1367685514822152 0.35851885971508118 0 -0.15331730601663701 0.3395623532820784 0 -0.1571746455416145 0.36408416689185819 0 -0.1399268433138337 0.37661104245066729 0 -0.1367685514822152 0.35851885971508118 0 -0.1571746455416145 0.36408416689185819 0 -0.1399268433138337 0.37661104245066729 0 -0.1367685514822152 0.35851885971508118 0 -0.1198206075896991 0.37069234566290138 0 -0.1367685514822152 0.35851885971508118 0 -0.13367478836053351 0.33932016938713638 0 -0.1173066256070304 0.35104950557859033 0 -0.13367478836053351 0.33932016938713638 0 -0.1262409447270301 0.3211703831111522 0 -0.1175879007316586 0.33497855513245622 0 -0.13367478836053351 0.33932016938713638 0 -0.1262409447270301 0.3211703831111522 0 -0.14995133854557879 0.31573290008088639 0 -0.1262409447270301 0.3211703831111522 0 -0.14995133854557879 0.31573290008088639 0 -0.13170636281121431 0.30540396541675668 0 -0.13367478836053351 0.33932016938713638 0 -0.14995133854557879 0.31573290008088639 0 -0.15331730601663701 0.3395623532820784 0 -0.15331730601663701 0.3395623532820784 0 -0.17079439025487569 0.32494122108339912 0 -0.1763971922801616 0.3532406634935612 0 -0.14995133854557879 0.31573290008088639 0 -0.17079439025487569 0.32494122108339912 0 -0.167164841548782 0.29891422322321631 0 -0.14995133854557879 0.31573290008088639 0 -0.15331730601663701 0.3395623532820784 0 -0.17079439025487569 0.32494122108339912 0 -0.17079439025487569 0.32494122108339912 0 -0.19256976679114979 0.33165381796875049 0 -0.19699128312530151 0.30504565645142051 0 -0.17079439025487569 0.32494122108339912 0 -0.1763971922801616 0.3532406634935612 0 -0.19256976679114979 0.33165381796875049 0 -0.15331730601663701 0.3395623532820784 0 -0.1763971922801616 0.3532406634935612 0 -0.1571746455416145 0.36408416689185819 0 -0.15331730601663701 0.3395623532820784 0 -0.1763971922801616 0.3532406634935612 0 -0.1763971922801616 0.3532406634935612 0 -0.1571746455416145 0.36408416689185819 0 -0.1741500565645078 0.37123080613525078 0 -0.16248792359233191 0.38534127627451031 0 -0.1571746455416145 0.36408416689185819 0 -0.1741500565645078 0.37123080613525078 0 -0.18736095772118591 0.3836472042370111 0 -0.1741500565645078 0.37123080613525078 0 -0.1994770785436861 0.36691897370504389 0 -0.1763971922801616 0.3532406634935612 0 -0.1741500565645078 0.37123080613525078 0 -0.1994770785436861 0.36691897370504389 0 -0.1763971922801616 0.3532406634935612 0 -0.1994770785436861 0.36691897370504389 0 -0.1763971922801616 0.3532406634935612 0 -0.20127160642404629 0.34878804965207372 0 -0.19256976679114979 0.33165381796875049 0 -0.1763971922801616 0.3532406634935612 0 -0.1994770785436861 0.36691897370504389 0 -0.20127160642404629 0.34878804965207372 0 -0.1994770785436861 0.36691897370504389 0 -0.20127160642404629 0.34878804965207372 0 -0.22480168799342179 0.35512276170724633 0 -0.20127160642404629 0.34878804965207372 0 -0.22480168799342179 0.35512276170724633 0 -0.2131123065118124 0.33700403138576668 0 -0.2225569648072106 0.38059728391652659 0 -0.1994770785436861 0.36691897370504389 0 -0.2225569648072106 0.38059728391652659 0 -0.1994770785436861 0.36691897370504389 0 -0.22480168799342179 0.35512276170724633 0 -0.2225569648072106 0.38059728391652659 0 -0.22480168799342179 0.35512276170724633 0 -0.23735930512057779 0.37349779701461089 0 -0.25368472498167011 0.34420349485172652 0 -0.22480168799342179 0.35512276170724633 0 -0.24822911175635759 0.36217347122335058 0 -0.22480168799342179 0.35512276170724633 0 -0.24822911175635759 0.36217347122335058 0 -0.23735930512057779 0.37349779701461089 0 -0.25453646971320443 0.37462232419521813 0 -0.24822911175635759 0.36217347122335058 0 -0.23735930512057779 0.37349779701461089 0 -0.25757488899104952 0.31786411623381933 0 -0.23478691102954721 0.33115088205162452 0 -0.2366570207200871 0.30010935915934539 0 -0.25368472498167011 0.34420349485172652 0 -0.22480168799342179 0.35512276170724633 0 -0.23478691102954721 0.33115088205162452 0 -0.25368472498167011 0.34420349485172652 0 -0.23478691102954721 0.33115088205162452 0 -0.25757488899104952 0.31786411623381933 0 -0.25368472498167011 0.34420349485172652 0 -0.23478691102954721 0.33115088205162452 0 -0.23478691102954721 0.33115088205162452 0 -0.2158890970774244 0.31809826925152251 0 -0.2131123065118124 0.33700403138576668 0 -0.22480168799342179 0.35512276170724633 0 -0.23478691102954721 0.33115088205162452 0 -0.2131123065118124 0.33700403138576668 0 -0.23478691102954721 0.33115088205162452 0 -0.2158890970774244 0.31809826925152251 0 -0.2366570207200871 0.30010935915934539 0 -0.23478691102954721 0.33115088205162452 0 -0.2158890970774244 0.31809826925152251 0 -0.2158890970774244 0.31809826925152251 0 -0.2131123065118124 0.33700403138576668 0 -0.19256976679114979 0.33165381796875049 0 -0.20127160642404629 0.34878804965207372 0 -0.2131123065118124 0.33700403138576668 0 -0.19256976679114979 0.33165381796875049 0 -0.2158890970774244 0.31809826925152251 0 -0.19256976679114979 0.33165381796875049 0 -0.19699128312530151 0.30504565645142051 0 -0.19699128312530151 0.30504565645142051 0 -0.2044220976180971 0.2747921468301005 0 -0.18537993383704029 0.28397978744787411 0 -0.19699128312530151 0.30504565645142051 0 -0.21636901433909059 0.29447561219915308 0 -0.2044220976180971 0.2747921468301005 0 -0.2158890970774244 0.31809826925152251 0 -0.19699128312530151 0.30504565645142051 0 -0.21636901433909059 0.29447561219915308 0 -0.2158890970774244 0.31809826925152251 0 -0.19699128312530151 0.30504565645142051 0 -0.2158890970774244 0.31809826925152251 0 -0.21636901433909059 0.29447561219915308 0 -0.2366570207200871 0.30010935915934539 0 -0.21636901433909059 0.29447561219915308 0 -0.2366570207200871 0.30010935915934539 0 -0.2235041758045673 0.27405874977876837 0 -0.26277913973510902 0.29023342414179659 0 -0.2366570207200871 0.30010935915934539 0 -0.2447247674615598 0.2718938593685879 0 -0.2366570207200871 0.30010935915934539 0 -0.2447247674615598 0.2718938593685879 0 -0.2235041758045673 0.27405874977876837 0 -0.25693865295534157 0.25278860643768353 0 -0.2416444700809012 0.25186566196455601 0 -0.2447247674615598 0.2718938593685879 0 -0.2416444700809012 0.25186566196455601 0 -0.2447247674615598 0.2718938593685879 0 -0.22667039518801041 0.25355429459537898 0 -0.2447247674615598 0.2718938593685879 0 -0.22667039518801041 0.25355429459537898 0 -0.2447247674615598 0.2718938593685879 0 -0.2235041758045673 0.27405874977876837 0 -0.22667039518801041 0.25355429459537898 0 -0.2235041758045673 0.27405874977876837 0 -0.22667039518801041 0.25355429459537898 0 -0.21218175950055909 0.24952722652004439 0 -0.2044220976180971 0.2747921468301005 0 -0.1929026130837673 0.25762258695206858 0 -0.21218175950055909 0.24952722652004439 0 -0.2044220976180971 0.2747921468301005 0 -0.21218175950055909 0.24952722652004439 0 -0.2235041758045673 0.27405874977876837 0 -0.2044220976180971 0.2747921468301005 0 -0.21218175950055909 0.24952722652004439 0 -0.21636901433909059 0.29447561219915308 0 -0.2235041758045673 0.27405874977876837 0 -0.2044220976180971 0.2747921468301005 0 -0.2044220976180971 0.2747921468301005 0 -0.1929026130837673 0.25762258695206858 0 -0.18537993383704029 0.28397978744787411 0 -0.1929026130837673 0.25762258695206858 0 -0.16582228118094081 0.26466105519565358 0 -0.18651378479530609 0.23505073182760211 0 -0.1929026130837673 0.25762258695206858 0 -0.16582228118094081 0.26466105519565358 0 -0.18537993383704029 0.28397978744787411 0 -0.16582228118094081 0.26466105519565358 0 -0.167164841548782 0.29891422322321631 0 -0.14136362158270599 0.28508793949713551 0 -0.16582228118094081 0.26466105519565358 0 -0.18537993383704029 0.28397978744787411 0 -0.167164841548782 0.29891422322321631 0 -0.19699128312530151 0.30504565645142051 0 -0.18537993383704029 0.28397978744787411 0 -0.167164841548782 0.29891422322321631 0 -0.17079439025487569 0.32494122108339912 0 -0.19699128312530151 0.30504565645142051 0 -0.167164841548782 0.29891422322321631 0 -0.167164841548782 0.29891422322321631 0 -0.14136362158270599 0.28508793949713551 0 -0.14995133854557879 0.31573290008088639 0 -0.167164841548782 0.29891422322321631 0 -0.14136362158270599 0.28508793949713551 0 -0.14995133854557879 0.31573290008088639 0 -0.14136362158270599 0.28508793949713551 0 -0.13170636281121431 0.30540396541675668 0 -0.1262409447270301 0.3211703831111522 0 -0.13170636281121431 0.30540396541675668 0 -0.1173504618646501 0.30916380798395637 0 -0.14136362158270599 0.28508793949713551 0 -0.13170636281121431 0.30540396541675668 0 -0.1202787732923796 0.29457691953651272 0 -0.14136362158270599 0.28508793949713551 0 -0.1196693143642453 0.28329908912575552 0 -0.1202787732923796 0.29457691953651272 0 -0.14136362158270599 0.28508793949713551 0 -0.1155624016166297 0.27126165577105521 0 -0.1196693143642453 0.28329908912575552 0 -0.14136362158270599 0.28508793949713551 0 -0.1155624016166297 0.27126165577105521 0 -0.12872708527658799 0.25991420809329241 0 -0.1416417428525672 0.26777243923482702 0 -0.1155624016166297 0.27126165577105521 0 -0.14136362158270599 0.28508793949713551 0 -0.1416417428525672 0.26777243923482702 0 -0.1155624016166297 0.27126165577105521 0 -0.12872708527658799 0.25991420809329241 0 -0.14534546737678511 0.25129379472131641 0 -0.1416417428525672 0.26777243923482702 0 -0.12872708527658799 0.25991420809329241 0 -0.14534546737678511 0.25129379472131641 0 -0.12470300375741469 0.2457033751303839 0 -0.16582228118094081 0.26466105519565358 0 -0.14534546737678511 0.25129379472131641 0 -0.1416417428525672 0.26777243923482702 0 -0.16582228118094081 0.26466105519565358 0 -0.14136362158270599 0.28508793949713551 0 -0.1416417428525672 0.26777243923482702 0 -0.1083690905562489 0.27746201143443072 0 -0.10470287070229969 0.27376422074294909 0 -0.09206590757372593 0.27740472432850488 0 -0.099741497972773749 0.27068482051400677 0 -0.1098053558875477 0.27272524579145851 0 -0.092391857727521592 0.25884509119311472 0 -0.1155624016166297 0.27126165577105521 0 -0.1098053558875477 0.27272524579145851 0 -0.092391857727521592 0.25884509119311472 0 -0.099741497972773749 0.27068482051400677 0 -0.09206590757372593 0.27740472432850488 0 -0.092391857727521592 0.25884509119311472 0 -0.10470287070229969 0.27376422074294909 0 -0.099741497972773749 0.27068482051400677 0 -0.1098053558875477 0.27272524579145851 0 -0.1083690905562489 0.27746201143443072 0 -0.1098053558875477 0.27272524579145851 0 -0.1083690905562489 0.27746201143443072 0 -0.10470287070229969 0.27376422074294909 0 -0.1098053558875477 0.27272524579145851 0 -0.10470287070229969 0.27376422074294909 0 -0.099741497972773749 0.27068482051400677 0 -0.09206590757372593 0.27740472432850488 0 -0.1155624016166297 0.27126165577105521 0 -0.092391857727521592 0.25884509119311472 0 -0.11076524853809321 0.25238606884059173 0 -0.1155624016166297 0.27126165577105521 0 -0.092391857727521592 0.25884509119311472 0 -0.11076524853809321 0.25238606884059173 0 -0.1199394347971814 0.25731632695883078 0 -0.1155624016166297 0.27126165577105521 0 -0.12872708527658799 0.25991420809329241 0 -0.1199394347971814 0.25731632695883078 0 -0.12470300375741469 0.2457033751303839 0 -0.11076524853809321 0.25238606884059173 0 -0.1199394347971814 0.25731632695883078 0 -0.12470300375741469 0.2457033751303839 0 -0.12872708527658799 0.25991420809329241 0 -0.1199394347971814 0.25731632695883078 0 -0.1155624016166297 0.27126165577105521 0 -0.12872708527658799 0.25991420809329241 0 -0.1155624016166297 0.27126165577105521 0 -0.1083690905562489 0.27746201143443072 0 -0.1155624016166297 0.27126165577105521 0 -0.1196693143642453 0.28329908912575552 0 -0.1083690905562489 0.27746201143443072 0 -0.1155624016166297 0.27126165577105521 0 -0.1098053558875477 0.27272524579145851 0 -0.1083690905562489 0.27746201143443072 0 -0.1155624016166297 0.27126165577105521 0 -0.1083690905562489 0.27746201143443072 0 -0.1202787732923796 0.29457691953651272 0 -0.1003457715998239 0.30392270831765028 0 -0.1083690905562489 0.27746201143443072 0 -0.1196693143642453 0.28329908912575552 0 -0.1202787732923796 0.29457691953651272 0 -0.1202787732923796 0.29457691953651272 0 -0.1173504618646501 0.30916380798395637 0 -0.1003457715998239 0.30392270831765028 0 -0.13170636281121431 0.30540396541675668 0 -0.1202787732923796 0.29457691953651272 0 -0.1173504618646501 0.30916380798395637 0 -0.1173504618646501 0.30916380798395637 0 -0.1003457715998239 0.30392270831765028 0 -0.1081804568928026 0.32074506353771021 0 -0.1083690905562489 0.27746201143443072 0 -0.08834593029567378 0.29472120043351602 0 -0.09206590757372593 0.27740472432850488 0 -0.1083690905562489 0.27746201143443072 0 -0.1003457715998239 0.30392270831765028 0 -0.08834593029567378 0.29472120043351602 0 -0.1083690905562489 0.27746201143443072 0 -0.1003457715998239 0.30392270831765028 0 -0.1083690905562489 0.27746201143443072 0 -0.08834593029567378 0.29472120043351602 0 -0.08834593029567378 0.29472120043351602 0 -0.079344374197139078 0.28508182268507098 0 -0.09206590757372593 0.27740472432850488 0 -0.08834593029567378 0.29472120043351602 0 -0.072463929930227558 0.29930610977545041 0 -0.077617967212061698 0.29366907382828078 0 -0.08834593029567378 0.29472120043351602 0 -0.079344374197139078 0.28508182268507098 0 -0.077617967212061698 0.29366907382828078 0 -0.08834593029567378 0.29472120043351602 0 -0.087527931766016032 0.31235393694025021 0 -0.08121949171140587 0.31012908581564408 0 -0.08834593029567378 0.29472120043351602 0 -0.068322770035098762 0.31198038943260148 0 -0.1003457715998239 0.30392270831765028 0 -0.08834593029567378 0.29472120043351602 0 -0.087527931766016032 0.31235393694025021 0 -0.08834593029567378 0.29472120043351602 0 -0.08121949171140587 0.31012908581564408 0 -0.069852456288818351 0.31207980665071 0 -0.08834593029567378 0.29472120043351602 0 -0.068322770035098762 0.31198038943260148 0 -0.069852456288818351 0.31207980665071 0 -0.08834593029567378 0.29472120043351602 0 -0.072463929930227558 0.29930610977545041 0 -0.068322770035098762 0.31198038943260148 0 -0.072463929930227558 0.29930610977545041 0 -0.064179569528432873 0.29754197169583518 0 -0.063962500348327456 0.30379626580195229 0 -0.072463929930227558 0.29930610977545041 0 -0.063962500348327456 0.30379626580195229 0 -0.068322770035098762 0.31198038943260148 0 -0.068322770035098762 0.31198038943260148 0 -0.069852456288818351 0.31207980665071 0 -0.079344374197139078 0.28508182268507098 0 -0.070510141993048517 0.29225124769799787 0 -0.067485792004003509 0.28106498521306011 0 -0.079344374197139078 0.28508182268507098 0 -0.077617967212061698 0.29366907382828078 0 -0.070510141993048517 0.29225124769799787 0 -0.072463929930227558 0.29930610977545041 0 -0.077617967212061698 0.29366907382828078 0 -0.070510141993048517 0.29225124769799787 0 -0.064179569528432873 0.29754197169583518 0 -0.070510141993048517 0.29225124769799787 0 -0.059799020663136082 0.29068729405280619 0 -0.072463929930227558 0.29930610977545041 0 -0.064179569528432873 0.29754197169583518 0 -0.070510141993048517 0.29225124769799787 0 -0.070510141993048517 0.29225124769799787 0 -0.067485792004003509 0.28106498521306011 0 -0.059799020663136082 0.29068729405280619 0 -0.079344374197139078 0.28508182268507098 0 -0.077112635008727601 0.26938653581869981 0 -0.067485792004003509 0.28106498521306011 0 -0.077112635008727601 0.26938653581869981 0 -0.067485792004003509 0.28106498521306011 0 -0.060296114269721542 0.26705395206363342 0 -0.079344374197139078 0.28508182268507098 0 -0.077112635008727601 0.26938653581869981 0 -0.09206590757372593 0.27740472432850488 0 -0.077112635008727601 0.26938653581869981 0 -0.09206590757372593 0.27740472432850488 0 -0.092391857727521592 0.25884509119311472 0 -0.092391857727521592 0.25884509119311472 0 -0.069221313838413207 0.24642852661517459 0 -0.077112635008727601 0.26938653581869981 0 -0.092391857727521592 0.25884509119311472 0 -0.069221313838413207 0.24642852661517459 0 -0.077112635008727601 0.26938653581869981 0 -0.060296114269721542 0.26705395206363342 0 -0.069221313838413207 0.24642852661517459 0 -0.048126263350958612 0.25465777805589501 0 -0.060296114269721542 0.26705395206363342 0 -0.069221313838413207 0.24642852661517459 0 -0.048126263350958612 0.25465777805589501 0 -0.060296114269721542 0.26705395206363342 0 -0.041784573477856593 0.2719242686623195 0 -0.055384127889045079 0.27986410773994991 0 -0.060296114269721542 0.26705395206363342 0 -0.041784573477856593 0.2719242686623195 0 -0.055384127889045079 0.27986410773994991 0 -0.041784573477856593 0.2719242686623195 0 -0.044370237993260717 0.29032640624232281 0 -0.067485792004003509 0.28106498521306011 0 -0.055384127889045079 0.27986410773994991 0 -0.060296114269721542 0.26705395206363342 0 -0.041784573477856593 0.2719242686623195 0 -0.028053557715267439 0.25838243531431121 0 -0.02550209953536561 0.27186686885002359 0 -0.041784573477856593 0.2719242686623195 0 -0.02550209953536561 0.27186686885002359 0 -0.031040102747703489 0.28267752730564011 0 -0.048126263350958612 0.25465777805589501 0 -0.041784573477856593 0.2719242686623195 0 -0.028053557715267439 0.25838243531431121 0 -0.048126263350958612 0.25465777805589501 0 -0.028053557715267439 0.25838243531431121 0 -0.033382390283993792 0.24359412621706661 0 -0.028053557715267439 0.25838243531431121 0 -0.01504563196256534 0.26333196488375049 0 -0.01778818590069102 0.2421293126167848 0 -0.01504563196256534 0.26333196488375049 0 -0.01778818590069102 0.2421293126167848 0 -0.028053557715267439 0.25838243531431121 0 -0.02550209953536561 0.27186686885002359 0 -0.01504563196256534 0.26333196488375049 0 -0.028053557715267439 0.25838243531431121 0 -0.01504563196256534 0.26333196488375049 0 -0.02550209953536561 0.27186686885002359 0 -0.01214761008608776 0.28573653795517551 0 -0.031040102747703489 0.28267752730564011 0 -0.02550209953536561 0.27186686885002359 0 -0.01504563196256534 0.26333196488375049 0 -0.01214761008608776 0.28573653795517551 0 -0.001267499687089951 0.2776013217203892 0 -0.01504563196256534 0.26333196488375049 0 -0.01214761008608776 0.28573653795517551 0 -0.01504563196256534 0.26333196488375049 0 -0.01214761008608776 0.28573653795517551 0 -0.00067809962666212902 0.26216505597133072 0 -0.01504563196256534 0.26333196488375049 0 0.010965700908337589 0.27322930467739909 0 -0.001267499687089951 0.2776013217203892 0 -0.01504563196256534 0.26333196488375049 0 0.010965700908337589 0.27322930467739909 0 -0.01504563196256534 0.26333196488375049 0 0.010965700908337589 0.27322930467739909 0 -0.0087132352456033638 0.25173417187717928 0 -0.01504563196256534 0.26333196488375049 0 -0.01778818590069102 0.2421293126167848 0 -0.00067809962666212902 0.26216505597133072 0 -0.0087132352456033638 0.25173417187717928 0 0.0027594708259384838 0.25829047161104352 0 -0.00067809962666212902 0.26216505597133072 0 -0.0087132352456033638 0.25173417187717928 0 -0.01504563196256534 0.26333196488375049 0 -0.009249588209606344 0.30814111102660002 0 -0.01214761008608776 0.28573653795517551 0 0.0038021096493471361 0.29689124930627131 0 -0.009249588209606344 0.30814111102660002 0 -0.01214761008608776 0.28573653795517551 0 -0.01214761008608776 0.28573653795517551 0 0.002380999114604244 0.28599596302517022 0 0.0038021096493471361 0.29689124930627131 0 -0.001267499687089951 0.2776013217203892 0 -0.01214761008608776 0.28573653795517551 0 0.002380999114604244 0.28599596302517022 0 -0.009249588209606344 0.30814111102660002 0 -0.01214761008608776 0.28573653795517551 0 -0.02711874363180217 0.2953884665518679 0 -0.01214761008608776 0.28573653795517551 0 -0.031040102747703489 0.28267752730564011 0 -0.02711874363180217 0.2953884665518679 0 -0.009249588209606344 0.30814111102660002 0 -0.02711874363180217 0.2953884665518679 0 -0.038786179122352507 0.31006075022960111 0 -0.009249588209606344 0.30814111102660002 0 -0.038786179122352507 0.31006075022960111 0 -0.02711874363180217 0.2953884665518679 0 -0.038786179122352507 0.31006075022960111 0 -0.044370237993260717 0.29032640624232281 0 -0.038786179122352507 0.31006075022960111 0 -0.044370237993260717 0.29032640624232281 0 -0.054162254707424723 0.30166894115096898 0 -0.031040102747703489 0.28267752730564011 0 -0.02711874363180217 0.2953884665518679 0 -0.044370237993260717 0.29032640624232281 0 -0.041784573477856593 0.2719242686623195 0 -0.031040102747703489 0.28267752730564011 0 -0.044370237993260717 0.29032640624232281 0 -0.055384127889045079 0.27986410773994991 0 -0.044370237993260717 0.29032640624232281 0 -0.059799020663136082 0.29068729405280619 0 -0.044370237993260717 0.29032640624232281 0 -0.059799020663136082 0.29068729405280619 0 -0.054162254707424723 0.30166894115096898 0 -0.064179569528432873 0.29754197169583518 0 -0.059799020663136082 0.29068729405280619 0 -0.054162254707424723 0.30166894115096898 0 -0.067485792004003509 0.28106498521306011 0 -0.055384127889045079 0.27986410773994991 0 -0.059799020663136082 0.29068729405280619 0 -0.068322770035098762 0.31198038943260148 0 -0.038786179122352507 0.31006075022960111 0 -0.068322770035098762 0.31198038943260148 0 -0.038786179122352507 0.31006075022960111 0 -0.054162254707424723 0.30166894115096898 0 -0.064179569528432873 0.29754197169583518 0 -0.063962500348327456 0.30379626580195229 0 -0.054162254707424723 0.30166894115096898 0 -0.063962500348327456 0.30379626580195229 0 -0.068322770035098762 0.31198038943260148 0 -0.054162254707424723 0.30166894115096898 0 -0.068322770035098762 0.31198038943260148 0 -0.038786179122352507 0.31006075022960111 0 -0.053879496619987192 0.32442993198196868 0 -0.068322770035098762 0.31198038943260148 0 -0.053879496619987192 0.32442993198196868 0 -0.059045099567240703 0.33862263320968672 0 -0.059976501396798443 0.34640013057040159 0 -0.068046633572776155 0.34513696516333192 0 -0.053879496619987192 0.32442993198196868 0 -0.059045099567240703 0.33862263320968672 0 -0.06815446288386498 0.3263880450875648 0 -0.053879496619987192 0.32442993198196868 0 -0.059045099567240703 0.33862263320968672 0 -0.049717572699208172 0.33977374392884352 0 -0.053879496619987192 0.32442993198196868 0 -0.049717572699208172 0.33977374392884352 0 -0.039436223204876379 0.33687947453133682 0 -0.059045099567240703 0.33862263320968672 0 -0.049717572699208172 0.33977374392884352 0 -0.052933118771744558 0.34753778728834739 0 -0.049717572699208172 0.33977374392884352 0 -0.039436223204876379 0.33687947453133682 0 -0.045752302425533672 0.34929255203680049 0 -0.053879496619987192 0.32442993198196868 0 -0.039436223204876379 0.33687947453133682 0 -0.039359444206513459 0.32419621080282812 0 -0.053879496619987192 0.32442993198196868 0 -0.039436223204876379 0.33687947453133682 0 -0.039436223204876379 0.33687947453133682 0 -0.039359444206513459 0.32419621080282812 0 -0.02531264429424256 0.33765677836634578 0 -0.039436223204876379 0.33687947453133682 0 -0.02531264429424256 0.33765677836634578 0 -0.034795741464765127 0.3466441775467104 0 -0.038786179122352507 0.31006075022960111 0 -0.053879496619987192 0.32442993198196868 0 -0.039359444206513459 0.32419621080282812 0 -0.038786179122352507 0.31006075022960111 0 -0.039359444206513459 0.32419621080282812 0 -0.024068293084679539 0.32272721199300619 0 -0.009249588209606344 0.30814111102660002 0 -0.038786179122352507 0.31006075022960111 0 -0.024068293084679539 0.32272721199300619 0 -0.024068293084679539 0.32272721199300619 0 -0.02531264429424256 0.33765677836634578 0 -0.005758602284471958 0.33512988219008361 0 -0.039359444206513459 0.32419621080282812 0 -0.024068293084679539 0.32272721199300619 0 -0.02531264429424256 0.33765677836634578 0 -0.005758602284471958 0.33512988219008361 0 -0.0077202170519437719 0.34710906184019069 0 0.0082446038140756572 0.34376242611402219 0 -0.02531264429424256 0.33765677836634578 0 -0.005758602284471958 0.33512988219008361 0 -0.0077202170519437719 0.34710906184019069 0 -0.009249588209606344 0.30814111102660002 0 -0.005758602284471958 0.33512988219008361 0 0.0094307060340404689 0.32376070079746733 0 -0.009249588209606344 0.30814111102660002 0 -0.005758602284471958 0.33512988219008361 0 -0.009249588209606344 0.30814111102660002 0 -0.024068293084679539 0.32272721199300619 0 -0.005758602284471958 0.33512988219008361 0 -0.0045677851665312944 0.36532665559408428 0 -0.0087141207398781558 0.37710904293520409 0 0.0077169544749549623 0.36306791211952738 0 -0.0045677851665312944 0.36532665559408428 0 -0.019623601183504629 0.35541479533684739 0 -0.0087141207398781558 0.37710904293520409 0 -0.0087141207398781558 0.37710904293520409 0 0.0077169544749549623 0.36306791211952738 0 -0.0077202170519437719 0.34710906184019069 0 -0.019623601183504629 0.35541479533684739 0 0.0038095970876644218 0.35606187191015221 0 -0.019623601183504629 0.35541479533684739 0 0.0038095970876644218 0.35606187191015221 0 -0.0045677851665312944 0.36532665559408428 0 -0.019623601183504629 0.35541479533684739 0 0.0038095970876644218 0.35606187191015221 0 -0.02531264429424256 0.33765677836634578 0 -0.019623601183504629 0.35541479533684739 0 -0.034795741464765127 0.3466441775467104 0 -0.02531264429424256 0.33765677836634578 0 -0.0077202170519437719 0.34710906184019069 0 -0.019623601183504629 0.35541479533684739 0 -0.019623601183504629 0.35541479533684739 0 -0.034100997704691827 0.37295894625721099 0 -0.0087141207398781558 0.37710904293520409 0 -0.019623601183504629 0.35541479533684739 0 -0.034100997704691827 0.37295894625721099 0 -0.043056799454673583 0.35476771876354157 0 -0.034100997704691827 0.37295894625721099 0 -0.047131069669461997 0.36807368878450081 0 -0.054593457040109393 0.3822816536988497 0 -0.034100997704691827 0.37295894625721099 0 -0.043056799454673583 0.35476771876354157 0 -0.034100997704691827 0.37295894625721099 0 -0.043056799454673583 0.35476771876354157 0 -0.047131069669461997 0.36807368878450081 0 -0.019623601183504629 0.35541479533684739 0 -0.043056799454673583 0.35476771876354157 0 -0.019623601183504629 0.35541479533684739 0 -0.034795741464765127 0.3466441775467104 0 -0.043056799454673583 0.35476771876354157 0 -0.043056799454673583 0.35476771876354157 0 -0.045752302425533672 0.34929255203680049 0 -0.039436223204876379 0.33687947453133682 0 -0.034795741464765127 0.3466441775467104 0 -0.045752302425533672 0.34929255203680049 0 -0.034795741464765127 0.3466441775467104 0 -0.043056799454673583 0.35476771876354157 0 -0.045752302425533672 0.34929255203680049 0 -0.043056799454673583 0.35476771876354157 0 -0.052933118771744558 0.34753778728834739 0 -0.059881153675432383 0.35430313662024071 0 -0.043056799454673583 0.35476771876354157 0 -0.059881153675432383 0.35430313662024071 0 -0.051828064233363932 0.36038047858465339 0 -0.043056799454673583 0.35476771876354157 0 -0.059881153675432383 0.35430313662024071 0 -0.043056799454673583 0.35476771876354157 0 -0.045752302425533672 0.34929255203680049 0 -0.052933118771744558 0.34753778728834739 0 -0.049717572699208172 0.33977374392884352 0 -0.045752302425533672 0.34929255203680049 0 -0.052933118771744558 0.34753778728834739 0 -0.059881153675432383 0.35430313662024071 0 -0.051828064233363932 0.36038047858465339 0 -0.058626870601395778 0.36023180910453118 0 -0.059045099567240703 0.33862263320968672 0 -0.052933118771744558 0.34753778728834739 0 -0.059976501396798443 0.34640013057040159 0 -0.052933118771744558 0.34753778728834739 0 -0.059881153675432383 0.35430313662024071 0 -0.059976501396798443 0.34640013057040159 0 -0.047131069669461997 0.36807368878450081 0 -0.054116187566776573 0.36544526432200969 0 -0.058148679921659119 0.37186744297544022 0 -0.047131069669461997 0.36807368878450081 0 -0.058148679921659119 0.37186744297544022 0 -0.054593457040109393 0.3822816536988497 0 -0.043056799454673583 0.35476771876354157 0 -0.047131069669461997 0.36807368878450081 0 -0.051828064233363932 0.36038047858465339 0 -0.047131069669461997 0.36807368878450081 0 -0.051828064233363932 0.36038047858465339 0 -0.054116187566776573 0.36544526432200969 0 -0.054116187566776573 0.36544526432200969 0 -0.058626870601395778 0.36023180910453118 0 -0.058148679921659119 0.37186744297544022 0 -0.051828064233363932 0.36038047858465339 0 -0.054116187566776573 0.36544526432200969 0 -0.058626870601395778 0.36023180910453118 0 -0.058626870601395778 0.36023180910453118 0 -0.058148679921659119 0.37186744297544022 0 -0.076275814730551866 0.38330479896731001 0 -0.058626870601395778 0.36023180910453118 0 -0.071157696118109362 0.36170448025062218 0 -0.076275814730551866 0.38330479896731001 0 -0.071157696118109362 0.36170448025062218 0 -0.084299133686975572 0.35684410208409001 0 -0.076275814730551866 0.38330479896731001 0 -0.058626870601395778 0.36023180910453118 0 -0.076275814730551866 0.38330479896731001 0 -0.084299133686975572 0.35684410208409001 0 -0.089436666146690338 0.3774527594588406 0 -0.076275814730551866 0.38330479896731001 0 -0.084299133686975572 0.35684410208409001 0 -0.076275814730551866 0.38330479896731001 0 -0.093494049974744503 0.36523362229143391 0 -0.084299133686975572 0.35684410208409001 0 -0.089436666146690338 0.3774527594588406 0 -0.084299133686975572 0.35684410208409001 0 -0.076705507896191183 0.35383855447693902 0 -0.080753986599573127 0.33990497651870988 0 -0.084299133686975572 0.35684410208409001 0 -0.092322452643399749 0.33038340520087017 0 -0.095141502753968779 0.35097174187852381 0 -0.093494049974744503 0.36523362229143391 0 -0.084299133686975572 0.35684410208409001 0 -0.095141502753968779 0.35097174187852381 0 -0.059881153675432383 0.35430313662024071 0 -0.071157696118109362 0.36170448025062218 0 -0.076705507896191183 0.35383855447693902 0 -0.076705507896191183 0.35383855447693902 0 -0.068046633572776155 0.34513696516333192 0 -0.080753986599573127 0.33990497651870988 0 -0.059881153675432383 0.35430313662024071 0 -0.076705507896191183 0.35383855447693902 0 -0.068046633572776155 0.34513696516333192 0 -0.059881153675432383 0.35430313662024071 0 -0.076705507896191183 0.35383855447693902 0 -0.071157696118109362 0.36170448025062218 0 -0.084299133686975572 0.35684410208409001 0 -0.076705507896191183 0.35383855447693902 0 -0.059881153675432383 0.35430313662024071 0 -0.058626870601395778 0.36023180910453118 0 -0.071157696118109362 0.36170448025062218 0 -0.059881153675432383 0.35430313662024071 0 -0.059976501396798443 0.34640013057040159 0 -0.068046633572776155 0.34513696516333192 0 -0.06815446288386498 0.3263880450875648 0 -0.079151648495115301 0.32136139923810009 0 -0.080753986599573127 0.33990497651870988 0 -0.068046633572776155 0.34513696516333192 0 -0.06815446288386498 0.3263880450875648 0 -0.080753986599573127 0.33990497651870988 0 -0.059045099567240703 0.33862263320968672 0 -0.068046633572776155 0.34513696516333192 0 -0.06815446288386498 0.3263880450875648 0 -0.068322770035098762 0.31198038943260148 0 -0.069852456288818351 0.31207980665071 0 -0.06815446288386498 0.3263880450875648 0 -0.068322770035098762 0.31198038943260148 0 -0.053879496619987192 0.32442993198196868 0 -0.06815446288386498 0.3263880450875648 0 -0.08121949171140587 0.31012908581564408 0 -0.069852456288818351 0.31207980665071 0 -0.079151648495115301 0.32136139923810009 0 -0.069852456288818351 0.31207980665071 0 -0.06815446288386498 0.3263880450875648 0 -0.079151648495115301 0.32136139923810009 0 -0.087527931766016032 0.31235393694025021 0 -0.079151648495115301 0.32136139923810009 0 -0.092322452643399749 0.33038340520087017 0 -0.1003457715998239 0.30392270831765028 0 -0.087527931766016032 0.31235393694025021 0 -0.092322452643399749 0.33038340520087017 0 -0.087527931766016032 0.31235393694025021 0 -0.08121949171140587 0.31012908581564408 0 -0.079151648495115301 0.32136139923810009 0 -0.084299133686975572 0.35684410208409001 0 -0.092322452643399749 0.33038340520087017 0 -0.079151648495115301 0.32136139923810009 0 -0.092322452643399749 0.33038340520087017 0 -0.080753986599573127 0.33990497651870988 0 -0.084299133686975572 0.35684410208409001 0 -0.092322452643399749 0.33038340520087017 0 -0.080753986599573127 0.33990497651870988 0 -0.092322452643399749 0.33038340520087017 0 -0.10472406897533799 0.34168768652513631 0 -0.095141502753968779 0.35097174187852381 0 -0.092322452643399749 0.33038340520087017 0 -0.10472406897533799 0.34168768652513631 0 -0.1081804568928026 0.32074506353771021 0 -0.1003457715998239 0.30392270831765028 0 -0.092322452643399749 0.33038340520087017 0 -0.1003457715998239 0.30392270831765028 0 -0.092322452643399749 0.33038340520087017 0 -0.1081804568928026 0.32074506353771021 0 -0.1262409447270301 0.3211703831111522 0 -0.1173504618646501 0.30916380798395637 0 -0.1081804568928026 0.32074506353771021 0 -0.1262409447270301 0.3211703831111522 0 -0.1081804568928026 0.32074506353771021 0 -0.1175879007316586 0.33497855513245622 0 -0.13367478836053351 0.33932016938713638 0 -0.1175879007316586 0.33497855513245622 0 -0.1173066256070304 0.35104950557859033 0 -0.10472406897533799 0.34168768652513631 0 -0.1081804568928026 0.32074506353771021 0 -0.1175879007316586 0.33497855513245622 0 -0.10472406897533799 0.34168768652513631 0 -0.1175879007316586 0.33497855513245622 0 -0.1173066256070304 0.35104950557859033 0 -0.1173066256070304 0.35104950557859033 0 -0.1198206075896991 0.37069234566290138 0 -0.1030551893938276 0.35978992576853291 0 -0.1367685514822152 0.35851885971508118 0 -0.1173066256070304 0.35104950557859033 0 -0.1198206075896991 0.37069234566290138 0 -0.1198206075896991 0.37069234566290138 0 -0.1030551893938276 0.35978992576853291 0 -0.10026372758235801 0.37465761506622741 0 -0.093494049974744503 0.36523362229143391 0 -0.10026372758235801 0.37465761506622741 0 -0.089436666146690338 0.3774527594588406 0 -0.093494049974744503 0.36523362229143391 0 -0.1030551893938276 0.35978992576853291 0 -0.10026372758235801 0.37465761506622741 0 -0.10472406897533799 0.34168768652513631 0 -0.1030551893938276 0.35978992576853291 0 -0.095141502753968779 0.35097174187852381 0 -0.093494049974744503 0.36523362229143391 0 -0.1030551893938276 0.35978992576853291 0 -0.095141502753968779 0.35097174187852381 0 -0.10472406897533799 0.34168768652513631 0 -0.1173066256070304 0.35104950557859033 0 -0.1030551893938276 0.35978992576853291 0 -0.101128536279416 0.3977608810528192 0 -0.11378235269799521 0.38746486633725291 0 -0.11258596611237601 0.40408595479252452 0 -0.101128536279416 0.3977608810528192 0 -0.095244926421122186 0.38729621463576269 0 -0.11378235269799521 0.38746486633725291 0 -0.101128536279416 0.3977608810528192 0 -0.11258596611237601 0.40408595479252452 0 -0.097808874238227678 0.41145560844912898 0 -0.101128536279416 0.3977608810528192 0 -0.097808874238227678 0.41145560844912898 0 -0.087042344484389883 0.39738020370821953 0 -0.101128536279416 0.3977608810528192 0 -0.095244926421122186 0.38729621463576269 0 -0.087042344484389883 0.39738020370821953 0 -0.10026372758235801 0.37465761506622741 0 -0.095244926421122186 0.38729621463576269 0 -0.11378235269799521 0.38746486633725291 0 -0.10026372758235801 0.37465761506622741 0 -0.095244926421122186 0.38729621463576269 0 -0.089436666146690338 0.3774527594588406 0 -0.1198206075896991 0.37069234566290138 0 -0.10026372758235801 0.37465761506622741 0 -0.11378235269799521 0.38746486633725291 0 -0.12826940643264259 0.38638828685515292 0 -0.1198206075896991 0.37069234566290138 0 -0.11378235269799521 0.38746486633725291 0 -0.12644786621320531 0.40058001872868543 0 -0.12826940643264259 0.38638828685515292 0 -0.11378235269799521 0.38746486633725291 0 -0.12761284081938409 0.41418542740570108 0 -0.11378235269799521 0.38746486633725291 0 -0.12761284081938409 0.41418542740570108 0 -0.12644786621320531 0.40058001872868543 0 -0.11378235269799521 0.38746486633725291 0 -0.12761284081938409 0.41418542740570108 0 -0.11378235269799521 0.38746486633725291 0 -0.11258596611237601 0.40408595479252452 0 -0.12761284081938409 0.41418542740570108 0 -0.11258596611237601 0.40408595479252452 0 -0.097808874238227678 0.41145560844912898 0 -0.12761284081938409 0.41418542740570108 0 -0.1126245701039178 0.4308246085444013 0 -0.097808874238227678 0.41145560844912898 0 -0.12761284081938409 0.41418542740570108 0 -0.097808874238227678 0.41145560844912898 0 -0.12761284081938409 0.41418542740570108 0 -0.1126245701039178 0.4308246085444013 0 -0.1242648033483075 0.43981492828754482 0 -0.1126245701039178 0.4308246085444013 0 -0.096605527178418776 0.42311346390882398 0 -0.097170403390676049 0.43571281837191522 0 -0.1126245701039178 0.4308246085444013 0 -0.097170403390676049 0.43571281837191522 0 -0.10338783084247161 0.44098956532991213 0 -0.1126245701039178 0.4308246085444013 0 -0.097808874238227678 0.41145560844912898 0 -0.1126245701039178 0.4308246085444013 0 -0.096605527178418776 0.42311346390882398 0 -0.097808874238227678 0.41145560844912898 0 -0.096605527178418776 0.42311346390882398 0 -0.097808874238227678 0.41145560844912898 0 -0.090623427087895073 0.41079747558654428 0 -0.097808874238227678 0.41145560844912898 0 -0.090623427087895073 0.41079747558654428 0 -0.096605527178418776 0.42311346390882398 0 -0.090623427087895073 0.41079747558654428 0 -0.084800361071377284 0.4267768085921303 0 -0.090623427087895073 0.41079747558654428 0 -0.084347825254610875 0.40943513047528779 0 -0.084800361071377284 0.4267768085921303 0 -0.084800361071377284 0.4267768085921303 0 -0.074925168374781331 0.40278603401425761 0 -0.084347825254610875 0.40943513047528779 0 -0.084800361071377284 0.4267768085921303 0 -0.074925168374781331 0.40278603401425761 0 -0.097808874238227678 0.41145560844912898 0 -0.090623427087895073 0.41079747558654428 0 -0.087042344484389883 0.39738020370821953 0 -0.096605527178418776 0.42311346390882398 0 -0.097170403390676049 0.43571281837191522 0 -0.084800361071377284 0.4267768085921303 0 -0.084800361071377284 0.4267768085921303 0 -0.077689053426030094 0.43734830183904833 0 -0.073740177733494089 0.43015549729097768 0 -0.084800361071377284 0.4267768085921303 0 -0.077689053426030094 0.43734830183904833 0 -0.085627028266785254 0.44117175463919189 0 -0.077689053426030094 0.43734830183904833 0 -0.073740177733494089 0.43015549729097768 0 -0.069373851585076945 0.43677151010665521 0 -0.084800361071377284 0.4267768085921303 0 -0.073740177733494089 0.43015549729097768 0 -0.074963529381557356 0.42372471124402672 0 -0.084800361071377284 0.4267768085921303 0 -0.074963529381557356 0.42372471124402672 0 -0.074207610301873977 0.415826985147286 0 -0.073740177733494089 0.43015549729097768 0 -0.07134827269677288 0.42521816639912852 0 -0.067010261651664849 0.42692585223643509 0 -0.073740177733494089 0.43015549729097768 0 -0.074963529381557356 0.42372471124402672 0 -0.07134827269677288 0.42521816639912852 0 -0.074963529381557356 0.42372471124402672 0 -0.07134827269677288 0.42521816639912852 0 -0.069903249343569923 0.42035209495099629 0 -0.06803153127557314 0.42418340705062968 0 -0.063864341410284964 0.42423751461595932 0 -0.069903249343569923 0.42035209495099629 0 -0.07134827269677288 0.42521816639912852 0 -0.06803153127557314 0.42418340705062968 0 -0.067010261651664849 0.42692585223643509 0 -0.07134827269677288 0.42521816639912852 0 -0.06803153127557314 0.42418340705062968 0 -0.069903249343569923 0.42035209495099629 0 -0.06803153127557314 0.42418340705062968 0 -0.063864341410284964 0.42423751461595932 0 -0.067010261651664849 0.42692585223643509 0 -0.063864341410284964 0.42423751461595932 0 -0.067010261651664849 0.42692585223643509 0 -0.067010261651664849 0.42692585223643509 0 -0.06657591115514655 0.43192586875325267 0 -0.062357688865182517 0.42920641545622512 0 -0.063864341410284964 0.42423751461595932 0 -0.067010261651664849 0.42692585223643509 0 -0.062357688865182517 0.42920641545622512 0 -0.063864341410284964 0.42423751461595932 0 -0.062357688865182517 0.42920641545622512 0 -0.073740177733494089 0.43015549729097768 0 -0.067010261651664849 0.42692585223643509 0 -0.06657591115514655 0.43192586875325267 0 -0.073740177733494089 0.43015549729097768 0 -0.06657591115514655 0.43192586875325267 0 -0.069373851585076945 0.43677151010665521 0 -0.06657591115514655 0.43192586875325267 0 -0.062750456602468974 0.43554137489064498 0 -0.062357688865182517 0.42920641545622512 0 -0.06657591115514655 0.43192586875325267 0 -0.062750456602468974 0.43554137489064498 0 -0.069373851585076945 0.43677151010665521 0 -0.063864341410284964 0.42423751461595932 0 -0.069903249343569923 0.42035209495099629 0 -0.070070078070418332 0.40377115679163461 0 -0.074207610301873977 0.415826985147286 0 -0.069903249343569923 0.42035209495099629 0 -0.070070078070418332 0.40377115679163461 0 -0.063864341410284964 0.42423751461595932 0 -0.070070078070418332 0.40377115679163461 0 -0.058881304157308093 0.40804381518971672 0 -0.063864341410284964 0.42423751461595932 0 -0.070070078070418332 0.40377115679163461 0 -0.084800361071377284 0.4267768085921303 0 -0.074207610301873977 0.415826985147286 0 -0.074925168374781331 0.40278603401425761 0 -0.074207610301873977 0.415826985147286 0 -0.070070078070418332 0.40377115679163461 0 -0.074925168374781331 0.40278603401425761 0 -0.074963529381557356 0.42372471124402672 0 -0.074207610301873977 0.415826985147286 0 -0.069903249343569923 0.42035209495099629 0 -0.070070078070418332 0.40377115679163461 0 -0.064506344576777661 0.39145758865641178 0 -0.076275814730551866 0.38330479896731001 0 -0.070070078070418332 0.40377115679163461 0 -0.074925168374781331 0.40278603401425761 0 -0.076275814730551866 0.38330479896731001 0 -0.070070078070418332 0.40377115679163461 0 -0.076275814730551866 0.38330479896731001 0 -0.070070078070418332 0.40377115679163461 0 -0.064506344576777661 0.39145758865641178 0 -0.057086028466031037 0.39647274516785291 0 -0.074925168374781331 0.40278603401425761 0 -0.087042344484389883 0.39738020370821953 0 -0.076275814730551866 0.38330479896731001 0 -0.084347825254610875 0.40943513047528779 0 -0.074925168374781331 0.40278603401425761 0 -0.087042344484389883 0.39738020370821953 0 -0.097808874238227678 0.41145560844912898 0 -0.087042344484389883 0.39738020370821953 0 -0.090623427087895073 0.41079747558654428 0 -0.084347825254610875 0.40943513047528779 0 -0.087042344484389883 0.39738020370821953 0 -0.087042344484389883 0.39738020370821953 0 -0.089436666146690338 0.3774527594588406 0 -0.076275814730551866 0.38330479896731001 0 -0.095244926421122186 0.38729621463576269 0 -0.087042344484389883 0.39738020370821953 0 -0.089436666146690338 0.3774527594588406 0 -0.087042344484389883 0.39738020370821953 0 -0.076275814730551866 0.38330479896731001 0 -0.064506344576777661 0.39145758865641178 0 -0.076275814730551866 0.38330479896731001 0 -0.054593457040109393 0.3822816536988497 0 -0.058148679921659119 0.37186744297544022 0 -0.076275814730551866 0.38330479896731001 0 -0.054593457040109393 0.3822816536988497 0 -0.064506344576777661 0.39145758865641178 0 -0.054593457040109393 0.3822816536988497 0 -0.057086028466031037 0.39647274516785291 0 -0.054593457040109393 0.3822816536988497 0 -0.057086028466031037 0.39647274516785291 0 -0.042391572779214973 0.39096282696345341 0 -0.057086028466031037 0.39647274516785291 0 -0.042391572779214973 0.39096282696345341 0 -0.044504768682498037 0.40769384418342008 0 -0.070070078070418332 0.40377115679163461 0 -0.057086028466031037 0.39647274516785291 0 -0.058881304157308093 0.40804381518971672 0 -0.057086028466031037 0.39647274516785291 0 -0.044504768682498037 0.40769384418342008 0 -0.058881304157308093 0.40804381518971672 0 -0.02514519595471108 0.39115017375088101 0 -0.044504768682498037 0.40769384418342008 0 -0.042391572779214973 0.39096282696345341 0 -0.02514519595471108 0.39115017375088101 0 -0.044504768682498037 0.40769384418342008 0 -0.034100997704691827 0.37295894625721099 0 -0.054593457040109393 0.3822816536988497 0 -0.042391572779214973 0.39096282696345341 0 -0.034100997704691827 0.37295894625721099 0 -0.042391572779214973 0.39096282696345341 0 -0.02514519595471108 0.39115017375088101 0 -0.034100997704691827 0.37295894625721099 0 -0.02514519595471108 0.39115017375088101 0 -0.034100997704691827 0.37295894625721099 0 -0.02514519595471108 0.39115017375088101 0 -0.0087141207398781558 0.37710904293520409 0 -0.02514519595471108 0.39115017375088101 0 -0.0087141207398781558 0.37710904293520409 0 -0.02514519595471108 0.39115017375088101 0 -0.014810785045769751 0.41214166341376801 0 -0.02514519595471108 0.39115017375088101 0 -0.014810785045769751 0.41214166341376801 0 -0.044504768682498037 0.40769384418342008 0 -0.0068648610501423502 0.39382000907293813 0 -0.014810785045769751 0.41214166341376801 0 0.0046995574085186929 0.41194005205042061 0 -0.02514519595471108 0.39115017375088101 0 -0.0068648610501423502 0.39382000907293813 0 -0.014810785045769751 0.41214166341376801 0 -0.02514519595471108 0.39115017375088101 0 -0.0068648610501423502 0.39382000907293813 0 -0.0087141207398781558 0.37710904293520409 0 -0.0068648610501423502 0.39382000907293813 0 -0.0087141207398781558 0.37710904293520409 0 0.0053185270157129726 0.37689571945341471 0 -0.0044763741368290672 0.43313315307665529 0 -0.014810785045769751 0.41214166341376801 0 -0.0044763741368290672 0.43313315307665529 0 -0.014810785045769751 0.41214166341376801 0 -0.026116443713473419 0.4246575807879529 0 -0.0044763741368290672 0.43313315307665529 0 -0.014810785045769751 0.41214166341376801 0 0.0046995574085186929 0.41194005205042061 0 -0.014810785045769751 0.41214166341376801 0 -0.026116443713473419 0.4246575807879529 0 -0.044504768682498037 0.40769384418342008 0 -0.0044763741368290672 0.43313315307665529 0 -0.026116443713473419 0.4246575807879529 0 -0.02623027688729573 0.44118750916919391 0 -0.026116443713473419 0.4246575807879529 0 -0.040560013814974517 0.42913173409672722 0 -0.02623027688729573 0.44118750916919391 0 -0.040560013814974517 0.42913173409672722 0 -0.048293098329248912 0.43867666423002288 0 -0.039090066940739521 0.44352471403713711 0 -0.026116443713473419 0.4246575807879529 0 -0.040560013814974517 0.42913173409672722 0 -0.044504768682498037 0.40769384418342008 0 -0.040560013814974517 0.42913173409672722 0 -0.044504768682498037 0.40769384418342008 0 -0.051886787429848112 0.42350176277299723 0 -0.063864341410284964 0.42423751461595932 0 -0.044504768682498037 0.40769384418342008 0 -0.058881304157308093 0.40804381518971672 0 -0.063864341410284964 0.42423751461595932 0 -0.044504768682498037 0.40769384418342008 0 -0.051886787429848112 0.42350176277299723 0 -0.063864341410284964 0.42423751461595932 0 -0.044504768682498037 0.40769384418342008 0 -0.053936434918908913 0.43159717611494758 0 -0.057641003333182179 0.44086754716312743 0 -0.048293098329248912 0.43867666423002288 0 -0.040560013814974517 0.42913173409672722 0 -0.053936434918908913 0.43159717611494758 0 -0.048293098329248912 0.43867666423002288 0 -0.040560013814974517 0.42913173409672722 0 -0.053936434918908913 0.43159717611494758 0 -0.051886787429848112 0.42350176277299723 0 -0.053936434918908913 0.43159717611494758 0 -0.051886787429848112 0.42350176277299723 0 -0.062357688865182517 0.42920641545622512 0 -0.063864341410284964 0.42423751461595932 0 -0.051886787429848112 0.42350176277299723 0 -0.062357688865182517 0.42920641545622512 0 -0.062750456602468974 0.43554137489064498 0 -0.053936434918908913 0.43159717611494758 0 -0.062357688865182517 0.42920641545622512 0 -0.062750456602468974 0.43554137489064498 0 -0.053936434918908913 0.43159717611494758 0 -0.057641003333182179 0.44086754716312743 0 -0.062750456602468974 0.43554137489064498 0 -0.057641003333182179 0.44086754716312743 0 -0.065491549478626135 0.44200233464982802 0 -0.057641003333182179 0.44086754716312743 0 -0.062398417199954148 0.4499603094023914 0 -0.065491549478626135 0.44200233464982802 0 -0.057641003333182179 0.44086754716312743 0 -0.062398417199954148 0.4499603094023914 0 -0.050237972638439453 0.44826214973817502 0 -0.057641003333182179 0.44086754716312743 0 -0.050237972638439453 0.44826214973817502 0 -0.048293098329248912 0.43867666423002288 0 -0.062398417199954148 0.4499603094023914 0 -0.050230730183752688 0.46259696058471089 0 -0.064501224992871267 0.46542691543905351 0 -0.062398417199954148 0.4499603094023914 0 -0.050237972638439453 0.44826214973817502 0 -0.050230730183752688 0.46259696058471089 0 -0.050230730183752688 0.46259696058471089 0 -0.035748626011326709 0.45858167758110602 0 -0.046040344352481867 0.47841272498986082 0 -0.050237972638439453 0.44826214973817502 0 -0.050230730183752688 0.46259696058471089 0 -0.035748626011326709 0.45858167758110602 0 -0.035748626011326709 0.45858167758110602 0 -0.039090066940739521 0.44352471403713711 0 -0.02623027688729573 0.44118750916919391 0 -0.050237972638439453 0.44826214973817502 0 -0.048293098329248912 0.43867666423002288 0 -0.039090066940739521 0.44352471403713711 0 -0.050237972638439453 0.44826214973817502 0 -0.035748626011326709 0.45858167758110602 0 -0.039090066940739521 0.44352471403713711 0 -0.040560013814974517 0.42913173409672722 0 -0.039090066940739521 0.44352471403713711 0 -0.02623027688729573 0.44118750916919391 0 -0.035748626011326709 0.45858167758110602 0 -0.02623027688729573 0.44118750916919391 0 -0.01728298942402769 0.45556140426229003 0 -0.0044763741368290672 0.43313315307665529 0 -0.02623027688729573 0.44118750916919391 0 -0.01728298942402769 0.45556140426229003 0 -0.035748626011326709 0.45858167758110602 0 -0.01728298942402769 0.45556140426229003 0 -0.022784747477638551 0.4775754860453762 0 -0.01728298942402769 0.45556140426229003 0 -0.0062093312902834459 0.46527566221073008 0 0.006403582431216831 0.45126676372832991 0 -0.01728298942402769 0.45556140426229003 0 -0.0062093312902834459 0.46527566221073008 0 -0.022784747477638551 0.4775754860453762 0 -0.0044763741368290672 0.43313315307665529 0 -0.01728298942402769 0.45556140426229003 0 0.006403582431216831 0.45126676372832991 0 -0.0062093312902834459 0.46527566221073008 0 -0.022784747477638551 0.4775754860453762 0 0.0095498935665802413 0.47810272379952351 0 -0.022784747477638551 0.4775754860453762 0 -0.021427984417146221 0.5 0 0.0095498935665802413 0.47810272379952351 0 -0.021427984417146221 0.5 0 0.0095498935665802413 0.47810272379952351 0 0.0086042794582089632 0.5 0 -0.022784747477638551 0.4775754860453762 0 -0.021427984417146221 0.5 0 -0.046040344352481867 0.47841272498986082 0 -0.021427984417146221 0.5 0 -0.046040344352481867 0.47841272498986082 0 -0.051460248292501398 0.5 0 -0.035748626011326709 0.45858167758110602 0 -0.022784747477638551 0.4775754860453762 0 -0.046040344352481867 0.47841272498986082 0 -0.046040344352481867 0.47841272498986082 0 -0.067939054777113927 0.48291587414950521 0 -0.064501224992871267 0.46542691543905351 0 -0.050230730183752688 0.46259696058471089 0 -0.046040344352481867 0.47841272498986082 0 -0.064501224992871267 0.46542691543905351 0 -0.046040344352481867 0.47841272498986082 0 -0.051460248292501398 0.5 0 -0.067939054777113927 0.48291587414950521 0 -0.051460248292501398 0.5 0 -0.081492512167856565 0.50000000000000011 0 -0.067939054777113927 0.48291587414950521 0 -0.081492512167856565 0.50000000000000011 0 -0.085878896958769185 0.47675925450649242 0 -0.067939054777113927 0.48291587414950521 0 -0.081492512167856565 0.50000000000000011 0 -0.085878896958769185 0.47675925450649242 0 -0.099362977551805121 0.48745008538217821 0 -0.081492512167856565 0.50000000000000011 0 -0.085878896958769185 0.47675925450649242 0 -0.085878896958769185 0.47675925450649242 0 -0.075452149305044958 0.46933040044586682 0 -0.067939054777113927 0.48291587414950521 0 -0.075452149305044958 0.46933040044586682 0 -0.067939054777113927 0.48291587414950521 0 -0.064501224992871267 0.46542691543905351 0 -0.064501224992871267 0.46542691543905351 0 -0.075214053997903707 0.45912990264989012 0 -0.070315415620740368 0.45334812155980347 0 -0.062398417199954148 0.4499603094023914 0 -0.064501224992871267 0.46542691543905351 0 -0.070315415620740368 0.45334812155980347 0 -0.075214053997903707 0.45912990264989012 0 -0.070315415620740368 0.45334812155980347 0 -0.081419329692844739 0.44979703694502599 0 -0.075452149305044958 0.46933040044586682 0 -0.064501224992871267 0.46542691543905351 0 -0.075214053997903707 0.45912990264989012 0 -0.075452149305044958 0.46933040044586682 0 -0.075214053997903707 0.45912990264989012 0 -0.082509194984251868 0.46007906520350089 0 -0.069373851585076945 0.43677151010665521 0 -0.065491549478626135 0.44200233464982802 0 -0.073041418115067244 0.44511613748665291 0 -0.062750456602468974 0.43554137489064498 0 -0.069373851585076945 0.43677151010665521 0 -0.065491549478626135 0.44200233464982802 0 -0.062398417199954148 0.4499603094023914 0 -0.065491549478626135 0.44200233464982802 0 -0.073041418115067244 0.44511613748665291 0 -0.062398417199954148 0.4499603094023914 0 -0.070315415620740368 0.45334812155980347 0 -0.073041418115067244 0.44511613748665291 0 -0.070315415620740368 0.45334812155980347 0 -0.073041418115067244 0.44511613748665291 0 -0.081419329692844739 0.44979703694502599 0 -0.073041418115067244 0.44511613748665291 0 -0.07941018481149445 0.44345804230003222 0 -0.081419329692844739 0.44979703694502599 0 -0.077689053426030094 0.43734830183904833 0 -0.069373851585076945 0.43677151010665521 0 -0.073041418115067244 0.44511613748665291 0 -0.077689053426030094 0.43734830183904833 0 -0.073041418115067244 0.44511613748665291 0 -0.07941018481149445 0.44345804230003222 0 -0.097170403390676049 0.43571281837191522 0 -0.084800361071377284 0.4267768085921303 0 -0.094675553767973264 0.45076758317000298 0 -0.084800361071377284 0.4267768085921303 0 -0.094675553767973264 0.45076758317000298 0 -0.084800361071377284 0.4267768085921303 0 -0.085627028266785254 0.44117175463919189 0 -0.094675553767973264 0.45076758317000298 0 -0.085627028266785254 0.44117175463919189 0 -0.07941018481149445 0.44345804230003222 0 -0.081419329692844739 0.44979703694502599 0 -0.077689053426030094 0.43734830183904833 0 -0.085627028266785254 0.44117175463919189 0 -0.07941018481149445 0.44345804230003222 0 -0.085627028266785254 0.44117175463919189 0 -0.081419329692844739 0.44979703694502599 0 -0.088082484801868088 0.44854024150695748 0 -0.081419329692844739 0.44979703694502599 0 -0.086047819819581178 0.45134535453790131 0 -0.088082484801868088 0.44854024150695748 0 -0.085627028266785254 0.44117175463919189 0 -0.088082484801868088 0.44854024150695748 0 -0.094675553767973264 0.45076758317000298 0 -0.086047819819581178 0.45134535453790131 0 -0.088082484801868088 0.44854024150695748 0 -0.090265281749681819 0.45351850901298468 0 -0.088082484801868088 0.44854024150695748 0 -0.090265281749681819 0.45351850901298468 0 -0.094675553767973264 0.45076758317000298 0 -0.085878896958769185 0.47675925450649242 0 -0.075452149305044958 0.46933040044586682 0 -0.082509194984251868 0.46007906520350089 0 -0.085878896958769185 0.47675925450649242 0 -0.090265281749681819 0.45351850901298468 0 -0.085878896958769185 0.47675925450649242 0 -0.090265281749681819 0.45351850901298468 0 -0.093944937474792503 0.46462082789344678 0 -0.085878896958769185 0.47675925450649242 0 -0.082509194984251868 0.46007906520350089 0 -0.090265281749681819 0.45351850901298468 0 -0.081419329692844739 0.44979703694502599 0 -0.086047819819581178 0.45134535453790131 0 -0.082509194984251868 0.46007906520350089 0 -0.075214053997903707 0.45912990264989012 0 -0.081419329692844739 0.44979703694502599 0 -0.082509194984251868 0.46007906520350089 0 -0.090265281749681819 0.45351850901298468 0 -0.093944937474792503 0.46462082789344678 0 -0.094675553767973264 0.45076758317000298 0 -0.086047819819581178 0.45134535453790131 0 -0.082509194984251868 0.46007906520350089 0 -0.090265281749681819 0.45351850901298468 0 -0.093944937474792503 0.46462082789344678 0 -0.094675553767973264 0.45076758317000298 0 -0.1045507464645692 0.47475835774787573 0 -0.094675553767973264 0.45076758317000298 0 -0.1045507464645692 0.47475835774787573 0 -0.1087715055698807 0.4588247561088431 0 -0.094675553767973264 0.45076758317000298 0 -0.1045507464645692 0.47475835774787573 0 -0.1126245701039178 0.4308246085444013 0 -0.1090807961073193 0.44665325123332839 0 -0.10338783084247161 0.44098956532991213 0 -0.097170403390676049 0.43571281837191522 0 -0.094675553767973264 0.45076758317000298 0 -0.10338783084247161 0.44098956532991213 0 -0.1087715055698807 0.4588247561088431 0 -0.094675553767973264 0.45076758317000298 0 -0.1090807961073193 0.44665325123332839 0 -0.094675553767973264 0.45076758317000298 0 -0.1090807961073193 0.44665325123332839 0 -0.10338783084247161 0.44098956532991213 0 -0.1126245701039178 0.4308246085444013 0 -0.1090807961073193 0.44665325123332839 0 -0.1242648033483075 0.43981492828754482 0 -0.1090807961073193 0.44665325123332839 0 -0.1242648033483075 0.43981492828754482 0 -0.1204057133641486 0.45504160574272429 0 -0.1087715055698807 0.4588247561088431 0 -0.1176294132596279 0.46872710166108278 0 -0.1045507464645692 0.47475835774787573 0 -0.1087715055698807 0.4588247561088431 0 -0.1204057133641486 0.45504160574272429 0 -0.1176294132596279 0.46872710166108278 0 -0.1087715055698807 0.4588247561088431 0 -0.1090807961073193 0.44665325123332839 0 -0.1204057133641486 0.45504160574272429 0 -0.13097929143795109 0.46459511115351071 0 -0.1204057133641486 0.45504160574272429 0 -0.1176294132596279 0.46872710166108278 0 -0.12908554574303099 0.47755934496718438 0 -0.1176294132596279 0.46872710166108278 0 -0.1160402402672886 0.48503019582547341 0 -0.1176294132596279 0.46872710166108278 0 -0.1160402402672886 0.48503019582547341 0 -0.1045507464645692 0.47475835774787573 0 -0.13803845513632401 0.5 0 -0.1097654836520903 0.5 0 -0.1160402402672886 0.48503019582547341 0 -0.1097654836520903 0.5 0 -0.1160402402672886 0.48503019582547341 0 -0.099362977551805121 0.48745008538217821 0 -0.081492512167856565 0.50000000000000011 0 -0.1097654836520903 0.5 0 -0.099362977551805121 0.48745008538217821 0 -0.085878896958769185 0.47675925450649242 0 -0.093944937474792503 0.46462082789344678 0 -0.1045507464645692 0.47475835774787573 0 -0.085878896958769185 0.47675925450649242 0 -0.099362977551805121 0.48745008538217821 0 -0.1045507464645692 0.47475835774787573 0 -0.1160402402672886 0.48503019582547341 0 -0.099362977551805121 0.48745008538217821 0 -0.1045507464645692 0.47475835774787573 0 -0.15850742705232401 0.077073165420907211 0 -0.17832815471062741 0.080370175701138483 0 -0.15596223049933161 0.089669487892629185 0 -0.17128916945913089 0.092189477241546317 0 -0.17832815471062741 0.080370175701138483 0 -0.15596223049933161 0.089669487892629185 0 -0.17832815471062741 0.080370175701138483 0 -0.15596223049933161 0.089669487892629185 0 -0.15850742705232401 0.077073165420907211 0 -0.16907692184479731 0.071953328836937142 0 -0.17832815471062741 0.080370175701138483 0 -0.15850742705232401 0.077073165420907211 0 -0.15722519427174569 0.065058312825911402 0 -0.16907692184479731 0.071953328836937142 0 -0.16907692184479731 0.071953328836937142 0 -0.1809864334298861 0.069780609401686525 0 -0.17832815471062741 0.080370175701138483 0 -0.16907692184479731 0.071953328836937142 0 -0.1809864334298861 0.069780609401686525 0 -0.18167022033174851 0.056262687610226528 0 -0.1809864334298861 0.069780609401686525 0 -0.17832815471062741 0.080370175701138483 0 -0.20069407892192309 0.071070863509647808 0 -0.1809864334298861 0.069780609401686525 0 -0.18167022033174851 0.056262687610226528 0 -0.1876556690991136 0.063313821709693935 0 -0.17128916945913089 0.092189477241546317 0 -0.18444466814129201 0.081023499242751457 0 -0.17631468167186989 0.1066384650542631 0 -0.17128916945913089 0.092189477241546317 0 -0.18444466814129201 0.081023499242751457 0 -0.17832815471062741 0.080370175701138483 0 -0.18444466814129201 0.081023499242751457 0 -0.17631468167186989 0.1066384650542631 0 -0.19937405773042491 0.1071019237599893 0 -0.17631468167186989 0.1066384650542631 0 -0.16393492635195239 0.1245978723337525 0 -0.1795193575176991 0.1294692331289829 0 -0.17631468167186989 0.1066384650542631 0 -0.19937405773042491 0.1071019237599893 0 -0.1795193575176991 0.1294692331289829 0 -0.16393492635195239 0.1245978723337525 0 -0.16139611227253359 0.1032457583169494 0 -0.15311233888185891 0.1152965378839053 0 -0.17631468167186989 0.1066384650542631 0 -0.16393492635195239 0.1245978723337525 0 -0.16139611227253359 0.1032457583169494 0 -0.17128916945913089 0.092189477241546317 0 -0.17631468167186989 0.1066384650542631 0 -0.16139611227253359 0.1032457583169494 0 -0.17128916945913089 0.092189477241546317 0 -0.16139611227253359 0.1032457583169494 0 -0.15596223049933161 0.089669487892629185 0 -0.16139611227253359 0.1032457583169494 0 -0.13359630628803579 0.098968800084119873 0 -0.15596223049933161 0.089669487892629185 0 -0.16139611227253359 0.1032457583169494 0 -0.15311233888185891 0.1152965378839053 0 -0.13359630628803579 0.098968800084119873 0 -0.13359630628803579 0.098968800084119873 0 -0.15596223049933161 0.089669487892629185 0 -0.15311233888185891 0.1152965378839053 0 -0.13930859898956699 0.1145050369687237 0 -0.153752621985453 0.14073392350839439 0 -0.15311233888185891 0.1152965378839053 0 -0.13930859898956699 0.1145050369687237 0 -0.13359630628803579 0.098968800084119873 0 -0.13930859898956699 0.1145050369687237 0 -0.12607259725238279 0.11330641960449821 0 -0.12916618827146031 0.12390190950899049 0 -0.13930859898956699 0.1145050369687237 0 -0.12607259725238279 0.11330641960449821 0 -0.13359630628803579 0.098968800084119873 0 -0.13359630628803579 0.098968800084119873 0 -0.12697672020224329 0.087309090757334687 0 -0.14089006822782121 0.082531143958766096 0 -0.12697672020224329 0.087309090757334687 0 -0.14089006822782121 0.082531143958766096 0 -0.12697985749263241 0.07630636069427757 0 -0.15850742705232401 0.077073165420907211 0 -0.14089006822782121 0.082531143958766096 0 -0.15596223049933161 0.089669487892629185 0 -0.13359630628803579 0.098968800084119873 0 -0.14089006822782121 0.082531143958766096 0 -0.15596223049933161 0.089669487892629185 0 -0.15850742705232401 0.077073165420907211 0 -0.14089006822782121 0.082531143958766096 0 -0.14764327064684279 0.071644858797684771 0 -0.15722519427174569 0.065058312825911402 0 -0.14764327064684279 0.071644858797684771 0 -0.1471722955607111 0.059591957907519158 0 -0.15850742705232401 0.077073165420907211 0 -0.15722519427174569 0.065058312825911402 0 -0.14764327064684279 0.071644858797684771 0 -0.14089006822782121 0.082531143958766096 0 -0.14764327064684279 0.071644858797684771 0 -0.13666502121529681 0.069478967649866344 0 -0.14764327064684279 0.071644858797684771 0 -0.13666502121529681 0.069478967649866344 0 -0.1471722955607111 0.059591957907519158 0 -0.14089006822782121 0.082531143958766096 0 -0.13666502121529681 0.069478967649866344 0 -0.12697985749263241 0.07630636069427757 0 -0.13666502121529681 0.069478967649866344 0 -0.12697985749263241 0.07630636069427757 0 -0.12509646681095879 0.065597408261105467 0 -0.13666502121529681 0.069478967649866344 0 -0.12509646681095879 0.065597408261105467 0 -0.13233523162579211 0.057527865090889828 0 -0.13233523162579211 0.057527865090889828 0 -0.1197320338084647 0.057760070231756527 0 -0.1244920148619628 0.050381604022983993 0 -0.12509646681095879 0.065597408261105467 0 -0.13233523162579211 0.057527865090889828 0 -0.1197320338084647 0.057760070231756527 0 -0.13666502121529681 0.069478967649866344 0 -0.13233523162579211 0.057527865090889828 0 -0.1471722955607111 0.059591957907519158 0 -0.13233523162579211 0.057527865090889828 0 -0.131277092146349 0.043237905602295942 0 -0.1435202772377579 0.047601805401877667 0 -0.13233523162579211 0.057527865090889828 0 -0.131277092146349 0.043237905602295942 0 -0.1244920148619628 0.050381604022983993 0 -0.131277092146349 0.043237905602295942 0 -0.14194951185496399 0.035172378083737049 0 -0.12424451236807239 0.027069144312366941 0 -0.131277092146349 0.043237905602295942 0 -0.12424451236807239 0.027069144312366941 0 -0.12075472355362291 0.04122338309529356 0 -0.131277092146349 0.043237905602295942 0 -0.12075472355362291 0.04122338309529356 0 -0.1244920148619628 0.050381604022983993 0 -0.131277092146349 0.043237905602295942 0 -0.14194951185496399 0.035172378083737049 0 -0.1435202772377579 0.047601805401877667 0 -0.14194951185496399 0.035172378083737049 0 -0.15126073753592009 0.02487777788828089 0 -0.1637260562540532 0.045028253166508762 0 -0.14194951185496399 0.035172378083737049 0 -0.1435202772377579 0.047601805401877667 0 -0.1637260562540532 0.045028253166508762 0 -0.15722519427174569 0.065058312825911402 0 -0.1471722955607111 0.059591957907519158 0 -0.1637260562540532 0.045028253166508762 0 -0.1471722955607111 0.059591957907519158 0 -0.1435202772377579 0.047601805401877667 0 -0.1637260562540532 0.045028253166508762 0 -0.13233523162579211 0.057527865090889828 0 -0.1471722955607111 0.059591957907519158 0 -0.1435202772377579 0.047601805401877667 0 -0.1244522405185825 -0.00038769298458709092 0 -0.1310798501921922 0.016754836893075501 0 -0.12424451236807239 0.027069144312366941 0 -0.1244522405185825 -0.00038769298458709092 0 -0.13302987177733741 0.0072862060594841918 0 -0.1310798501921922 0.016754836893075501 0 -0.13796817939809339 -7.5853332940862265e-05 0 -0.13302987177733741 0.0072862060594841918 0 -0.13861921700048169 0.01285353366238922 0 -0.1244522405185825 -0.00038769298458709092 0 -0.13796817939809339 -7.5853332940862265e-05 0 -0.13302987177733741 0.0072862060594841918 0 -0.13302987177733741 0.0072862060594841918 0 -0.13861921700048169 0.01285353366238922 0 -0.1310798501921922 0.016754836893075501 0 -0.14194951185496399 0.035172378083737049 0 -0.1395360945068517 0.023372288850015029 0 -0.12424451236807239 0.027069144312366941 0 -0.13861921700048169 0.01285353366238922 0 -0.1395360945068517 0.023372288850015029 0 -0.1310798501921922 0.016754836893075501 0 -0.1395360945068517 0.023372288850015029 0 -0.1310798501921922 0.016754836893075501 0 -0.12424451236807239 0.027069144312366941 0 -0.14194951185496399 0.035172378083737049 0 -0.1395360945068517 0.023372288850015029 0 -0.15126073753592009 0.02487777788828089 0 -0.15126073753592009 0.02487777788828089 0 -0.15188271994169991 0.01786916074884114 0 -0.14657132146084931 0.01677767438903701 0 -0.15126073753592009 0.02487777788828089 0 -0.15837519066330749 0.018103177496080571 0 -0.1567842680697151 0.017821512483746641 0 -0.15126073753592009 0.02487777788828089 0 -0.15188271994169991 0.01786916074884114 0 -0.1567842680697151 0.017821512483746641 0 -0.1543123506052223 0.01567032783345056 0 -0.15188271994169991 0.01786916074884114 0 -0.1567842680697151 0.017821512483746641 0 -0.13861921700048169 0.01285353366238922 0 -0.1395360945068517 0.023372288850015029 0 -0.14657132146084931 0.01677767438903701 0 -0.1395360945068517 0.023372288850015029 0 -0.15126073753592009 0.02487777788828089 0 -0.14657132146084931 0.01677767438903701 0 -0.15381676672243971 -0.0048344028756085976 0 -0.13796817939809339 -7.5853332940862265e-05 0 -0.14598604308907309 0.0075397954886723484 0 -0.15381676672243971 -0.0048344028756085976 0 -0.15837519066330749 0.018103177496080571 0 -0.15381676672243971 -0.0048344028756085976 0 -0.15182406541376531 0.011854288846745499 0 -0.15837519066330749 0.018103177496080571 0 -0.15381676672243971 -0.0048344028756085976 0 -0.15182406541376531 0.011854288846745499 0 -0.14598604308907309 0.0075397954886723484 0 -0.13861921700048169 0.01285353366238922 0 -0.14657132146084931 0.01677767438903701 0 -0.14598604308907309 0.0075397954886723484 0 -0.14657132146084931 0.01677767438903701 0 -0.15182406541376531 0.011854288846745499 0 -0.14598604308907309 0.0075397954886723484 0 -0.15188271994169991 0.01786916074884114 0 -0.14657132146084931 0.01677767438903701 0 -0.15182406541376531 0.011854288846745499 0 -0.1543123506052223 0.01567032783345056 0 -0.15182406541376531 0.011854288846745499 0 -0.15837519066330749 0.018103177496080571 0 -0.1543123506052223 0.01567032783345056 0 -0.15188271994169991 0.01786916074884114 0 -0.15182406541376531 0.011854288846745499 0 -0.13796817939809339 -7.5853332940862265e-05 0 -0.13861921700048169 0.01285353366238922 0 -0.14598604308907309 0.0075397954886723484 0 -0.15381676672243971 -0.0048344028756085976 0 -0.16872927738725291 0.0066655648670224509 0 -0.15837519066330749 0.018103177496080571 0 -0.16872927738725291 0.0066655648670224509 0 -0.15837519066330749 0.018103177496080571 0 -0.17312315274812851 0.016956976572924821 0 -0.15837519066330749 0.018103177496080571 0 -0.17088268452158301 0.030303691123205939 0 -0.18416549926151529 0.022669224655560441 0 -0.15837519066330749 0.018103177496080571 0 -0.17088268452158301 0.030303691123205939 0 -0.1637260562540532 0.045028253166508762 0 -0.15126073753592009 0.02487777788828089 0 -0.15837519066330749 0.018103177496080571 0 -0.1637260562540532 0.045028253166508762 0 -0.15837519066330749 0.018103177496080571 0 -0.18416549926151529 0.022669224655560441 0 -0.1543123506052223 0.01567032783345056 0 -0.15837519066330749 0.018103177496080571 0 -0.1567842680697151 0.017821512483746641 0 -0.15837519066330749 0.018103177496080571 0 -0.1567842680697151 0.017821512483746641 0 -0.15837519066330749 0.018103177496080571 0 -0.18416549926151529 0.022669224655560441 0 -0.17312315274812851 0.016956976572924821 0 -0.17088268452158301 0.030303691123205939 0 -0.18416549926151529 0.022669224655560441 0 -0.1815242396402782 0.037713578252632912 0 -0.18416549926151529 0.022669224655560441 0 -0.17919408738426101 0.017592611389363012 0 -0.18518118592807509 0.0154377595936586 0 -0.18416549926151529 0.022669224655560441 0 -0.17312315274812851 0.016956976572924821 0 -0.17919408738426101 0.017592611389363012 0 -0.1785064095432054 -0.0066611219507198768 0 -0.16872927738725291 0.0066655648670224509 0 -0.193034969706537 0.00064734206737222756 0 -0.16872927738725291 0.0066655648670224509 0 -0.193034969706537 0.00064734206737222756 0 -0.16872927738725291 0.0066655648670224509 0 -0.18518118592807509 0.0154377595936586 0 -0.193034969706537 0.00064734206737222756 0 -0.16872927738725291 0.0066655648670224509 0 -0.17919408738426101 0.017592611389363012 0 -0.18518118592807509 0.0154377595936586 0 -0.16872927738725291 0.0066655648670224509 0 -0.17312315274812851 0.016956976572924821 0 -0.17919408738426101 0.017592611389363012 0 -0.16907692184479731 0.071953328836937142 0 -0.1637260562540532 0.045028253166508762 0 -0.18167022033174851 0.056262687610226528 0 -0.15722519427174569 0.065058312825911402 0 -0.16907692184479731 0.071953328836937142 0 -0.1637260562540532 0.045028253166508762 0 -0.16907692184479731 0.071953328836937142 0 -0.1637260562540532 0.045028253166508762 0 -0.15837519066330749 0.018103177496080571 0 -0.1637260562540532 0.045028253166508762 0 -0.17088268452158301 0.030303691123205939 0 -0.1637260562540532 0.045028253166508762 0 -0.1815242396402782 0.037713578252632912 0 -0.1815242396402782 0.037713578252632912 0 -0.18167022033174851 0.056262687610226528 0 -0.1948999673891425 0.045815662425189529 0 -0.1637260562540532 0.045028253166508762 0 -0.1815242396402782 0.037713578252632912 0 -0.18167022033174851 0.056262687610226528 0 -0.18416549926151529 0.022669224655560441 0 -0.1815242396402782 0.037713578252632912 0 -0.19539241544158811 0.034915353149486399 0 -0.19598386328254799 0.058823167906541372 0 -0.20873259774339259 0.055173182954087172 0 -0.20069407892192309 0.071070863509647808 0 -0.18167022033174851 0.056262687610226528 0 -0.19598386328254799 0.058823167906541372 0 -0.1876556690991136 0.063313821709693935 0 -0.19598386328254799 0.058823167906541372 0 -0.1948999673891425 0.045815662425189529 0 -0.20873259774339259 0.055173182954087172 0 -0.18167022033174851 0.056262687610226528 0 -0.19598386328254799 0.058823167906541372 0 -0.1948999673891425 0.045815662425189529 0 -0.1815242396402782 0.037713578252632912 0 -0.1948999673891425 0.045815662425189529 0 -0.19539241544158811 0.034915353149486399 0 -0.1948999673891425 0.045815662425189529 0 -0.19539241544158811 0.034915353149486399 0 -0.20641656305728129 0.041143028599009299 0 -0.20641656305728129 0.041143028599009299 0 -0.20995580785972329 0.027235271815039791 0 -0.22080882119384479 0.043900986742667819 0 -0.19539241544158811 0.034915353149486399 0 -0.20641656305728129 0.041143028599009299 0 -0.20995580785972329 0.027235271815039791 0 -0.20641656305728129 0.041143028599009299 0 -0.20873259774339259 0.055173182954087172 0 -0.22080882119384479 0.043900986742667819 0 -0.20873259774339259 0.055173182954087172 0 -0.2267202713125637 0.058975611642501508 0 -0.2176358721649875 0.072186860311035453 0 -0.1948999673891425 0.045815662425189529 0 -0.20641656305728129 0.041143028599009299 0 -0.20873259774339259 0.055173182954087172 0 -0.20993853639106591 -0.0035380738047605968 0 -0.2009137908539024 0.01431144198083124 0 -0.193034969706537 0.00064734206737222756 0 -0.18518118592807509 0.0154377595936586 0 -0.2009137908539024 0.01431144198083124 0 -0.193034969706537 0.00064734206737222756 0 -0.18518118592807509 0.0154377595936586 0 -0.193034969706537 0.00064734206737222756 0 -0.18416549926151529 0.022669224655560441 0 -0.20995580785972329 0.027235271815039791 0 -0.18416549926151529 0.022669224655560441 0 -0.18518118592807509 0.0154377595936586 0 -0.2009137908539024 0.01431144198083124 0 -0.18416549926151529 0.022669224655560441 0 -0.2009137908539024 0.01431144198083124 0 -0.20995580785972329 0.027235271815039791 0 -0.18416549926151529 0.022669224655560441 0 -0.19539241544158811 0.034915353149486399 0 -0.20995580785972329 0.027235271815039791 0 -0.2009137908539024 0.01431144198083124 0 -0.20995580785972329 0.027235271815039791 0 -0.21568563774484731 0.0082874278720449449 0 -0.20993853639106591 -0.0035380738047605968 0 -0.2009137908539024 0.01431144198083124 0 -0.21568563774484731 0.0082874278720449449 0 -0.22684210307559549 -0.0077234896768903086 0 -0.21568563774484731 0.0082874278720449449 0 -0.23077795054394901 0.01115198904600462 0 -0.22684210307559549 -0.0077234896768903086 0 -0.23077795054394901 0.01115198904600462 0 -0.20995580785972329 0.027235271815039791 0 -0.21568563774484731 0.0082874278720449449 0 -0.23077795054394901 0.01115198904600462 0 -0.20995580785972329 0.027235271815039791 0 -0.2357461164579312 0.03180131897451912 0 -0.20995580785972329 0.027235271815039791 0 -0.23077795054394901 0.01115198904600462 0 -0.2357461164579312 0.03180131897451912 0 -0.23077795054394901 0.01115198904600462 0 -0.24854849079604721 0.020569936005881421 0 -0.2357461164579312 0.03180131897451912 0 -0.26153642505613889 0.036367366133998442 0 -0.24854849079604721 0.020569936005881421 0 -0.2357461164579312 0.03180131897451912 0 -0.23077795054394901 0.01115198904600462 0 -0.24854849079604721 0.020569936005881421 0 -0.24598119983726671 0.0037338506766126851 0 -0.22684210307559549 -0.0077234896768903086 0 -0.23077795054394901 0.01115198904600462 0 -0.24598119983726671 0.0037338506766126851 0 -0.20873259774339259 0.055173182954087172 0 -0.2267202713125637 0.058975611642501508 0 -0.22080882119384479 0.043900986742667819 0 -0.2267202713125637 0.058975611642501508 0 -0.22080882119384479 0.043900986742667819 0 -0.239388393447095 0.04766651035075449 0 -0.22080882119384479 0.043900986742667819 0 -0.2357461164579312 0.03180131897451912 0 -0.239388393447095 0.04766651035075449 0 -0.20995580785972329 0.027235271815039791 0 -0.22080882119384479 0.043900986742667819 0 -0.2357461164579312 0.03180131897451912 0 -0.26153642505613889 0.036367366133998442 0 -0.2357461164579312 0.03180131897451912 0 -0.26153642505613889 0.036367366133998442 0 -0.2357461164579312 0.03180131897451912 0 -0.239388393447095 0.04766651035075449 0 -0.25116276906762952 0.054241108780248931 0 -0.239388393447095 0.04766651035075449 0 -0.24035595759446179 0.060712669830591162 0 -0.2267202713125637 0.058975611642501508 0 -0.239388393447095 0.04766651035075449 0 -0.24035595759446179 0.060712669830591162 0 -0.25116276906762952 0.054241108780248931 0 -0.24035595759446179 0.060712669830591162 0 -0.24829977196364941 0.065213336215906109 0 -0.2267202713125637 0.058975611642501508 0 -0.24035595759446179 0.060712669830591162 0 -0.23791909572611269 0.075142721002645518 0 -0.24035595759446179 0.060712669830591162 0 -0.24829977196364941 0.065213336215906109 0 -0.23791909572611269 0.075142721002645518 0 -0.25064083865024739 0.073628726666345984 0 -0.23791909572611269 0.075142721002645518 0 -0.24857020570659841 0.081659589420377987 0 -0.25064083865024739 0.073628726666345984 0 -0.24829977196364941 0.065213336215906109 0 -0.23791909572611269 0.075142721002645518 0 -0.23791909572611269 0.075142721002645518 0 -0.2427234934652894 0.090762762990284518 0 -0.22646138453880821 0.085461994072224837 0 -0.25413031243694739 0.089521027236778197 0 -0.2427234934652894 0.090762762990284518 0 -0.24857020570659841 0.081659589420377987 0 -0.23791909572611269 0.075142721002645518 0 -0.2427234934652894 0.090762762990284518 0 -0.24857020570659841 0.081659589420377987 0 -0.2267202713125637 0.058975611642501508 0 -0.23791909572611269 0.075142721002645518 0 -0.2176358721649875 0.072186860311035453 0 -0.23791909572611269 0.075142721002645518 0 -0.22646138453880821 0.085461994072224837 0 -0.2176358721649875 0.072186860311035453 0 -0.20873259774339259 0.055173182954087172 0 -0.2176358721649875 0.072186860311035453 0 -0.20069407892192309 0.071070863509647808 0 -0.2176358721649875 0.072186860311035453 0 -0.20525373999263671 0.08640341449760941 0 -0.20069407892192309 0.071070863509647808 0 -0.22646138453880821 0.085461994072224837 0 -0.2176358721649875 0.072186860311035453 0 -0.20525373999263671 0.08640341449760941 0 -0.22646138453880821 0.085461994072224837 0 -0.20525373999263671 0.08640341449760941 0 -0.2161514522581473 0.1006972439961434 0 -0.18444466814129201 0.081023499242751457 0 -0.20525373999263671 0.08640341449760941 0 -0.20069407892192309 0.071070863509647808 0 -0.18444466814129201 0.081023499242751457 0 -0.20525373999263671 0.08640341449760941 0 -0.19937405773042491 0.1071019237599893 0 -0.17832815471062741 0.080370175701138483 0 -0.20069407892192309 0.071070863509647808 0 -0.18444466814129201 0.081023499242751457 0 -0.17832815471062741 0.080370175701138483 0 -0.20069407892192309 0.071070863509647808 0 -0.1809864334298861 0.069780609401686525 0 -0.1876556690991136 0.063313821709693935 0 -0.20069407892192309 0.071070863509647808 0 -0.19598386328254799 0.058823167906541372 0 -0.1876556690991136 0.063313821709693935 0 -0.20069407892192309 0.071070863509647808 0 -0.19937405773042491 0.1071019237599893 0 -0.2161514522581473 0.1006972439961434 0 -0.21430344731955769 0.133180348277227 0 -0.19937405773042491 0.1071019237599893 0 -0.19727411993202021 0.1275714443648302 0 -0.1795193575176991 0.1294692331289829 0 -0.18444466814129201 0.081023499242751457 0 -0.19937405773042491 0.1071019237599893 0 -0.20525373999263671 0.08640341449760941 0 -0.19937405773042491 0.1071019237599893 0 -0.2161514522581473 0.1006972439961434 0 -0.19937405773042491 0.1071019237599893 0 -0.21430344731955769 0.133180348277227 0 -0.19937405773042491 0.1071019237599893 0 -0.19727411993202021 0.1275714443648302 0 -0.21430344731955769 0.133180348277227 0 -0.2161514522581473 0.1006972439961434 0 -0.23231730930006211 0.10853516007106349 0 -0.21430344731955769 0.133180348277227 0 -0.2427234934652894 0.090762762990284518 0 -0.22646138453880821 0.085461994072224837 0 -0.23231730930006211 0.10853516007106349 0 -0.22646138453880821 0.085461994072224837 0 -0.2161514522581473 0.1006972439961434 0 -0.23231730930006211 0.10853516007106349 0 -0.25610310449345419 0.1041046972302731 0 -0.2427234934652894 0.090762762990284518 0 -0.23231730930006211 0.10853516007106349 0 -0.25610310449345419 0.1041046972302731 0 -0.23231730930006211 0.10853516007106349 0 -0.2495823492922267 0.12121763785839371 0 -0.23231730930006211 0.10853516007106349 0 -0.2495823492922267 0.12121763785839371 0 -0.23849568892714909 0.13696143350773771 0 -0.23231730930006211 0.10853516007106349 0 -0.23849568892714909 0.13696143350773771 0 -0.25477231595188199 0.13792181725732239 0 -0.2495823492922267 0.12121763785839371 0 -0.23849568892714909 0.13696143350773771 0 -0.23231730930006211 0.10853516007106349 0 -0.23849568892714909 0.13696143350773771 0 -0.21430344731955769 0.133180348277227 0 -0.23849568892714909 0.13696143350773771 0 -0.22923283690869051 0.15925877279446471 0 -0.21430344731955769 0.133180348277227 0 -0.22923283690869051 0.15925877279446471 0 -0.21430344731955769 0.133180348277227 0 -0.2543915534089356 0.15018751405662761 0 -0.23849568892714909 0.13696143350773771 0 -0.24467406855423091 0.1653877069444131 0 -0.23849568892714909 0.13696143350773771 0 -0.24467406855423091 0.1653877069444131 0 -0.22923283690869051 0.15925877279446471 0 -0.2543915534089356 0.15018751405662761 0 -0.25477231595188199 0.13792181725732239 0 -0.23849568892714909 0.13696143350773771 0 -0.23849568892714909 0.13696143350773771 0 -0.24467406855423091 0.1653877069444131 0 -0.24467406855423091 0.1653877069444131 0 -0.2350219134637796 0.18103954803765679 0 -0.22379977898383499 0.16989282922580509 0 -0.24467406855423091 0.1653877069444131 0 -0.24947341468037071 0.1874691479585941 0 -0.2350219134637796 0.18103954803765679 0 -0.24467406855423091 0.1653877069444131 0 -0.24947341468037071 0.1874691479585941 0 -0.2350219134637796 0.18103954803765679 0 -0.22004124654446131 0.18611549732905991 0 -0.22379977898383499 0.16989282922580509 0 -0.24467406855423091 0.1653877069444131 0 -0.22379977898383499 0.16989282922580509 0 -0.22923283690869051 0.15925877279446471 0 -0.22379977898383499 0.16989282922580509 0 -0.22923283690869051 0.15925877279446471 0 -0.20989634202023699 0.1560844752241346 0 -0.24467406855423091 0.1653877069444131 0 -0.22379977898383499 0.16989282922580509 0 -0.22379977898383499 0.16989282922580509 0 -0.20292548941343971 0.17439795150720031 0 -0.20989634202023699 0.1560844752241346 0 -0.20292548941343971 0.17439795150720031 0 -0.20989634202023699 0.1560844752241346 0 -0.17833905569944569 0.15756593750779829 0 -0.22379977898383499 0.16989282922580509 0 -0.20292548941343971 0.17439795150720031 0 -0.22004124654446131 0.18611549732905991 0 -0.22379977898383499 0.16989282922580509 0 -0.20292548941343971 0.17439795150720031 0 -0.22004124654446131 0.18611549732905991 0 -0.20292548941343971 0.17439795150720031 0 -0.22004124654446131 0.18611549732905991 0 -0.20292548941343971 0.17439795150720031 0 -0.20568385543668641 0.19260324117033031 0 -0.20292548941343971 0.17439795150720031 0 -0.1757122088887666 0.1802711648698879 0 -0.20292548941343971 0.17439795150720031 0 -0.1897130520823497 0.19444680225630501 0 -0.1757122088887666 0.1802711648698879 0 -0.20292548941343971 0.17439795150720031 0 -0.20568385543668641 0.19260324117033031 0 -0.1897130520823497 0.19444680225630501 0 -0.20292548941343971 0.17439795150720031 0 -0.17833905569944569 0.15756593750779829 0 -0.19589961716039911 0.1405342722931214 0 -0.20989634202023699 0.1560844752241346 0 -0.17833905569944569 0.15756593750779829 0 -0.19727411993202021 0.1275714443648302 0 -0.19589961716039911 0.1405342722931214 0 -0.1795193575176991 0.1294692331289829 0 -0.19727411993202021 0.1275714443648302 0 -0.19589961716039911 0.1405342722931214 0 -0.21430344731955769 0.133180348277227 0 -0.22923283690869051 0.15925877279446471 0 -0.21430344731955769 0.133180348277227 0 -0.20989634202023699 0.1560844752241346 0 -0.19589961716039911 0.1405342722931214 0 -0.21430344731955769 0.133180348277227 0 -0.20989634202023699 0.1560844752241346 0 -0.23288038931281729 0.23888496135878451 0 -0.21994142138302111 0.22426230620998819 0 -0.21218175950055909 0.24952722652004439 0 -0.22667039518801041 0.25355429459537898 0 -0.23288038931281729 0.23888496135878451 0 -0.21218175950055909 0.24952722652004439 0 -0.2416444700809012 0.25186566196455601 0 -0.22667039518801041 0.25355429459537898 0 -0.23288038931281729 0.23888496135878451 0 -0.2416444700809012 0.25186566196455601 0 -0.23288038931281729 0.23888496135878451 0 -0.2470081454867771 0.2422065880623451 0 -0.25693865295534157 0.25278860643768353 0 -0.2416444700809012 0.25186566196455601 0 -0.2470081454867771 0.2422065880623451 0 -0.25109603964961891 0.234366577265785 0 -0.2470081454867771 0.2422065880623451 0 -0.24424918889796191 0.23342051569475999 0 -0.23288038931281729 0.23888496135878451 0 -0.2470081454867771 0.2422065880623451 0 -0.24424918889796191 0.23342051569475999 0 -0.23288038931281729 0.23888496135878451 0 -0.24424918889796191 0.23342051569475999 0 -0.2396805993576108 0.22455316273993289 0 -0.24424918889796191 0.23342051569475999 0 -0.249817319625419 0.2274340479663062 0 -0.2396805993576108 0.22455316273993289 0 -0.25109603964961891 0.234366577265785 0 -0.24424918889796191 0.23342051569475999 0 -0.249817319625419 0.2274340479663062 0 -0.249817319625419 0.2274340479663062 0 -0.24904636230289101 0.22050689045355901 0 -0.2396805993576108 0.22455316273993289 0 -0.24904636230289101 0.22050689045355901 0 -0.2396805993576108 0.22455316273993289 0 -0.24333230173327219 0.21221501244476959 0 -0.2396805993576108 0.22455316273993289 0 -0.21994142138302111 0.22426230620998819 0 -0.23304733008138001 0.21339205942673259 0 -0.23288038931281729 0.23888496135878451 0 -0.2396805993576108 0.22455316273993289 0 -0.21994142138302111 0.22426230620998819 0 -0.21994142138302111 0.22426230620998819 0 -0.22770108326548311 0.19899738589993199 0 -0.210353022999335 0.20567537760669019 0 -0.21994142138302111 0.22426230620998819 0 -0.23304733008138001 0.21339205942673259 0 -0.22770108326548311 0.19899738589993199 0 -0.21994142138302111 0.22426230620998819 0 -0.22770108326548311 0.19899738589993199 0 -0.23304733008138001 0.21339205942673259 0 -0.2346933251094325 0.20523388649383931 0 -0.22770108326548311 0.19899738589993199 0 -0.25427276080650663 0.20955058897277601 0 -0.23715700367548431 0.1978330431509176 0 -0.2396805993576108 0.22455316273993289 0 -0.23304733008138001 0.21339205942673259 0 -0.24333230173327219 0.21221501244476959 0 -0.25427276080650663 0.20955058897277601 0 -0.24333230173327219 0.21221501244476959 0 -0.23715700367548431 0.1978330431509176 0 -0.25561524088587501 0.21572724177218369 0 -0.24904636230289101 0.22050689045355901 0 -0.24333230173327219 0.21221501244476959 0 -0.24333230173327219 0.21221501244476959 0 -0.2346933251094325 0.20523388649383931 0 -0.23715700367548431 0.1978330431509176 0 -0.23304733008138001 0.21339205942673259 0 -0.24333230173327219 0.21221501244476959 0 -0.2346933251094325 0.20523388649383931 0 -0.25427276080650663 0.20955058897277601 0 -0.24947341468037071 0.1874691479585941 0 -0.23715700367548431 0.1978330431509176 0 -0.24947341468037071 0.1874691479585941 0 -0.2350219134637796 0.18103954803765679 0 -0.23715700367548431 0.1978330431509176 0 -0.22004124654446131 0.18611549732905991 0 -0.23715700367548431 0.1978330431509176 0 -0.22004124654446131 0.18611549732905991 0 -0.23715700367548431 0.1978330431509176 0 -0.22770108326548311 0.19899738589993199 0 -0.2350219134637796 0.18103954803765679 0 -0.22004124654446131 0.18611549732905991 0 -0.23715700367548431 0.1978330431509176 0 -0.2346933251094325 0.20523388649383931 0 -0.23715700367548431 0.1978330431509176 0 -0.22770108326548311 0.19899738589993199 0 -0.22004124654446131 0.18611549732905991 0 -0.22770108326548311 0.19899738589993199 0 -0.21594480206149139 0.19584787550150309 0 -0.22770108326548311 0.19899738589993199 0 -0.21594480206149139 0.19584787550150309 0 -0.210353022999335 0.20567537760669019 0 -0.22004124654446131 0.18611549732905991 0 -0.21594480206149139 0.19584787550150309 0 -0.20568385543668641 0.19260324117033031 0 -0.21594480206149139 0.19584787550150309 0 -0.20568385543668641 0.19260324117033031 0 -0.210353022999335 0.20567537760669019 0 -0.20568385543668641 0.19260324117033031 0 -0.19800517532583911 0.2033181044808495 0 -0.210353022999335 0.20567537760669019 0 -0.20568385543668641 0.19260324117033031 0 -0.1897130520823497 0.19444680225630501 0 -0.19800517532583911 0.2033181044808495 0 -0.1897130520823497 0.19444680225630501 0 -0.19800517532583911 0.2033181044808495 0 -0.1863200837324982 0.20555600776477401 0 -0.19800517532583911 0.2033181044808495 0 -0.19795586237832599 0.21830909360614789 0 -0.210353022999335 0.20567537760669019 0 -0.19800517532583911 0.2033181044808495 0 -0.19795586237832599 0.21830909360614789 0 -0.1863200837324982 0.20555600776477401 0 -0.19795586237832599 0.21830909360614789 0 -0.18240126852579899 0.21930684119835961 0 -0.1863200837324982 0.20555600776477401 0 -0.21994142138302111 0.22426230620998819 0 -0.19795586237832599 0.21830909360614789 0 -0.210353022999335 0.20567537760669019 0 -0.21994142138302111 0.22426230620998819 0 -0.19795586237832599 0.21830909360614789 0 -0.20314208847108339 0.23556135501649109 0 -0.19795586237832599 0.21830909360614789 0 -0.18651378479530609 0.23505073182760211 0 -0.18240126852579899 0.21930684119835961 0 -0.19795586237832599 0.21830909360614789 0 -0.20314208847108339 0.23556135501649109 0 -0.18651378479530609 0.23505073182760211 0 -0.1929026130837673 0.25762258695206858 0 -0.20314208847108339 0.23556135501649109 0 -0.18651378479530609 0.23505073182760211 0 -0.1929026130837673 0.25762258695206858 0 -0.20314208847108339 0.23556135501649109 0 -0.21218175950055909 0.24952722652004439 0 -0.21994142138302111 0.22426230620998819 0 -0.21218175950055909 0.24952722652004439 0 -0.21994142138302111 0.22426230620998819 0 -0.20314208847108339 0.23556135501649109 0 -0.21218175950055909 0.24952722652004439 0 -0.16582228118094081 0.26466105519565358 0 -0.18651378479530609 0.23505073182760211 0 -0.1608218935138386 0.23306973899941771 0 -0.16582228118094081 0.26466105519565358 0 -0.14534546737678511 0.25129379472131641 0 -0.1608218935138386 0.23306973899941771 0 -0.18651378479530609 0.23505073182760211 0 -0.1608218935138386 0.23306973899941771 0 -0.18651378479530609 0.23505073182760211 0 -0.18240126852579899 0.21930684119835961 0 -0.1608218935138386 0.23306973899941771 0 -0.1608218935138386 0.23306973899941771 0 -0.16716432822862029 0.21469463307327219 0 -0.14537567171977789 0.21373021027012479 0 -0.18240126852579899 0.21930684119835961 0 -0.1608218935138386 0.23306973899941771 0 -0.16716432822862029 0.21469463307327219 0 -0.16716432822862029 0.21469463307327219 0 -0.15728284033457929 0.19872471446884221 0 -0.14537567171977789 0.21373021027012479 0 -0.16716432822862029 0.21469463307327219 0 -0.1863200837324982 0.20555600776477401 0 -0.15728284033457929 0.19872471446884221 0 -0.18240126852579899 0.21930684119835961 0 -0.16716432822862029 0.21469463307327219 0 -0.1863200837324982 0.20555600776477401 0 -0.1863200837324982 0.20555600776477401 0 -0.1747365466553682 0.1940095109997643 0 -0.15728284033457929 0.19872471446884221 0 -0.1897130520823497 0.19444680225630501 0 -0.1863200837324982 0.20555600776477401 0 -0.1747365466553682 0.1940095109997643 0 -0.1897130520823497 0.19444680225630501 0 -0.1747365466553682 0.1940095109997643 0 -0.1757122088887666 0.1802711648698879 0 -0.1747365466553682 0.1940095109997643 0 -0.16534449221108169 0.19019064904669619 0 -0.1757122088887666 0.1802711648698879 0 -0.1863200837324982 0.20555600776477401 0 -0.15728284033457929 0.19872471446884221 0 -0.1747365466553682 0.1940095109997643 0 -0.16534449221108169 0.19019064904669619 0 -0.15728284033457929 0.19872471446884221 0 -0.16534449221108169 0.19019064904669619 0 -0.15728284033457929 0.19872471446884221 0 -0.15629575781976141 0.184461654133797 0 -0.15728284033457929 0.19872471446884221 0 -0.12824559693666041 0.19189342117291039 0 -0.15629575781976141 0.184461654133797 0 -0.15728284033457929 0.19872471446884221 0 -0.12824559693666041 0.19189342117291039 0 -0.14537567171977789 0.21373021027012479 0 -0.15728284033457929 0.19872471446884221 0 -0.12824559693666041 0.19189342117291039 0 -0.12824559693666041 0.19189342117291039 0 -0.14537567171977789 0.21373021027012479 0 -0.1242544958201173 0.21504107598638081 0 -0.1608218935138386 0.23306973899941771 0 -0.14537567171977789 0.21373021027012479 0 -0.13513000223237101 0.23108874617123329 0 -0.1608218935138386 0.23306973899941771 0 -0.13513000223237101 0.23108874617123329 0 -0.14537567171977789 0.21373021027012479 0 -0.13513000223237101 0.23108874617123329 0 -0.1242544958201173 0.21504107598638081 0 -0.14534546737678511 0.25129379472131641 0 -0.13513000223237101 0.23108874617123329 0 -0.12470300375741469 0.2457033751303839 0 -0.14534546737678511 0.25129379472131641 0 -0.1608218935138386 0.23306973899941771 0 -0.13513000223237101 0.23108874617123329 0 -0.17833905569944569 0.15756593750779829 0 -0.1561619761378806 0.16047685630827471 0 -0.153752621985453 0.14073392350839439 0 -0.1795193575176991 0.1294692331289829 0 -0.17833905569944569 0.15756593750779829 0 -0.153752621985453 0.14073392350839439 0 -0.17833905569944569 0.15756593750779829 0 -0.153752621985453 0.14073392350839439 0 -0.16393492635195239 0.1245978723337525 0 -0.15311233888185891 0.1152965378839053 0 -0.153752621985453 0.14073392350839439 0 -0.16393492635195239 0.1245978723337525 0 -0.1795193575176991 0.1294692331289829 0 -0.153752621985453 0.14073392350839439 0 -0.19589961716039911 0.1405342722931214 0 -0.1795193575176991 0.1294692331289829 0 -0.17833905569944569 0.15756593750779829 0 -0.20292548941343971 0.17439795150720031 0 -0.17833905569944569 0.15756593750779829 0 -0.1757122088887666 0.1802711648698879 0 -0.1897130520823497 0.19444680225630501 0 -0.1757122088887666 0.1802711648698879 0 -0.16534449221108169 0.19019064904669619 0 -0.1757122088887666 0.1802711648698879 0 -0.15629575781976141 0.184461654133797 0 -0.1757122088887666 0.1802711648698879 0 -0.15629575781976141 0.184461654133797 0 -0.1757122088887666 0.1802711648698879 0 -0.15629575781976141 0.184461654133797 0 -0.1561619761378806 0.16047685630827471 0 -0.17833905569944569 0.15756593750779829 0 -0.1757122088887666 0.1802711648698879 0 -0.1561619761378806 0.16047685630827471 0 -0.1757122088887666 0.1802711648698879 0 -0.1561619761378806 0.16047685630827471 0 -0.1561619761378806 0.16047685630827471 0 -0.14126926821389521 0.17232478353634881 0 -0.1371080151487378 0.15864895140394189 0 -0.15629575781976141 0.184461654133797 0 -0.1561619761378806 0.16047685630827471 0 -0.14126926821389521 0.17232478353634881 0 -0.12824559693666041 0.19189342117291039 0 -0.15629575781976141 0.184461654133797 0 -0.14126926821389521 0.17232478353634881 0 -0.12824559693666041 0.19189342117291039 0 -0.14126926821389521 0.17232478353634881 0 -0.1248941403316576 0.1686438139500778 0 -0.14126926821389521 0.17232478353634881 0 -0.1371080151487378 0.15864895140394189 0 -0.1248941403316576 0.1686438139500778 0 -0.1371080151487378 0.15864895140394189 0 -0.1239269324459726 0.1539154783358255 0 -0.1248941403316576 0.1686438139500778 0 -0.1371080151487378 0.15864895140394189 0 -0.13661174338699569 0.1406825477466605 0 -0.1239269324459726 0.1539154783358255 0 -0.1561619761378806 0.16047685630827471 0 -0.13661174338699569 0.1406825477466605 0 -0.1561619761378806 0.16047685630827471 0 -0.13661174338699569 0.1406825477466605 0 -0.153752621985453 0.14073392350839439 0 -0.1561619761378806 0.16047685630827471 0 -0.1371080151487378 0.15864895140394189 0 -0.13661174338699569 0.1406825477466605 0 -0.12916618827146031 0.12390190950899049 0 -0.153752621985453 0.14073392350839439 0 -0.13930859898956699 0.1145050369687237 0 -0.12916618827146031 0.12390190950899049 0 -0.153752621985453 0.14073392350839439 0 -0.13661174338699569 0.1406825477466605 0 -0.11706151063611089 0.1208882391850464 0 -0.12916618827146031 0.12390190950899049 0 -0.13661174338699569 0.1406825477466605 0 -0.11706151063611089 0.1208882391850464 0 -0.12916618827146031 0.12390190950899049 0 -0.13661174338699569 0.1406825477466605 0 -0.153752621985453 0.14073392350839439 0 -0.13661174338699569 0.1406825477466605 0 -0.11473911200363 0.13153944404780621 0 -0.1132109842275667 0.1430328284895945 0 -0.13661174338699569 0.1406825477466605 0 -0.11473911200363 0.13153944404780621 0 -0.11706151063611089 0.1208882391850464 0 -0.11473911200363 0.13153944404780621 0 -0.1039338124667491 0.13009472872812991 0 -0.1132109842275667 0.1430328284895945 0 -0.11473911200363 0.13153944404780621 0 -0.1039338124667491 0.13009472872812991 0 -0.10601879130899509 0.12208205668825579 0 -0.1039338124667491 0.13009472872812991 0 -0.093398168270057425 0.14218175111966569 0 -0.093946486761182085 0.1175508364221631 0 -0.1039338124667491 0.13009472872812991 0 -0.1132109842275667 0.1430328284895945 0 -0.093398168270057425 0.14218175111966569 0 -0.1078097791349048 0.15856925008885259 0 -0.089544080768145809 0.16137822361845131 0 -0.093398168270057425 0.14218175111966569 0 -0.1132109842275667 0.1430328284895945 0 -0.1078097791349048 0.15856925008885259 0 -0.093398168270057425 0.14218175111966569 0 -0.13661174338699569 0.1406825477466605 0 -0.1132109842275667 0.1430328284895945 0 -0.1239269324459726 0.1539154783358255 0 -0.1132109842275667 0.1430328284895945 0 -0.1239269324459726 0.1539154783358255 0 -0.1078097791349048 0.15856925008885259 0 -0.1248941403316576 0.1686438139500778 0 -0.099208353538741523 0.18506212787697859 0 -0.1078097791349048 0.15856925008885259 0 -0.1239269324459726 0.1539154783358255 0 -0.1248941403316576 0.1686438139500778 0 -0.1078097791349048 0.15856925008885259 0 -0.12824559693666041 0.19189342117291039 0 -0.1248941403316576 0.1686438139500778 0 -0.099208353538741523 0.18506212787697859 0 -0.099208353538741523 0.18506212787697859 0 -0.1078097791349048 0.15856925008885259 0 -0.089544080768145809 0.16137822361845131 0 -0.089544080768145809 0.16137822361845131 0 -0.070171110140822543 0.1782308345810468 0 -0.074669823138777097 0.15727584041375819 0 -0.099208353538741523 0.18506212787697859 0 -0.089544080768145809 0.16137822361845131 0 -0.070171110140822543 0.1782308345810468 0 -0.099208353538741523 0.18506212787697859 0 -0.070171110140822543 0.1782308345810468 0 -0.070171110140822543 0.1782308345810468 0 -0.074669823138777097 0.15727584041375819 0 -0.057722578482997257 0.16273086802879619 0 -0.074669823138777097 0.15727584041375819 0 -0.066369438716585821 0.14892706699039879 0 -0.057722578482997257 0.16273086802879619 0 -0.074669823138777097 0.15727584041375819 0 -0.066369438716585821 0.14892706699039879 0 -0.074733199104357148 0.14603812585323231 0 -0.074669823138777097 0.15727584041375819 0 -0.074733199104357148 0.14603812585323231 0 -0.082756465015383474 0.1492386270883771 0 -0.074733199104357148 0.14603812585323231 0 -0.067315024607703278 0.13662092079142449 0 -0.081437053795579945 0.1393191944367777 0 -0.066369438716585821 0.14892706699039879 0 -0.074733199104357148 0.14603812585323231 0 -0.067315024607703278 0.13662092079142449 0 -0.066369438716585821 0.14892706699039879 0 -0.067315024607703278 0.13662092079142449 0 -0.054361576129613079 0.15178129246158931 0 -0.067315024607703278 0.13662092079142449 0 -0.088852304720190942 0.12644129241805541 0 -0.067315024607703278 0.13662092079142449 0 -0.088852304720190942 0.12644129241805541 0 -0.075786521408142987 0.12443322189858901 0 -0.067315024607703278 0.13662092079142449 0 -0.062016764747578973 0.12884034001808189 0 -0.075786521408142987 0.12443322189858901 0 -0.088852304720190942 0.12644129241805541 0 -0.093398168270057425 0.14218175111966569 0 -0.093946486761182085 0.1175508364221631 0 -0.067315024607703278 0.13662092079142449 0 -0.081437053795579945 0.1393191944367777 0 -0.088852304720190942 0.12644129241805541 0 -0.093398168270057425 0.14218175111966569 0 -0.093946486761182085 0.1175508364221631 0 -0.081437053795579945 0.1393191944367777 0 -0.088852304720190942 0.12644129241805541 0 -0.093398168270057425 0.14218175111966569 0 -0.089544080768145809 0.16137822361845131 0 -0.093398168270057425 0.14218175111966569 0 -0.082756465015383474 0.1492386270883771 0 -0.089544080768145809 0.16137822361845131 0 -0.074669823138777097 0.15727584041375819 0 -0.082756465015383474 0.1492386270883771 0 -0.074733199104357148 0.14603812585323231 0 -0.081437053795579945 0.1393191944367777 0 -0.082756465015383474 0.1492386270883771 0 -0.081437053795579945 0.1393191944367777 0 -0.093398168270057425 0.14218175111966569 0 -0.082756465015383474 0.1492386270883771 0 -0.11076524853809321 0.25238606884059173 0 -0.1094381109509034 0.22910775334304889 0 -0.091345724210048884 0.23566487628332011 0 -0.11076524853809321 0.25238606884059173 0 -0.092391857727521592 0.25884509119311472 0 -0.091345724210048884 0.23566487628332011 0 -0.13513000223237101 0.23108874617123329 0 -0.12470300375741469 0.2457033751303839 0 -0.1094381109509034 0.22910775334304889 0 -0.11076524853809321 0.25238606884059173 0 -0.12470300375741469 0.2457033751303839 0 -0.1094381109509034 0.22910775334304889 0 -0.13513000223237101 0.23108874617123329 0 -0.1094381109509034 0.22910775334304889 0 -0.13513000223237101 0.23108874617123329 0 -0.1094381109509034 0.22910775334304889 0 -0.1242544958201173 0.21504107598638081 0 -0.1094381109509034 0.22910775334304889 0 -0.10308309726087379 0.20938524897458621 0 -0.091345724210048884 0.23566487628332011 0 -0.1094381109509034 0.22910775334304889 0 -0.10308309726087379 0.20938524897458621 0 -0.1242544958201173 0.21504107598638081 0 -0.12824559693666041 0.19189342117291039 0 -0.10308309726087379 0.20938524897458621 0 -0.1242544958201173 0.21504107598638081 0 -0.12824559693666041 0.19189342117291039 0 -0.099208353538741523 0.18506212787697859 0 -0.12824559693666041 0.19189342117291039 0 -0.099208353538741523 0.18506212787697859 0 -0.10308309726087379 0.20938524897458621 0 -0.099208353538741523 0.18506212787697859 0 -0.070171110140822543 0.1782308345810468 0 -0.078220861930521898 0.21057701145176541 0 -0.070171110140822543 0.1782308345810468 0 -0.078220861930521898 0.21057701145176541 0 -0.056949983849450658 0.19269083667038239 0 -0.099208353538741523 0.18506212787697859 0 -0.10308309726087379 0.20938524897458621 0 -0.078220861930521898 0.21057701145176541 0 -0.078220861930521898 0.21057701145176541 0 -0.056178602179823331 0.21732906463454121 0 -0.056949983849450658 0.19269083667038239 0 -0.10308309726087379 0.20938524897458621 0 -0.078220861930521898 0.21057701145176541 0 -0.091345724210048884 0.23566487628332011 0 -0.078220861930521898 0.21057701145176541 0 -0.069221313838413207 0.24642852661517459 0 -0.091345724210048884 0.23566487628332011 0 -0.078220861930521898 0.21057701145176541 0 -0.069221313838413207 0.24642852661517459 0 -0.056178602179823331 0.21732906463454121 0 -0.092391857727521592 0.25884509119311472 0 -0.069221313838413207 0.24642852661517459 0 -0.091345724210048884 0.23566487628332011 0 -0.033382390283993792 0.24359412621706661 0 -0.046050769949304807 0.23401196203723451 0 -0.025866468353912139 0.2289639569827632 0 -0.048126263350958612 0.25465777805589501 0 -0.033382390283993792 0.24359412621706661 0 -0.046050769949304807 0.23401196203723451 0 -0.048126263350958612 0.25465777805589501 0 -0.069221313838413207 0.24642852661517459 0 -0.046050769949304807 0.23401196203723451 0 -0.069221313838413207 0.24642852661517459 0 -0.046050769949304807 0.23401196203723451 0 -0.069221313838413207 0.24642852661517459 0 -0.046050769949304807 0.23401196203723451 0 -0.056178602179823331 0.21732906463454121 0 -0.046050769949304807 0.23401196203723451 0 -0.03692704292774221 0.2147422921961073 0 -0.025866468353912139 0.2289639569827632 0 -0.046050769949304807 0.23401196203723451 0 -0.03692704292774221 0.2147422921961073 0 -0.056178602179823331 0.21732906463454121 0 -0.03692704292774221 0.2147422921961073 0 -0.056178602179823331 0.21732906463454121 0 -0.044221089124866657 0.20193605474889509 0 -0.03692704292774221 0.2147422921961073 0 -0.044221089124866657 0.20193605474889509 0 -0.032331133115066808 0.19858524020914661 0 -0.056178602179823331 0.21732906463454121 0 -0.056949983849450658 0.19269083667038239 0 -0.044221089124866657 0.20193605474889509 0 -0.056949983849450658 0.19269083667038239 0 -0.040360849617421202 0.18777351164107661 0 -0.044221089124866657 0.20193605474889509 0 -0.040360849617421202 0.18777351164107661 0 -0.032331133115066808 0.19858524020914661 0 -0.026751027678188599 0.18229597604057349 0 -0.040360849617421202 0.18777351164107661 0 -0.044221089124866657 0.20193605474889509 0 -0.032331133115066808 0.19858524020914661 0 -0.016914194843479571 0.2076274745640635 0 -0.026751027678188599 0.18229597604057349 0 -0.032331133115066808 0.19858524020914661 0 -0.016914194843479571 0.2076274745640635 0 -0.026751027678188599 0.18229597604057349 0 -0.01405220631290922 0.19352016069679451 0 -0.016914194843479571 0.2076274745640635 0 -0.026751027678188599 0.18229597604057349 0 -0.01405220631290922 0.19352016069679451 0 -0.0012364494800765971 0.1960628175593882 0 -0.01891215499648707 0.1765136475382359 0 -0.01405220631290922 0.19352016069679451 0 -0.0012364494800765971 0.1960628175593882 0 -0.0064787008301582438 0.20475797647738719 0 -0.0012364494800765971 0.1960628175593882 0 -0.0064787008301582438 0.20475797647738719 0 0.003893562275735573 0.2064819102401671 0 -0.01405220631290922 0.19352016069679451 0 -0.0064787008301582438 0.20475797647738719 0 -0.016914194843479571 0.2076274745640635 0 -0.0045317147067566524 0.21522543551468479 0 -0.016914194843479571 0.2076274745640635 0 -0.0070773620087705444 0.23295897308755351 0 -0.0064787008301582438 0.20475797647738719 0 -0.0045317147067566524 0.21522543551468479 0 -0.016914194843479571 0.2076274745640635 0 -0.0064787008301582438 0.20475797647738719 0 -0.0045317147067566524 0.21522543551468479 0 0.003893562275735573 0.2064819102401671 0 -0.03692704292774221 0.2147422921961073 0 -0.016914194843479571 0.2076274745640635 0 -0.025866468353912139 0.2289639569827632 0 -0.03692704292774221 0.2147422921961073 0 -0.032331133115066808 0.19858524020914661 0 -0.016914194843479571 0.2076274745640635 0 -0.016914194843479571 0.2076274745640635 0 -0.025866468353912139 0.2289639569827632 0 -0.0070773620087705444 0.23295897308755351 0 -0.016914194843479571 0.2076274745640635 0 -0.0070773620087705444 0.23295897308755351 0 -0.0045317147067566524 0.21522543551468479 0 -0.0070773620087705444 0.23295897308755351 0 0.0038866256090455522 0.2239579318999283 0 -0.0070773620087705444 0.23295897308755351 0 0.001894876929373096 0.24743045501984201 0 0.0027594708259384838 0.25829047161104352 0 -0.0070773620087705444 0.23295897308755351 0 0.0027594708259384838 0.25829047161104352 0 -0.0087132352456033638 0.25173417187717928 0 -0.0070773620087705444 0.23295897308755351 0 -0.01778818590069102 0.2421293126167848 0 -0.0087132352456033638 0.25173417187717928 0 -0.0070773620087705444 0.23295897308755351 0 0.0027594708259384838 0.25829047161104352 0 -0.025866468353912139 0.2289639569827632 0 -0.0070773620087705444 0.23295897308755351 0 -0.01778818590069102 0.2421293126167848 0 -0.028053557715267439 0.25838243531431121 0 -0.033382390283993792 0.24359412621706661 0 -0.01778818590069102 0.2421293126167848 0 -0.033382390283993792 0.24359412621706661 0 -0.025866468353912139 0.2289639569827632 0 -0.01778818590069102 0.2421293126167848 0 -0.044416936009294992 0.14744373737619401 0 -0.030319635528424791 0.14770209815471691 0 -0.021396469969749188 0.1374028974533886 0 -0.044416936009294992 0.14744373737619401 0 -0.030319635528424791 0.14770209815471691 0 -0.027639103276038759 0.15537380566908321 0 -0.044416936009294992 0.14744373737619401 0 -0.038116788675066252 0.15302723042411279 0 -0.027639103276038759 0.15537380566908321 0 -0.044416936009294992 0.14744373737619401 0 -0.041458398192443832 0.13942314763129199 0 -0.021396469969749188 0.1374028974533886 0 -0.044416936009294992 0.14744373737619401 0 -0.027639103276038759 0.15537380566908321 0 -0.044416936009294992 0.14744373737619401 0 -0.021396469969749188 0.1374028974533886 0 -0.044416936009294992 0.14744373737619401 0 -0.036587860512897558 0.15696447751708351 0 -0.044416936009294992 0.14744373737619401 0 -0.047012455662473793 0.15786975055381819 0 -0.036587860512897558 0.15696447751708351 0 -0.044416936009294992 0.14744373737619401 0 -0.038116788675066252 0.15302723042411279 0 -0.036587860512897558 0.15696447751708351 0 -0.038116788675066252 0.15302723042411279 0 -0.036587860512897558 0.15696447751708351 0 -0.027639103276038759 0.15537380566908321 0 -0.038116788675066252 0.15302723042411279 0 -0.036587860512897558 0.15696447751708351 0 -0.037500573576258918 0.13069979942664511 0 -0.041458398192443832 0.13942314763129199 0 -0.021396469969749188 0.1374028974533886 0 -0.037500573576258918 0.13069979942664511 0 -0.028643554108799551 0.12806760582925611 0 -0.034668926388748328 0.1237436995229996 0 -0.037500573576258918 0.13069979942664511 0 -0.047589673205635397 0.1324549890601831 0 -0.046884900963607742 0.11986348336078891 0 -0.037500573576258918 0.13069979942664511 0 -0.041458398192443832 0.13942314763129199 0 -0.047589673205635397 0.1324549890601831 0 -0.044416936009294992 0.14744373737619401 0 -0.041458398192443832 0.13942314763129199 0 -0.047589673205635397 0.1324549890601831 0 -0.067315024607703278 0.13662092079142449 0 -0.044416936009294992 0.14744373737619401 0 -0.062016764747578973 0.12884034001808189 0 -0.044416936009294992 0.14744373737619401 0 -0.062016764747578973 0.12884034001808189 0 -0.044416936009294992 0.14744373737619401 0 -0.047589673205635397 0.1324549890601831 0 -0.062016764747578973 0.12884034001808189 0 -0.047589673205635397 0.1324549890601831 0 -0.062016764747578973 0.12884034001808189 0 -0.046884900963607742 0.11986348336078891 0 -0.067315024607703278 0.13662092079142449 0 -0.044416936009294992 0.14744373737619401 0 -0.054361576129613079 0.15178129246158931 0 -0.067315024607703278 0.13662092079142449 0 -0.044416936009294992 0.14744373737619401 0 -0.044416936009294992 0.14744373737619401 0 -0.054361576129613079 0.15178129246158931 0 -0.044416936009294992 0.14744373737619401 0 -0.054361576129613079 0.15178129246158931 0 -0.047012455662473793 0.15786975055381819 0 -0.066369438716585821 0.14892706699039879 0 -0.054361576129613079 0.15178129246158931 0 -0.057722578482997257 0.16273086802879619 0 -0.057722578482997257 0.16273086802879619 0 -0.050411583818504503 0.1777900037548745 0 -0.045636115300606919 0.16650756778262649 0 -0.054361576129613079 0.15178129246158931 0 -0.057722578482997257 0.16273086802879619 0 -0.047012455662473793 0.15786975055381819 0 -0.057722578482997257 0.16273086802879619 0 -0.047012455662473793 0.15786975055381819 0 -0.045636115300606919 0.16650756778262649 0 -0.070171110140822543 0.1782308345810468 0 -0.056949983849450658 0.19269083667038239 0 -0.050411583818504503 0.1777900037548745 0 -0.070171110140822543 0.1782308345810468 0 -0.057722578482997257 0.16273086802879619 0 -0.050411583818504503 0.1777900037548745 0 -0.056949983849450658 0.19269083667038239 0 -0.040360849617421202 0.18777351164107661 0 -0.050411583818504503 0.1777900037548745 0 -0.040360849617421202 0.18777351164107661 0 -0.050411583818504503 0.1777900037548745 0 -0.039949487385523758 0.17426630734724691 0 -0.050411583818504503 0.1777900037548745 0 -0.039949487385523758 0.17426630734724691 0 -0.045636115300606919 0.16650756778262649 0 -0.040360849617421202 0.18777351164107661 0 -0.039949487385523758 0.17426630734724691 0 -0.026751027678188599 0.18229597604057349 0 -0.039949487385523758 0.17426630734724691 0 -0.036587860512897558 0.15696447751708351 0 -0.026751027678188599 0.18229597604057349 0 -0.036587860512897558 0.15696447751708351 0 -0.026751027678188599 0.18229597604057349 0 -0.039949487385523758 0.17426630734724691 0 -0.045636115300606919 0.16650756778262649 0 -0.036587860512897558 0.15696447751708351 0 -0.047012455662473793 0.15786975055381819 0 -0.045636115300606919 0.16650756778262649 0 -0.036587860512897558 0.15696447751708351 0 -0.01891215499648707 0.1765136475382359 0 -0.010861270542782259 0.1633038739619718 0 -0.027639103276038759 0.15537380566908321 0 -0.010861270542782259 0.1633038739619718 0 -0.027639103276038759 0.15537380566908321 0 -0.036587860512897558 0.15696447751708351 0 -0.01891215499648707 0.1765136475382359 0 -0.036587860512897558 0.15696447751708351 0 -0.01891215499648707 0.1765136475382359 0 -0.027639103276038759 0.15537380566908321 0 -0.01405220631290922 0.19352016069679451 0 -0.01891215499648707 0.1765136475382359 0 -0.026751027678188599 0.18229597604057349 0 -0.036587860512897558 0.15696447751708351 0 -0.01891215499648707 0.1765136475382359 0 -0.026751027678188599 0.18229597604057349 0 -0.01891215499648707 0.1765136475382359 0 -0.010861270542782259 0.1633038739619718 0 0.00061104658230836653 0.17769045695541219 0 -0.0012364494800765971 0.1960628175593882 0 -0.01891215499648707 0.1765136475382359 0 0.00061104658230836653 0.17769045695541219 0 -0.0012364494800765971 0.1960628175593882 0 -0.01891215499648707 0.1765136475382359 0 -0.010861270542782259 0.1633038739619718 0 0.001788155555331062 0.1557637096651584 0 0.00061104658230836653 0.17769045695541219 0 -0.01542264584752753 0.14956457798035719 0 -0.015783289274076458 0.13495459563681389 0 0.001788155555331062 0.1557637096651584 0 -0.015783289274076458 0.13495459563681389 0 0.001788155555331062 0.1557637096651584 0 0.01185912902997375 0.14130758542593569 0 -0.010861270542782259 0.1633038739619718 0 -0.01542264584752753 0.14956457798035719 0 0.001788155555331062 0.1557637096651584 0 -0.015783289274076458 0.13495459563681389 0 0.001788155555331062 0.1557637096651584 0 -0.01542264584752753 0.14956457798035719 0 -0.023159931299824549 0.14839209377580129 0 -0.027639103276038759 0.15537380566908321 0 -0.010861270542782259 0.1633038739619718 0 -0.01542264584752753 0.14956457798035719 0 -0.027639103276038759 0.15537380566908321 0 -0.01542264584752753 0.14956457798035719 0 -0.023159931299824549 0.14839209377580129 0 -0.021396469969749188 0.1374028974533886 0 -0.01542264584752753 0.14956457798035719 0 -0.021396469969749188 0.1374028974533886 0 -0.015783289274076458 0.13495459563681389 0 -0.030319635528424791 0.14770209815471691 0 -0.021396469969749188 0.1374028974533886 0 -0.023159931299824549 0.14839209377580129 0 -0.030319635528424791 0.14770209815471691 0 -0.021396469969749188 0.1374028974533886 0 -0.023159931299824549 0.14839209377580129 0 -0.030319635528424791 0.14770209815471691 0 -0.027639103276038759 0.15537380566908321 0 -0.028643554108799551 0.12806760582925611 0 -0.017506847497941139 0.13291345901070739 0 -0.032144953111298558 0.1155781737325411 0 -0.037500573576258918 0.13069979942664511 0 -0.028643554108799551 0.12806760582925611 0 -0.021396469969749188 0.1374028974533886 0 -0.021396469969749188 0.1374028974533886 0 -0.015783289274076458 0.13495459563681389 0 -0.017506847497941139 0.13291345901070739 0 -0.021396469969749188 0.1374028974533886 0 -0.015783289274076458 0.13495459563681389 0 -0.021396469969749188 0.1374028974533886 0 -0.017506847497941139 0.13291345901070739 0 -0.015783289274076458 0.13495459563681389 0 -0.017506847497941139 0.13291345901070739 0 -0.028643554108799551 0.12806760582925611 0 -0.021396469969749188 0.1374028974533886 0 -0.017506847497941139 0.13291345901070739 0 -0.015783289274076458 0.13495459563681389 0 -0.017506847497941139 0.13291345901070739 0 -0.0052228475358298988 0.1187351519746004 0 -0.015783289274076458 0.13495459563681389 0 -0.0052228475358298988 0.1187351519746004 0 0.0081407562022233586 0.1245196413435004 0 -0.017506847497941139 0.13291345901070739 0 -0.0052228475358298988 0.1187351519746004 0 -0.015783289274076458 0.13495459563681389 0 0.0081407562022233586 0.1245196413435004 0 -0.0052228475358298988 0.1187351519746004 0 -0.0040597014752050652 0.1051126182356364 0 -0.02761291541641378 0.1090435214711212 0 -0.017506847497941139 0.13291345901070739 0 -0.0052228475358298988 0.1187351519746004 0 -0.019344259015361451 0.119617058157429 0 -0.0040597014752050652 0.1051126182356364 0 -0.01533391803445322 0.09737838425916874 0 0.0051087594610210148 0.080527692295617709 0 -0.0052228475358298988 0.1187351519746004 0 -0.0040597014752050652 0.1051126182356364 0 0.0092582498306486675 0.1020209346744549 0 -0.0040597014752050652 0.1051126182356364 0 -0.01533391803445322 0.09737838425916874 0 -0.02761291541641378 0.1090435214711212 0 -0.01533391803445322 0.09737838425916874 0 -0.027797722535604891 0.095528124355643507 0 -0.02761291541641378 0.1090435214711212 0 -0.0052228475358298988 0.1187351519746004 0 -0.02761291541641378 0.1090435214711212 0 -0.019344259015361451 0.119617058157429 0 -0.017506847497941139 0.13291345901070739 0 -0.019344259015361451 0.119617058157429 0 -0.032144953111298558 0.1155781737325411 0 -0.02761291541641378 0.1090435214711212 0 -0.019344259015361451 0.119617058157429 0 -0.032144953111298558 0.1155781737325411 0 -0.0052228475358298988 0.1187351519746004 0 -0.02761291541641378 0.1090435214711212 0 -0.017506847497941139 0.13291345901070739 0 -0.032144953111298558 0.1155781737325411 0 -0.0012292332505543029 0.06378464068123596 0 -0.011084303888442551 0.081696622097620714 0 -0.018620569400409771 0.06708533464306303 0 -0.0012292332505543029 0.06378464068123596 0 -0.011084303888442551 0.081696622097620714 0 0.0051087594610210148 0.080527692295617709 0 -0.01533391803445322 0.09737838425916874 0 -0.011084303888442551 0.081696622097620714 0 0.0051087594610210148 0.080527692295617709 0 -0.01533391803445322 0.09737838425916874 0 0.0051087594610210148 0.080527692295617709 0 -0.011084303888442551 0.081696622097620714 0 0.0051087594610210148 0.080527692295617709 0 -0.027797722535604891 0.095528124355643507 0 -0.011084303888442551 0.081696622097620714 0 -0.032921925083363349 0.0833654898886593 0 -0.01533391803445322 0.09737838425916874 0 -0.027797722535604891 0.095528124355643507 0 -0.011084303888442551 0.081696622097620714 0 -0.018620569400409771 0.06708533464306303 0 -0.031868141831282552 0.069818555696904067 0 -0.028283535649973771 0.053358049395037133 0 -0.018620569400409771 0.06708533464306303 0 -0.031868141831282552 0.069818555696904067 0 -0.032921925083363349 0.0833654898886593 0 -0.011084303888442551 0.081696622097620714 0 -0.018620569400409771 0.06708533464306303 0 -0.032921925083363349 0.0833654898886593 0 -0.046276495737503101 0.06795068115397529 0 -0.032921925083363349 0.0833654898886593 0 -0.055882409073029139 0.082732437330199013 0 -0.046276495737503101 0.06795068115397529 0 -0.031868141831282552 0.069818555696904067 0 -0.028283535649973771 0.053358049395037133 0 -0.046276495737503101 0.06795068115397529 0 -0.031868141831282552 0.069818555696904067 0 -0.032921925083363349 0.0833654898886593 0 -0.027797722535604891 0.095528124355643507 0 -0.032921925083363349 0.0833654898886593 0 -0.050002983296997462 0.099351890967641507 0 -0.032921925083363349 0.0833654898886593 0 -0.055882409073029139 0.082732437330199013 0 -0.050002983296997462 0.099351890967641507 0 -0.055882409073029139 0.082732437330199013 0 -0.050002983296997462 0.099351890967641507 0 -0.072393051177581158 0.089660260464161839 0 -0.046276495737503101 0.06795068115397529 0 -0.055882409073029139 0.082732437330199013 0 -0.062589921296568873 0.06642957971461419 0 -0.032144953111298558 0.1155781737325411 0 -0.050002983296997462 0.099351890967641507 0 -0.046884900963607742 0.11986348336078891 0 -0.037500573576258918 0.13069979942664511 0 -0.034668926388748328 0.1237436995229996 0 -0.046884900963607742 0.11986348336078891 0 -0.028643554108799551 0.12806760582925611 0 -0.034668926388748328 0.1237436995229996 0 -0.032144953111298558 0.1155781737325411 0 -0.034668926388748328 0.1237436995229996 0 -0.032144953111298558 0.1155781737325411 0 -0.046884900963607742 0.11986348336078891 0 -0.027797722535604891 0.095528124355643507 0 -0.02761291541641378 0.1090435214711212 0 -0.050002983296997462 0.099351890967641507 0 -0.02761291541641378 0.1090435214711212 0 -0.050002983296997462 0.099351890967641507 0 -0.02761291541641378 0.1090435214711212 0 -0.032144953111298558 0.1155781737325411 0 -0.050002983296997462 0.099351890967641507 0 -0.050002983296997462 0.099351890967641507 0 -0.072393051177581158 0.089660260464161839 0 -0.050002983296997462 0.099351890967641507 0 -0.062115440392200259 0.1100516779477724 0 -0.072393051177581158 0.089660260464161839 0 -0.062016764747578973 0.12884034001808189 0 -0.062115440392200259 0.1100516779477724 0 -0.046884900963607742 0.11986348336078891 0 -0.050002983296997462 0.099351890967641507 0 -0.062115440392200259 0.1100516779477724 0 -0.046884900963607742 0.11986348336078891 0 -0.062016764747578973 0.12884034001808189 0 -0.062115440392200259 0.1100516779477724 0 -0.07825578499994286 0.1108801308713713 0 -0.062016764747578973 0.12884034001808189 0 -0.07825578499994286 0.1108801308713713 0 -0.062016764747578973 0.12884034001808189 0 -0.075786521408142987 0.12443322189858901 0 -0.07825578499994286 0.1108801308713713 0 -0.088852304720190942 0.12644129241805541 0 -0.075786521408142987 0.12443322189858901 0 -0.083719546898917335 0.119699814685821 0 -0.083719546898917335 0.119699814685821 0 -0.07825578499994286 0.1108801308713713 0 -0.093946486761182085 0.1175508364221631 0 -0.075786521408142987 0.12443322189858901 0 -0.083719546898917335 0.119699814685821 0 -0.07825578499994286 0.1108801308713713 0 -0.088852304720190942 0.12644129241805541 0 -0.083719546898917335 0.119699814685821 0 -0.093946486761182085 0.1175508364221631 0 -0.07825578499994286 0.1108801308713713 0 -0.072393051177581158 0.089660260464161839 0 -0.094494805252306774 0.092919921724660626 0 -0.07825578499994286 0.1108801308713713 0 -0.094494805252306774 0.092919921724660626 0 -0.093946486761182085 0.1175508364221631 0 -0.07825578499994286 0.1108801308713713 0 -0.094494805252306774 0.092919921724660626 0 -0.062115440392200259 0.1100516779477724 0 -0.07825578499994286 0.1108801308713713 0 -0.072393051177581158 0.089660260464161839 0 -0.055882409073029139 0.082732437330199013 0 -0.072393051177581158 0.089660260464161839 0 -0.062589921296568873 0.06642957971461419 0 -0.072393051177581158 0.089660260464161839 0 -0.062589921296568873 0.06642957971461419 0 -0.079461892795990779 0.070449194571112136 0 -0.062589921296568873 0.06642957971461419 0 -0.079461892795990779 0.070449194571112136 0 -0.072380178782229632 0.053292134703331731 0 -0.079461892795990779 0.070449194571112136 0 -0.094783119058163612 0.079968629960679383 0 -0.095163193665411511 0.062895368012773595 0 -0.072393051177581158 0.089660260464161839 0 -0.079461892795990779 0.070449194571112136 0 -0.094783119058163612 0.079968629960679383 0 -0.072393051177581158 0.089660260464161839 0 -0.094494805252306774 0.092919921724660626 0 -0.094783119058163612 0.079968629960679383 0 -0.072393051177581158 0.089660260464161839 0 -0.094783119058163612 0.079968629960679383 0 -0.094494805252306774 0.092919921724660626 0 -0.1072570836689255 0.074569224449017327 0 -0.1143352617609841 0.070976556735617355 0 -0.094494805252306774 0.092919921724660626 0 -0.094783119058163612 0.079968629960679383 0 -0.1072570836689255 0.074569224449017327 0 -0.094494805252306774 0.092919921724660626 0 -0.094783119058163612 0.079968629960679383 0 -0.094494805252306774 0.092919921724660626 0 -0.1143352617609841 0.070976556735617355 0 -0.11134444788944529 0.091345452974062963 0 -0.094494805252306774 0.092919921724660626 0 -0.1143352617609841 0.070976556735617355 0 -0.094783119058163612 0.079968629960679383 0 -0.095163193665411511 0.062895368012773595 0 -0.094783119058163612 0.079968629960679383 0 -0.095163193665411511 0.062895368012773595 0 -0.1072570836689255 0.074569224449017327 0 -0.095163193665411511 0.062895368012773595 0 -0.1143352617609841 0.070976556735617355 0 -0.1079186055395126 0.059947093390224047 0 -0.095163193665411511 0.062895368012773595 0 -0.1072570836689255 0.074569224449017327 0 -0.1143352617609841 0.070976556735617355 0 -0.095163193665411511 0.062895368012773595 0 -0.1143352617609841 0.070976556735617355 0 -0.094783119058163612 0.079968629960679383 0 -0.1072570836689255 0.074569224449017327 0 -0.1131683311422218 0.062814464837820119 0 -0.1163519950294771 0.068746068028026575 0 -0.1143352617609841 0.070976556735617355 0 -0.1131683311422218 0.062814464837820119 0 -0.1143352617609841 0.070976556735617355 0 -0.1079186055395126 0.059947093390224047 0 -0.1131683311422218 0.062814464837820119 0 -0.1163519950294771 0.068746068028026575 0 -0.1185872066977806 0.063729502839677182 0 -0.1163519950294771 0.068746068028026575 0 -0.1143352617609841 0.070976556735617355 0 -0.12697985749263241 0.07630636069427757 0 -0.1143352617609841 0.070976556735617355 0 -0.12697985749263241 0.07630636069427757 0 -0.1143352617609841 0.070976556735617355 0 -0.1200161930876608 0.081776906418299489 0 -0.12697985749263241 0.07630636069427757 0 -0.1163519950294771 0.068746068028026575 0 -0.1143352617609841 0.070976556735617355 0 -0.12697985749263241 0.07630636069427757 0 -0.12509646681095879 0.065597408261105467 0 -0.1163519950294771 0.068746068028026575 0 -0.12509646681095879 0.065597408261105467 0 -0.1163519950294771 0.068746068028026575 0 -0.1185872066977806 0.063729502839677182 0 -0.13359630628803579 0.098968800084119873 0 -0.12697672020224329 0.087309090757334687 0 -0.11134444788944529 0.091345452974062963 0 -0.1143352617609841 0.070976556735617355 0 -0.11134444788944529 0.091345452974062963 0 -0.1200161930876608 0.081776906418299489 0 -0.12697672020224329 0.087309090757334687 0 -0.11134444788944529 0.091345452974062963 0 -0.1200161930876608 0.081776906418299489 0 -0.12697672020224329 0.087309090757334687 0 -0.12697985749263241 0.07630636069427757 0 -0.1200161930876608 0.081776906418299489 0 -0.12607259725238279 0.11330641960449821 0 -0.13359630628803579 0.098968800084119873 0 -0.11123038207674001 0.1082681122756106 0 -0.13359630628803579 0.098968800084119873 0 -0.11134444788944529 0.091345452974062963 0 -0.11123038207674001 0.1082681122756106 0 -0.13359630628803579 0.098968800084119873 0 -0.11123038207674001 0.1082681122756106 0 -0.11134444788944529 0.091345452974062963 0 -0.11123038207674001 0.1082681122756106 0 -0.1057361510920251 0.099277959283072717 0 -0.12607259725238279 0.11330641960449821 0 -0.11123038207674001 0.1082681122756106 0 -0.11706151063611089 0.1208882391850464 0 -0.12607259725238279 0.11330641960449821 0 -0.12916618827146031 0.12390190950899049 0 -0.11706151063611089 0.1208882391850464 0 -0.11473911200363 0.13153944404780621 0 -0.11706151063611089 0.1208882391850464 0 -0.10601879130899509 0.12208205668825579 0 -0.1036345166478785 0.1154037657297244 0 -0.093946486761182085 0.1175508364221631 0 -0.097511277885226108 0.1010939306234323 0 -0.11123038207674001 0.1082681122756106 0 -0.11706151063611089 0.1208882391850464 0 -0.097511277885226108 0.1010939306234323 0 -0.11706151063611089 0.1208882391850464 0 -0.1036345166478785 0.1154037657297244 0 -0.097511277885226108 0.1010939306234323 0 -0.11706151063611089 0.1208882391850464 0 -0.097511277885226108 0.1010939306234323 0 -0.11706151063611089 0.1208882391850464 0 -0.1036345166478785 0.1154037657297244 0 -0.10601879130899509 0.12208205668825579 0 -0.1039338124667491 0.13009472872812991 0 -0.10601879130899509 0.12208205668825579 0 -0.093946486761182085 0.1175508364221631 0 -0.1036345166478785 0.1154037657297244 0 -0.10601879130899509 0.12208205668825579 0 -0.093946486761182085 0.1175508364221631 0 -0.094494805252306774 0.092919921724660626 0 -0.11134444788944529 0.091345452974062963 0 -0.1057361510920251 0.099277959283072717 0 -0.094494805252306774 0.092919921724660626 0 -0.093946486761182085 0.1175508364221631 0 -0.094494805252306774 0.092919921724660626 0 -0.093946486761182085 0.1175508364221631 0 -0.097511277885226108 0.1010939306234323 0 -0.094494805252306774 0.092919921724660626 0 -0.097511277885226108 0.1010939306234323 0 -0.1057361510920251 0.099277959283072717 0 -0.11123038207674001 0.1082681122756106 0 -0.097511277885226108 0.1010939306234323 0 -0.1057361510920251 0.099277959283072717 0 -0.1001339578063882 0.022436777626384768 0 -0.09536928659882779 0.01424719335382847 0 -0.1128440433065038 0.01636018592503535 0 -0.1001339578063882 0.022436777626384768 0 -0.1128440433065038 0.01636018592503535 0 -0.1012358460944251 0.033108064834657697 0 -0.1128440433065038 0.01636018592503535 0 -0.11393466639619521 0.035004472642448957 0 -0.1012358460944251 0.033108064834657697 0 -0.1128440433065038 0.01636018592503535 0 -0.1012358460944251 0.033108064834657697 0 -0.1001339578063882 0.022436777626384768 0 -0.1012358460944251 0.033108064834657697 0 -0.091086655225796079 0.026031666392017531 0 -0.1001339578063882 0.022436777626384768 0 -0.09536928659882779 0.01424719335382847 0 -0.091086655225796079 0.026031666392017531 0 -0.10394313851700079 0.0020556251079679459 0 -0.09536928659882779 0.01424719335382847 0 -0.085958893623968774 0.001514634656162053 0 -0.10394313851700079 0.0020556251079679459 0 -0.09536928659882779 0.01424719335382847 0 -0.1128440433065038 0.01636018592503535 0 -0.1244522405185825 -0.00038769298458709092 0 -0.12424451236807239 0.027069144312366941 0 -0.1244522405185825 -0.00038769298458709092 0 -0.1128440433065038 0.01636018592503535 0 -0.12424451236807239 0.027069144312366941 0 -0.1244522405185825 -0.00038769298458709092 0 -0.1128440433065038 0.01636018592503535 0 -0.1244522405185825 -0.00038769298458709092 0 -0.10394313851700079 0.0020556251079679459 0 -0.1128440433065038 0.01636018592503535 0 -0.1128440433065038 0.01636018592503535 0 -0.12424451236807239 0.027069144312366941 0 -0.11393466639619521 0.035004472642448957 0 -0.12424451236807239 0.027069144312366941 0 -0.12075472355362291 0.04122338309529356 0 -0.11393466639619521 0.035004472642448957 0 -0.12075472355362291 0.04122338309529356 0 -0.1244920148619628 0.050381604022983993 0 -0.1151670195775447 0.0482238646449 0 -0.11393466639619521 0.035004472642448957 0 -0.1151670195775447 0.0482238646449 0 -0.10635909785250069 0.04125385698526951 0 -0.12075472355362291 0.04122338309529356 0 -0.11393466639619521 0.035004472642448957 0 -0.1151670195775447 0.0482238646449 0 -0.12509646681095879 0.065597408261105467 0 -0.1185872066977806 0.063729502839677182 0 -0.1197320338084647 0.057760070231756527 0 -0.1197320338084647 0.057760070231756527 0 -0.1244920148619628 0.050381604022983993 0 -0.1151670195775447 0.0482238646449 0 -0.1151670195775447 0.0482238646449 0 -0.1125210466915524 0.054978807834542787 0 -0.1051700993263314 0.050476507920077678 0 -0.1197320338084647 0.057760070231756527 0 -0.1151670195775447 0.0482238646449 0 -0.1125210466915524 0.054978807834542787 0 -0.1131683311422218 0.062814464837820119 0 -0.1197320338084647 0.057760070231756527 0 -0.1125210466915524 0.054978807834542787 0 -0.1131683311422218 0.062814464837820119 0 -0.1125210466915524 0.054978807834542787 0 -0.1079186055395126 0.059947093390224047 0 -0.1131683311422218 0.062814464837820119 0 -0.1185872066977806 0.063729502839677182 0 -0.1197320338084647 0.057760070231756527 0 -0.095163193665411511 0.062895368012773595 0 -0.1051700993263314 0.050476507920077678 0 -0.095336714328198874 0.041619114628837717 0 -0.095163193665411511 0.062895368012773595 0 -0.095336714328198874 0.041619114628837717 0 -0.1125210466915524 0.054978807834542787 0 -0.1079186055395126 0.059947093390224047 0 -0.1051700993263314 0.050476507920077678 0 -0.095163193665411511 0.062895368012773595 0 -0.1079186055395126 0.059947093390224047 0 -0.1051700993263314 0.050476507920077678 0 -0.11393466639619521 0.035004472642448957 0 -0.10635909785250069 0.04125385698526951 0 -0.1012358460944251 0.033108064834657697 0 -0.1051700993263314 0.050476507920077678 0 -0.10635909785250069 0.04125385698526951 0 -0.095336714328198874 0.041619114628837717 0 -0.1151670195775447 0.0482238646449 0 -0.1051700993263314 0.050476507920077678 0 -0.10635909785250069 0.04125385698526951 0 -0.095336714328198874 0.041619114628837717 0 -0.1012358460944251 0.033108064834657697 0 -0.08853862327275358 0.036894035852943478 0 -0.10635909785250069 0.04125385698526951 0 -0.095336714328198874 0.041619114628837717 0 -0.1012358460944251 0.033108064834657697 0 -0.095336714328198874 0.041619114628837717 0 -0.1012358460944251 0.033108064834657697 0 -0.1012358460944251 0.033108064834657697 0 -0.08853862327275358 0.036894035852943478 0 -0.091086655225796079 0.026031666392017531 0 -0.08853862327275358 0.036894035852943478 0 -0.081088353484909961 0.032020518526829703 0 -0.091086655225796079 0.026031666392017531 0 -0.08853862327275358 0.036894035852943478 0 -0.079654612676290371 0.043453985766932421 0 -0.089627648882346422 0.049855943744280047 0 -0.095336714328198874 0.041619114628837717 0 -0.08853862327275358 0.036894035852943478 0 -0.089627648882346422 0.049855943744280047 0 -0.095336714328198874 0.041619114628837717 0 -0.089627648882346422 0.049855943744280047 0 -0.08853862327275358 0.036894035852943478 0 -0.079654612676290371 0.043453985766932421 0 -0.081088353484909961 0.032020518526829703 0 -0.095163193665411511 0.062895368012773595 0 -0.089627648882346422 0.049855943744280047 0 -0.072380178782229632 0.053292134703331731 0 -0.095163193665411511 0.062895368012773595 0 -0.095336714328198874 0.041619114628837717 0 -0.089627648882346422 0.049855943744280047 0 -0.095163193665411511 0.062895368012773595 0 -0.072380178782229632 0.053292134703331731 0 -0.079461892795990779 0.070449194571112136 0 -0.095163193665411511 0.062895368012773595 0 -0.072380178782229632 0.053292134703331731 0 -0.079654612676290371 0.043453985766932421 0 -0.089627648882346422 0.049855943744280047 0 -0.072380178782229632 0.053292134703331731 0 -0.079654612676290371 0.043453985766932421 0 -0.072380178782229632 0.053292134703331731 0 -0.065785112224924183 0.037111289768743512 0 -0.072380178782229632 0.053292134703331731 0 -0.065785112224924183 0.037111289768743512 0 -0.049597163899048183 0.043688901393888827 0 -0.079654612676290371 0.043453985766932421 0 -0.081088353484909961 0.032020518526829703 0 -0.065785112224924183 0.037111289768743512 0 -0.081088353484909961 0.032020518526829703 0 -0.065785112224924183 0.037111289768743512 0 -0.069646162847898541 0.026335067629459381 0 -0.069646162847898541 0.026335067629459381 0 -0.076118231742993758 0.01527396050979404 0 -0.05559295393876626 0.02093450171247024 0 -0.065785112224924183 0.037111289768743512 0 -0.069646162847898541 0.026335067629459381 0 -0.05559295393876626 0.02093450171247024 0 -0.081088353484909961 0.032020518526829703 0 -0.069646162847898541 0.026335067629459381 0 -0.076118231742993758 0.01527396050979404 0 -0.081088353484909961 0.032020518526829703 0 -0.091086655225796079 0.026031666392017531 0 -0.076118231742993758 0.01527396050979404 0 -0.09536928659882779 0.01424719335382847 0 -0.091086655225796079 0.026031666392017531 0 -0.076118231742993758 0.01527396050979404 0 -0.09536928659882779 0.01424719335382847 0 -0.085958893623968774 0.001514634656162053 0 -0.076118231742993758 0.01527396050979404 0 -0.076118231742993758 0.01527396050979404 0 -0.065648076432031049 0.00090955339710942099 0 -0.05559295393876626 0.02093450171247024 0 -0.085958893623968774 0.001514634656162053 0 -0.076118231742993758 0.01527396050979404 0 -0.065648076432031049 0.00090955339710942099 0 -0.045118160941850949 -0.00049033847668307538 0 -0.065648076432031049 0.00090955339710942099 0 -0.05559295393876626 0.02093450171247024 0 -0.05559295393876626 0.02093450171247024 0 -0.041197297059898302 0.028587588038626519 0 -0.049597163899048183 0.043688901393888827 0 -0.05559295393876626 0.02093450171247024 0 -0.032784921385912158 0.01564128096370114 0 -0.041197297059898302 0.028587588038626519 0 -0.032784921385912158 0.01564128096370114 0 -0.041197297059898302 0.028587588038626519 0 -0.02681414901586664 0.034085668084445887 0 -0.045118160941850949 -0.00049033847668307538 0 -0.05559295393876626 0.02093450171247024 0 -0.032784921385912158 0.01564128096370114 0 -0.045118160941850949 -0.00049033847668307538 0 -0.027025641752002061 -0.0079319500279313396 0 -0.032784921385912158 0.01564128096370114 0 -0.062589921296568873 0.06642957971461419 0 -0.072380178782229632 0.053292134703331731 0 -0.049597163899048183 0.043688901393888827 0 -0.046276495737503101 0.06795068115397529 0 -0.062589921296568873 0.06642957971461419 0 -0.049597163899048183 0.043688901393888827 0 -0.072380178782229632 0.053292134703331731 0 -0.049597163899048183 0.043688901393888827 0 -0.065785112224924183 0.037111289768743512 0 -0.05559295393876626 0.02093450171247024 0 -0.049597163899048183 0.043688901393888827 0 -0.049597163899048183 0.043688901393888827 0 -0.02681414901586664 0.034085668084445887 0 -0.041197297059898302 0.028587588038626519 0 -0.049597163899048183 0.043688901393888827 0 -0.02681414901586664 0.034085668084445887 0 -0.049597163899048183 0.043688901393888827 0 -0.028283535649973771 0.053358049395037133 0 -0.02681414901586664 0.034085668084445887 0 -0.046276495737503101 0.06795068115397529 0 -0.028283535649973771 0.053358049395037133 0 -0.046276495737503101 0.06795068115397529 0 -0.049597163899048183 0.043688901393888827 0 -0.028283535649973771 0.053358049395037133 0 -0.028283535649973771 0.053358049395037133 0 -0.010290575562444429 0.038765417636098962 0 -0.0097640400442320502 0.053032197103308337 0 -0.018620569400409771 0.06708533464306303 0 -0.028283535649973771 0.053358049395037133 0 -0.0097640400442320502 0.053032197103308337 0 -0.028283535649973771 0.053358049395037133 0 -0.010290575562444429 0.038765417636098962 0 -0.02681414901586664 0.034085668084445887 0 -0.010290575562444429 0.038765417636098962 0 -0.020835528804160591 0.022374223573919171 0 -0.028283535649973771 0.053358049395037133 0 -0.02681414901586664 0.034085668084445887 0 -0.010290575562444429 0.038765417636098962 0 -0.010290575562444429 0.038765417636098962 0 0.0077023845250848884 0.024172785877160811 0 -0.010290575562444429 0.038765417636098962 0 -0.0034349793211087142 0.044893397967285961 0 0.0047272217829380687 0.036246676438490527 0 -0.010290575562444429 0.038765417636098962 0 -0.0034349793211087142 0.044893397967285961 0 -0.0097640400442320502 0.053032197103308337 0 -0.0012292332505543029 0.06378464068123596 0 -0.018620569400409771 0.06708533464306303 0 -0.0097640400442320502 0.053032197103308337 0 -0.0034349793211087142 0.044893397967285961 0 -0.0097640400442320502 0.053032197103308337 0 0.0015874765393035599 0.051529300691246019 0 -0.0012292332505543029 0.06378464068123596 0 -0.0097640400442320502 0.053032197103308337 0 0.0015874765393035599 0.051529300691246019 0 -0.027025641752002061 -0.0079319500279313396 0 -0.032784921385912158 0.01564128096370114 0 -0.01566814095190756 0.010235570601176981 0 -0.032784921385912158 0.01564128096370114 0 -0.02681414901586664 0.034085668084445887 0 -0.020835528804160591 0.022374223573919171 0 -0.032784921385912158 0.01564128096370114 0 -0.01566814095190756 0.010235570601176981 0 -0.020835528804160591 0.022374223573919171 0 -0.010290575562444429 0.038765417636098962 0 -0.020835528804160591 0.022374223573919171 0 -0.0077262750329500059 0.02266504195052366 0 -0.01566814095190756 0.010235570601176981 0 -0.020835528804160591 0.022374223573919171 0 -0.0077262750329500059 0.02266504195052366 0 -0.010290575562444429 0.038765417636098962 0 -0.0077262750329500059 0.02266504195052366 0 0.0077023845250848884 0.024172785877160811 0 -0.0091716063734174208 -0.003332990253060792 0 -0.01566814095190756 0.010235570601176981 0 0.001118487675879971 0.0096665619175221752 0 -0.0091716063734174208 -0.003332990253060792 0 0.001118487675879971 0.0096665619175221752 0 0.006935528729737548 -0.0054826371559186567 0 -0.01566814095190756 0.010235570601176981 0 -0.0077262750329500059 0.02266504195052366 0 0.001118487675879971 0.0096665619175221752 0 0.001118487675879971 0.0096665619175221752 0 0.0077023845250848884 0.024172785877160811 0 0.025695344612614111 0.0095801541182225364 0 0.001118487675879971 0.0096665619175221752 0 0.025695344612614111 0.0095801541182225364 0 0.006935528729737548 -0.0054826371559186567 0 -0.0077262750329500059 0.02266504195052366 0 0.001118487675879971 0.0096665619175221752 0 0.0077023845250848884 0.024172785877160811 0 0.0077023845250848884 0.024172785877160811 0 0.024648998497944961 0.02642224341189468 0 0.015911730558903318 0.034762274935307848 0 0.024648998497944961 0.02642224341189468 0 0.025695344612614111 0.0095801541182225364 0 0.038363400138324961 0.019751697241263279 0 0.0077023845250848884 0.024172785877160811 0 0.024648998497944961 0.02642224341189468 0 0.025695344612614111 0.0095801541182225364 0 0.0077023845250848884 0.024172785877160811 0 0.025695344612614111 0.0095801541182225364 0 0.025695344612614111 0.0095801541182225364 0 0.006935528729737548 -0.0054826371559186567 0 0.01459521235494949 0.061710637509134872 0 0.0047272217829380687 0.036246676438490527 0 -0.0012292332505543029 0.06378464068123596 0 0.01459521235494949 0.061710637509134872 0 0.0015874765393035599 0.051529300691246019 0 0.01459521235494949 0.061710637509134872 0 0.0015874765393035599 0.051529300691246019 0 0.0047272217829380687 0.036246676438490527 0 0.01459521235494949 0.061710637509134872 0 0.0047272217829380687 0.036246676438490527 0 0.016570281580619739 0.045526930476817662 0 -0.010290575562444429 0.038765417636098962 0 0.0077023845250848884 0.024172785877160811 0 0.0047272217829380687 0.036246676438490527 0 -0.0034349793211087142 0.044893397967285961 0 0.0015874765393035599 0.051529300691246019 0 0.0047272217829380687 0.036246676438490527 0 0.0047272217829380687 0.036246676438490527 0 0.015911730558903318 0.034762274935307848 0 0.016570281580619739 0.045526930476817662 0 0.0077023845250848884 0.024172785877160811 0 0.0047272217829380687 0.036246676438490527 0 0.015911730558903318 0.034762274935307848 0 0.024648998497944961 0.02642224341189468 0 0.015911730558903318 0.034762274935307848 0 0.025892041879535671 0.039420421904702428 0 0.024648998497944961 0.02642224341189468 0 0.025892041879535671 0.039420421904702428 0 0.038236142792751733 0.035111405712831077 0 0.015911730558903318 0.034762274935307848 0 0.025892041879535671 0.039420421904702428 0 0.016570281580619739 0.045526930476817662 0 0.025892041879535671 0.039420421904702428 0 0.016570281580619739 0.045526930476817662 0 0.021716339062575678 0.05448348331271597 0 0.01459521235494949 0.061710637509134872 0 0.016570281580619739 0.045526930476817662 0 0.021716339062575678 0.05448348331271597 0 0.01459521235494949 0.061710637509134872 0 0.021716339062575678 0.05448348331271597 0 0.030459386295035529 0.05963142741263059 0 0.01459521235494949 0.061710637509134872 0 0.030459386295035529 0.05963142741263059 0 0.021716339062575678 0.05448348331271597 0 0.030459386295035529 0.05963142741263059 0 0.032703710623893968 0.046893395464013943 0 0.025892041879535671 0.039420421904702428 0 0.021716339062575678 0.05448348331271597 0 0.032703710623893968 0.046893395464013943 0 0.030459386295035529 0.05963142741263059 0 0.032703710623893968 0.046893395464013943 0 0.047214643089571059 0.045820238977188371 0 0.030459386295035529 0.05963142741263059 0 0.04797297407010033 0.057336039788577382 0 0.030459386295035529 0.05963142741263059 0 0.04797297407010033 0.057336039788577382 0 0.027635028654909001 0.06907575978797427 0 0.030459386295035529 0.05963142741263059 0 0.047214643089571059 0.045820238977188371 0 0.04797297407010033 0.057336039788577382 0 0.030459386295035529 0.05963142741263059 0 0.047214643089571059 0.045820238977188371 0 0.038236142792751733 0.035111405712831077 0 0.047214643089571059 0.045820238977188371 0 0.051031455664035288 0.029923240364304559 0 0.032703710623893968 0.046893395464013943 0 0.038236142792751733 0.035111405712831077 0 0.047214643089571059 0.045820238977188371 0 0.025892041879535671 0.039420421904702428 0 0.032703710623893968 0.046893395464013943 0 0.038236142792751733 0.035111405712831077 0 0.062359133547200143 0.040731400683572692 0 0.047214643089571059 0.045820238977188371 0 0.063969899884107562 0.032009050541747332 0 0.047214643089571059 0.045820238977188371 0 0.063969899884107562 0.032009050541747332 0 0.047214643089571059 0.045820238977188371 0 0.051031455664035288 0.029923240364304559 0 0.063969899884107562 0.032009050541747332 0 0.062359133547200143 0.040731400683572692 0 0.04797297407010033 0.057336039788577382 0 0.072379857481358154 0.054137194478101919 0 0.04797297407010033 0.057336039788577382 0 0.072379857481358154 0.054137194478101919 0 0.062359133547200143 0.040731400683572692 0 0.04797297407010033 0.057336039788577382 0 0.062359133547200143 0.040731400683572692 0 0.047214643089571059 0.045820238977188371 0 0.04797297407010033 0.057336039788577382 0 0.04797297407010033 0.057336039788577382 0 0.072379857481358154 0.054137194478101919 0 0.06072113176624426 0.066105246874810966 0 0.040835927619124697 0.0088703260301804514 0 0.038363400138324961 0.019751697241263279 0 0.051939500327619889 0.017318508583630769 0 0.040835927619124697 0.0088703260301804514 0 0.046640351189982193 0.001482106492276504 0 0.040314465242246092 -0.002276229875846851 0 0.025695344612614111 0.0095801541182225364 0 0.040314465242246092 -0.002276229875846851 0 0.025695344612614111 0.0095801541182225364 0 0.040835927619124697 0.0088703260301804514 0 0.040314465242246092 -0.002276229875846851 0 0.025695344612614111 0.0095801541182225364 0 0.040835927619124697 0.0088703260301804514 0 0.038363400138324961 0.019751697241263279 0 0.025695344612614111 0.0095801541182225364 0 0.038363400138324961 0.019751697241263279 0 0.024648998497944961 0.02642224341189468 0 0.038236142792751733 0.035111405712831077 0 0.038363400138324961 0.019751697241263279 0 0.038363400138324961 0.019751697241263279 0 0.051031455664035288 0.029923240364304559 0 0.038236142792751733 0.035111405712831077 0 0.038363400138324961 0.019751697241263279 0 0.051031455664035288 0.029923240364304559 0 0.038363400138324961 0.019751697241263279 0 0.051939500327619889 0.017318508583630769 0 0.051031455664035288 0.029923240364304559 0 0.051031455664035288 0.029923240364304559 0 0.062107590562420073 0.0228568457980407 0 0.063969899884107562 0.032009050541747332 0 0.051939500327619889 0.017318508583630769 0 0.062107590562420073 0.0228568457980407 0 0.064696567818308529 0.01472149906873369 0 0.051939500327619889 0.017318508583630769 0 0.051031455664035288 0.029923240364304559 0 0.062107590562420073 0.0228568457980407 0 0.055514373943813228 0.0067304088365214816 0 0.075461568133428525 0.0044331687040122013 0 0.049896637954744763 -0.0073960790217490677 0 0.051939500327619889 0.017318508583630769 0 0.055514373943813228 0.0067304088365214816 0 0.064696567818308529 0.01472149906873369 0 0.040835927619124697 0.0088703260301804514 0 0.051939500327619889 0.017318508583630769 0 0.055514373943813228 0.0067304088365214816 0 0.046640351189982193 0.001482106492276504 0 0.055514373943813228 0.0067304088365214816 0 0.049896637954744763 -0.0073960790217490677 0 0.040835927619124697 0.0088703260301804514 0 0.046640351189982193 0.001482106492276504 0 0.055514373943813228 0.0067304088365214816 0 0.075461568133428525 0.0044331687040122013 0 0.064696567818308529 0.01472149906873369 0 0.08072515667864405 0.018197862106306289 0 0.055514373943813228 0.0067304088365214816 0 0.075461568133428525 0.0044331687040122013 0 0.064696567818308529 0.01472149906873369 0 0.075461568133428525 0.0044331687040122013 0 0.1010264983121123 0.016262416429773479 0 0.075461568133428525 0.0044331687040122013 0 0.1010264983121123 0.016262416429773479 0 0.098011391193308373 -0.0056982583262641584 0 0.075461568133428525 0.0044331687040122013 0 0.08072515667864405 0.018197862106306289 0 0.1010264983121123 0.016262416429773479 0 0.088041666307225416 0.02743399724937181 0 0.08072515667864405 0.018197862106306289 0 0.1010264983121123 0.016262416429773479 0 0.088041666307225416 0.02743399724937181 0 0.08072515667864405 0.018197862106306289 0 0.076745293024301803 0.02412676157856956 0 0.088041666307225416 0.02743399724937181 0 0.076745293024301803 0.02412676157856956 0 0.082258845210710349 0.03253561428057717 0 0.08072515667864405 0.018197862106306289 0 0.076745293024301803 0.02412676157856956 0 0.063969899884107562 0.032009050541747332 0 0.062107590562420073 0.0228568457980407 0 0.064696567818308529 0.01472149906873369 0 0.08072515667864405 0.018197862106306289 0 0.08072515667864405 0.018197862106306289 0 0.063969899884107562 0.032009050541747332 0 0.062107590562420073 0.0228568457980407 0 0.08072515667864405 0.018197862106306289 0 0.063969899884107562 0.032009050541747332 0 0.062359133547200143 0.040731400683572692 0 0.076745293024301803 0.02412676157856956 0 0.062359133547200143 0.040731400683572692 0 0.076745293024301803 0.02412676157856956 0 0.076375628159171968 0.038405412939545532 0 0.062359133547200143 0.040731400683572692 0 0.076745293024301803 0.02412676157856956 0 0.063969899884107562 0.032009050541747332 0 0.062359133547200143 0.040731400683572692 0 0.076375628159171968 0.038405412939545532 0 0.072379857481358154 0.054137194478101919 0 0.072379857481358154 0.054137194478101919 0 0.087872793352142223 0.040176285354821803 0 0.096786740892615686 0.050938349167624693 0 0.072379857481358154 0.054137194478101919 0 0.096786740892615686 0.050938349167624693 0 0.072379857481358154 0.054137194478101919 0 0.096786740892615686 0.050938349167624693 0 0.089592915186254174 0.067390154600646832 0 0.076375628159171968 0.038405412939545532 0 0.072379857481358154 0.054137194478101919 0 0.087872793352142223 0.040176285354821803 0 0.076375628159171968 0.038405412939545532 0 0.082258845210710349 0.03253561428057717 0 0.087872793352142223 0.040176285354821803 0 0.076745293024301803 0.02412676157856956 0 0.076375628159171968 0.038405412939545532 0 0.082258845210710349 0.03253561428057717 0 0.088041666307225416 0.02743399724937181 0 0.087872793352142223 0.040176285354821803 0 0.098246025398924644 0.032379674771496843 0 0.088041666307225416 0.02743399724937181 0 0.082258845210710349 0.03253561428057717 0 0.087872793352142223 0.040176285354821803 0 0.098246025398924644 0.032379674771496843 0 0.09859813872304253 0.041737690340159041 0 0.1063796333462841 0.038668109643535398 0 0.087872793352142223 0.040176285354821803 0 0.098246025398924644 0.032379674771496843 0 0.09859813872304253 0.041737690340159041 0 0.087872793352142223 0.040176285354821803 0 0.09859813872304253 0.041737690340159041 0 0.096786740892615686 0.050938349167624693 0 0.09859813872304253 0.041737690340159041 0 0.1037055006252459 0.04652603276331644 0 0.096786740892615686 0.050938349167624693 0 0.1037055006252459 0.04652603276331644 0 0.1091701701315707 0.045405346223324289 0 0.1063796333462841 0.038668109643535398 0 0.09859813872304253 0.041737690340159041 0 0.1037055006252459 0.04652603276331644 0 0.1063796333462841 0.038668109643535398 0 0.098246025398924644 0.032379674771496843 0 0.1063796333462841 0.038668109643535398 0 0.1080469394596527 0.029312409717345649 0 0.1063796333462841 0.038668109643535398 0 0.11369005285381351 0.036564640387925021 0 0.1080469394596527 0.029312409717345649 0 0.10140855114010359 0.056741753968867333 0 0.1082136550722141 0.059696613986540442 0 0.089592915186254174 0.067390154600646832 0 0.10140855114010359 0.056741753968867333 0 0.096786740892615686 0.050938349167624693 0 0.089592915186254174 0.067390154600646832 0 0.10140855114010359 0.056741753968867333 0 0.096786740892615686 0.050938349167624693 0 0.1040187002827474 0.052009313231975308 0 0.1037055006252459 0.04652603276331644 0 0.096786740892615686 0.050938349167624693 0 0.1040187002827474 0.052009313231975308 0 0.1037055006252459 0.04652603276331644 0 0.10828434687670541 0.049049973369521209 0 0.1040187002827474 0.052009313231975308 0 0.1037055006252459 0.04652603276331644 0 0.1091701701315707 0.045405346223324289 0 0.10828434687670541 0.049049973369521209 0 0.10828434687670541 0.049049973369521209 0 0.1040187002827474 0.052009313231975308 0 0.1085923347430168 0.054888678040205661 0 0.10140855114010359 0.056741753968867333 0 0.1040187002827474 0.052009313231975308 0 0.1085923347430168 0.054888678040205661 0 0.10140855114010359 0.056741753968867333 0 0.1085923347430168 0.054888678040205661 0 0.1082136550722141 0.059696613986540442 0 0.1082136550722141 0.059696613986540442 0 0.12683439495817461 0.052003073372435288 0 0.1085923347430168 0.054888678040205661 0 0.1082136550722141 0.059696613986540442 0 0.12683439495817461 0.052003073372435288 0 0.1082136550722141 0.059696613986540442 0 0.1213053233293625 0.063977455960140386 0 0.12683439495817461 0.052003073372435288 0 0.1085923347430168 0.054888678040205661 0 0.11545296983014219 0.044674578582556468 0 0.12683439495817461 0.052003073372435288 0 0.1085923347430168 0.054888678040205661 0 0.11545296983014219 0.044674578582556468 0 0.10828434687670541 0.049049973369521209 0 0.1085923347430168 0.054888678040205661 0 0.11545296983014219 0.044674578582556468 0 0.11545296983014219 0.044674578582556468 0 0.12683439495817461 0.052003073372435288 0 0.11545296983014219 0.044674578582556468 0 0.12659142849079691 0.028091664155532971 0 0.13015300311198849 0.040381385354086502 0 0.11369005285381351 0.036564640387925021 0 0.11545296983014219 0.044674578582556468 0 0.12659142849079691 0.028091664155532971 0 0.11369005285381351 0.036564640387925021 0 0.1080469394596527 0.029312409717345649 0 0.12659142849079691 0.028091664155532971 0 0.11545296983014219 0.044674578582556468 0 0.12659142849079691 0.028091664155532971 0 0.1091701701315707 0.045405346223324289 0 0.1063796333462841 0.038668109643535398 0 0.11316657253878901 0.043202368340974628 0 0.11369005285381351 0.036564640387925021 0 0.11316657253878901 0.043202368340974628 0 0.11545296983014219 0.044674578582556468 0 0.1063796333462841 0.038668109643535398 0 0.11369005285381351 0.036564640387925021 0 0.11316657253878901 0.043202368340974628 0 0.1091701701315707 0.045405346223324289 0 0.10828434687670541 0.049049973369521209 0 0.11545296983014219 0.044674578582556468 0 0.1091701701315707 0.045405346223324289 0 0.11316657253878901 0.043202368340974628 0 0.11545296983014219 0.044674578582556468 0 0.11316657253878901 0.043202368340974628 0 0.11545296983014219 0.044674578582556468 0 0.11545296983014219 0.044674578582556468 0 0.13015300311198849 0.040381385354086502 0 0.12683439495817461 0.052003073372435288 0 0.11882011836095251 0.0065886106746579649 0 0.1010264983121123 0.016262416429773479 0 0.12659142849079691 0.028091664155532971 0 0.1010264983121123 0.016262416429773479 0 0.12659142849079691 0.028091664155532971 0 0.1010264983121123 0.016262416429773479 0 0.1080469394596527 0.029312409717345649 0 0.12659142849079691 0.028091664155532971 0 0.11882011836095251 0.0065886106746579649 0 0.1010264983121123 0.016262416429773479 0 0.098011391193308373 -0.0056982583262641584 0 0.088041666307225416 0.02743399724937181 0 0.098246025398924644 0.032379674771496843 0 0.1010264983121123 0.016262416429773479 0 0.098246025398924644 0.032379674771496843 0 0.1010264983121123 0.016262416429773479 0 0.1080469394596527 0.029312409717345649 0 0.102028599401492 0.1079210482782756 0 0.1185648575779607 0.095458187827811403 0 0.097454497296707604 0.093489332089851121 0 0.102028599401492 0.1079210482782756 0 0.094862282777670462 0.1196438628042634 0 0.1117522404438802 0.12667258555115829 0 0.123281054128593 0.11724462113534739 0 0.1117522404438802 0.12667258555115829 0 0.13947052033133081 0.1245003570974072 0 0.102028599401492 0.1079210482782756 0 0.123281054128593 0.11724462113534739 0 0.1117522404438802 0.12667258555115829 0 0.102028599401492 0.1079210482782756 0 0.123281054128593 0.11724462113534739 0 0.102028599401492 0.1079210482782756 0 0.123281054128593 0.11724462113534739 0 0.1185648575779607 0.095458187827811403 0 0.1185648575779607 0.095458187827811403 0 0.10766661625946521 0.081617344394697103 0 0.12679961534922851 0.075073796793526271 0 0.1127439035567581 0.069567645006608142 0 0.10766661625946521 0.081617344394697103 0 0.12679961534922851 0.075073796793526271 0 0.1213053233293625 0.063977455960140386 0 0.1127439035567581 0.069567645006608142 0 0.12679961534922851 0.075073796793526271 0 0.1082136550722141 0.059696613986540442 0 0.1213053233293625 0.063977455960140386 0 0.1127439035567581 0.069567645006608142 0 0.1082136550722141 0.059696613986540442 0 0.089592915186254174 0.067390154600646832 0 0.1014387622560044 0.070574023901201433 0 0.10766661625946521 0.081617344394697103 0 0.08998097741878798 0.081820185866337797 0 0.1082136550722141 0.059696613986540442 0 0.1014387622560044 0.070574023901201433 0 0.089592915186254174 0.067390154600646832 0 0.1082136550722141 0.059696613986540442 0 0.1127439035567581 0.069567645006608142 0 0.1014387622560044 0.070574023901201433 0 0.1127439035567581 0.069567645006608142 0 0.1014387622560044 0.070574023901201433 0 0.10766661625946521 0.081617344394697103 0 0.1185648575779607 0.095458187827811403 0 0.097454497296707604 0.093489332089851121 0 0.10766661625946521 0.081617344394697103 0 0.097454497296707604 0.093489332089851121 0 0.10766661625946521 0.081617344394697103 0 0.08998097741878798 0.081820185866337797 0 0.097454497296707604 0.093489332089851121 0 0.08998097741878798 0.081820185866337797 0 0.080776144674391009 0.098597475421203867 0 0.08998097741878798 0.081820185866337797 0 0.071888117261322881 0.075707086101057836 0 0.080776144674391009 0.098597475421203867 0 0.08998097741878798 0.081820185866337797 0 0.089592915186254174 0.067390154600646832 0 0.071888117261322881 0.075707086101057836 0 0.1014387622560044 0.070574023901201433 0 0.08998097741878798 0.081820185866337797 0 0.089592915186254174 0.067390154600646832 0 0.072379857481358154 0.054137194478101919 0 0.089592915186254174 0.067390154600646832 0 0.071888117261322881 0.075707086101057836 0 0.072379857481358154 0.054137194478101919 0 0.071888117261322881 0.075707086101057836 0 0.06072113176624426 0.066105246874810966 0 0.071888117261322881 0.075707086101057836 0 0.080776144674391009 0.098597475421203867 0 0.059523689947290133 0.089273902564132146 0 0.069834633883481517 0.1065625652268001 0 0.059315065316452309 0.1025539410383776 0 0.059523689947290133 0.089273902564132146 0 0.080776144674391009 0.098597475421203867 0 0.059523689947290133 0.089273902564132146 0 0.069834633883481517 0.1065625652268001 0 0.080776144674391009 0.098597475421203867 0 0.081634330708880196 0.1151370033827101 0 0.069834633883481517 0.1065625652268001 0 0.080776144674391009 0.098597475421203867 0 0.059523689947290133 0.089273902564132146 0 0.069834633883481517 0.1065625652268001 0 0.064307476710745728 0.1098785041095611 0 0.059315065316452309 0.1025539410383776 0 0.102028599401492 0.1079210482782756 0 0.080776144674391009 0.098597475421203867 0 0.081634330708880196 0.1151370033827101 0 0.102028599401492 0.1079210482782756 0 0.080776144674391009 0.098597475421203867 0 0.102028599401492 0.1079210482782756 0 0.097454497296707604 0.093489332089851121 0 0.080776144674391009 0.098597475421203867 0 0.102028599401492 0.1079210482782756 0 0.094862282777670462 0.1196438628042634 0 0.081634330708880196 0.1151370033827101 0 0.094862282777670462 0.1196438628042634 0 0.081634330708880196 0.1151370033827101 0 0.084033960556429532 0.12884481400490949 0 0.081634330708880196 0.1151370033827101 0 0.071861500007931359 0.1232467005620789 0 0.084033960556429532 0.12884481400490949 0 0.081634330708880196 0.1151370033827101 0 0.071861500007931359 0.1232467005620789 0 0.068543873750645412 0.1149277749384955 0 0.069834633883481517 0.1065625652268001 0 0.081634330708880196 0.1151370033827101 0 0.068543873750645412 0.1149277749384955 0 0.068543873750645412 0.1149277749384955 0 0.064307476710745728 0.1098785041095611 0 0.059536333892403683 0.1154697352345713 0 0.069834633883481517 0.1065625652268001 0 0.068543873750645412 0.1149277749384955 0 0.064307476710745728 0.1098785041095611 0 0.071861500007931359 0.1232467005620789 0 0.068543873750645412 0.1149277749384955 0 0.059536333892403683 0.1154697352345713 0 0.056458373241313059 0.1220229844831647 0 0.046980594318971967 0.103944553472415 0 0.044984286063853948 0.1144984098979744 0 0.056458373241313059 0.1220229844831647 0 0.059536333892403683 0.1154697352345713 0 0.047111977694586651 0.095143209078012936 0 0.056458373241313059 0.1220229844831647 0 0.047823074661834691 0.1229743903388081 0 0.044984286063853948 0.1144984098979744 0 0.056458373241313059 0.1220229844831647 0 0.047111977694586651 0.095143209078012936 0 0.056458373241313059 0.1220229844831647 0 0.047111977694586651 0.095143209078012936 0 0.046980594318971967 0.103944553472415 0 0.059536333892403683 0.1154697352345713 0 0.059315065316452309 0.1025539410383776 0 0.048250118395506067 0.092934788779969885 0 0.064307476710745728 0.1098785041095611 0 0.059536333892403683 0.1154697352345713 0 0.059315065316452309 0.1025539410383776 0 0.059536333892403683 0.1154697352345713 0 0.047111977694586651 0.095143209078012936 0 0.048250118395506067 0.092934788779969885 0 0.059536333892403683 0.1154697352345713 0 0.048250118395506067 0.092934788779969885 0 0.059315065316452309 0.1025539410383776 0 0.059523689947290133 0.089273902564132146 0 0.048250118395506067 0.092934788779969885 0 0.046980594318971967 0.103944553472415 0 0.031997015267580219 0.10661530464401089 0 0.044984286063853948 0.1144984098979744 0 0.046980594318971967 0.103944553472415 0 0.039592722901722707 0.099159129702000026 0 0.031997015267580219 0.10661530464401089 0 0.047111977694586651 0.095143209078012936 0 0.046980594318971967 0.103944553472415 0 0.044236279529428407 0.098362398272746204 0 0.043259823202432338 0.095202700838556822 0 0.039592722901722707 0.099159129702000026 0 0.040006298791842428 0.091064350555588536 0 0.047111977694586651 0.095143209078012936 0 0.043259823202432338 0.095202700838556822 0 0.043326765309194368 0.091114650811160686 0 0.047111977694586651 0.095143209078012936 0 0.043259823202432338 0.095202700838556822 0 0.044236279529428407 0.098362398272746204 0 0.046980594318971967 0.103944553472415 0 0.044236279529428407 0.098362398272746204 0 0.039592722901722707 0.099159129702000026 0 0.043259823202432338 0.095202700838556822 0 0.044236279529428407 0.098362398272746204 0 0.039592722901722707 0.099159129702000026 0 0.039592722901722707 0.099159129702000026 0 0.040006298791842428 0.091064350555588536 0 0.033999193661208522 0.092549709374426317 0 0.039592722901722707 0.099159129702000026 0 0.031997015267580219 0.10661530464401089 0 0.033999193661208522 0.092549709374426317 0 0.031997015267580219 0.10661530464401089 0 0.044984286063853948 0.1144984098979744 0 0.040254683338031831 0.12792389191371131 0 0.031997015267580219 0.10661530464401089 0 0.027418588341799281 0.11951208787462859 0 0.040254683338031831 0.12792389191371131 0 0.031997015267580219 0.10661530464401089 0 0.040254683338031831 0.12792389191371131 0 0.047823074661834691 0.1229743903388081 0 0.044984286063853948 0.1144984098979744 0 0.040254683338031831 0.12792389191371131 0 0.071888117261322881 0.075707086101057836 0 0.050643578252195447 0.077240667131504986 0 0.06072113176624426 0.066105246874810966 0 0.071888117261322881 0.075707086101057836 0 0.050643578252195447 0.077240667131504986 0 0.04797297407010033 0.057336039788577382 0 0.050643578252195447 0.077240667131504986 0 0.06072113176624426 0.066105246874810966 0 0.059523689947290133 0.089273902564132146 0 0.048250118395506067 0.092934788779969885 0 0.038271235220189187 0.079950329707060411 0 0.050643578252195447 0.077240667131504986 0 0.059523689947290133 0.089273902564132146 0 0.038271235220189187 0.079950329707060411 0 0.059523689947290133 0.089273902564132146 0 0.038271235220189187 0.079950329707060411 0 0.071888117261322881 0.075707086101057836 0 0.050643578252195447 0.077240667131504986 0 0.059523689947290133 0.089273902564132146 0 0.050643578252195447 0.077240667131504986 0 0.038271235220189187 0.079950329707060411 0 0.029399039243067929 0.078774248161950916 0 0.043326765309194368 0.091114650811160686 0 0.040006298791842428 0.091064350555588536 0 0.038271235220189187 0.079950329707060411 0 0.048250118395506067 0.092934788779969885 0 0.043326765309194368 0.091114650811160686 0 0.038271235220189187 0.079950329707060411 0 0.047111977694586651 0.095143209078012936 0 0.048250118395506067 0.092934788779969885 0 0.043326765309194368 0.091114650811160686 0 0.043259823202432338 0.095202700838556822 0 0.043326765309194368 0.091114650811160686 0 0.040006298791842428 0.091064350555588536 0 0.040006298791842428 0.091064350555588536 0 0.033999193661208522 0.092549709374426317 0 0.035112272261912547 0.085996705185296951 0 0.033999193661208522 0.092549709374426317 0 0.035112272261912547 0.085996705185296951 0 0.030562463090829231 0.085656845023995995 0 0.040006298791842428 0.091064350555588536 0 0.035112272261912547 0.085996705185296951 0 0.038271235220189187 0.079950329707060411 0 0.035112272261912547 0.085996705185296951 0 0.038271235220189187 0.079950329707060411 0 0.029399039243067929 0.078774248161950916 0 0.035112272261912547 0.085996705185296951 0 0.029399039243067929 0.078774248161950916 0 0.030562463090829231 0.085656845023995995 0 0.04797297407010033 0.057336039788577382 0 0.027635028654909001 0.06907575978797427 0 0.029399039243067929 0.078774248161950916 0 0.04797297407010033 0.057336039788577382 0 0.050643578252195447 0.077240667131504986 0 0.029399039243067929 0.078774248161950916 0 0.050643578252195447 0.077240667131504986 0 0.029399039243067929 0.078774248161950916 0 0.04797297407010033 0.057336039788577382 0 0.029399039243067929 0.078774248161950916 0 0.01459521235494949 0.061710637509134872 0 0.030459386295035529 0.05963142741263059 0 0.017825248683011649 0.070045619055208203 0 0.01459521235494949 0.061710637509134872 0 0.017825248683011649 0.070045619055208203 0 0.030459386295035529 0.05963142741263059 0 0.017825248683011649 0.070045619055208203 0 0.030459386295035529 0.05963142741263059 0 0.017825248683011649 0.070045619055208203 0 0.027635028654909001 0.06907575978797427 0 0.027635028654909001 0.06907575978797427 0 0.021430743364398389 0.07934945609652827 0 0.029399039243067929 0.078774248161950916 0 0.017825248683011649 0.070045619055208203 0 0.027635028654909001 0.06907575978797427 0 0.021430743364398389 0.07934945609652827 0 0.017825248683011649 0.070045619055208203 0 0.021430743364398389 0.07934945609652827 0 0.023739347197128589 0.085306717374310406 0 0.0092582498306486675 0.1020209346744549 0 0.021430743364398389 0.07934945609652827 0 0.023739347197128589 0.085306717374310406 0 0.01369104835205702 0.085774757015682671 0 0.021430743364398389 0.07934945609652827 0 0.023739347197128589 0.085306717374310406 0 0.021430743364398389 0.07934945609652827 0 0.029399039243067929 0.078774248161950916 0 0.023739347197128589 0.085306717374310406 0 0.021430743364398389 0.07934945609652827 0 0.029399039243067929 0.078774248161950916 0 0.029399039243067929 0.078774248161950916 0 0.030562463090829231 0.085656845023995995 0 0.023739347197128589 0.085306717374310406 0 0.029399039243067929 0.078774248161950916 0 0.023739347197128589 0.085306717374310406 0 0.033999193661208522 0.092549709374426317 0 0.030562463090829231 0.085656845023995995 0 0.023739347197128589 0.085306717374310406 0 0.023739347197128589 0.085306717374310406 0 0.01369104835205702 0.085774757015682671 0 0.0092582498306486675 0.1020209346744549 0 0.0051087594610210148 0.080527692295617709 0 0.01369104835205702 0.085774757015682671 0 0.0092582498306486675 0.1020209346744549 0 0.021430743364398389 0.07934945609652827 0 0.0051087594610210148 0.080527692295617709 0 0.021430743364398389 0.07934945609652827 0 0.0051087594610210148 0.080527692295617709 0 0.01369104835205702 0.085774757015682671 0 -0.0012292332505543029 0.06378464068123596 0 0.01459521235494949 0.061710637509134872 0 -0.0012292332505543029 0.06378464068123596 0 0.01459521235494949 0.061710637509134872 0 0.0080955592782806732 0.069159055867407046 0 0.017825248683011649 0.070045619055208203 0 0.021430743364398389 0.07934945609652827 0 0.0051087594610210148 0.080527692295617709 0 -0.0012292332505543029 0.06378464068123596 0 0.0051087594610210148 0.080527692295617709 0 0.0080955592782806732 0.069159055867407046 0 0.017825248683011649 0.070045619055208203 0 0.0051087594610210148 0.080527692295617709 0 0.0080955592782806732 0.069159055867407046 0 0.017825248683011649 0.070045619055208203 0 0.0051087594610210148 0.080527692295617709 0 0.01459521235494949 0.061710637509134872 0 0.017825248683011649 0.070045619055208203 0 0.0080955592782806732 0.069159055867407046 0 0.019482067178466251 0.1107491432724047 0 0.017356945103072018 0.1204998149293544 0 0.027418588341799281 0.11951208787462859 0 0.017356945103072018 0.1204998149293544 0 0.027418588341799281 0.11951208787462859 0 0.028136896369567631 0.1331750506540591 0 0.031997015267580219 0.10661530464401089 0 0.019482067178466251 0.1107491432724047 0 0.027418588341799281 0.11951208787462859 0 0.031997015267580219 0.10661530464401089 0 0.033999193661208522 0.092549709374426317 0 0.023739347197128589 0.085306717374310406 0 0.023739347197128589 0.085306717374310406 0 0.02108550348152554 0.10082233348119581 0 0.0092582498306486675 0.1020209346744549 0 0.031997015267580219 0.10661530464401089 0 0.023739347197128589 0.085306717374310406 0 0.031997015267580219 0.10661530464401089 0 0.023739347197128589 0.085306717374310406 0 0.02108550348152554 0.10082233348119581 0 0.031997015267580219 0.10661530464401089 0 0.019482067178466251 0.1107491432724047 0 0.02108550348152554 0.10082233348119581 0 0.019482067178466251 0.1107491432724047 0 0.02108550348152554 0.10082233348119581 0 0.0092582498306486675 0.1020209346744549 0 -0.0040597014752050652 0.1051126182356364 0 0.0051087594610210148 0.080527692295617709 0 0.0092582498306486675 0.1020209346744549 0 0.019482067178466251 0.1107491432724047 0 0.0092582498306486675 0.1020209346744549 0 0.0097761010461718117 0.1150243840307837 0 -0.0052228475358298988 0.1187351519746004 0 0.0092582498306486675 0.1020209346744549 0 -0.0052228475358298988 0.1187351519746004 0 0.0092582498306486675 0.1020209346744549 0 0.0097761010461718117 0.1150243840307837 0 0.019482067178466251 0.1107491432724047 0 0.017356945103072018 0.1204998149293544 0 0.0097761010461718117 0.1150243840307837 0 0.017356945103072018 0.1204998149293544 0 0.0081407562022233586 0.1245196413435004 0 0.017356945103072018 0.1204998149293544 0 0.0097761010461718117 0.1150243840307837 0 0.0081407562022233586 0.1245196413435004 0 -0.0052228475358298988 0.1187351519746004 0 0.0097761010461718117 0.1150243840307837 0 0.0081407562022233586 0.1245196413435004 0 -0.0052228475358298988 0.1187351519746004 0 0.0081407562022233586 0.1245196413435004 0 -0.015783289274076458 0.13495459563681389 0 0.0081407562022233586 0.1245196413435004 0 0.01185912902997375 0.14130758542593569 0 0.017356945103072018 0.1204998149293544 0 0.0081407562022233586 0.1245196413435004 0 0.028136896369567631 0.1331750506540591 0 0.0081407562022233586 0.1245196413435004 0 0.028136896369567631 0.1331750506540591 0 0.0081407562022233586 0.1245196413435004 0 0.028136896369567631 0.1331750506540591 0 0.01185912902997375 0.14130758542593569 0 0.028136896369567631 0.1331750506540591 0 0.0267736462585265 0.15269096182544131 0 0.035919394343652343 0.14075559589415579 0 0.028136896369567631 0.1331750506540591 0 0.0267736462585265 0.15269096182544131 0 0.01185912902997375 0.14130758542593569 0 0.0267736462585265 0.15269096182544131 0 0.001788155555331062 0.1557637096651584 0 0.01185912902997375 0.14130758542593569 0 0.001788155555331062 0.1557637096651584 0 0.00061104658230836653 0.17769045695541219 0 0.019359600384737739 0.17657282369350361 0 0.001788155555331062 0.1557637096651584 0 0.019359600384737739 0.17657282369350361 0 0.00061104658230836653 0.17769045695541219 0 0.019359600384737739 0.17657282369350361 0 0.017852612557627559 0.19656860209324539 0 0.019359600384737739 0.17657282369350361 0 0.036931045214144441 0.19738193772184889 0 0.0267736462585265 0.15269096182544131 0 0.001788155555331062 0.1557637096651584 0 0.019359600384737739 0.17657282369350361 0 0.0267736462585265 0.15269096182544131 0 0.019359600384737739 0.17657282369350361 0 0.038399134829123632 0.17159850230738899 0 0.0267736462585265 0.15269096182544131 0 0.038399134829123632 0.17159850230738899 0 0.048512351408483409 0.1492324791834117 0 0.019359600384737739 0.17657282369350361 0 0.038399134829123632 0.17159850230738899 0 0.036931045214144441 0.19738193772184889 0 0.038399134829123632 0.17159850230738899 0 0.053915020648589329 0.181809847856817 0 0.036931045214144441 0.19738193772184889 0 0.053915020648589329 0.181809847856817 0 0.056298621576963533 0.16595151756685289 0 0.075151164334765874 0.17578253529346821 0 0.038399134829123632 0.17159850230738899 0 0.053915020648589329 0.181809847856817 0 0.056298621576963533 0.16595151756685289 0 0.038399134829123632 0.17159850230738899 0 0.056298621576963533 0.16595151756685289 0 0.048512351408483409 0.1492324791834117 0 0.048512351408483409 0.1492324791834117 0 0.055211699142625699 0.13746009370018761 0 0.065804768788039439 0.14890275988831639 0 0.056298621576963533 0.16595151756685289 0 0.048512351408483409 0.1492324791834117 0 0.065804768788039439 0.14890275988831639 0 0.048512351408483409 0.1492324791834117 0 0.055211699142625699 0.13746009370018761 0 0.049904412172306151 0.13036597214331841 0 0.056458373241313059 0.1220229844831647 0 0.059536333892403683 0.1154697352345713 0 0.070822549389301243 0.1380046816891726 0 0.056458373241313059 0.1220229844831647 0 0.055211699142625699 0.13746009370018761 0 0.065804768788039439 0.14890275988831639 0 0.056458373241313059 0.1220229844831647 0 0.065804768788039439 0.14890275988831639 0 0.056458373241313059 0.1220229844831647 0 0.047823074661834691 0.1229743903388081 0 0.049904412172306151 0.13036597214331841 0 0.056458373241313059 0.1220229844831647 0 0.055211699142625699 0.13746009370018761 0 0.049904412172306151 0.13036597214331841 0 0.048512351408483409 0.1492324791834117 0 0.040254683338031831 0.12792389191371131 0 0.048512351408483409 0.1492324791834117 0 0.040254683338031831 0.12792389191371131 0 0.035919394343652343 0.14075559589415579 0 0.048512351408483409 0.1492324791834117 0 0.049904412172306151 0.13036597214331841 0 0.040254683338031831 0.12792389191371131 0 0.047823074661834691 0.1229743903388081 0 0.049904412172306151 0.13036597214331841 0 0.040254683338031831 0.12792389191371131 0 0.027418588341799281 0.11951208787462859 0 0.028136896369567631 0.1331750506540591 0 0.040254683338031831 0.12792389191371131 0 0.028136896369567631 0.1331750506540591 0 0.040254683338031831 0.12792389191371131 0 0.035919394343652343 0.14075559589415579 0 0.0267736462585265 0.15269096182544131 0 0.048512351408483409 0.1492324791834117 0 0.035919394343652343 0.14075559589415579 0 0.020197736684044801 0.2291273398277828 0 0.034114961552744377 0.23516115760169301 0 0.036501911092354018 0.25177276941539839 0 0.018629400856135309 0.24429501886194191 0 0.020197736684044801 0.2291273398277828 0 0.02692674034290404 0.25134916217479408 0 0.020197736684044801 0.2291273398277828 0 0.02692674034290404 0.25134916217479408 0 0.036501911092354018 0.25177276941539839 0 0.020197736684044801 0.2291273398277828 0 0.036501911092354018 0.25177276941539839 0 0.018629400856135309 0.24429501886194191 0 0.0082785766384091443 0.23618007315607359 0 0.020197736684044801 0.2291273398277828 0 0.018629400856135309 0.24429501886194191 0 0.012944211518790589 0.24639919126045251 0 0.0082785766384091443 0.23618007315607359 0 0.012944211518790589 0.24639919126045251 0 0.001894876929373096 0.24743045501984201 0 0.0082785766384091443 0.23618007315607359 0 -0.0070773620087705444 0.23295897308755351 0 0.001894876929373096 0.24743045501984201 0 0.0082785766384091443 0.23618007315607359 0 0.0082785766384091443 0.23618007315607359 0 0.0038866256090455522 0.2239579318999283 0 0.020197736684044801 0.2291273398277828 0 0.0038866256090455522 0.2239579318999283 0 0.020197736684044801 0.2291273398277828 0 0.003893562275735573 0.2064819102401671 0 -0.0070773620087705444 0.23295897308755351 0 0.0082785766384091443 0.23618007315607359 0 0.0038866256090455522 0.2239579318999283 0 0.01643925603633389 0.21561198758054059 0 0.035370792182188207 0.216260201755786 0 0.034114961552744377 0.23516115760169301 0 0.020197736684044801 0.2291273398277828 0 0.01643925603633389 0.21561198758054059 0 0.034114961552744377 0.23516115760169301 0 0.01643925603633389 0.21561198758054059 0 0.034114961552744377 0.23516115760169301 0 0.017852612557627559 0.19656860209324539 0 0.036931045214144441 0.19738193772184889 0 0.035370792182188207 0.216260201755786 0 0.01643925603633389 0.21561198758054059 0 0.017852612557627559 0.19656860209324539 0 0.035370792182188207 0.216260201755786 0 0.020197736684044801 0.2291273398277828 0 0.003893562275735573 0.2064819102401671 0 -0.0045317147067566524 0.21522543551468479 0 0.0038866256090455522 0.2239579318999283 0 0.003893562275735573 0.2064819102401671 0 -0.0012364494800765971 0.1960628175593882 0 0.01643925603633389 0.21561198758054059 0 -0.0012364494800765971 0.1960628175593882 0 0.01643925603633389 0.21561198758054059 0 0.003893562275735573 0.2064819102401671 0 0.020197736684044801 0.2291273398277828 0 0.01643925603633389 0.21561198758054059 0 0.003893562275735573 0.2064819102401671 0 -0.0012364494800765971 0.1960628175593882 0 0.01643925603633389 0.21561198758054059 0 0.017852612557627559 0.19656860209324539 0 -0.0012364494800765971 0.1960628175593882 0 0.00061104658230836653 0.17769045695541219 0 0.017852612557627559 0.19656860209324539 0 0.019359600384737739 0.17657282369350361 0 0.017852612557627559 0.19656860209324539 0 0.036931045214144441 0.19738193772184889 0 0.053915020648589329 0.181809847856817 0 0.036931045214144441 0.19738193772184889 0 0.062795137287949193 0.19833474639452611 0 0.036931045214144441 0.19738193772184889 0 0.054502490043551163 0.2181910517501941 0 0.062795137287949193 0.19833474639452611 0 0.036931045214144441 0.19738193772184889 0 0.054502490043551163 0.2181910517501941 0 0.036931045214144441 0.19738193772184889 0 0.054502490043551163 0.2181910517501941 0 0.035370792182188207 0.216260201755786 0 0.054502490043551163 0.2181910517501941 0 0.035370792182188207 0.216260201755786 0 0.034114961552744377 0.23516115760169301 0 0.054502490043551163 0.2181910517501941 0 0.055174909047777811 0.2396291133956362 0 0.034114961552744377 0.23516115760169301 0 0.054502490043551163 0.2181910517501941 0 0.055174909047777811 0.2396291133956362 0 0.072073934872957782 0.23900016577853919 0 0.055174909047777811 0.2396291133956362 0 0.034114961552744377 0.23516115760169301 0 0.051790667069154861 0.2547103276228454 0 0.055174909047777811 0.2396291133956362 0 0.051790667069154861 0.2547103276228454 0 0.063392491700480919 0.2510828642249095 0 0.034114961552744377 0.23516115760169301 0 0.036501911092354018 0.25177276941539839 0 0.051790667069154861 0.2547103276228454 0 0.034114961552744377 0.23516115760169301 0 0.051790667069154861 0.2547103276228454 0 0.072073934872957782 0.23900016577853919 0 0.093843955428218759 0.229542086103772 0 0.089645379702363526 0.25980927980688501 0 0.072073934872957782 0.23900016577853919 0 0.089645379702363526 0.25980927980688501 0 0.055174909047777811 0.2396291133956362 0 0.072073934872957782 0.23900016577853919 0 0.063392491700480919 0.2510828642249095 0 0.072073934872957782 0.23900016577853919 0 0.063392491700480919 0.2510828642249095 0 0.074261774750864804 0.25289133929391111 0 0.054502490043551163 0.2181910517501941 0 0.072073934872957782 0.23900016577853919 0 0.054502490043551163 0.2181910517501941 0 0.072073934872957782 0.23900016577853919 0 0.07691655231929137 0.22036312128655 0 0.072073934872957782 0.23900016577853919 0 0.07691655231929137 0.22036312128655 0 0.093843955428218759 0.229542086103772 0 0.084497559881492323 0.20266231069862009 0 0.1011551627426199 0.2154511434485995 0 0.093843955428218759 0.229542086103772 0 0.084497559881492323 0.20266231069862009 0 0.093843955428218759 0.229542086103772 0 0.07691655231929137 0.22036312128655 0 0.084497559881492323 0.20266231069862009 0 0.093843955428218759 0.229542086103772 0 0.07691655231929137 0.22036312128655 0 0.062795137287949193 0.19833474639452611 0 0.084497559881492323 0.20266231069862009 0 0.054502490043551163 0.2181910517501941 0 0.07691655231929137 0.22036312128655 0 0.062795137287949193 0.19833474639452611 0 0.062795137287949193 0.19833474639452611 0 0.084497559881492323 0.20266231069862009 0 0.075151164334765874 0.17578253529346821 0 0.084497559881492323 0.20266231069862009 0 0.075151164334765874 0.17578253529346821 0 0.084497559881492323 0.20266231069862009 0 0.10184565838461331 0.1924014028594688 0 0.093394980383096363 0.18307457459837531 0 0.084497559881492323 0.20266231069862009 0 0.10184565838461331 0.1924014028594688 0 0.10260278643249959 0.20376756124449391 0 0.10184565838461331 0.1924014028594688 0 0.1105875138732399 0.1994169567440035 0 0.10260278643249959 0.20376756124449391 0 0.10184565838461331 0.1924014028594688 0 0.1131184160342838 0.18994185980391479 0 0.1105875138732399 0.1994169567440035 0 0.10184565838461331 0.1924014028594688 0 0.1131184160342838 0.18994185980391479 0 0.1054525685194168 0.18020148819897211 0 0.1131184160342838 0.18994185980391479 0 0.1210814068145178 0.19423580856195369 0 0.1131184160342838 0.18994185980391479 0 0.1210814068145178 0.19423580856195369 0 0.1196286990311512 0.18236386641526309 0 0.1210814068145178 0.19423580856195369 0 0.11958782189190099 0.20227867846385961 0 0.13241563583181001 0.2003476577346209 0 0.1131184160342838 0.18994185980391479 0 0.1210814068145178 0.19423580856195369 0 0.11958782189190099 0.20227867846385961 0 0.1131184160342838 0.18994185980391479 0 0.11958782189190099 0.20227867846385961 0 0.1105875138732399 0.1994169567440035 0 0.11958782189190099 0.20227867846385961 0 0.1105875138732399 0.1994169567440035 0 0.11467542950451071 0.21015036581969679 0 0.11958782189190099 0.20227867846385961 0 0.11467542950451071 0.21015036581969679 0 0.12714211421566091 0.2115365522170618 0 0.11467542950451071 0.21015036581969679 0 0.1287590091161889 0.22454109023782651 0 0.12714211421566091 0.2115365522170618 0 0.11467542950451071 0.21015036581969679 0 0.1011551627426199 0.2154511434485995 0 0.1117838155087727 0.22779371718329239 0 0.084497559881492323 0.20266231069862009 0 0.10260278643249959 0.20376756124449391 0 0.1011551627426199 0.2154511434485995 0 0.1105875138732399 0.1994169567440035 0 0.11467542950451071 0.21015036581969679 0 0.10260278643249959 0.20376756124449391 0 0.11467542950451071 0.21015036581969679 0 0.10260278643249959 0.20376756124449391 0 0.1011551627426199 0.2154511434485995 0 0.1011551627426199 0.2154511434485995 0 0.093843955428218759 0.229542086103772 0 0.1117838155087727 0.22779371718329239 0 0.11467542950451071 0.21015036581969679 0 0.1117838155087727 0.22779371718329239 0 0.1287590091161889 0.22454109023782651 0 0.1117838155087727 0.22779371718329239 0 0.1287590091161889 0.22454109023782651 0 0.116065923487036 0.25155424759680489 0 0.093843955428218759 0.229542086103772 0 0.089645379702363526 0.25980927980688501 0 0.116065923487036 0.25155424759680489 0 0.093843955428218759 0.229542086103772 0 0.1117838155087727 0.22779371718329239 0 0.116065923487036 0.25155424759680489 0 0.085867858697711436 0.14453522140638461 0 0.070822549389301243 0.1380046816891726 0 0.082108764886198796 0.1605396281437739 0 0.085867858697711436 0.14453522140638461 0 0.082108764886198796 0.1605396281437739 0 0.098061838006449922 0.1524476624703702 0 0.085867858697711436 0.14453522140638461 0 0.084033960556429532 0.12884481400490949 0 0.098019367542785563 0.1407790739484335 0 0.085867858697711436 0.14453522140638461 0 0.084033960556429532 0.12884481400490949 0 0.070822549389301243 0.1380046816891726 0 0.071861500007931359 0.1232467005620789 0 0.059536333892403683 0.1154697352345713 0 0.070822549389301243 0.1380046816891726 0 0.059536333892403683 0.1154697352345713 0 0.070822549389301243 0.1380046816891726 0 0.056458373241313059 0.1220229844831647 0 0.070822549389301243 0.1380046816891726 0 0.065804768788039439 0.14890275988831639 0 0.071861500007931359 0.1232467005620789 0 0.084033960556429532 0.12884481400490949 0 0.070822549389301243 0.1380046816891726 0 0.070822549389301243 0.1380046816891726 0 0.082108764886198796 0.1605396281437739 0 0.070822549389301243 0.1380046816891726 0 0.065804768788039439 0.14890275988831639 0 0.082108764886198796 0.1605396281437739 0 0.056298621576963533 0.16595151756685289 0 0.065804768788039439 0.14890275988831639 0 0.075151164334765874 0.17578253529346821 0 0.065804768788039439 0.14890275988831639 0 0.075151164334765874 0.17578253529346821 0 0.082108764886198796 0.1605396281437739 0 0.065804768788039439 0.14890275988831639 0 0.075151164334765874 0.17578253529346821 0 0.053915020648589329 0.181809847856817 0 0.062795137287949193 0.19833474639452611 0 0.075151164334765874 0.17578253529346821 0 0.075151164334765874 0.17578253529346821 0 0.093394980383096363 0.18307457459837531 0 0.082108764886198796 0.1605396281437739 0 0.084497559881492323 0.20266231069862009 0 0.075151164334765874 0.17578253529346821 0 0.093394980383096363 0.18307457459837531 0 0.093394980383096363 0.18307457459837531 0 0.082108764886198796 0.1605396281437739 0 0.1017810834163356 0.16778327145988009 0 0.093394980383096363 0.18307457459837531 0 0.082108764886198796 0.1605396281437739 0 0.082108764886198796 0.1605396281437739 0 0.1017810834163356 0.16778327145988009 0 0.098061838006449922 0.1524476624703702 0 0.1017810834163356 0.16778327145988009 0 0.1094413004412432 0.1568441156191657 0 0.098061838006449922 0.1524476624703702 0 0.10184565838461331 0.1924014028594688 0 0.093394980383096363 0.18307457459837531 0 0.1054525685194168 0.18020148819897211 0 0.093394980383096363 0.18307457459837531 0 0.1017810834163356 0.16778327145988009 0 0.1054525685194168 0.18020148819897211 0 0.1017810834163356 0.16778327145988009 0 0.1054525685194168 0.18020148819897211 0 0.1143103312636523 0.17467474260035151 0 0.1131184160342838 0.18994185980391479 0 0.1132877880089454 0.18182979361660931 0 0.1196286990311512 0.18236386641526309 0 0.1131184160342838 0.18994185980391479 0 0.1054525685194168 0.18020148819897211 0 0.1132877880089454 0.18182979361660931 0 0.1054525685194168 0.18020148819897211 0 0.1132877880089454 0.18182979361660931 0 0.1143103312636523 0.17467474260035151 0 0.1132877880089454 0.18182979361660931 0 0.1143103312636523 0.17467474260035151 0 0.1196286990311512 0.18236386641526309 0 0.1143103312636523 0.17467474260035151 0 0.1229466648353691 0.17360959233997481 0 0.1196286990311512 0.18236386641526309 0 0.1229466648353691 0.17360959233997481 0 0.1196286990311512 0.18236386641526309 0 0.1315359285025598 0.17914174819028489 0 0.1210814068145178 0.19423580856195369 0 0.1196286990311512 0.18236386641526309 0 0.1315359285025598 0.17914174819028489 0 0.1017810834163356 0.16778327145988009 0 0.1143103312636523 0.17467474260035151 0 0.11826309888899959 0.1638296446882945 0 0.1017810834163356 0.16778327145988009 0 0.1094413004412432 0.1568441156191657 0 0.11826309888899959 0.1638296446882945 0 0.1094413004412432 0.1568441156191657 0 0.11826309888899959 0.1638296446882945 0 0.12116198843957229 0.15461983439099389 0 0.1143103312636523 0.17467474260035151 0 0.1229466648353691 0.17360959233997481 0 0.11826309888899959 0.1638296446882945 0 0.1229466648353691 0.17360959233997481 0 0.11826309888899959 0.1638296446882945 0 0.1286748755814317 0.16568949079043779 0 0.11826309888899959 0.1638296446882945 0 0.12116198843957229 0.15461983439099389 0 0.1286748755814317 0.16568949079043779 0 0.12116198843957229 0.15461983439099389 0 0.1235319134973574 0.14279740261083959 0 0.11069945258584669 0.14552439304262721 0 0.1094413004412432 0.1568441156191657 0 0.12116198843957229 0.15461983439099389 0 0.11069945258584669 0.14552439304262721 0 0.1094413004412432 0.1568441156191657 0 0.11069945258584669 0.14552439304262721 0 0.098061838006449922 0.1524476624703702 0 0.11069945258584669 0.14552439304262721 0 0.098019367542785563 0.1407790739484335 0 0.098061838006449922 0.1524476624703702 0 0.085867858697711436 0.14453522140638461 0 0.098019367542785563 0.1407790739484335 0 0.098061838006449922 0.1524476624703702 0 0.084033960556429532 0.12884481400490949 0 0.1117522404438802 0.12667258555115829 0 0.094862282777670462 0.1196438628042634 0 0.084033960556429532 0.12884481400490949 0 0.1117522404438802 0.12667258555115829 0 0.084033960556429532 0.12884481400490949 0 0.098019367542785563 0.1407790739484335 0 0.1117522404438802 0.12667258555115829 0 0.11069945258584669 0.14552439304262721 0 0.098019367542785563 0.1407790739484335 0 0.1117522404438802 0.12667258555115829 0 0.1235319134973574 0.14279740261083959 0 0.11069945258584669 0.14552439304262721 0 0.1117522404438802 0.12667258555115829 0 0.1235319134973574 0.14279740261083959 0 0.1117522404438802 0.12667258555115829 0 0.1338250830151082 0.13680555700437169 0 0.1117522404438802 0.12667258555115829 0 0.1338250830151082 0.13680555700437169 0 0.13947052033133081 0.1245003570974072 0 0.1117522404438802 0.12667258555115829 0 0.13947052033133081 0.1245003570974072 0 0.1338250830151082 0.13680555700437169 0 0.14773514824261011 0.13994704674368119 0 0.13947052033133081 0.1245003570974072 0 0.14773514824261011 0.13994704674368119 0 0.13947052033133081 0.1245003570974072 0 0.16718880021878149 0.12232812864365609 0 0.14773514824261011 0.13994704674368119 0 0.1492794596183103 0.15557552201751701 0 0.16307655427518189 0.1461583771030025 0 0.14773514824261011 0.13994704674368119 0 0.1492794596183103 0.15557552201751701 0 0.13636128964255501 0.15303395959459851 0 0.1235319134973574 0.14279740261083959 0 0.1338250830151082 0.13680555700437169 0 0.13636128964255501 0.15303395959459851 0 0.1338250830151082 0.13680555700437169 0 0.14773514824261011 0.13994704674368119 0 0.13636128964255501 0.15303395959459851 0 0.12116198843957229 0.15461983439099389 0 0.1235319134973574 0.14279740261083959 0 0.13636128964255501 0.15303395959459851 0 0.12116198843957229 0.15461983439099389 0 0.13636128964255501 0.15303395959459851 0 0.1286748755814317 0.16568949079043779 0 0.13636128964255501 0.15303395959459851 0 0.1286748755814317 0.16568949079043779 0 0.1402599975996246 0.1687496010839549 0 0.1286748755814317 0.16568949079043779 0 0.1402599975996246 0.1687496010839549 0 0.1315359285025598 0.17914174819028489 0 0.1210814068145178 0.19423580856195369 0 0.1315359285025598 0.17914174819028489 0 0.14172685770208041 0.18088834424850889 0 0.1229466648353691 0.17360959233997481 0 0.1286748755814317 0.16568949079043779 0 0.1315359285025598 0.17914174819028489 0 0.1402599975996246 0.1687496010839549 0 0.1315359285025598 0.17914174819028489 0 0.14172685770208041 0.18088834424850889 0 0.1315359285025598 0.17914174819028489 0 0.14172685770208041 0.18088834424850889 0 0.14172685770208041 0.18088834424850889 0 0.1589643083315804 0.1699886255623487 0 0.15664227980061579 0.1834446584897341 0 0.14172685770208041 0.18088834424850889 0 0.1589643083315804 0.1699886255623487 0 0.1402599975996246 0.1687496010839549 0 0.14172685770208041 0.18088834424850889 0 0.1589643083315804 0.1699886255623487 0 0.14172685770208041 0.18088834424850889 0 0.15664227980061579 0.1834446584897341 0 0.14735069213281321 0.19092796682168489 0 0.14172685770208041 0.18088834424850889 0 0.15664227980061579 0.1834446584897341 0 0.1492794596183103 0.15557552201751701 0 0.1402599975996246 0.1687496010839549 0 0.1589643083315804 0.1699886255623487 0 0.1492794596183103 0.15557552201751701 0 0.13636128964255501 0.15303395959459851 0 0.1402599975996246 0.1687496010839549 0 0.1492794596183103 0.15557552201751701 0 0.1589643083315804 0.1699886255623487 0 0.16307655427518189 0.1461583771030025 0 0.1589643083315804 0.1699886255623487 0 0.1832181015668064 0.15465227861531949 0 0.16307655427518189 0.1461583771030025 0 0.1589643083315804 0.1699886255623487 0 0.16307655427518189 0.1461583771030025 0 0.1589643083315804 0.1699886255623487 0 0.1832181015668064 0.15465227861531949 0 0.1589643083315804 0.1699886255623487 0 0.15664227980061579 0.1834446584897341 0 0.17367876449497299 0.17356388092826039 0 0.15664227980061579 0.1834446584897341 0 0.17803712215301101 0.18711146321258301 0 0.15664227980061579 0.1834446584897341 0 0.17367876449497299 0.17356388092826039 0 0.17803712215301101 0.18711146321258301 0 0.1589643083315804 0.1699886255623487 0 0.15664227980061579 0.1834446584897341 0 0.17367876449497299 0.17356388092826039 0 0.17803712215301101 0.18711146321258301 0 0.1915320106228488 0.17262237876131631 0 0.1589643083315804 0.1699886255623487 0 0.17367876449497299 0.17356388092826039 0 0.1832181015668064 0.15465227861531949 0 0.17367876449497299 0.17356388092826039 0 0.1832181015668064 0.15465227861531949 0 0.1915320106228488 0.17262237876131631 0 0.1832181015668064 0.15465227861531949 0 0.18154761934540289 0.13534417850528041 0 0.16307655427518189 0.1461583771030025 0 0.18154761934540289 0.13534417850528041 0 0.19370351113240411 0.1202502215829211 0 0.16718880021878149 0.12232812864365609 0 0.16307655427518189 0.1461583771030025 0 0.16718880021878149 0.12232812864365609 0 0.14773514824261011 0.13994704674368119 0 0.16307655427518189 0.1461583771030025 0 0.16718880021878149 0.12232812864365609 0 0.18154761934540289 0.13534417850528041 0 0.16307655427518189 0.1461583771030025 0 0.16718880021878149 0.12232812864365609 0 0.14248646727170791 0.24329921538672239 0 0.16890701105638031 0.23504418317664161 0 0.14248646727170791 0.24329921538672239 0 0.116065923487036 0.25155424759680489 0 0.14248646727170791 0.24329921538672239 0 0.1287590091161889 0.22454109023782651 0 0.116065923487036 0.25155424759680489 0 0.14248646727170791 0.24329921538672239 0 0.1287590091161889 0.22454109023782651 0 0.14216045677169509 0.2226427774354276 0 0.1287590091161889 0.22454109023782651 0 0.14216045677169509 0.2226427774354276 0 0.13903299807830019 0.21154409335764149 0 0.14248646727170791 0.24329921538672239 0 0.14216045677169509 0.2226427774354276 0 0.16890701105638031 0.23504418317664161 0 0.14216045677169509 0.2226427774354276 0 0.1513137794066001 0.21432303737238931 0 0.16890701105638031 0.23504418317664161 0 0.15183105921464751 0.210852851725322 0 0.13241563583181001 0.2003476577346209 0 0.15183105921464751 0.210852851725322 0 0.13903299807830019 0.21154409335764149 0 0.13241563583181001 0.2003476577346209 0 0.1513137794066001 0.21432303737238931 0 0.15183105921464751 0.210852851725322 0 0.14522842943996589 0.21534193400985699 0 0.1513137794066001 0.21432303737238931 0 0.15183105921464751 0.210852851725322 0 0.15183105921464751 0.210852851725322 0 0.14522842943996589 0.21534193400985699 0 0.13903299807830019 0.21154409335764149 0 0.14216045677169509 0.2226427774354276 0 0.1513137794066001 0.21432303737238931 0 0.14522842943996589 0.21534193400985699 0 0.14216045677169509 0.2226427774354276 0 0.14522842943996589 0.21534193400985699 0 0.13903299807830019 0.21154409335764149 0 0.1287590091161889 0.22454109023782651 0 0.13903299807830019 0.21154409335764149 0 0.12714211421566091 0.2115365522170618 0 0.11958782189190099 0.20227867846385961 0 0.12714211421566091 0.2115365522170618 0 0.13241563583181001 0.2003476577346209 0 0.13903299807830019 0.21154409335764149 0 0.12714211421566091 0.2115365522170618 0 0.13241563583181001 0.2003476577346209 0 0.1210814068145178 0.19423580856195369 0 0.13241563583181001 0.2003476577346209 0 0.13808072668616231 0.19149491569441959 0 0.1210814068145178 0.19423580856195369 0 0.14172685770208041 0.18088834424850889 0 0.13808072668616231 0.19149491569441959 0 0.1210814068145178 0.19423580856195369 0 0.14172685770208041 0.18088834424850889 0 0.1210814068145178 0.19423580856195369 0 0.13241563583181001 0.2003476577346209 0 0.15664227980061579 0.1834446584897341 0 0.15183105921464751 0.210852851725322 0 0.14735069213281321 0.19092796682168489 0 0.14172685770208041 0.18088834424850889 0 0.13808072668616231 0.19149491569441959 0 0.14735069213281321 0.19092796682168489 0 0.15183105921464751 0.210852851725322 0 0.13808072668616231 0.19149491569441959 0 0.14735069213281321 0.19092796682168489 0 0.15664227980061579 0.1834446584897341 0 0.15183105921464751 0.210852851725322 0 0.15183105921464751 0.210852851725322 0 0.13241563583181001 0.2003476577346209 0 0.13808072668616231 0.19149491569441959 0 0.15183105921464751 0.210852851725322 0 0.13808072668616231 0.19149491569441959 0 0.15664227980061579 0.1834446584897341 0 0.17803712215301101 0.18711146321258301 0 0.17078007948547791 0.20461318166966591 0 0.15664227980061579 0.1834446584897341 0 0.15183105921464751 0.210852851725322 0 0.17078007948547791 0.20461318166966591 0 0.17803712215301101 0.18711146321258301 0 0.18699821765939811 0.20575379358823331 0 0.17078007948547791 0.20461318166966591 0 0.18699821765939811 0.20575379358823331 0 0.18150256540618689 0.21619068467845909 0 0.17078007948547791 0.20461318166966591 0 0.18150256540618689 0.21619068467845909 0 0.17078007948547791 0.20461318166966591 0 0.1696832039875637 0.2204437538389574 0 0.15183105921464751 0.210852851725322 0 0.1696832039875637 0.2204437538389574 0 0.15183105921464751 0.210852851725322 0 0.17078007948547791 0.20461318166966591 0 0.1696832039875637 0.2204437538389574 0 0.15183105921464751 0.210852851725322 0 0.16890701105638031 0.23504418317664161 0 0.15183105921464751 0.210852851725322 0 0.1696832039875637 0.2204437538389574 0 0.16890701105638031 0.23504418317664161 0 0.1513137794066001 0.21432303737238931 0 0.15183105921464751 0.210852851725322 0 0.16890701105638031 0.23504418317664161 0 0.1696832039875637 0.2204437538389574 0 0.1730962958839812 0.23373525170759399 0 0.16890701105638031 0.23504418317664161 0 0.18150256540618689 0.21619068467845909 0 0.1696832039875637 0.2204437538389574 0 0.1874551123034256 0.23002704556275291 0 0.1696832039875637 0.2204437538389574 0 0.1874551123034256 0.23002704556275291 0 0.1730962958839812 0.23373525170759399 0 0.1696832039875637 0.2204437538389574 0 0.1874551123034256 0.23002704556275291 0 0.16890701105638031 0.23504418317664161 0 0.18564289691528729 0.25868749876629671 0 0.1821848497420967 0.24129823675235251 0 0.16890701105638031 0.23504418317664161 0 0.18564289691528729 0.25868749876629671 0 0.1730962958839812 0.23373525170759399 0 0.1821848497420967 0.24129823675235251 0 0.16890701105638031 0.23504418317664161 0 0.1874551123034256 0.23002704556275291 0 0.1730962958839812 0.23373525170759399 0 0.1821848497420967 0.24129823675235251 0 0.14248646727170791 0.24329921538672239 0 0.16890701105638031 0.23504418317664161 0 0.1631161995596529 0.25657386530356069 0 0.1730962958839812 0.23373525170759399 0 0.16890701105638031 0.23504418317664161 0 0.2052270206192876 0.23961033728654851 0 0.2245441737887168 0.23093760545441711 0 0.21458810326103989 0.25029177234766842 0 0.2052270206192876 0.23961033728654851 0 0.2050239072751949 0.2492833193895482 0 0.21458810326103989 0.25029177234766842 0 0.2052270206192876 0.23961033728654851 0 0.2050239072751949 0.2492833193895482 0 0.1956251304139873 0.24830732682566101 0 0.1874551123034256 0.23002704556275291 0 0.1821848497420967 0.24129823675235251 0 0.1956251304139873 0.24830732682566101 0 0.1874551123034256 0.23002704556275291 0 0.2052270206192876 0.23961033728654851 0 0.1821848497420967 0.24129823675235251 0 0.1956251304139873 0.24830732682566101 0 0.18564289691528729 0.25868749876629671 0 0.1874551123034256 0.23002704556275291 0 0.2052270206192876 0.23961033728654851 0 0.1956251304139873 0.24830732682566101 0 0.1874551123034256 0.23002704556275291 0 0.2052270206192876 0.23961033728654851 0 0.20110338325899621 0.22697869990708769 0 0.18150256540618689 0.21619068467845909 0 0.1874551123034256 0.23002704556275291 0 0.19422843088031849 0.2167901493339745 0 0.1874551123034256 0.23002704556275291 0 0.20110338325899621 0.22697869990708769 0 0.19422843088031849 0.2167901493339745 0 0.20110338325899621 0.22697869990708769 0 0.2086865974780466 0.21738525977654841 0 0.19422843088031849 0.2167901493339745 0 0.2052270206192876 0.23961033728654851 0 0.21155197229915221 0.22775520817690251 0 0.2245441737887168 0.23093760545441711 0 0.20110338325899621 0.22697869990708769 0 0.21155197229915221 0.22775520817690251 0 0.2086865974780466 0.21738525977654841 0 0.2052270206192876 0.23961033728654851 0 0.20110338325899621 0.22697869990708769 0 0.21155197229915221 0.22775520817690251 0 0.21155197229915221 0.22775520817690251 0 0.2086865974780466 0.21738525977654841 0 0.22156171208109349 0.2232889965660497 0 0.211417792929007 0.20448623071467029 0 0.2086865974780466 0.21738525977654841 0 0.22411523440486891 0.2128525325182862 0 0.2086865974780466 0.21738525977654841 0 0.22411523440486891 0.2128525325182862 0 0.22156171208109349 0.2232889965660497 0 0.211417792929007 0.20448623071467029 0 0.2086865974780466 0.21738525977654841 0 0.19996516513116139 0.20542151256053021 0 0.2086865974780466 0.21738525977654841 0 0.19422843088031849 0.2167901493339745 0 0.19996516513116139 0.20542151256053021 0 0.18699821765939811 0.20575379358823331 0 0.18150256540618689 0.21619068467845909 0 0.19422843088031849 0.2167901493339745 0 0.18699821765939811 0.20575379358823331 0 0.19422843088031849 0.2167901493339745 0 0.19996516513116139 0.20542151256053021 0 0.18699821765939811 0.20575379358823331 0 0.19996516513116139 0.20542151256053021 0 0.19943196450540629 0.19077826793543179 0 0.17803712215301101 0.18711146321258301 0 0.19943196450540629 0.19077826793543179 0 0.17803712215301101 0.18711146321258301 0 0.18699821765939811 0.20575379358823331 0 0.19943196450540629 0.19077826793543179 0 0.211417792929007 0.20448623071467029 0 0.19943196450540629 0.19077826793543179 0 0.22082680685780151 0.19444507265828059 0 0.19943196450540629 0.19077826793543179 0 0.22082680685780151 0.19444507265828059 0 0.211417792929007 0.20448623071467029 0 0.19996516513116139 0.20542151256053021 0 0.19943196450540629 0.19077826793543179 0 0.22082680685780151 0.19444507265828059 0 0.2418323282778008 0.1922485172988235 0 0.23200417938957321 0.20455559625434991 0 0.22082680685780151 0.19444507265828059 0 0.2418323282778008 0.1922485172988235 0 0.2298041727050075 0.1787595393801808 0 0.2418323282778008 0.1922485172988235 0 0.24124234801782149 0.21867626254200909 0 0.2418323282778008 0.1922485172988235 0 0.24124234801782149 0.21867626254200909 0 0.25471258750952741 0.20148162901819469 0 0.2418323282778008 0.1922485172988235 0 0.24124234801782149 0.21867626254200909 0 0.23200417938957321 0.20455559625434991 0 0.24124234801782149 0.21867626254200909 0 0.25357276657721323 0.21641202867955539 0 0.25471258750952741 0.20148162901819469 0 0.24124234801782149 0.21867626254200909 0 0.22411523440486891 0.2128525325182862 0 0.2303270751280653 0.22194856436908961 0 0.211417792929007 0.20448623071467029 0 0.22082680685780151 0.19444507265828059 0 0.22411523440486891 0.2128525325182862 0 0.22082680685780151 0.19444507265828059 0 0.23200417938957321 0.20455559625434991 0 0.22411523440486891 0.2128525325182862 0 0.24124234801782149 0.21867626254200909 0 0.23200417938957321 0.20455559625434991 0 0.22411523440486891 0.2128525325182862 0 0.22411523440486891 0.2128525325182862 0 0.22156171208109349 0.2232889965660497 0 0.2303270751280653 0.22194856436908961 0 0.22156171208109349 0.2232889965660497 0 0.2245441737887168 0.23093760545441711 0 0.2301452193877111 0.22885480910105491 0 0.21155197229915221 0.22775520817690251 0 0.22156171208109349 0.2232889965660497 0 0.2245441737887168 0.23093760545441711 0 0.2301452193877111 0.22885480910105491 0 0.23408043491912681 0.23335190051361199 0 0.23787356880598759 0.22384871304106421 0 0.2301452193877111 0.22885480910105491 0 0.23408043491912681 0.23335190051361199 0 0.2258394828391487 0.23585902185418811 0 0.2245441737887168 0.23093760545441711 0 0.2301452193877111 0.22885480910105491 0 0.2258394828391487 0.23585902185418811 0 0.2301452193877111 0.22885480910105491 0 0.2303270751280653 0.22194856436908961 0 0.23787356880598759 0.22384871304106421 0 0.22156171208109349 0.2232889965660497 0 0.2301452193877111 0.22885480910105491 0 0.2303270751280653 0.22194856436908961 0 0.24124234801782149 0.21867626254200909 0 0.2303270751280653 0.22194856436908961 0 0.23787356880598759 0.22384871304106421 0 0.24124234801782149 0.21867626254200909 0 0.23787356880598759 0.22384871304106421 0 0.25357276657721323 0.21641202867955539 0 0.23408043491912681 0.23335190051361199 0 0.24868260911088891 0.2303107595792985 0 0.25357276657721323 0.21641202867955539 0 0.23408043491912681 0.23335190051361199 0 0.23787356880598759 0.22384871304106421 0 0.25357276657721323 0.21641202867955539 0 0.23408043491912681 0.23335190051361199 0 0.25357276657721323 0.21641202867955539 0 0.24868260911088891 0.2303107595792985 0 0.2392512687495113 0.23539683186585869 0 0.2471090749199483 0.2357199094212839 0 0.23408043491912681 0.23335190051361199 0 0.24868260911088891 0.2303107595792985 0 0.2392512687495113 0.23539683186585869 0 0.23408043491912681 0.23335190051361199 0 0.2356673672060029 0.23553231024254659 0 0.23369101455560959 0.23545012385447089 0 0.2356673672060029 0.23553231024254659 0 0.23652425047500741 0.24096462129343871 0 0.23369101455560959 0.23545012385447089 0 0.23652425047500741 0.24096462129343871 0 0.2392512687495113 0.23539683186585869 0 0.24523436150048811 0.24199469982198529 0 0.2356673672060029 0.23553231024254659 0 0.23652425047500741 0.24096462129343871 0 0.2392512687495113 0.23539683186585869 0 0.23408043491912681 0.23335190051361199 0 0.2356673672060029 0.23553231024254659 0 0.2392512687495113 0.23539683186585869 0 0.24523436150048811 0.24199469982198529 0 0.2471090749199483 0.2357199094212839 0 0.25452501640087027 0.2374112721999547 0 0.2392512687495113 0.23539683186585869 0 0.24523436150048811 0.24199469982198529 0 0.2471090749199483 0.2357199094212839 0 0.24523436150048811 0.24199469982198529 0 0.23995652529561701 0.25039133628829258 0 0.25404003316197471 0.25208422786308371 0 0.23652425047500741 0.24096462129343871 0 0.24523436150048811 0.24199469982198529 0 0.23995652529561701 0.25039133628829258 0 0.23652425047500741 0.24096462129343871 0 0.23169913173193779 0.25404958449575432 0 0.23995652529561701 0.25039133628829258 0 0.23369101455560959 0.23545012385447089 0 0.2170338530129477 0.25958452376210089 0 0.21458810326103989 0.25029177234766842 0 0.23408043491912681 0.23335190051361199 0 0.23369101455560959 0.23545012385447089 0 0.21458810326103989 0.25029177234766842 0 0.23408043491912681 0.23335190051361199 0 0.21458810326103989 0.25029177234766842 0 0.2245441737887168 0.23093760545441711 0 0.21458810326103989 0.25029177234766842 0 0.23408043491912681 0.23335190051361199 0 0.2258394828391487 0.23585902185418811 0 0.21458810326103989 0.25029177234766842 0 0.23369101455560959 0.23545012385447089 0 0.2170338530129477 0.25958452376210089 0 0.23169913173193779 0.25404958449575432 0 0.23652425047500741 0.24096462129343871 0 0.23369101455560959 0.23545012385447089 0 0.23169913173193779 0.25404958449575432 0 0.23369101455560959 0.23545012385447089 0 0.2170338530129477 0.25958452376210089 0 0.2245441737887168 0.23093760545441711 0 0.2258394828391487 0.23585902185418811 0 0.21458810326103989 0.25029177234766842 0 0.2074718948020329 0.13931593166829101 0 0.2035930282546865 0.1573108976369578 0 0.22801201431925219 0.15227861461809999 0 0.2074718948020329 0.13931593166829101 0 0.22815060196587239 0.13250420183309389 0 0.2202182220460269 0.1181723145221887 0 0.2074718948020329 0.13931593166829101 0 0.2202182220460269 0.1181723145221887 0 0.19370351113240411 0.1202502215829211 0 0.18154761934540289 0.13534417850528041 0 0.2074718948020329 0.13931593166829101 0 0.19370351113240411 0.1202502215829211 0 0.1832181015668064 0.15465227861531949 0 0.2074718948020329 0.13931593166829101 0 0.1832181015668064 0.15465227861531949 0 0.18154761934540289 0.13534417850528041 0 0.2074718948020329 0.13931593166829101 0 0.1832181015668064 0.15465227861531949 0 0.2074718948020329 0.13931593166829101 0 0.2035930282546865 0.1573108976369578 0 0.1832181015668064 0.15465227861531949 0 0.1915320106228488 0.17262237876131631 0 0.2035930282546865 0.1573108976369578 0 0.1915320106228488 0.17262237876131631 0 0.21309098299550949 0.1707274381193544 0 0.2035930282546865 0.1573108976369578 0 0.19943196450540629 0.19077826793543179 0 0.1915320106228488 0.17262237876131631 0 0.21309098299550949 0.1707274381193544 0 0.17803712215301101 0.18711146321258301 0 0.19943196450540629 0.19077826793543179 0 0.1915320106228488 0.17262237876131631 0 0.19943196450540629 0.19077826793543179 0 0.22082680685780151 0.19444507265828059 0 0.21309098299550949 0.1707274381193544 0 0.21309098299550949 0.1707274381193544 0 0.2035930282546865 0.1573108976369578 0 0.22801201431925219 0.15227861461809999 0 0.2298041727050075 0.1787595393801808 0 0.2424223085377801 0.16582077205563811 0 0.22801201431925219 0.15227861461809999 0 0.21309098299550949 0.1707274381193544 0 0.2298041727050075 0.1787595393801808 0 0.22801201431925219 0.15227861461809999 0 0.22082680685780151 0.19444507265828059 0 0.21309098299550949 0.1707274381193544 0 0.2298041727050075 0.1787595393801808 0 0.2418323282778008 0.1922485172988235 0 0.2424223085377801 0.16582077205563811 0 0.2418323282778008 0.1922485172988235 0 0.2424223085377801 0.16582077205563811 0 0.26032431562704572 0.18342712708893841 0 0.2418323282778008 0.1922485172988235 0 0.2298041727050075 0.1787595393801808 0 0.2424223085377801 0.16582077205563811 0 0.2424223085377801 0.16582077205563811 0 0.24301228879775941 0.13939302681245261 0 0.2424223085377801 0.16582077205563811 0 0.24301228879775941 0.13939302681245261 0 0.25486404381895789 0.1523024957907583 0 0.22801201431925219 0.15227861461809999 0 0.23648687609860089 0.13476882232929049 0 0.24301228879775941 0.13939302681245261 0 0.2424223085377801 0.16582077205563811 0 0.22801201431925219 0.15227861461809999 0 0.24301228879775941 0.13939302681245261 0 0.2074718948020329 0.13931593166829101 0 0.22801201431925219 0.15227861461809999 0 0.22815060196587239 0.13250420183309389 0 0.22815060196587239 0.13250420183309389 0 0.24420216851797599 0.1292372680552665 0 0.2202182220460269 0.1181723145221887 0 0.22801201431925219 0.15227861461809999 0 0.22815060196587239 0.13250420183309389 0 0.23648687609860089 0.13476882232929049 0 0.22815060196587239 0.13250420183309389 0 0.23648687609860089 0.13476882232929049 0 0.24420216851797599 0.1292372680552665 0 0.23648687609860089 0.13476882232929049 0 0.24301228879775941 0.13939302681245261 0 0.24420216851797599 0.1292372680552665 0 0.24646482385440791 0.1109165710353929 0 0.23770217468454991 0.11680213067385049 0 0.255186127323073 0.11543194682551421 0 0.24420216851797599 0.1292372680552665 0 0.23770217468454991 0.11680213067385049 0 0.255186127323073 0.11543194682551421 0 0.23770217468454991 0.11680213067385049 0 0.255186127323073 0.11543194682551421 0 0.23770217468454991 0.11680213067385049 0 0.24055722746134861 0.1095612663226197 0 0.23538797832625211 0.10692464088038291 0 0.24646482385440791 0.1109165710353929 0 0.23770217468454991 0.11680213067385049 0 0.24055722746134861 0.1095612663226197 0 0.24174744587836799 0.1033548466348798 0 0.22816008327650389 0.097918375238235045 0 0.24736227196270541 0.090270970101712061 0 0.22816008327650389 0.097918375238235045 0 0.24736227196270541 0.090270970101712061 0 0.24174744587836799 0.1033548466348798 0 0.24736227196270541 0.090270970101712061 0 0.25459763100830068 0.096141582858552177 0 0.24174744587836799 0.1033548466348798 0 0.25459763100830068 0.096141582858552177 0 0.24646482385440791 0.1109165710353929 0 0.24174744587836799 0.1033548466348798 0 0.25655208948606423 0.10927836717886751 0 0.24174744587836799 0.1033548466348798 0 0.25655208948606423 0.10927836717886751 0 0.24646482385440791 0.1109165710353929 0 0.24055722746134861 0.1095612663226197 0 0.24174744587836799 0.1033548466348798 0 0.23538797832625211 0.10692464088038291 0 0.24174744587836799 0.1033548466348798 0 0.22816008327650389 0.097918375238235045 0 0.24055722746134861 0.1095612663226197 0 0.23538797832625211 0.10692464088038291 0 0.24174744587836799 0.1033548466348798 0 0.23538797832625211 0.10692464088038291 0 0.24174744587836799 0.1033548466348798 0 0.24174744587836799 0.1033548466348798 0 0.22816008327650389 0.097918375238235045 0 0.23538797832625211 0.10692464088038291 0 0.22816008327650389 0.097918375238235045 0 0.22436085098549791 0.1097634104313145 0 0.23770217468454991 0.11680213067385049 0 0.2202182220460269 0.1181723145221887 0 0.23770217468454991 0.11680213067385049 0 0.2202182220460269 0.1181723145221887 0 0.22436085098549791 0.1097634104313145 0 0.24420216851797599 0.1292372680552665 0 0.23770217468454991 0.11680213067385049 0 0.2202182220460269 0.1181723145221887 0 0.24420216851797599 0.1292372680552665 0 0.2202182220460269 0.1181723145221887 0 0.23770217468454991 0.11680213067385049 0 0.23538797832625211 0.10692464088038291 0 0.22436085098549791 0.1097634104313145 0 0.2202182220460269 0.1181723145221887 0 0.20033579659415629 0.10899959084191641 0 0.19370351113240411 0.1202502215829211 0 0.2202182220460269 0.1181723145221887 0 0.20033579659415629 0.10899959084191641 0 0.2202182220460269 0.1181723145221887 0 0.19370351113240411 0.1202502215829211 0 0.2202182220460269 0.1181723145221887 0 0.22436085098549791 0.1097634104313145 0 0.20033579659415629 0.10899959084191641 0 0.22816008327650389 0.097918375238235045 0 0.22436085098549791 0.1097634104313145 0 0.20033579659415629 0.10899959084191641 0 0.22816008327650389 0.097918375238235045 0 0.20033579659415629 0.10899959084191641 0 0.2016134769563831 0.087296750559026068 0 0.22816008327650389 0.097918375238235045 0 0.20033579659415629 0.10899959084191641 0 0.20033579659415629 0.10899959084191641 0 0.18422746814952201 0.1154148446289336 0 0.1860496622757298 0.1024087067025775 0 0.20033579659415629 0.10899959084191641 0 0.2016134769563831 0.087296750559026068 0 0.1860496622757298 0.1024087067025775 0 0.20033579659415629 0.10899959084191641 0 0.1860496622757298 0.1024087067025775 0 0.20033579659415629 0.10899959084191641 0 0.19370351113240411 0.1202502215829211 0 0.18422746814952201 0.1154148446289336 0 0.20033579659415629 0.10899959084191641 0 0.18422746814952201 0.1154148446289336 0 0.19220101611619109 0.069455466931817506 0 0.2016134769563831 0.087296750559026068 0 0.22553753830923129 0.072562856517635971 0 0.19220101611619109 0.069455466931817506 0 0.22553753830923129 0.072562856517635971 0 0.20371280465575431 0.054854742933563613 0 0.19220101611619109 0.069455466931817506 0 0.2016134769563831 0.087296750559026068 0 0.17506687063626211 0.076675125879817507 0 0.2016134769563831 0.087296750559026068 0 0.17506687063626211 0.076675125879817507 0 0.2016134769563831 0.087296750559026068 0 0.1860496622757298 0.1024087067025775 0 0.17954517331912459 0.085943521096986275 0 0.22816008327650389 0.097918375238235045 0 0.2016134769563831 0.087296750559026068 0 0.22553753830923129 0.072562856517635971 0 0.22816008327650389 0.097918375238235045 0 0.2016134769563831 0.087296750559026068 0 0.22553753830923129 0.072562856517635971 0 0.20371280465575431 0.054854742933563613 0 0.22816008327650389 0.097918375238235045 0 0.22553753830923129 0.072562856517635971 0 0.24736227196270541 0.090270970101712061 0 0.22553753830923129 0.072562856517635971 0 0.24736227196270541 0.090270970101712061 0 0.22553753830923129 0.072562856517635971 0 0.24736227196270541 0.090270970101712061 0 0.24874122334595 0.07170785510379532 0 0.22553753830923129 0.072562856517635971 0 0.24874122334595 0.07170785510379532 0 0.24629062771517271 0.052820950830226497 0 0.24629062771517271 0.052820950830226497 0 0.22540450977275331 0.044226989078737088 0 0.24629062771517271 0.052820950830226497 0 0.2492733855269578 0.041579555173777823 0 0.22540450977275331 0.044226989078737088 0 0.2492733855269578 0.041579555173777823 0 0.23050941707716249 0.025621187905106171 0 0.2492733855269578 0.041579555173777823 0 0.22540450977275331 0.044226989078737088 0 0.23050941707716249 0.025621187905106171 0 0.22540450977275331 0.044226989078737088 0 0.23050941707716249 0.025621187905106171 0 0.21805144048265651 0.031797176764528597 0 0.22553753830923129 0.072562856517635971 0 0.24629062771517271 0.052820950830226497 0 0.22540450977275331 0.044226989078737088 0 0.23790413247208811 0.0091049515404343275 0 0.25322369798355371 0.0032948183560677501 0 0.2464198669495459 -0.012097030270161889 0 0.23790413247208811 0.0091049515404343275 0 0.25442723867738032 0.016379625870619269 0 0.25322369798355371 0.0032948183560677501 0 0.2492733855269578 0.041579555173777823 0 0.24818833723327199 0.02644705719899533 0 0.23050941707716249 0.025621187905106171 0 0.23790413247208811 0.0091049515404343275 0 0.24818833723327199 0.02644705719899533 0 0.25442723867738032 0.016379625870619269 0 0.23790413247208811 0.0091049515404343275 0 0.24818833723327199 0.02644705719899533 0 0.23050941707716249 0.025621187905106171 0 0.23050941707716249 0.025621187905106171 0 0.2117734432503762 0.02170750274702346 0 0.21805144048265651 0.031797176764528597 0 0.23050941707716249 0.025621187905106171 0 0.21174544862736719 0.0096628206364345465 0 0.23050941707716249 0.025621187905106171 0 0.22518260227175371 0.0072623370788317187 0 0.21174544862736719 0.0096628206364345465 0 0.23790413247208811 0.0091049515404343275 0 0.22518260227175371 0.0072623370788317187 0 0.2300866381754704 -0.0072438550720441714 0 0.23790413247208811 0.0091049515404343275 0 0.23050941707716249 0.025621187905106171 0 0.22518260227175371 0.0072623370788317187 0 0.21174544862736719 0.0096628206364345465 0 0.2117734432503762 0.02170750274702346 0 0.20589386385567829 -0.0063134785331596111 0 0.2117734432503762 0.02170750274702346 0 0.19985428483697371 0.01027601627170664 0 0.20589386385567829 -0.0063134785331596111 0 0.2117734432503762 0.02170750274702346 0 0.20589386385567829 -0.0063134785331596111 0 0.22518260227175371 0.0072623370788317187 0 0.21174544862736719 0.0096628206364345465 0 0.2185782736923042 -0.0038367730406402641 0 0.23050941707716249 0.025621187905106171 0 0.21174544862736719 0.0096628206364345465 0 0.2117734432503762 0.02170750274702346 0 0.2117734432503762 0.02170750274702346 0 0.19994459845139961 0.023663902980434019 0 0.19985428483697371 0.01027601627170664 0 0.2117734432503762 0.02170750274702346 0 0.21805144048265651 0.031797176764528597 0 0.20451839183033399 0.035633027327247678 0 0.2117734432503762 0.02170750274702346 0 0.19994459845139961 0.023663902980434019 0 0.20451839183033399 0.035633027327247678 0 0.19994459845139961 0.023663902980434019 0 0.20451839183033399 0.035633027327247678 0 0.1836322738879155 0.027039065575756291 0 0.19994459845139961 0.023663902980434019 0 0.19985428483697371 0.01027601627170664 0 0.1836322738879155 0.027039065575756291 0 0.19985428483697371 0.01027601627170664 0 0.20589386385567829 -0.0063134785331596111 0 0.18863989258252481 -0.001979820774580698 0 0.19985428483697371 0.01027601627170664 0 0.1836322738879155 0.027039065575756291 0 0.18863989258252481 -0.001979820774580698 0 0.22553753830923129 0.072562856517635971 0 0.22540450977275331 0.044226989078737088 0 0.20371280465575431 0.054854742933563613 0 0.22540450977275331 0.044226989078737088 0 0.20451839183033399 0.035633027327247678 0 0.22540450977275331 0.044226989078737088 0 0.21805144048265651 0.031797176764528597 0 0.20451839183033399 0.035633027327247678 0 0.22540450977275331 0.044226989078737088 0 0.20371280465575431 0.054854742933563613 0 0.20451839183033399 0.035633027327247678 0 0.20451839183033399 0.035633027327247678 0 0.1818880710022803 0.03714662934948755 0 0.1836322738879155 0.027039065575756291 0 0.20371280465575431 0.054854742933563613 0 0.20451839183033399 0.035633027327247678 0 0.1818880710022803 0.03714662934948755 0 0.20371280465575431 0.054854742933563613 0 0.1818880710022803 0.03714662934948755 0 0.20451839183033399 0.035633027327247678 0 0.1836322738879155 0.027039065575756291 0 0.20371280465575431 0.054854742933563613 0 0.17847747081927551 0.05691087761465332 0 0.1818880710022803 0.03714662934948755 0 0.19220101611619109 0.069455466931817506 0 0.20371280465575431 0.054854742933563613 0 0.17847747081927551 0.05691087761465332 0 0.17847747081927551 0.05691087761465332 0 0.1818880710022803 0.03714662934948755 0 0.17847747081927551 0.05691087761465332 0 0.1818880710022803 0.03714662934948755 0 0.1636569447874848 0.036789081642687432 0 0.1818880710022803 0.03714662934948755 0 0.1836322738879155 0.027039065575756291 0 0.1818880710022803 0.03714662934948755 0 0.1636569447874848 0.036789081642687432 0 0.1620242678869008 0.02102957209859084 0 0.17847747081927551 0.05691087761465332 0 0.1636569447874848 0.036789081642687432 0 0.15962551614652079 0.053115759904931073 0 0.17847747081927551 0.05691087761465332 0 0.15962551614652079 0.053115759904931073 0 0.16641746421004469 0.065589342706300277 0 0.15962551614652079 0.053115759904931073 0 0.15045482833334159 0.067212260357143019 0 0.16641746421004469 0.065589342706300277 0 0.1716695151525548 0.011722155214289249 0 0.17506184651935949 -0.0021247232161890161 0 0.18863989258252481 -0.001979820774580698 0 0.1836322738879155 0.027039065575756291 0 0.18863989258252481 -0.001979820774580698 0 0.1836322738879155 0.027039065575756291 0 0.1716695151525548 0.011722155214289249 0 0.18863989258252481 -0.001979820774580698 0 0.1818880710022803 0.03714662934948755 0 0.1730573255808272 0.02268781650565178 0 0.1620242678869008 0.02102957209859084 0 0.1818880710022803 0.03714662934948755 0 0.1620242678869008 0.02102957209859084 0 0.1730573255808272 0.02268781650565178 0 0.1836322738879155 0.027039065575756291 0 0.1716695151525548 0.011722155214289249 0 0.1730573255808272 0.02268781650565178 0 0.1836322738879155 0.027039065575756291 0 0.1818880710022803 0.03714662934948755 0 0.1730573255808272 0.02268781650565178 0 0.1836322738879155 0.027039065575756291 0 0.1636569447874848 0.036789081642687432 0 0.1620242678869008 0.02102957209859084 0 0.15032019737810451 0.03113296745297477 0 0.1730573255808272 0.02268781650565178 0 0.1620242678869008 0.02102957209859084 0 0.1716695151525548 0.011722155214289249 0 0.1620242678869008 0.02102957209859084 0 0.1716695151525548 0.011722155214289249 0 0.15871689523486121 0.010399441389301141 0 0.1716695151525548 0.011722155214289249 0 0.15871689523486121 0.010399441389301141 0 0.1628037813635097 0.0015330777282007481 0 0.15871689523486121 0.010399441389301141 0 0.1628037813635097 0.0015330777282007481 0 0.15453230216132671 0.0032055715019124438 0 0.1716695151525548 0.011722155214289249 0 0.1628037813635097 0.0015330777282007481 0 0.17506184651935949 -0.0021247232161890161 0 0.1620242678869008 0.02102957209859084 0 0.14216046477152491 0.0049125148476896544 0 0.15871689523486121 0.010399441389301141 0 0.14216046477152491 0.0049125148476896544 0 0.15453230216132671 0.0032055715019124438 0 0.14216046477152491 0.0049125148476896544 0 0.15453230216132671 0.0032055715019124438 0 0.15849764294065671 -0.0060544572746906826 0 0.1620242678869008 0.02102957209859084 0 0.15871689523486121 0.010399441389301141 0 0.14216046477152491 0.0049125148476896544 0 0.1620242678869008 0.02102957209859084 0 0.14216046477152491 0.0049125148476896544 0 0.1432298655490542 0.02239521632663263 0 0.1620242678869008 0.02102957209859084 0 0.1432298655490542 0.02239521632663263 0 0.15032019737810451 0.03113296745297477 0 0.1432298655490542 0.02239521632663263 0 0.15032019737810451 0.03113296745297477 0 0.1366405524080008 0.032741533152345258 0 0.1432298655490542 0.02239521632663263 0 0.12659142849079691 0.028091664155532971 0 0.1366405524080008 0.032741533152345258 0 0.14216046477152491 0.0049125148476896544 0 0.1432298655490542 0.02239521632663263 0 0.12659142849079691 0.028091664155532971 0 0.14216046477152491 0.0049125148476896544 0 0.12659142849079691 0.028091664155532971 0 0.1323442420055404 0.014884056975098 0 0.14216046477152491 0.0049125148476896544 0 0.12659142849079691 0.028091664155532971 0 0.11882011836095251 0.0065886106746579649 0 0.12659142849079691 0.028091664155532971 0 0.1323442420055404 0.014884056975098 0 0.12659142849079691 0.028091664155532971 0 0.1366405524080008 0.032741533152345258 0 0.11882011836095251 0.0065886106746579649 0 0.1323442420055404 0.014884056975098 0 0.13735218555535891 0.001011181807127467 0 0.1323442420055404 0.014884056975098 0 0.13735218555535891 0.001011181807127467 0 0.14216046477152491 0.0049125148476896544 0 0.1323442420055404 0.014884056975098 0 0.13735218555535891 0.001011181807127467 0 0.14216046477152491 0.0049125148476896544 0 0.13735218555535891 0.001011181807127467 0 0.15962551614652079 0.053115759904931073 0 0.1452456698728295 0.044396077507560729 0 0.15045482833334159 0.067212260357143019 0 0.1452456698728295 0.044396077507560729 0 0.12683439495817461 0.052003073372435288 0 0.15045482833334159 0.067212260357143019 0 0.1636569447874848 0.036789081642687432 0 0.15032019737810451 0.03113296745297477 0 0.1452456698728295 0.044396077507560729 0 0.1636569447874848 0.036789081642687432 0 0.15962551614652079 0.053115759904931073 0 0.1452456698728295 0.044396077507560729 0 0.1636569447874848 0.036789081642687432 0 0.1452456698728295 0.044396077507560729 0 0.15032019737810451 0.03113296745297477 0 0.1452456698728295 0.044396077507560729 0 0.1366405524080008 0.032741533152345258 0 0.1452456698728295 0.044396077507560729 0 0.13015300311198849 0.040381385354086502 0 0.12683439495817461 0.052003073372435288 0 0.1452456698728295 0.044396077507560729 0 0.1366405524080008 0.032741533152345258 0 0.13015300311198849 0.040381385354086502 0 0.12659142849079691 0.028091664155532971 0 0.1366405524080008 0.032741533152345258 0 0.13015300311198849 0.040381385354086502 0 0.12683439495817461 0.052003073372435288 0 0.13134854049252651 0.064566646620811727 0 0.15045482833334159 0.067212260357143019 0 0.1452456698728295 0.044396077507560729 0 0.12683439495817461 0.052003073372435288 0 0.12683439495817461 0.052003073372435288 0 0.15045482833334159 0.067212260357143019 0 0.1213053233293625 0.063977455960140386 0 0.12683439495817461 0.052003073372435288 0 0.13134854049252651 0.064566646620811727 0 0.13134854049252651 0.064566646620811727 0 0.12679961534922851 0.075073796793526271 0 0.15045482833334159 0.067212260357143019 0 0.1213053233293625 0.063977455960140386 0 0.13134854049252651 0.064566646620811727 0 0.12679961534922851 0.075073796793526271 0 0.12679961534922851 0.075073796793526271 0 0.15045482833334159 0.067212260357143019 0 0.1492815716532653 0.085445809678383625 0 0.1185648575779607 0.095458187827811403 0 0.12679961534922851 0.075073796793526271 0 0.13332649773741079 0.089989738391902788 0 0.1492815716532653 0.085445809678383625 0 0.13332649773741079 0.089989738391902788 0 0.13865994636918871 0.10398115926788989 0 0.12679961534922851 0.075073796793526271 0 0.1492815716532653 0.085445809678383625 0 0.12679961534922851 0.075073796793526271 0 0.1492815716532653 0.085445809678383625 0 0.13332649773741079 0.089989738391902788 0 0.123281054128593 0.11724462113534739 0 0.1185648575779607 0.095458187827811403 0 0.13865994636918871 0.10398115926788989 0 0.1185648575779607 0.095458187827811403 0 0.13332649773741079 0.089989738391902788 0 0.13865994636918871 0.10398115926788989 0 0.123281054128593 0.11724462113534739 0 0.13865994636918871 0.10398115926788989 0 0.13947052033133081 0.1245003570974072 0 0.13947052033133081 0.1245003570974072 0 0.15026369300765779 0.1129544164764977 0 0.16718880021878149 0.12232812864365609 0 0.13947052033133081 0.1245003570974072 0 0.16718880021878149 0.12232812864365609 0 0.13865994636918871 0.10398115926788989 0 0.13947052033133081 0.1245003570974072 0 0.15026369300765779 0.1129544164764977 0 0.1492815716532653 0.085445809678383625 0 0.13865994636918871 0.10398115926788989 0 0.15573550511132991 0.1010080208970377 0 0.13865994636918871 0.10398115926788989 0 0.15026369300765779 0.1129544164764977 0 0.15573550511132991 0.1010080208970377 0 0.15573550511132991 0.1010080208970377 0 0.17176352795730221 0.095817822563241214 0 0.16718880021878149 0.12232812864365609 0 0.17176352795730221 0.095817822563241214 0 0.16718880021878149 0.12232812864365609 0 0.1492815716532653 0.085445809678383625 0 0.15573550511132991 0.1010080208970377 0 0.17176352795730221 0.095817822563241214 0 0.15026369300765779 0.1129544164764977 0 0.15573550511132991 0.1010080208970377 0 0.16718880021878149 0.12232812864365609 0 0.16718880021878149 0.12232812864365609 0 0.18422746814952201 0.1154148446289336 0 0.17176352795730221 0.095817822563241214 0 0.16718880021878149 0.12232812864365609 0 0.18422746814952201 0.1154148446289336 0 0.19370351113240411 0.1202502215829211 0 0.16718880021878149 0.12232812864365609 0 0.19370351113240411 0.1202502215829211 0 0.16718880021878149 0.12232812864365609 0 0.18422746814952201 0.1154148446289336 0 0.17176352795730221 0.095817822563241214 0 0.18422746814952201 0.1154148446289336 0 0.1860496622757298 0.1024087067025775 0 0.17176352795730221 0.095817822563241214 0 0.1860496622757298 0.1024087067025775 0 0.17954517331912459 0.085943521096986275 0 0.17176352795730221 0.095817822563241214 0 0.1860496622757298 0.1024087067025775 0 0.2016134769563831 0.087296750559026068 0 0.17954517331912459 0.085943521096986275 0 0.17506687063626211 0.076675125879817507 0 0.17176352795730221 0.095817822563241214 0 0.17407526170850959 0.082421447341849294 0 0.17176352795730221 0.095817822563241214 0 0.17954517331912459 0.085943521096986275 0 0.17407526170850959 0.082421447341849294 0 0.17954517331912459 0.085943521096986275 0 0.17407526170850959 0.082421447341849294 0 0.17506687063626211 0.076675125879817507 0 0.17407526170850959 0.082421447341849294 0 0.17506687063626211 0.076675125879817507 0 0.17954517331912459 0.085943521096986275 0 0.17407526170850959 0.082421447341849294 0 0.17847747081927551 0.05691087761465332 0 0.17506687063626211 0.076675125879817507 0 0.19220101611619109 0.069455466931817506 0 0.17847747081927551 0.05691087761465332 0 0.17506687063626211 0.076675125879817507 0 0.17847747081927551 0.05691087761465332 0 0.17506687063626211 0.076675125879817507 0 0.16641746421004469 0.065589342706300277 0 0.17407526170850959 0.082421447341849294 0 0.17506687063626211 0.076675125879817507 0 0.16846263511482451 0.074032689774956653 0 0.15045482833334159 0.067212260357143019 0 0.16846263511482451 0.074032689774956653 0 0.16641746421004469 0.065589342706300277 0 0.17506687063626211 0.076675125879817507 0 0.16846263511482451 0.074032689774956653 0 0.16641746421004469 0.065589342706300277 0 0.15045482833334159 0.067212260357143019 0 0.17407526170850959 0.082421447341849294 0 0.16846263511482451 0.074032689774956653 0 0.17506687063626211 0.076675125879817507 0 0.16846263511482451 0.074032689774956653 0 0.15045482833334159 0.067212260357143019 0 0.17407526170850959 0.082421447341849294 0 0.1492815716532653 0.085445809678383625 0 0.17176352795730221 0.095817822563241214 0 0.1492815716532653 0.085445809678383625 0 0.17176352795730221 0.095817822563241214 0 0.17407526170850959 0.082421447341849294 0 0.15045482833334159 0.067212260357143019 0 0.1492815716532653 0.085445809678383625 0 0.17407526170850959 0.082421447341849294 0 0.094789198081262169 0.47221984895451657 0 0.09870107108427445 0.5 0 0.1248616532684987 0.47476888169724352 0 0.09870107108427445 0.5 0 0.1248616532684987 0.47476888169724352 0 0.1287333349596296 0.50000000000000233 0 0.1248616532684987 0.47476888169724352 0 0.1154926134483955 0.45328817880533262 0 0.094789198081262169 0.47221984895451657 0 0.1248616532684987 0.47476888169724352 0 0.1154926134483955 0.45328817880533262 0 0.1248616532684987 0.47476888169724352 0 0.1205619018159948 0.44674810255646558 0 0.1248616532684987 0.47476888169724352 0 0.1154926134483955 0.45328817880533262 0 0.1205619018159948 0.44674810255646558 0 0.1154926134483955 0.45328817880533262 0 0.106123573628292 0.43180747591342172 0 0.1154926134483955 0.45328817880533262 0 0.1205619018159948 0.44674810255646558 0 0.106123573628292 0.43180747591342172 0 0.1154926134483955 0.45328817880533262 0 0.096722182691352548 0.44869154901932268 0 0.106123573628292 0.43180747591342172 0 0.094789198081262169 0.47221984895451657 0 0.1154926134483955 0.45328817880533262 0 0.096722182691352548 0.44869154901932268 0 0.094789198081262169 0.47221984895451657 0 0.077453222292990773 0.45016302493177879 0 0.067202034968243438 0.47028323083424428 0 0.094789198081262169 0.47221984895451657 0 0.096722182691352548 0.44869154901932268 0 0.077453222292990773 0.45016302493177879 0 0.096722182691352548 0.44869154901932268 0 0.077453222292990773 0.45016302493177879 0 0.085233479690329184 0.42595657570789891 0 0.077453222292990773 0.45016302493177879 0 0.085233479690329184 0.42595657570789891 0 0.077453222292990773 0.45016302493177879 0 0.055846149836862702 0.43889490050586683 0 0.065639666334966471 0.42409002317344818 0 0.077453222292990773 0.45016302493177879 0 0.067202034968243438 0.47028323083424428 0 0.051776939420019832 0.45519588853091181 0 0.094789198081262169 0.47221984895451657 0 0.067202034968243438 0.47028323083424428 0 0.068668807208919325 0.5 0 0.094789198081262169 0.47221984895451657 0 0.09870107108427445 0.5 0 0.068668807208919325 0.5 0 0.068668807208919325 0.5 0 0.043814234576468783 0.4752156274217324 0 0.038636543333564137 0.5 0 0.067202034968243438 0.47028323083424428 0 0.068668807208919325 0.5 0 0.043814234576468783 0.4752156274217324 0 0.038636543333564137 0.5 0 0.0095498935665802413 0.47810272379952351 0 0.0086042794582089632 0.5 0 0.043814234576468783 0.4752156274217324 0 0.038636543333564137 0.5 0 0.0095498935665802413 0.47810272379952351 0 0.043814234576468783 0.4752156274217324 0 0.0095498935665802413 0.47810272379952351 0 0.02936257191825143 0.45548825099001988 0 -0.0044763741368290672 0.43313315307665529 0 0.006403582431216831 0.45126676372832991 0 0.01131617767293759 0.43066417693356068 0 0.006403582431216831 0.45126676372832991 0 0.024585063983693121 0.43937755350337049 0 0.01131617767293759 0.43066417693356068 0 -0.0062093312902834459 0.46527566221073008 0 0.0095498935665802413 0.47810272379952351 0 0.006403582431216831 0.45126676372832991 0 0.0095498935665802413 0.47810272379952351 0 0.006403582431216831 0.45126676372832991 0 0.02936257191825143 0.45548825099001988 0 0.02936257191825143 0.45548825099001988 0 0.024585063983693121 0.43937755350337049 0 0.039439570502417587 0.44016889882154447 0 0.006403582431216831 0.45126676372832991 0 0.02936257191825143 0.45548825099001988 0 0.024585063983693121 0.43937755350337049 0 0.02936257191825143 0.45548825099001988 0 0.039439570502417587 0.44016889882154447 0 0.051776939420019832 0.45519588853091181 0 0.043814234576468783 0.4752156274217324 0 0.02936257191825143 0.45548825099001988 0 0.051776939420019832 0.45519588853091181 0 0.067202034968243438 0.47028323083424428 0 0.043814234576468783 0.4752156274217324 0 0.051776939420019832 0.45519588853091181 0 0.039439570502417587 0.44016889882154447 0 0.051776939420019832 0.45519588853091181 0 0.055846149836862702 0.43889490050586683 0 0.077453222292990773 0.45016302493177879 0 0.051776939420019832 0.45519588853091181 0 0.055846149836862702 0.43889490050586683 0 0.055846149836862702 0.43889490050586683 0 0.044352211855280779 0.42435697566478181 0 0.065639666334966471 0.42409002317344818 0 0.054179592762823331 0.4124556941646933 0 0.065774511826563423 0.40583773171119408 0 0.065639666334966471 0.42409002317344818 0 0.054179592762823331 0.4124556941646933 0 0.044352211855280779 0.42435697566478181 0 0.042551786202842029 0.40583695196884878 0 0.054179592762823331 0.4124556941646933 0 0.044352211855280779 0.42435697566478181 0 0.065639666334966471 0.42409002317344818 0 0.054179592762823331 0.4124556941646933 0 0.052579787594463898 0.40215678830519391 0 0.065774511826563423 0.40583773171119408 0 0.054179592762823331 0.4124556941646933 0 0.042551786202842029 0.40583695196884878 0 0.052579787594463898 0.40215678830519391 0 0.031615607723292562 0.41237007764590089 0 0.044352211855280779 0.42435697566478181 0 0.042551786202842029 0.40583695196884878 0 0.031615607723292562 0.41237007764590089 0 0.044352211855280779 0.42435697566478181 0 0.029348552931666359 0.42650056435783129 0 0.039439570502417587 0.44016889882154447 0 0.055846149836862702 0.43889490050586683 0 0.044352211855280779 0.42435697566478181 0 0.039439570502417587 0.44016889882154447 0 0.044352211855280779 0.42435697566478181 0 0.029348552931666359 0.42650056435783129 0 0.024585063983693121 0.43937755350337049 0 0.039439570502417587 0.44016889882154447 0 0.029348552931666359 0.42650056435783129 0 0.024585063983693121 0.43937755350337049 0 0.029348552931666359 0.42650056435783129 0 0.01131617767293759 0.43066417693356068 0 0.029348552931666359 0.42650056435783129 0 0.019479081626689841 0.41692126840220728 0 0.01131617767293759 0.43066417693356068 0 0.031615607723292562 0.41237007764590089 0 0.029348552931666359 0.42650056435783129 0 0.019479081626689841 0.41692126840220728 0 0.031615607723292562 0.41237007764590089 0 0.019479081626689841 0.41692126840220728 0 0.02210553341445062 0.40298972327242938 0 0.019479081626689841 0.41692126840220728 0 0.0046995574085186929 0.41194005205042061 0 0.02210553341445062 0.40298972327242938 0 0.019479081626689841 0.41692126840220728 0 0.0046995574085186929 0.41194005205042061 0 0.01131617767293759 0.43066417693356068 0 -0.0044763741368290672 0.43313315307665529 0 0.0046995574085186929 0.41194005205042061 0 0.01131617767293759 0.43066417693356068 0 -0.0068648610501423502 0.39382000907293813 0 0.0053185270157129726 0.37689571945341471 0 0.0079727676898529512 0.39395805239723503 0 0.0053185270157129726 0.37689571945341471 0 0.0079727676898529512 0.39395805239723503 0 0.017055050774382831 0.3783760363496293 0 0.0053185270157129726 0.37689571945341471 0 0.017055050774382831 0.3783760363496293 0 0.014905446519761849 0.37011919055753012 0 -0.0068648610501423502 0.39382000907293813 0 0.0046995574085186929 0.41194005205042061 0 0.0079727676898529512 0.39395805239723503 0 0.0046995574085186929 0.41194005205042061 0 0.0079727676898529512 0.39395805239723503 0 0.02210553341445062 0.40298972327242938 0 0.0079727676898529512 0.39395805239723503 0 0.02210553341445062 0.40298972327242938 0 0.02735486101880703 0.39232044610694311 0 0.031615607723292562 0.41237007764590089 0 0.02210553341445062 0.40298972327242938 0 0.03492587150599015 0.39714318271575322 0 0.02210553341445062 0.40298972327242938 0 0.02735486101880703 0.39232044610694311 0 0.03492587150599015 0.39714318271575322 0 0.0079727676898529512 0.39395805239723503 0 0.02735486101880703 0.39232044610694311 0 0.033420514628485373 0.38302977191180709 0 0.017055050774382831 0.3783760363496293 0 0.033420514628485373 0.38302977191180709 0 0.023779055828078009 0.37097747554075361 0 0.0079727676898529512 0.39395805239723503 0 0.017055050774382831 0.3783760363496293 0 0.033420514628485373 0.38302977191180709 0 0.0079727676898529512 0.39395805239723503 0 0.033420514628485373 0.38302977191180709 0 0.02735486101880703 0.39232044610694311 0 0.032859848824407727 0.38560668074253002 0 0.033420514628485373 0.38302977191180709 0 0.02735486101880703 0.39232044610694311 0 0.032859848824407727 0.38560668074253002 0 0.032844630049655758 0.3911952656019041 0 0.033420514628485373 0.38302977191180709 0 0.040531910439000007 0.38820627445006711 0 0.055078026168592691 0.37372917012189599 0 0.033420514628485373 0.38302977191180709 0 0.055078026168592691 0.37372917012189599 0 0.032859848824407727 0.38560668074253002 0 0.033420514628485373 0.38302977191180709 0 0.032859848824407727 0.38560668074253002 0 0.040531910439000007 0.38820627445006711 0 0.032844630049655758 0.3911952656019041 0 0.032859848824407727 0.38560668074253002 0 0.033420514628485373 0.38302977191180709 0 0.040531910439000007 0.38820627445006711 0 0.031615607723292562 0.41237007764590089 0 0.03492587150599015 0.39714318271575322 0 0.042551786202842029 0.40583695196884878 0 0.040531910439000007 0.38820627445006711 0 0.03492587150599015 0.39714318271575322 0 0.032844630049655758 0.3911952656019041 0 0.02735486101880703 0.39232044610694311 0 0.03492587150599015 0.39714318271575322 0 0.032844630049655758 0.3911952656019041 0 0.040531910439000007 0.38820627445006711 0 0.03492587150599015 0.39714318271575322 0 0.044409534997012647 0.39663533348309749 0 0.040531910439000007 0.38820627445006711 0 0.044409534997012647 0.39663533348309749 0 0.05145831924276717 0.38983346997562462 0 0.044409534997012647 0.39663533348309749 0 0.042551786202842029 0.40583695196884878 0 0.052579787594463898 0.40215678830519391 0 0.03492587150599015 0.39714318271575322 0 0.044409534997012647 0.39663533348309749 0 0.042551786202842029 0.40583695196884878 0 0.052579787594463898 0.40215678830519391 0 0.065929237187869999 0.38841376689227869 0 0.065774511826563423 0.40583773171119408 0 0.044409534997012647 0.39663533348309749 0 0.052579787594463898 0.40215678830519391 0 0.05145831924276717 0.38983346997562462 0 0.052579787594463898 0.40215678830519391 0 0.05145831924276717 0.38983346997562462 0 0.065929237187869999 0.38841376689227869 0 0.05145831924276717 0.38983346997562462 0 0.065929237187869999 0.38841376689227869 0 0.055078026168592691 0.37372917012189599 0 0.040531910439000007 0.38820627445006711 0 0.05145831924276717 0.38983346997562462 0 0.055078026168592691 0.37372917012189599 0 0.065929237187869999 0.38841376689227869 0 0.07065435961583541 0.37741521318853999 0 0.055078026168592691 0.37372917012189599 0 0.065929237187869999 0.38841376689227869 0 0.07065435961583541 0.37741521318853999 0 0.084874637398179506 0.3830893474080016 0 0.065929237187869999 0.38841376689227869 0 0.084874637398179506 0.3830893474080016 0 0.078183007061163587 0.39730645121706609 0 0.084874637398179506 0.3830893474080016 0 0.09301373708766289 0.40175012648401748 0 0.1017514530376761 0.37456476915266362 0 0.084874637398179506 0.3830893474080016 0 0.1017514530376761 0.37456476915266362 0 0.089894590955766338 0.37016501712229671 0 0.084874637398179506 0.3830893474080016 0 0.09301373708766289 0.40175012648401748 0 0.084874637398179506 0.3830893474080016 0 0.09301373708766289 0.40175012648401748 0 0.078183007061163587 0.39730645121706609 0 0.09301373708766289 0.40175012648401748 0 0.078183007061163587 0.39730645121706609 0 0.0779125114683729 0.4107996813321716 0 0.065929237187869999 0.38841376689227869 0 0.078183007061163587 0.39730645121706609 0 0.065774511826563423 0.40583773171119408 0 0.078183007061163587 0.39730645121706609 0 0.065774511826563423 0.40583773171119408 0 0.0779125114683729 0.4107996813321716 0 0.065774511826563423 0.40583773171119408 0 0.0779125114683729 0.4107996813321716 0 0.065639666334966471 0.42409002317344818 0 0.0779125114683729 0.4107996813321716 0 0.065639666334966471 0.42409002317344818 0 0.085233479690329184 0.42595657570789891 0 0.077453222292990773 0.45016302493177879 0 0.065639666334966471 0.42409002317344818 0 0.085233479690329184 0.42595657570789891 0 0.09301373708766289 0.40175012648401748 0 0.085233479690329184 0.42595657570789891 0 0.09301373708766289 0.40175012648401748 0 0.0779125114683729 0.4107996813321716 0 0.085233479690329184 0.42595657570789891 0 0.09301373708766289 0.40175012648401748 0 0.085233479690329184 0.42595657570789891 0 0.096641093798834857 0.4103746730739769 0 0.096641093798834857 0.4103746730739769 0 0.106123573628292 0.43180747591342172 0 0.096641093798834857 0.4103746730739769 0 0.1162621503634904 0.41872732341568758 0 0.11303311796937431 0.39768424579749467 0 0.096641093798834857 0.4103746730739769 0 0.106123573628292 0.43180747591342172 0 0.1162621503634904 0.41872732341568758 0 0.096641093798834857 0.4103746730739769 0 0.1162621503634904 0.41872732341568758 0 0.085233479690329184 0.42595657570789891 0 0.096641093798834857 0.4103746730739769 0 0.106123573628292 0.43180747591342172 0 0.096722182691352548 0.44869154901932268 0 0.085233479690329184 0.42595657570789891 0 0.106123573628292 0.43180747591342172 0 0.1205619018159948 0.44674810255646558 0 0.1162621503634904 0.41872732341568758 0 0.1205619018159948 0.44674810255646558 0 0.106123573628292 0.43180747591342172 0 0.1162621503634904 0.41872732341568758 0 0.1162621503634904 0.41872732341568758 0 0.11303311796937431 0.39768424579749467 0 0.11303311796937431 0.39768424579749467 0 0.1231373165426977 0.3806134049577457 0 0.1271742827044339 0.39597619803598749 0 0.1162621503634904 0.41872732341568758 0 0.11303311796937431 0.39768424579749467 0 0.1271742827044339 0.39597619803598749 0 0.11303311796937431 0.39768424579749467 0 0.1098040855752573 0.37664116817930182 0 0.11303311796937431 0.39768424579749467 0 0.1098040855752573 0.37664116817930182 0 0.1231373165426977 0.3806134049577457 0 0.09301373708766289 0.40175012648401748 0 0.10162794664532369 0.38287681265592 0 0.1017514530376761 0.37456476915266362 0 0.11303311796937431 0.39768424579749467 0 0.1098040855752573 0.37664116817930182 0 0.10162794664532369 0.38287681265592 0 0.09301373708766289 0.40175012648401748 0 0.1017514530376761 0.37456476915266362 0 0.09301373708766289 0.40175012648401748 0 0.096641093798834857 0.4103746730739769 0 0.10162794664532369 0.38287681265592 0 0.096641093798834857 0.4103746730739769 0 0.10162794664532369 0.38287681265592 0 0.096641093798834857 0.4103746730739769 0 0.11303311796937431 0.39768424579749467 0 0.10162794664532369 0.38287681265592 0 0.09301373708766289 0.40175012648401748 0 0.096641093798834857 0.4103746730739769 0 0.10657505318114149 0.3555980905611088 0 0.1040837309638282 0.33936254988137232 0 0.10657505318114149 0.3555980905611088 0 0.096269577202366938 0.34885221845001108 0 0.090674694454237537 0.35844253683721511 0 0.10657505318114149 0.3555980905611088 0 0.1081370103155585 0.34698533999968961 0 0.1040837309638282 0.33936254988137232 0 0.10657505318114149 0.3555980905611088 0 0.096269577202366938 0.34885221845001108 0 0.1040837309638282 0.33936254988137232 0 0.10657505318114149 0.3555980905611088 0 0.1081370103155585 0.34698533999968961 0 0.1081370103155585 0.34698533999968961 0 0.1105857944332822 0.35159063999376577 0 0.10657505318114149 0.3555980905611088 0 0.1081370103155585 0.34698533999968961 0 0.1105857944332822 0.35159063999376577 0 0.10657505318114149 0.3555980905611088 0 0.097223947907205094 0.36469260341832099 0 0.090674694454237537 0.35844253683721511 0 0.1098040855752573 0.37664116817930182 0 0.10657505318114149 0.3555980905611088 0 0.1098040855752573 0.37664116817930182 0 0.10162794664532369 0.38287681265592 0 0.10657505318114149 0.3555980905611088 0 0.10657505318114149 0.3555980905611088 0 0.097223947907205094 0.36469260341832099 0 0.1017514530376761 0.37456476915266362 0 0.10162794664532369 0.38287681265592 0 0.10657505318114149 0.3555980905611088 0 0.10162794664532369 0.38287681265592 0 0.10657505318114149 0.3555980905611088 0 0.1017514530376761 0.37456476915266362 0 0.097223947907205094 0.36469260341832099 0 0.1017514530376761 0.37456476915266362 0 0.089894590955766338 0.37016501712229671 0 0.1231373165426977 0.3806134049577457 0 0.1176766025370503 0.36283148293627721 0 0.13271547193899449 0.36524458735671972 0 0.1098040855752573 0.37664116817930182 0 0.10657505318114149 0.3555980905611088 0 0.1176766025370503 0.36283148293627721 0 0.1098040855752573 0.37664116817930182 0 0.1231373165426977 0.3806134049577457 0 0.1176766025370503 0.36283148293627721 0 0.1176766025370503 0.36283148293627721 0 0.1232256624926347 0.35239419723674059 0 0.13271547193899449 0.36524458735671972 0 0.10657505318114149 0.3555980905611088 0 0.1176766025370503 0.36283148293627721 0 0.1105857944332822 0.35159063999376577 0 0.1176766025370503 0.36283148293627721 0 0.1232256624926347 0.35239419723674059 0 0.1105857944332822 0.35159063999376577 0 0.1081370103155585 0.34698533999968961 0 0.1105857944332822 0.35159063999376577 0 0.1168368962248217 0.34531303274388031 0 0.1232256624926347 0.35239419723674059 0 0.1105857944332822 0.35159063999376577 0 0.1168368962248217 0.34531303274388031 0 0.1232256624926347 0.35239419723674059 0 0.1168368962248217 0.34531303274388031 0 0.1260676383484185 0.3399282146226113 0 0.1081370103155585 0.34698533999968961 0 0.1173014636805894 0.33730338313169689 0 0.1117137236550247 0.32726307032677399 0 0.1081370103155585 0.34698533999968961 0 0.1117137236550247 0.32726307032677399 0 0.1168368962248217 0.34531303274388031 0 0.1173014636805894 0.33730338313169689 0 0.1260676383484185 0.3399282146226113 0 0.1173014636805894 0.33730338313169689 0 0.12375204985912221 0.32702725796552912 0 0.1260676383484185 0.3399282146226113 0 0.1173014636805894 0.33730338313169689 0 0.12375204985912221 0.32702725796552912 0 0.1117137236550247 0.32726307032677399 0 0.1081370103155585 0.34698533999968961 0 0.1168368962248217 0.34531303274388031 0 0.1173014636805894 0.33730338313169689 0 0.1117137236550247 0.32726307032677399 0 0.11529043699448981 0.30754080065385803 0 0.1117137236550247 0.32726307032677399 0 0.1095765413243488 0.31862098055757049 0 0.11529043699448981 0.30754080065385803 0 0.1214195525311879 0.31440901896845502 0 0.1117137236550247 0.32726307032677399 0 0.11529043699448981 0.30754080065385803 0 0.1214195525311879 0.31440901896845502 0 0.12375204985912221 0.32702725796552912 0 0.12817088130983889 0.317450689473041 0 0.1214195525311879 0.31440901896845502 0 0.12375204985912221 0.32702725796552912 0 0.1117137236550247 0.32726307032677399 0 0.1040837309638282 0.33936254988137232 0 0.090103400857782137 0.31307047550514489 0 0.1040837309638282 0.33936254988137232 0 0.1025673515982234 0.32948055280164651 0 0.090103400857782137 0.31307047550514489 0 0.10278173829001019 0.3206216626476312 0 0.1025673515982234 0.32948055280164651 0 0.090103400857782137 0.31307047550514489 0 0.1095765413243488 0.31862098055757049 0 0.10278173829001019 0.3206216626476312 0 0.099947674014671917 0.31467323404701991 0 0.1095765413243488 0.31862098055757049 0 0.099947674014671917 0.31467323404701991 0 0.09732687347400408 0.30507295899279041 0 0.1117137236550247 0.32726307032677399 0 0.1095765413243488 0.31862098055757049 0 0.10278173829001019 0.3206216626476312 0 0.1117137236550247 0.32726307032677399 0 0.10278173829001019 0.3206216626476312 0 0.1025673515982234 0.32948055280164651 0 0.10278173829001019 0.3206216626476312 0 0.099947674014671917 0.31467323404701991 0 0.090103400857782137 0.31307047550514489 0 0.096269577202366938 0.34885221845001108 0 0.1040837309638282 0.33936254988137232 0 0.085896102217652828 0.34083244099607402 0 0.1081370103155585 0.34698533999968961 0 0.1117137236550247 0.32726307032677399 0 0.1040837309638282 0.33936254988137232 0 0.1081370103155585 0.34698533999968961 0 0.1040837309638282 0.33936254988137232 0 0.1117137236550247 0.32726307032677399 0 0.1040837309638282 0.33936254988137232 0 0.1025673515982234 0.32948055280164651 0 0.1040837309638282 0.33936254988137232 0 0.1025673515982234 0.32948055280164651 0 0.1040837309638282 0.33936254988137232 0 0.085896102217652828 0.34083244099607402 0 0.090103400857782137 0.31307047550514489 0 0.085896102217652828 0.34083244099607402 0 0.090103400857782137 0.31307047550514489 0 0.073944851781294785 0.32640562720437011 0 0.073944851781294785 0.32640562720437011 0 0.05926959110604698 0.32438382341666039 0 0.066452600317618793 0.30933520022964911 0 0.090103400857782137 0.31307047550514489 0 0.073944851781294785 0.32640562720437011 0 0.066452600317618793 0.30933520022964911 0 0.068002564407373206 0.3444061958743222 0 0.05926959110604698 0.32438382341666039 0 0.085896102217652828 0.34083244099607402 0 0.073944851781294785 0.32640562720437011 0 0.068002564407373206 0.3444061958743222 0 0.073944851781294785 0.32640562720437011 0 0.068002564407373206 0.3444061958743222 0 0.05926959110604698 0.32438382341666039 0 0.068002564407373206 0.3444061958743222 0 0.081709153938225559 0.35166937446406898 0 0.076735537708699481 0.364428568331984 0 0.068002564407373206 0.3444061958743222 0 0.076735537708699481 0.364428568331984 0 0.068002564407373206 0.3444061958743222 0 0.076735537708699481 0.364428568331984 0 0.058880509289504487 0.35752542115937253 0 0.085896102217652828 0.34083244099607402 0 0.068002564407373206 0.3444061958743222 0 0.081709153938225559 0.35166937446406898 0 0.081709153938225559 0.35166937446406898 0 0.090674694454237537 0.35844253683721511 0 0.076735537708699481 0.364428568331984 0 0.096269577202366938 0.34885221845001108 0 0.081709153938225559 0.35166937446406898 0 0.090674694454237537 0.35844253683721511 0 0.096269577202366938 0.34885221845001108 0 0.085896102217652828 0.34083244099607402 0 0.081709153938225559 0.35166937446406898 0 0.084874637398179506 0.3830893474080016 0 0.089894590955766338 0.37016501712229671 0 0.076735537708699481 0.364428568331984 0 0.084874637398179506 0.3830893474080016 0 0.076735537708699481 0.364428568331984 0 0.097223947907205094 0.36469260341832099 0 0.090674694454237537 0.35844253683721511 0 0.089894590955766338 0.37016501712229671 0 0.090674694454237537 0.35844253683721511 0 0.089894590955766338 0.37016501712229671 0 0.076735537708699481 0.364428568331984 0 0.090674694454237537 0.35844253683721511 0 0.076735537708699481 0.364428568331984 0 0.076735537708699481 0.364428568331984 0 0.055078026168592691 0.37372917012189599 0 0.058880509289504487 0.35752542115937253 0 0.07065435961583541 0.37741521318853999 0 0.084874637398179506 0.3830893474080016 0 0.076735537708699481 0.364428568331984 0 0.07065435961583541 0.37741521318853999 0 0.076735537708699481 0.364428568331984 0 0.055078026168592691 0.37372917012189599 0 0.076735537708699481 0.364428568331984 0 0.055078026168592691 0.37372917012189599 0 0.055078026168592691 0.37372917012189599 0 0.058880509289504487 0.35752542115937253 0 0.039125882353897343 0.35680699826087081 0 0.068002564407373206 0.3444061958743222 0 0.058880509289504487 0.35752542115937253 0 0.05148455776782021 0.34576385860545072 0 0.058880509289504487 0.35752542115937253 0 0.05148455776782021 0.34576385860545072 0 0.039125882353897343 0.35680699826087081 0 0.039125882353897343 0.35680699826087081 0 0.031548662582759998 0.36398682567210089 0 0.025752053585936779 0.33511492304397028 0 0.05148455776782021 0.34576385860545072 0 0.039125882353897343 0.35680699826087081 0 0.044831250079309708 0.3305842246099347 0 0.033420514628485373 0.38302977191180709 0 0.039125882353897343 0.35680699826087081 0 0.031548662582759998 0.36398682567210089 0 0.033420514628485373 0.38302977191180709 0 0.055078026168592691 0.37372917012189599 0 0.039125882353897343 0.35680699826087081 0 0.033420514628485373 0.38302977191180709 0 0.039125882353897343 0.35680699826087081 0 0.033420514628485373 0.38302977191180709 0 0.031548662582759998 0.36398682567210089 0 0.023779055828078009 0.37097747554075361 0 0.017055050774382831 0.3783760363496293 0 0.023779055828078009 0.37097747554075361 0 0.014905446519761849 0.37011919055753012 0 0.023779055828078009 0.37097747554075361 0 0.019349684376360511 0.36318206543595072 0 0.014905446519761849 0.37011919055753012 0 0.031548662582759998 0.36398682567210089 0 0.019349684376360511 0.36318206543595072 0 0.019690074755218789 0.35178644121934483 0 0.031548662582759998 0.36398682567210089 0 0.023779055828078009 0.37097747554075361 0 0.019349684376360511 0.36318206543595072 0 0.031548662582759998 0.36398682567210089 0 0.025752053585936779 0.33511492304397028 0 0.031548662582759998 0.36398682567210089 0 0.019690074755218789 0.35178644121934483 0 0.025752053585936779 0.33511492304397028 0 0.019349684376360511 0.36318206543595072 0 0.019690074755218789 0.35178644121934483 0 0.0119730942360182 0.35563939605115702 0 0.0119730942360182 0.35563939605115702 0 0.0038095970876644218 0.35606187191015221 0 0.0077169544749549623 0.36306791211952738 0 -0.0077202170519437719 0.34710906184019069 0 0.0082446038140756572 0.34376242611402219 0 0.0038095970876644218 0.35606187191015221 0 0.0119730942360182 0.35563939605115702 0 0.0082446038140756572 0.34376242611402219 0 0.0038095970876644218 0.35606187191015221 0 0.019690074755218789 0.35178644121934483 0 0.0119730942360182 0.35563939605115702 0 0.0082446038140756572 0.34376242611402219 0 -0.0045677851665312944 0.36532665559408428 0 0.0038095970876644218 0.35606187191015221 0 0.0077169544749549623 0.36306791211952738 0 -0.0087141207398781558 0.37710904293520409 0 0.0053185270157129726 0.37689571945341471 0 0.0077169544749549623 0.36306791211952738 0 0.0053185270157129726 0.37689571945341471 0 0.0077169544749549623 0.36306791211952738 0 0.014905446519761849 0.37011919055753012 0 0.019349684376360511 0.36318206543595072 0 0.0077169544749549623 0.36306791211952738 0 0.014905446519761849 0.37011919055753012 0 0.019349684376360511 0.36318206543595072 0 0.0119730942360182 0.35563939605115702 0 0.0077169544749549623 0.36306791211952738 0 -0.009249588209606344 0.30814111102660002 0 0.0094307060340404689 0.32376070079746733 0 0.01995544458911469 0.30624302041583928 0 -0.005758602284471958 0.33512988219008361 0 0.0082446038140756572 0.34376242611402219 0 0.0094307060340404689 0.32376070079746733 0 0.0082446038140756572 0.34376242611402219 0 0.0094307060340404689 0.32376070079746733 0 0.025752053585936779 0.33511492304397028 0 0.019690074755218789 0.35178644121934483 0 0.0082446038140756572 0.34376242611402219 0 0.025752053585936779 0.33511492304397028 0 0.025752053585936779 0.33511492304397028 0 0.01995544458911469 0.30624302041583928 0 0.025752053585936779 0.33511492304397028 0 0.034898059553693392 0.31581284699138767 0 0.01995544458911469 0.30624302041583928 0 0.0094307060340404689 0.32376070079746733 0 0.025752053585936779 0.33511492304397028 0 0.01995544458911469 0.30624302041583928 0 0.034898059553693392 0.31581284699138767 0 0.044831250079309708 0.3305842246099347 0 0.05053661780472133 0.30436145095899841 0 0.025752053585936779 0.33511492304397028 0 0.034898059553693392 0.31581284699138767 0 0.044831250079309708 0.3305842246099347 0 0.039125882353897343 0.35680699826087081 0 0.025752053585936779 0.33511492304397028 0 0.044831250079309708 0.3305842246099347 0 0.039125882353897343 0.35680699826087081 0 0.044831250079309708 0.3305842246099347 0 0.068002564407373206 0.3444061958743222 0 0.05148455776782021 0.34576385860545072 0 0.05926959110604698 0.32438382341666039 0 0.05148455776782021 0.34576385860545072 0 0.044831250079309708 0.3305842246099347 0 0.05926959110604698 0.32438382341666039 0 0.044831250079309708 0.3305842246099347 0 0.05053661780472133 0.30436145095899841 0 0.044831250079309708 0.3305842246099347 0 0.05926959110604698 0.32438382341666039 0 0.05053661780472133 0.30436145095899841 0 0.05926959110604698 0.32438382341666039 0 0.05053661780472133 0.30436145095899841 0 0.05926959110604698 0.32438382341666039 0 0.05053661780472133 0.30436145095899841 0 0.066452600317618793 0.30933520022964911 0 0.059204269303370749 0.30137448027593422 0 0.05053661780472133 0.30436145095899841 0 0.066452600317618793 0.30933520022964911 0 0.04765756321016474 0.29776054867416191 0 0.05053661780472133 0.30436145095899841 0 0.052561166870736087 0.29505630281458828 0 0.059204269303370749 0.30137448027593422 0 0.05053661780472133 0.30436145095899841 0 0.052561166870736087 0.29505630281458828 0 0.05053661780472133 0.30436145095899841 0 0.052561166870736087 0.29505630281458828 0 0.04765756321016474 0.29776054867416191 0 0.05053661780472133 0.30436145095899841 0 0.052561166870736087 0.29505630281458828 0 0.036977033779240318 0.28312664447104818 0 0.062988366650143207 0.29302398426469728 0 0.036977033779240318 0.28312664447104818 0 0.048149862160842181 0.27985089866820428 0 0.062988366650143207 0.29302398426469728 0 0.036977033779240318 0.28312664447104818 0 0.062988366650143207 0.29302398426469728 0 0.048149862160842181 0.27985089866820428 0 0.054778979573680928 0.27715841955607551 0 0.062988366650143207 0.29302398426469728 0 0.059204269303370749 0.30137448027593422 0 0.052561166870736087 0.29505630281458828 0 0.062988366650143207 0.29302398426469728 0 0.04765756321016474 0.29776054867416191 0 0.036186098738389023 0.29603891009636157 0 0.036977033779240318 0.28312664447104818 0 0.04765756321016474 0.29776054867416191 0 0.052561166870736087 0.29505630281458828 0 0.036977033779240318 0.28312664447104818 0 0.036186098738389023 0.29603891009636157 0 0.036977033779240318 0.28312664447104818 0 0.027757552790527541 0.29644954410470781 0 0.034898059553693392 0.31581284699138767 0 0.05053661780472133 0.30436145095899841 0 0.039754971674175903 0.30430037111620312 0 0.04765756321016474 0.29776054867416191 0 0.05053661780472133 0.30436145095899841 0 0.039754971674175903 0.30430037111620312 0 0.04765756321016474 0.29776054867416191 0 0.036186098738389023 0.29603891009636157 0 0.039754971674175903 0.30430037111620312 0 0.036186098738389023 0.29603891009636157 0 0.039754971674175903 0.30430037111620312 0 0.028740536311392211 0.30567206060121932 0 0.034898059553693392 0.31581284699138767 0 0.039754971674175903 0.30430037111620312 0 0.028740536311392211 0.30567206060121932 0 0.034898059553693392 0.31581284699138767 0 0.028740536311392211 0.30567206060121932 0 0.01995544458911469 0.30624302041583928 0 0.028740536311392211 0.30567206060121932 0 0.01995544458911469 0.30624302041583928 0 0.01995544458911469 0.30624302041583928 0 0.027757552790527541 0.29644954410470781 0 0.016928650534501429 0.29116708493907051 0 0.01995544458911469 0.30624302041583928 0 0.016928650534501429 0.29116708493907051 0 0.036186098738389023 0.29603891009636157 0 0.028740536311392211 0.30567206060121932 0 0.027757552790527541 0.29644954410470781 0 0.028740536311392211 0.30567206060121932 0 0.01995544458911469 0.30624302041583928 0 0.027757552790527541 0.29644954410470781 0 0.036977033779240318 0.28312664447104818 0 0.016928650534501429 0.29116708493907051 0 0.013901856479889301 0.2760911494623014 0 0.036977033779240318 0.28312664447104818 0 0.027757552790527541 0.29644954410470781 0 0.016928650534501429 0.29116708493907051 0 0.016928650534501429 0.29116708493907051 0 0.0075090435902615098 0.27971283806045072 0 0.013901856479889301 0.2760911494623014 0 0.016928650534501429 0.29116708493907051 0 0.013901856479889301 0.2760911494623014 0 0.016928650534501429 0.29116708493907051 0 0.002380999114604244 0.28599596302517022 0 0.0075090435902615098 0.27971283806045072 0 0.016928650534501429 0.29116708493907051 0 0.002380999114604244 0.28599596302517022 0 0.0038021096493471361 0.29689124930627131 0 0.01995544458911469 0.30624302041583928 0 0.016928650534501429 0.29116708493907051 0 0.0038021096493471361 0.29689124930627131 0 -0.009249588209606344 0.30814111102660002 0 0.01995544458911469 0.30624302041583928 0 -0.009249588209606344 0.30814111102660002 0 0.01995544458911469 0.30624302041583928 0 0.0038021096493471361 0.29689124930627131 0 0.012944211518790589 0.24639919126045251 0 0.001894876929373096 0.24743045501984201 0 0.027350481215018482 0.26092432701142793 0 0.001894876929373096 0.24743045501984201 0 0.01235577794179212 0.26160751525750708 0 0.027350481215018482 0.26092432701142793 0 0.001894876929373096 0.24743045501984201 0 0.027350481215018482 0.26092432701142793 0 0.01235577794179212 0.26160751525750708 0 0.0066431973405819862 0.26423936680728111 0 0.01332705073189009 0.26743114199411 0 0.001894876929373096 0.24743045501984201 0 0.01235577794179212 0.26160751525750708 0 0.0027594708259384838 0.25829047161104352 0 0.01235577794179212 0.26160751525750708 0 0.0027594708259384838 0.25829047161104352 0 0.0066431973405819862 0.26423936680728111 0 -0.00067809962666212902 0.26216505597133072 0 0.0027594708259384838 0.25829047161104352 0 0.0066431973405819862 0.26423936680728111 0 -0.00067809962666212902 0.26216505597133072 0 0.0066431973405819862 0.26423936680728111 0 0.010965700908337589 0.27322930467739909 0 -0.001267499687089951 0.2776013217203892 0 0.0075090435902615098 0.27971283806045072 0 0.010965700908337589 0.27322930467739909 0 -0.001267499687089951 0.2776013217203892 0 0.002380999114604244 0.28599596302517022 0 0.0075090435902615098 0.27971283806045072 0 0.0075090435902615098 0.27971283806045072 0 0.013901856479889301 0.2760911494623014 0 0.010965700908337589 0.27322930467739909 0 0.010965700908337589 0.27322930467739909 0 0.01332705073189009 0.26743114199411 0 0.022419763759722669 0.26962443384228668 0 0.0066431973405819862 0.26423936680728111 0 0.010965700908337589 0.27322930467739909 0 0.01332705073189009 0.26743114199411 0 0.036977033779240318 0.28312664447104818 0 0.010965700908337589 0.27322930467739909 0 0.022419763759722669 0.26962443384228668 0 0.01235577794179212 0.26160751525750708 0 0.01332705073189009 0.26743114199411 0 0.022419763759722669 0.26962443384228668 0 0.036977033779240318 0.28312664447104818 0 0.013901856479889301 0.2760911494623014 0 0.010965700908337589 0.27322930467739909 0 0.036977033779240318 0.28312664447104818 0 0.010965700908337589 0.27322930467739909 0 0.036977033779240318 0.28312664447104818 0 0.022419763759722669 0.26962443384228668 0 0.032397819765571212 0.27218151163944088 0 0.022419763759722669 0.26962443384228668 0 0.027350481215018482 0.26092432701142793 0 0.032397819765571212 0.27218151163944088 0 0.018629400856135309 0.24429501886194191 0 0.012944211518790589 0.24639919126045251 0 0.027350481215018482 0.26092432701142793 0 0.018629400856135309 0.24429501886194191 0 0.027350481215018482 0.26092432701142793 0 0.02692674034290404 0.25134916217479408 0 0.01235577794179212 0.26160751525750708 0 0.022419763759722669 0.26962443384228668 0 0.027350481215018482 0.26092432701142793 0 0.027350481215018482 0.26092432701142793 0 0.02692674034290404 0.25134916217479408 0 0.036501911092354018 0.25177276941539839 0 0.027350481215018482 0.26092432701142793 0 0.036501911092354018 0.25177276941539839 0 0.052806085500663583 0.27441819900301412 0 0.036501911092354018 0.25177276941539839 0 0.052806085500663583 0.27441819900301412 0 0.027350481215018482 0.26092432701142793 0 0.039536256484267153 0.27410031615862712 0 0.052806085500663583 0.27441819900301412 0 0.027350481215018482 0.26092432701142793 0 0.052806085500663583 0.27441819900301412 0 0.036977033779240318 0.28312664447104818 0 0.032397819765571212 0.27218151163944088 0 0.039536256484267153 0.27410031615862712 0 0.027350481215018482 0.26092432701142793 0 0.032397819765571212 0.27218151163944088 0 0.039536256484267153 0.27410031615862712 0 0.039536256484267153 0.27410031615862712 0 0.048149862160842181 0.27985089866820428 0 0.052806085500663583 0.27441819900301412 0 0.036977033779240318 0.28312664447104818 0 0.039536256484267153 0.27410031615862712 0 0.048149862160842181 0.27985089866820428 0 0.052806085500663583 0.27441819900301412 0 0.051790667069154861 0.2547103276228454 0 0.069466372585565969 0.27425949764399721 0 0.052806085500663583 0.27441819900301412 0 0.054778979573680928 0.27715841955607551 0 0.076123070751733898 0.28677840112891878 0 0.048149862160842181 0.27985089866820428 0 0.052806085500663583 0.27441819900301412 0 0.054778979573680928 0.27715841955607551 0 0.052806085500663583 0.27441819900301412 0 0.054778979573680928 0.27715841955607551 0 0.051790667069154861 0.2547103276228454 0 0.069466372585565969 0.27425949764399721 0 0.036501911092354018 0.25177276941539839 0 0.052806085500663583 0.27441819900301412 0 0.051790667069154861 0.2547103276228454 0 0.051790667069154861 0.2547103276228454 0 0.062472563593505302 0.26110660749064829 0 0.069466372585565969 0.27425949764399721 0 0.051790667069154861 0.2547103276228454 0 0.062472563593505302 0.26110660749064829 0 0.063392491700480919 0.2510828642249095 0 0.07090317009537217 0.25886987532900169 0 0.089645379702363526 0.25980927980688501 0 0.066829182329119829 0.26693814307945207 0 0.063392491700480919 0.2510828642249095 0 0.07090317009537217 0.25886987532900169 0 0.074261774750864804 0.25289133929391111 0 0.062472563593505302 0.26110660749064829 0 0.063392491700480919 0.2510828642249095 0 0.07090317009537217 0.25886987532900169 0 0.062472563593505302 0.26110660749064829 0 0.07090317009537217 0.25886987532900169 0 0.066829182329119829 0.26693814307945207 0 0.07090317009537217 0.25886987532900169 0 0.074261774750864804 0.25289133929391111 0 0.089645379702363526 0.25980927980688501 0 0.072073934872957782 0.23900016577853919 0 0.074261774750864804 0.25289133929391111 0 0.089645379702363526 0.25980927980688501 0 0.089645379702363526 0.25980927980688501 0 0.066829182329119829 0.26693814307945207 0 0.089645379702363526 0.25980927980688501 0 0.084738505220855201 0.27427167124983992 0 0.066829182329119829 0.26693814307945207 0 0.084738505220855201 0.27427167124983992 0 0.069466372585565969 0.27425949764399721 0 0.085077205623658711 0.29152493742801078 0 0.084738505220855201 0.27427167124983992 0 0.095910340366493346 0.28464594086445177 0 0.099818528257267281 0.27185690653089678 0 0.089645379702363526 0.25980927980688501 0 0.084738505220855201 0.27427167124983992 0 0.099818528257267281 0.27185690653089678 0 0.084738505220855201 0.27427167124983992 0 0.066829182329119829 0.26693814307945207 0 0.069466372585565969 0.27425949764399721 0 0.052806085500663583 0.27441819900301412 0 0.069466372585565969 0.27425949764399721 0 0.076123070751733898 0.28677840112891878 0 0.052806085500663583 0.27441819900301412 0 0.076123070751733898 0.28677840112891878 0 0.069466372585565969 0.27425949764399721 0 0.076123070751733898 0.28677840112891878 0 0.062472563593505302 0.26110660749064829 0 0.069466372585565969 0.27425949764399721 0 0.062472563593505302 0.26110660749064829 0 0.066829182329119829 0.26693814307945207 0 0.069466372585565969 0.27425949764399721 0 0.069466372585565969 0.27425949764399721 0 0.085077205623658711 0.29152493742801078 0 0.069466372585565969 0.27425949764399721 0 0.076123070751733898 0.28677840112891878 0 0.085077205623658711 0.29152493742801078 0 0.062988366650143207 0.29302398426469728 0 0.076123070751733898 0.28677840112891878 0 0.066452600317618793 0.30933520022964911 0 0.054778979573680928 0.27715841955607551 0 0.062988366650143207 0.29302398426469728 0 0.076123070751733898 0.28677840112891878 0 0.090103400857782137 0.31307047550514489 0 0.076123070751733898 0.28677840112891878 0 0.066452600317618793 0.30933520022964911 0 0.059204269303370749 0.30137448027593422 0 0.062988366650143207 0.29302398426469728 0 0.066452600317618793 0.30933520022964911 0 0.090103400857782137 0.31307047550514489 0 0.076123070751733898 0.28677840112891878 0 0.085077205623658711 0.29152493742801078 0 0.090103400857782137 0.31307047550514489 0 0.076123070751733898 0.28677840112891878 0 0.090103400857782137 0.31307047550514489 0 0.085077205623658711 0.29152493742801078 0 0.09732687347400408 0.30507295899279041 0 0.085077205623658711 0.29152493742801078 0 0.09732687347400408 0.30507295899279041 0 0.084738505220855201 0.27427167124983992 0 0.085077205623658711 0.29152493742801078 0 0.095910340366493346 0.28464594086445177 0 0.076123070751733898 0.28677840112891878 0 0.085077205623658711 0.29152493742801078 0 0.085077205623658711 0.29152493742801078 0 0.095910340366493346 0.28464594086445177 0 0.10018382130907411 0.29953286904093468 0 0.085077205623658711 0.29152493742801078 0 0.10018382130907411 0.29953286904093468 0 0.095910340366493346 0.28464594086445177 0 0.10809736708577181 0.28553666446189058 0 0.10018382130907411 0.29953286904093468 0 0.10809736708577181 0.28553666446189058 0 0.10018382130907411 0.29953286904093468 0 0.10959494141679089 0.29761357018739809 0 0.099947674014671917 0.31467323404701991 0 0.090103400857782137 0.31307047550514489 0 0.09732687347400408 0.30507295899279041 0 0.085077205623658711 0.29152493742801078 0 0.09732687347400408 0.30507295899279041 0 0.10018382130907411 0.29953286904093468 0 0.09732687347400408 0.30507295899279041 0 0.10018382130907411 0.29953286904093468 0 0.1055944182754792 0.3076919023112884 0 0.10018382130907411 0.29953286904093468 0 0.11529043699448981 0.30754080065385803 0 0.10959494141679089 0.29761357018739809 0 0.10018382130907411 0.29953286904093468 0 0.11529043699448981 0.30754080065385803 0 0.1095765413243488 0.31862098055757049 0 0.09732687347400408 0.30507295899279041 0 0.1055944182754792 0.3076919023112884 0 0.10018382130907411 0.29953286904093468 0 0.1055944182754792 0.3076919023112884 0 0.11529043699448981 0.30754080065385803 0 0.1095765413243488 0.31862098055757049 0 0.09732687347400408 0.30507295899279041 0 0.1095765413243488 0.31862098055757049 0 0.1055944182754792 0.3076919023112884 0 0.11529043699448981 0.30754080065385803 0 0.11529043699448981 0.30754080065385803 0 0.11637637905870279 0.30155283343175482 0 0.11810871752106521 0.30621928700195911 0 0.11529043699448981 0.30754080065385803 0 0.10959494141679089 0.29761357018739809 0 0.11637637905870279 0.30155283343175482 0 0.10959494141679089 0.29761357018739809 0 0.11637637905870279 0.30155283343175482 0 0.1164892219926046 0.29243334627748818 0 0.11529043699448981 0.30754080065385803 0 0.11637637905870279 0.30155283343175482 0 0.11637637905870279 0.30155283343175482 0 0.1222906650571363 0.2985709440566281 0 0.1164892219926046 0.29243334627748818 0 0.1222906650571363 0.2985709440566281 0 0.1206025954822835 0.30378795350269022 0 0.1243783730770044 0.30485679470236721 0 0.11637637905870279 0.30155283343175482 0 0.1222906650571363 0.2985709440566281 0 0.1206025954822835 0.30378795350269022 0 0.11637637905870279 0.30155283343175482 0 0.1206025954822835 0.30378795350269022 0 0.11810871752106521 0.30621928700195911 0 0.1206025954822835 0.30378795350269022 0 0.11810871752106521 0.30621928700195911 0 0.1213521300308707 0.30775440284793348 0 0.11529043699448981 0.30754080065385803 0 0.11810871752106521 0.30621928700195911 0 0.11930841490252821 0.30912172642276631 0 0.11810871752106521 0.30621928700195911 0 0.1213521300308707 0.30775440284793348 0 0.11930841490252821 0.30912172642276631 0 0.1243783730770044 0.30485679470236721 0 0.1213521300308707 0.30775440284793348 0 0.1244342991148414 0.30898461385241399 0 0.1206025954822835 0.30378795350269022 0 0.1243783730770044 0.30485679470236721 0 0.1213521300308707 0.30775440284793348 0 0.1214195525311879 0.31440901896845502 0 0.1244342991148414 0.30898461385241399 0 0.12900107104525951 0.30968741412501871 0 0.1214195525311879 0.31440901896845502 0 0.1213521300308707 0.30775440284793348 0 0.1244342991148414 0.30898461385241399 0 0.1214195525311879 0.31440901896845502 0 0.11529043699448981 0.30754080065385803 0 0.11930841490252821 0.30912172642276631 0 0.1214195525311879 0.31440901896845502 0 0.1213521300308707 0.30775440284793348 0 0.11930841490252821 0.30912172642276631 0 0.10809736708577181 0.28553666446189058 0 0.1164892219926046 0.29243334627748818 0 0.1210835213650209 0.28058702695229848 0 0.10809736708577181 0.28553666446189058 0 0.10959494141679089 0.29761357018739809 0 0.1164892219926046 0.29243334627748818 0 0.1222906650571363 0.2985709440566281 0 0.1164892219926046 0.29243334627748818 0 0.12596292383497329 0.28976449579057961 0 0.1164892219926046 0.29243334627748818 0 0.1210835213650209 0.28058702695229848 0 0.12596292383497329 0.28976449579057961 0 0.10809736708577181 0.28553666446189058 0 0.1210835213650209 0.28058702695229848 0 0.1147979612748997 0.2707881575742877 0 0.1210835213650209 0.28058702695229848 0 0.1147979612748997 0.2707881575742877 0 0.12791172371537049 0.26609555254785411 0 0.1147979612748997 0.2707881575742877 0 0.116065923487036 0.25155424759680489 0 0.099818528257267281 0.27185690653089678 0 0.1147979612748997 0.2707881575742877 0 0.116065923487036 0.25155424759680489 0 0.12791172371537049 0.26609555254785411 0 0.089645379702363526 0.25980927980688501 0 0.116065923487036 0.25155424759680489 0 0.089645379702363526 0.25980927980688501 0 0.116065923487036 0.25155424759680489 0 0.099818528257267281 0.27185690653089678 0 0.089645379702363526 0.25980927980688501 0 0.099818528257267281 0.27185690653089678 0 0.095910340366493346 0.28464594086445177 0 0.10809736708577181 0.28553666446189058 0 0.099818528257267281 0.27185690653089678 0 0.10809736708577181 0.28553666446189058 0 0.1147979612748997 0.2707881575742877 0 0.099818528257267281 0.27185690653089678 0 0.14627836463393121 0.26809473379089088 0 0.14256315404166739 0.2804585798755338 0 0.1332419302865058 0.27890394506169119 0 0.14627836463393121 0.26809473379089088 0 0.14256315404166739 0.2804585798755338 0 0.15383705453569649 0.27951082009548711 0 0.14627836463393121 0.26809473379089088 0 0.15383705453569649 0.27951082009548711 0 0.1609818760820641 0.2708255403471686 0 0.14248646727170791 0.24329921538672239 0 0.14627836463393121 0.26809473379089088 0 0.1631161995596529 0.25657386530356069 0 0.14248646727170791 0.24329921538672239 0 0.116065923487036 0.25155424759680489 0 0.12791172371537049 0.26609555254785411 0 0.14248646727170791 0.24329921538672239 0 0.14627836463393121 0.26809473379089088 0 0.12791172371537049 0.26609555254785411 0 0.14627836463393121 0.26809473379089088 0 0.12791172371537049 0.26609555254785411 0 0.1332419302865058 0.27890394506169119 0 0.1210835213650209 0.28058702695229848 0 0.12791172371537049 0.26609555254785411 0 0.1332419302865058 0.27890394506169119 0 0.1332419302865058 0.27890394506169119 0 0.12596292383497329 0.28976449579057961 0 0.13463915166403909 0.29011289163129678 0 0.1210835213650209 0.28058702695229848 0 0.1332419302865058 0.27890394506169119 0 0.12596292383497329 0.28976449579057961 0 0.1222906650571363 0.2985709440566281 0 0.12596292383497329 0.28976449579057961 0 0.12923992476061211 0.29615108028493942 0 0.12596292383497329 0.28976449579057961 0 0.12923992476061211 0.29615108028493942 0 0.13463915166403909 0.29011289163129678 0 0.13463915166403909 0.29011289163129678 0 0.13544399911061031 0.29845687749894129 0 0.1416447250157222 0.29544082675589128 0 0.12923992476061211 0.29615108028493942 0 0.13463915166403909 0.29011289163129678 0 0.13544399911061031 0.29845687749894129 0 0.14256315404166739 0.2804585798755338 0 0.1332419302865058 0.27890394506169119 0 0.13463915166403909 0.29011289163129678 0 0.1243783730770044 0.30485679470236721 0 0.1244342991148414 0.30898461385241399 0 0.12900107104525951 0.30968741412501871 0 0.1243783730770044 0.30485679470236721 0 0.12900107104525951 0.30968741412501871 0 0.1290658347258283 0.30205966601357243 0 0.12900107104525951 0.30968741412501871 0 0.1290658347258283 0.30205966601357243 0 0.1340409753043473 0.30463488541353972 0 0.1222906650571363 0.2985709440566281 0 0.1243783730770044 0.30485679470236721 0 0.1290658347258283 0.30205966601357243 0 0.1222906650571363 0.2985709440566281 0 0.12923992476061211 0.29615108028493942 0 0.1290658347258283 0.30205966601357243 0 0.12923992476061211 0.29615108028493942 0 0.1290658347258283 0.30205966601357243 0 0.13544399911061031 0.29845687749894129 0 0.13544399911061031 0.29845687749894129 0 0.14170706289926879 0.30357921339911909 0 0.1416447250157222 0.29544082675589128 0 0.13544399911061031 0.29845687749894129 0 0.1340409753043473 0.30463488541353972 0 0.14170706289926879 0.30357921339911909 0 0.1290658347258283 0.30205966601357243 0 0.13544399911061031 0.29845687749894129 0 0.1340409753043473 0.30463488541353972 0 0.13598458437900529 0.30983158877234418 0 0.14130712994747449 0.31140798331507108 0 0.14170706289926879 0.30357921339911909 0 0.12900107104525951 0.30968741412501871 0 0.1340409753043473 0.30463488541353972 0 0.13598458437900529 0.30983158877234418 0 0.1340409753043473 0.30463488541353972 0 0.13598458437900529 0.30983158877234418 0 0.14170706289926879 0.30357921339911909 0 0.13598458437900529 0.30983158877234418 0 0.14130712994747449 0.31140798331507108 0 0.13528824775885559 0.3155805734405937 0 0.12900107104525951 0.30968741412501871 0 0.13598458437900529 0.30983158877234418 0 0.13528824775885559 0.3155805734405937 0 0.1483486037307668 0.31106151759990119 0 0.14130712994747449 0.31140798331507108 0 0.14170706289926879 0.30357921339911909 0 0.1483486037307668 0.31106151759990119 0 0.14170706289926879 0.30357921339911909 0 0.1513591925520972 0.30423422291399321 0 0.14170706289926879 0.30357921339911909 0 0.14924189349128261 0.29698436464102829 0 0.1513591925520972 0.30423422291399321 0 0.14170706289926879 0.30357921339911909 0 0.14924189349128261 0.29698436464102829 0 0.1416447250157222 0.29544082675589128 0 0.1513591925520972 0.30423422291399321 0 0.15847128754916129 0.30901971199088751 0 0.1567398971697517 0.30020769771567818 0 0.14924189349128261 0.29698436464102829 0 0.1513591925520972 0.30423422291399321 0 0.1567398971697517 0.30020769771567818 0 0.1483486037307668 0.31106151759990119 0 0.1513591925520972 0.30423422291399321 0 0.15847128754916129 0.30901971199088751 0 0.1483486037307668 0.31106151759990119 0 0.15847128754916129 0.30901971199088751 0 0.1531779528472626 0.31690967251270458 0 0.14256315404166739 0.2804585798755338 0 0.15383705453569649 0.27951082009548711 0 0.14728728951424691 0.28871625735014939 0 0.14256315404166739 0.2804585798755338 0 0.13463915166403909 0.29011289163129678 0 0.14728728951424691 0.28871625735014939 0 0.14924189349128261 0.29698436464102829 0 0.14728728951424691 0.28871625735014939 0 0.1416447250157222 0.29544082675589128 0 0.13463915166403909 0.29011289163129678 0 0.14728728951424691 0.28871625735014939 0 0.1416447250157222 0.29544082675589128 0 0.14924189349128261 0.29698436464102829 0 0.1576814993112734 0.29111844862325259 0 0.1567398971697517 0.30020769771567818 0 0.14924189349128261 0.29698436464102829 0 0.14728728951424691 0.28871625735014939 0 0.1576814993112734 0.29111844862325259 0 0.15383705453569649 0.27951082009548711 0 0.14728728951424691 0.28871625735014939 0 0.1576814993112734 0.29111844862325259 0 0.15383705453569649 0.27951082009548711 0 0.1576814993112734 0.29111844862325259 0 0.16532030222413041 0.28061774918364429 0 0.1576814993112734 0.29111844862325259 0 0.1689979645595176 0.28949488405725932 0 0.16532030222413041 0.28061774918364429 0 0.1576814993112734 0.29111844862325259 0 0.1689979645595176 0.28949488405725932 0 0.16694561294494401 0.29968174040922901 0 0.1689979645595176 0.28949488405725932 0 0.16694561294494401 0.29968174040922901 0 0.17866142019044989 0.29199773726540068 0 0.1689979645595176 0.28949488405725932 0 0.17498255083596301 0.28300150235233201 0 0.16532030222413041 0.28061774918364429 0 0.1576814993112734 0.29111844862325259 0 0.1567398971697517 0.30020769771567818 0 0.16694561294494401 0.29968174040922901 0 0.15847128754916129 0.30901971199088751 0 0.1567398971697517 0.30020769771567818 0 0.16694561294494401 0.29968174040922901 0 0.16694561294494401 0.29968174040922901 0 0.17666858027807311 0.3015349886251833 0 0.1707678241303611 0.31259989648156872 0 0.15847128754916129 0.30901971199088751 0 0.16694561294494401 0.29968174040922901 0 0.1707678241303611 0.31259989648156872 0 0.17666858027807311 0.3015349886251833 0 0.18371952992762389 0.30785332357736089 0 0.1707678241303611 0.31259989648156872 0 0.16694561294494401 0.29968174040922901 0 0.17666858027807311 0.3015349886251833 0 0.17866142019044989 0.29199773726540068 0 0.17666858027807311 0.3015349886251833 0 0.18371952992762389 0.30785332357736089 0 0.1898902111984884 0.29891268329407239 0 0.18371952992762389 0.30785332357736089 0 0.1898902111984884 0.29891268329407239 0 0.17666858027807311 0.3015349886251833 0 0.17866142019044989 0.29199773726540068 0 0.1898902111984884 0.29891268329407239 0 0.17498255083596301 0.28300150235233201 0 0.17866142019044989 0.29199773726540068 0 0.1849298445554361 0.28099903695767547 0 0.1689979645595176 0.28949488405725932 0 0.17498255083596301 0.28300150235233201 0 0.17866142019044989 0.29199773726540068 0 0.17866142019044989 0.29199773726540068 0 0.18677859260729601 0.28760164196875848 0 0.1898902111984884 0.29891268329407239 0 0.17866142019044989 0.29199773726540068 0 0.18677859260729601 0.28760164196875848 0 0.1849298445554361 0.28099903695767547 0 0.1849298445554361 0.28099903695767547 0 0.17528279401001801 0.2714166079934146 0 0.19094745617081291 0.27038549871767581 0 0.17528279401001801 0.2714166079934146 0 0.18564289691528729 0.25868749876629671 0 0.19094745617081291 0.27038549871767581 0 0.17498255083596301 0.28300150235233201 0 0.1849298445554361 0.28099903695767547 0 0.17528279401001801 0.2714166079934146 0 0.17528279401001801 0.2714166079934146 0 0.16532030222413041 0.28061774918364429 0 0.1609818760820641 0.2708255403471686 0 0.17498255083596301 0.28300150235233201 0 0.17528279401001801 0.2714166079934146 0 0.16532030222413041 0.28061774918364429 0 0.17528279401001801 0.2714166079934146 0 0.1609818760820641 0.2708255403471686 0 0.1631161995596529 0.25657386530356069 0 0.15383705453569649 0.27951082009548711 0 0.16532030222413041 0.28061774918364429 0 0.1609818760820641 0.2708255403471686 0 0.14627836463393121 0.26809473379089088 0 0.1609818760820641 0.2708255403471686 0 0.1631161995596529 0.25657386530356069 0 0.16890701105638031 0.23504418317664161 0 0.1631161995596529 0.25657386530356069 0 0.18564289691528729 0.25868749876629671 0 0.17528279401001801 0.2714166079934146 0 0.1631161995596529 0.25657386530356069 0 0.18564289691528729 0.25868749876629671 0 0.1956251304139873 0.24830732682566101 0 0.18564289691528729 0.25868749876629671 0 0.20465537480646501 0.25892384109831479 0 0.18564289691528729 0.25868749876629671 0 0.19094745617081291 0.27038549871767581 0 0.20465537480646501 0.25892384109831479 0 0.2050239072751949 0.2492833193895482 0 0.1956251304139873 0.24830732682566101 0 0.20465537480646501 0.25892384109831479 0 0.19094745617081291 0.27038549871767581 0 0.20212350544635149 0.27452240688285762 0 0.1917381003592612 0.28136787577326228 0 0.1849298445554361 0.28099903695767547 0 0.19094745617081291 0.27038549871767581 0 0.1917381003592612 0.28136787577326228 0 0.19094745617081291 0.27038549871767581 0 0.20212350544635149 0.27452240688285762 0 0.20465537480646501 0.25892384109831479 0 0.21559138507808229 0.27635001083075639 0 0.2170338530129477 0.25958452376210089 0 0.2223889939606305 0.26849190584137572 0 0.20212350544635149 0.27452240688285762 0 0.2170338530129477 0.25958452376210089 0 0.20037669147028589 0.28371892366973078 0 0.2170338530129477 0.25958452376210089 0 0.20037669147028589 0.28371892366973078 0 0.21559138507808229 0.27635001083075639 0 0.2170338530129477 0.25958452376210089 0 0.20037669147028589 0.28371892366973078 0 0.20212350544635149 0.27452240688285762 0 0.20465537480646501 0.25892384109831479 0 0.21458810326103989 0.25029177234766842 0 0.20212350544635149 0.27452240688285762 0 0.2170338530129477 0.25958452376210089 0 0.21458810326103989 0.25029177234766842 0 0.20212350544635149 0.27452240688285762 0 0.21458810326103989 0.25029177234766842 0 0.2050239072751949 0.2492833193895482 0 0.20465537480646501 0.25892384109831479 0 0.21458810326103989 0.25029177234766842 0 0.20465537480646501 0.25892384109831479 0 0.21458810326103989 0.25029177234766842 0 0.23169913173193779 0.25404958449575432 0 0.22942687348362151 0.26728355318502178 0 0.24090080429007341 0.26281353644332878 0 0.23169913173193779 0.25404958449575432 0 0.2249153238939712 0.26221153605608138 0 0.22942687348362151 0.26728355318502178 0 0.2170338530129477 0.25958452376210089 0 0.2249153238939712 0.26221153605608138 0 0.2223889939606305 0.26849190584137572 0 0.2170338530129477 0.25958452376210089 0 0.23169913173193779 0.25404958449575432 0 0.2249153238939712 0.26221153605608138 0 0.2223889939606305 0.26849190584137572 0 0.2255322572178127 0.27738204478537232 0 0.22942687348362151 0.26728355318502178 0 0.2249153238939712 0.26221153605608138 0 0.2223889939606305 0.26849190584137572 0 0.22942687348362151 0.26728355318502178 0 0.21559138507808229 0.27635001083075639 0 0.2255322572178127 0.27738204478537232 0 0.21985426169801439 0.28935406669317137 0 0.21559138507808229 0.27635001083075639 0 0.2223889939606305 0.26849190584137572 0 0.2255322572178127 0.27738204478537232 0 0.2255322572178127 0.27738204478537232 0 0.23621117140834261 0.27732665952701641 0 0.23095623596381579 0.2876536505458 0 0.2255322572178127 0.27738204478537232 0 0.22942687348362151 0.26728355318502178 0 0.23621117140834261 0.27732665952701641 0 0.23621117140834261 0.27732665952701641 0 0.24818821145747599 0.27522177653690871 0 0.24090080429007341 0.26281353644332878 0 0.22942687348362151 0.26728355318502178 0 0.23621117140834261 0.27732665952701641 0 0.24090080429007341 0.26281353644332878 0 0.24818821145747599 0.27522177653690871 0 0.24090080429007341 0.26281353644332878 0 0.25530776412370298 0.26639583896058622 0 0.23995652529561701 0.25039133628829258 0 0.24090080429007341 0.26281353644332878 0 0.25404003316197471 0.25208422786308371 0 0.23169913173193779 0.25404958449575432 0 0.23995652529561701 0.25039133628829258 0 0.24090080429007341 0.26281353644332878 0 0.23765651747073049 0.31117848176507701 0 0.2454028482605469 0.29267792886045368 0 0.25114017462525878 0.31153615041935723 0 0.23765651747073049 0.31117848176507701 0 0.2454028482605469 0.29267792886045368 0 0.2283396740985745 0.30195705682751389 0 0.2454028482605469 0.29267792886045368 0 0.23095623596381579 0.2876536505458 0 0.2283396740985745 0.30195705682751389 0 0.23621117140834261 0.27732665952701641 0 0.24818821145747599 0.27522177653690871 0 0.2454028482605469 0.29267792886045368 0 0.23621117140834261 0.27732665952701641 0 0.2454028482605469 0.29267792886045368 0 0.23095623596381579 0.2876536505458 0 0.2255322572178127 0.27738204478537232 0 0.23095623596381579 0.2876536505458 0 0.21985426169801439 0.28935406669317137 0 0.23095623596381579 0.2876536505458 0 0.21985426169801439 0.28935406669317137 0 0.2283396740985745 0.30195705682751389 0 0.2283396740985745 0.30195705682751389 0 0.2184758680590754 0.31184724711422762 0 0.22801070301179061 0.32060690690137728 0 0.21985426169801439 0.28935406669317137 0 0.2283396740985745 0.30195705682751389 0 0.21670572119465931 0.30172893354768798 0 0.23765651747073049 0.31117848176507701 0 0.2283396740985745 0.30195705682751389 0 0.22801070301179061 0.32060690690137728 0 0.2283396740985745 0.30195705682751389 0 0.2184758680590754 0.31184724711422762 0 0.21670572119465931 0.30172893354768798 0 0.2184758680590754 0.31184724711422762 0 0.21670572119465931 0.30172893354768798 0 0.20632342479934371 0.30585855598863948 0 0.21670572119465931 0.30172893354768798 0 0.20632342479934371 0.30585855598863948 0 0.21141614329998781 0.29390938293380992 0 0.20632342479934371 0.30585855598863948 0 0.21141614329998781 0.29390938293380992 0 0.2042452804315445 0.29308429151921322 0 0.21559138507808229 0.27635001083075639 0 0.21985426169801439 0.28935406669317137 0 0.2104384150331686 0.28649738738125968 0 0.21985426169801439 0.28935406669317137 0 0.21141614329998781 0.29390938293380992 0 0.2104384150331686 0.28649738738125968 0 0.21985426169801439 0.28935406669317137 0 0.21670572119465931 0.30172893354768798 0 0.21141614329998781 0.29390938293380992 0 0.21141614329998781 0.29390938293380992 0 0.2042452804315445 0.29308429151921322 0 0.2104384150331686 0.28649738738125968 0 0.2042452804315445 0.29308429151921322 0 0.2104384150331686 0.28649738738125968 0 0.20037669147028589 0.28371892366973078 0 0.21559138507808229 0.27635001083075639 0 0.2104384150331686 0.28649738738125968 0 0.20037669147028589 0.28371892366973078 0 0.20212350544635149 0.27452240688285762 0 0.20037669147028589 0.28371892366973078 0 0.1898902111984884 0.29891268329407239 0 0.18677859260729601 0.28760164196875848 0 0.1917381003592612 0.28136787577326228 0 0.1898902111984884 0.29891268329407239 0 0.20037669147028589 0.28371892366973078 0 0.1976595376627992 0.29976589533378561 0 0.1898902111984884 0.29891268329407239 0 0.2042452804315445 0.29308429151921322 0 0.20037669147028589 0.28371892366973078 0 0.1976595376627992 0.29976589533378561 0 0.20212350544635149 0.27452240688285762 0 0.1898902111984884 0.29891268329407239 0 0.20212350544635149 0.27452240688285762 0 0.1917381003592612 0.28136787577326228 0 0.1898902111984884 0.29891268329407239 0 0.20037669147028589 0.28371892366973078 0 0.1898902111984884 0.29891268329407239 0 0.18677859260729601 0.28760164196875848 0 0.1849298445554361 0.28099903695767547 0 0.1917381003592612 0.28136787577326228 0 0.20632342479934371 0.30585855598863948 0 0.19412409721151189 0.30848045781950378 0 0.19635424873152091 0.31866253726922511 0 0.20632342479934371 0.30585855598863948 0 0.1976595376627992 0.29976589533378561 0 0.19412409721151189 0.30848045781950378 0 0.20632342479934371 0.30585855598863948 0 0.2042452804315445 0.29308429151921322 0 0.1976595376627992 0.29976589533378561 0 0.18371952992762389 0.30785332357736089 0 0.1976595376627992 0.29976589533378561 0 0.1898902111984884 0.29891268329407239 0 0.18371952992762389 0.30785332357736089 0 0.19412409721151189 0.30848045781950378 0 0.19635424873152091 0.31866253726922511 0 0.18371952992762389 0.30785332357736089 0 0.1976595376627992 0.29976589533378561 0 0.19412409721151189 0.30848045781950378 0 0.19635424873152091 0.31866253726922511 0 0.19329834396814641 0.33328399686629978 0 0.21150607161232149 0.3245036863190196 0 0.19635424873152091 0.31866253726922511 0 0.19329834396814641 0.33328399686629978 0 0.1818581672390053 0.32281790922797782 0 0.19329834396814641 0.33328399686629978 0 0.20841238186686439 0.34472105417207632 0 0.1876990638134575 0.35190483133425488 0 0.19329834396814641 0.33328399686629978 0 0.21150607161232149 0.3245036863190196 0 0.20841238186686439 0.34472105417207632 0 0.21150607161232149 0.3245036863190196 0 0.22736457019319431 0.33776348264759248 0 0.20841238186686439 0.34472105417207632 0 0.20632342479934371 0.30585855598863948 0 0.19635424873152091 0.31866253726922511 0 0.21150607161232149 0.3245036863190196 0 0.2184758680590754 0.31184724711422762 0 0.20632342479934371 0.30585855598863948 0 0.21150607161232149 0.3245036863190196 0 0.21150607161232149 0.3245036863190196 0 0.22801070301179061 0.32060690690137728 0 0.22736457019319431 0.33776348264759248 0 0.2184758680590754 0.31184724711422762 0 0.21150607161232149 0.3245036863190196 0 0.22801070301179061 0.32060690690137728 0 0.22801070301179061 0.32060690690137728 0 0.22736457019319431 0.33776348264759248 0 0.24490867605631639 0.32967072069511189 0 0.22736457019319431 0.33776348264759248 0 0.24490867605631639 0.32967072069511189 0 0.24521693247762111 0.35027114815259558 0 0.23765651747073049 0.31117848176507701 0 0.22801070301179061 0.32060690690137728 0 0.24490867605631639 0.32967072069511189 0 0.23765651747073049 0.31117848176507701 0 0.24490867605631639 0.32967072069511189 0 0.25114017462525878 0.31153615041935723 0 0.24305895760768401 0.36641304215893011 0 0.24521693247762111 0.35027114815259558 0 0.22613265613425179 0.35680737964537468 0 0.22736457019319431 0.33776348264759248 0 0.24521693247762111 0.35027114815259558 0 0.22613265613425179 0.35680737964537468 0 0.22736457019319431 0.33776348264759248 0 0.22613265613425179 0.35680737964537468 0 0.20841238186686439 0.34472105417207632 0 0.22613265613425179 0.35680737964537468 0 0.20200890290724041 0.36500873302905812 0 0.22860253219506471 0.37841014948266538 0 0.24305895760768401 0.36641304215893011 0 0.22613265613425179 0.35680737964537468 0 0.22860253219506471 0.37841014948266538 0 0.20200890290724041 0.36500873302905812 0 0.22860253219506471 0.37841014948266538 0 0.22613265613425179 0.35680737964537468 0 0.20841238186686439 0.34472105417207632 0 0.20200890290724041 0.36500873302905812 0 0.20841238186686439 0.34472105417207632 0 0.1876990638134575 0.35190483133425488 0 0.20200890290724041 0.36500873302905812 0 0.1876990638134575 0.35190483133425488 0 0.20200890290724041 0.36500873302905812 0 0.17637045729064621 0.37495278481954358 0 0.1876990638134575 0.35190483133425488 0 0.17637045729064621 0.37495278481954358 0 0.16909864488713719 0.35514267549568418 0 0.15975417249048229 0.36968310563447321 0 0.16909864488713719 0.35514267549568418 0 0.14990537096685039 0.36070173528474042 0 0.17637045729064621 0.37495278481954358 0 0.15975417249048229 0.36968310563447321 0 0.16909864488713719 0.35514267549568418 0 0.16909864488713719 0.35514267549568418 0 0.1770056519607103 0.33831974362286749 0 0.1619384281755652 0.34052596047808847 0 0.16909864488713719 0.35514267549568418 0 0.14990537096685039 0.36070173528474042 0 0.15416632756111201 0.34898696826244741 0 0.16909864488713719 0.35514267549568418 0 0.1619384281755652 0.34052596047808847 0 0.15416632756111201 0.34898696826244741 0 0.1876990638134575 0.35190483133425488 0 0.16909864488713719 0.35514267549568418 0 0.1770056519607103 0.33831974362286749 0 0.19329834396814641 0.33328399686629978 0 0.1770056519607103 0.33831974362286749 0 0.1818581672390053 0.32281790922797782 0 0.19329834396814641 0.33328399686629978 0 0.1876990638134575 0.35190483133425488 0 0.1770056519607103 0.33831974362286749 0 0.1770056519607103 0.33831974362286749 0 0.1818581672390053 0.32281790922797782 0 0.1657389141743941 0.32607447656151611 0 0.1818581672390053 0.32281790922797782 0 0.1707678241303611 0.31259989648156872 0 0.1657389141743941 0.32607447656151611 0 0.18371952992762389 0.30785332357736089 0 0.19635424873152091 0.31866253726922511 0 0.1818581672390053 0.32281790922797782 0 0.18371952992762389 0.30785332357736089 0 0.1818581672390053 0.32281790922797782 0 0.1707678241303611 0.31259989648156872 0 0.1707678241303611 0.31259989648156872 0 0.1657389141743941 0.32607447656151611 0 0.16084478468494731 0.31759224325908281 0 0.1657389141743941 0.32607447656151611 0 0.15632698434060879 0.32309477146443721 0 0.16084478468494731 0.31759224325908281 0 0.1657389141743941 0.32607447656151611 0 0.15632698434060879 0.32309477146443721 0 0.1534459738215358 0.33116830427909388 0 0.15847128754916129 0.30901971199088751 0 0.1707678241303611 0.31259989648156872 0 0.16084478468494731 0.31759224325908281 0 0.15847128754916129 0.30901971199088751 0 0.16084478468494731 0.31759224325908281 0 0.1531779528472626 0.31690967251270458 0 0.15632698434060879 0.32309477146443721 0 0.16084478468494731 0.31759224325908281 0 0.1531779528472626 0.31690967251270458 0 0.1770056519607103 0.33831974362286749 0 0.1657389141743941 0.32607447656151611 0 0.1619384281755652 0.34052596047808847 0 0.1657389141743941 0.32607447656151611 0 0.1619384281755652 0.34052596047808847 0 0.1534459738215358 0.33116830427909388 0 0.1619384281755652 0.34052596047808847 0 0.14537830609435001 0.34101383565047871 0 0.15416632756111201 0.34898696826244741 0 0.1619384281755652 0.34052596047808847 0 0.1534459738215358 0.33116830427909388 0 0.14537830609435001 0.34101383565047871 0 0.1534459738215358 0.33116830427909388 0 0.1427633336259623 0.33140140495610498 0 0.14842729617490411 0.32372916070978858 0 0.1534459738215358 0.33116830427909388 0 0.1427633336259623 0.33140140495610498 0 0.14537830609435001 0.34101383565047871 0 0.1427633336259623 0.33140140495610498 0 0.14537830609435001 0.34101383565047871 0 0.13654253772275141 0.33890423694427602 0 0.1483486037307668 0.31106151759990119 0 0.1531779528472626 0.31690967251270458 0 0.14487070829517959 0.31682928085866202 0 0.1531779528472626 0.31690967251270458 0 0.14842729617490411 0.32372916070978858 0 0.14487070829517959 0.31682928085866202 0 0.15632698434060879 0.32309477146443721 0 0.1534459738215358 0.33116830427909388 0 0.14842729617490411 0.32372916070978858 0 0.15632698434060879 0.32309477146443721 0 0.1531779528472626 0.31690967251270458 0 0.14842729617490411 0.32372916070978858 0 0.1427633336259623 0.33140140495610498 0 0.14842729617490411 0.32372916070978858 0 0.1402378637359267 0.32270884290342983 0 0.14842729617490411 0.32372916070978858 0 0.14487070829517959 0.31682928085866202 0 0.1402378637359267 0.32270884290342983 0 0.1483486037307668 0.31106151759990119 0 0.14130712994747449 0.31140798331507108 0 0.14487070829517959 0.31682928085866202 0 0.14130712994747449 0.31140798331507108 0 0.14487070829517959 0.31682928085866202 0 0.13528824775885559 0.3155805734405937 0 0.14487070829517959 0.31682928085866202 0 0.13528824775885559 0.3155805734405937 0 0.1402378637359267 0.32270884290342983 0 0.13528824775885559 0.3155805734405937 0 0.1330765722643745 0.32249408610517011 0 0.1402378637359267 0.32270884290342983 0 0.1330765722643745 0.32249408610517011 0 0.1402378637359267 0.32270884290342983 0 0.13309473665224339 0.33072661256584468 0 0.12375204985912221 0.32702725796552912 0 0.1330765722643745 0.32249408610517011 0 0.13309473665224339 0.33072661256584468 0 0.12375204985912221 0.32702725796552912 0 0.1330765722643745 0.32249408610517011 0 0.12817088130983889 0.317450689473041 0 0.13528824775885559 0.3155805734405937 0 0.1330765722643745 0.32249408610517011 0 0.12817088130983889 0.317450689473041 0 0.1214195525311879 0.31440901896845502 0 0.12900107104525951 0.30968741412501871 0 0.12817088130983889 0.317450689473041 0 0.12900107104525951 0.30968741412501871 0 0.13528824775885559 0.3155805734405937 0 0.12817088130983889 0.317450689473041 0 0.14537830609435001 0.34101383565047871 0 0.13654253772275141 0.33890423694427602 0 0.13685475473781181 0.34959577292381833 0 0.13654253772275141 0.33890423694427602 0 0.1260676383484185 0.3399282146226113 0 0.13685475473781181 0.34959577292381833 0 0.1427633336259623 0.33140140495610498 0 0.13654253772275141 0.33890423694427602 0 0.13309473665224339 0.33072661256584468 0 0.1427633336259623 0.33140140495610498 0 0.1402378637359267 0.32270884290342983 0 0.13309473665224339 0.33072661256584468 0 0.12375204985912221 0.32702725796552912 0 0.13309473665224339 0.33072661256584468 0 0.1260676383484185 0.3399282146226113 0 0.13654253772275141 0.33890423694427602 0 0.13309473665224339 0.33072661256584468 0 0.1260676383484185 0.3399282146226113 0 0.1232256624926347 0.35239419723674059 0 0.13685475473781181 0.34959577292381833 0 0.13271547193899449 0.36524458735671972 0 0.1232256624926347 0.35239419723674059 0 0.1260676383484185 0.3399282146226113 0 0.13685475473781181 0.34959577292381833 0 0.13685475473781181 0.34959577292381833 0 0.13271547193899449 0.36524458735671972 0 0.14990537096685039 0.36070173528474042 0 0.13271547193899449 0.36524458735671972 0 0.14727668153694909 0.37350977329143831 0 0.1384203385310763 0.3853027474406937 0 0.13271547193899449 0.36524458735671972 0 0.14727668153694909 0.37350977329143831 0 0.14990537096685039 0.36070173528474042 0 0.15975417249048229 0.36968310563447321 0 0.14727668153694909 0.37350977329143831 0 0.14990537096685039 0.36070173528474042 0 0.14537830609435001 0.34101383565047871 0 0.13685475473781181 0.34959577292381833 0 0.15416632756111201 0.34898696826244741 0 0.13685475473781181 0.34959577292381833 0 0.14990537096685039 0.36070173528474042 0 0.15416632756111201 0.34898696826244741 0 0.15196678808574959 0.39634912392256672 0 0.1402717845598023 0.40641241395674649 0 0.16129649351817349 0.40676751558544272 0 0.15196678808574959 0.39634912392256672 0 0.1384203385310763 0.3853027474406937 0 0.1402717845598023 0.40641241395674649 0 0.15196678808574959 0.39634912392256672 0 0.15611970777082879 0.38410855928095938 0 0.1384203385310763 0.3853027474406937 0 0.14727668153694909 0.37350977329143831 0 0.15611970777082879 0.38410855928095938 0 0.1384203385310763 0.3853027474406937 0 0.15975417249048229 0.36968310563447321 0 0.14727668153694909 0.37350977329143831 0 0.15611970777082879 0.38410855928095938 0 0.1231373165426977 0.3806134049577457 0 0.13271547193899449 0.36524458735671972 0 0.1384203385310763 0.3853027474406937 0 0.1231373165426977 0.3806134049577457 0 0.1384203385310763 0.3853027474406937 0 0.1271742827044339 0.39597619803598749 0 0.1384203385310763 0.3853027474406937 0 0.1271742827044339 0.39597619803598749 0 0.1402717845598023 0.40641241395674649 0 0.1162621503634904 0.41872732341568758 0 0.1271742827044339 0.39597619803598749 0 0.1402717845598023 0.40641241395674649 0 0.1162621503634904 0.41872732341568758 0 0.1402717845598023 0.40641241395674649 0 0.14380353536204241 0.43078456768362461 0 0.1162621503634904 0.41872732341568758 0 0.14380353536204241 0.43078456768362461 0 0.1205619018159948 0.44674810255646558 0 0.1162621503634904 0.41872732341568758 0 0.13914808732176639 0.43525501877606959 0 0.1162621503634904 0.41872732341568758 0 0.13914808732176639 0.43525501877606959 0 0.14380353536204241 0.43078456768362461 0 0.1402717845598023 0.40641241395674649 0 0.16129649351817349 0.40676751558544272 0 0.1583102357697074 0.42239552662274649 0 0.1402717845598023 0.40641241395674649 0 0.14380353536204241 0.43078456768362461 0 0.1583102357697074 0.42239552662274649 0 0.16129649351817349 0.40676751558544272 0 0.17483444504792359 0.42517132393635743 0 0.1767108048052333 0.40648620419478521 0 0.16129649351817349 0.40676751558544272 0 0.1583102357697074 0.42239552662274649 0 0.17483444504792359 0.42517132393635743 0 0.1583102357697074 0.42239552662274649 0 0.17483444504792359 0.42517132393635743 0 0.1713449203605947 0.44284181195156158 0 0.14380353536204241 0.43078456768362461 0 0.1713449203605947 0.44284181195156158 0 0.14380353536204241 0.43078456768362461 0 0.1583102357697074 0.42239552662274649 0 0.1713449203605947 0.44284181195156158 0 0.17483444504792359 0.42517132393635743 0 0.18216746451451801 0.43740730714955978 0 0.1713449203605947 0.44284181195156158 0 0.17483444504792359 0.42517132393635743 0 0.1713449203605947 0.44284181195156158 0 0.17483444504792359 0.42517132393635743 0 0.1894098998784805 0.41329321868770491 0 0.19020123220431809 0.42989189963497759 0 0.17483444504792359 0.42517132393635743 0 0.18216746451451801 0.43740730714955978 0 0.19020123220431809 0.42989189963497759 0 0.17483444504792359 0.42517132393635743 0 0.1767108048052333 0.40648620419478521 0 0.1894098998784805 0.41329321868770491 0 0.1767108048052333 0.40648620419478521 0 0.16971698500113649 0.39319336099264368 0 0.18829620058045249 0.39400560177177729 0 0.1767108048052333 0.40648620419478521 0 0.18829620058045249 0.39400560177177729 0 0.1894098998784805 0.41329321868770491 0 0.15196678808574959 0.39634912392256672 0 0.15611970777082879 0.38410855928095938 0 0.16971698500113649 0.39319336099264368 0 0.15196678808574959 0.39634912392256672 0 0.16129649351817349 0.40676751558544272 0 0.16971698500113649 0.39319336099264368 0 0.16129649351817349 0.40676751558544272 0 0.1767108048052333 0.40648620419478521 0 0.16971698500113649 0.39319336099264368 0 0.17637045729064621 0.37495278481954358 0 0.15975417249048229 0.36968310563447321 0 0.15611970777082879 0.38410855928095938 0 0.17637045729064621 0.37495278481954358 0 0.15611970777082879 0.38410855928095938 0 0.16971698500113649 0.39319336099264368 0 0.17637045729064621 0.37495278481954358 0 0.16971698500113649 0.39319336099264368 0 0.18829620058045249 0.39400560177177729 0 0.20200890290724041 0.36500873302905812 0 0.18829620058045249 0.39400560177177729 0 0.21022739730807871 0.38998636848418261 0 0.20200890290724041 0.36500873302905812 0 0.17637045729064621 0.37495278481954358 0 0.18829620058045249 0.39400560177177729 0 0.18829620058045249 0.39400560177177729 0 0.21022739730807871 0.38998636848418261 0 0.20498907662426999 0.40636669370009521 0 0.18829620058045249 0.39400560177177729 0 0.20498907662426999 0.40636669370009521 0 0.1894098998784805 0.41329321868770491 0 0.21022739730807871 0.38998636848418261 0 0.225418264115859 0.4045632601918206 0 0.20498907662426999 0.40636669370009521 0 0.20200890290724041 0.36500873302905812 0 0.21022739730807871 0.38998636848418261 0 0.22860253219506471 0.37841014948266538 0 0.21022739730807871 0.38998636848418261 0 0.22860253219506471 0.37841014948266538 0 0.225418264115859 0.4045632601918206 0 0.225418264115859 0.4045632601918206 0 0.2490748840761759 0.41447913741323361 0 0.25519616148288887 0.39181156593627298 0 0.22860253219506471 0.37841014948266538 0 0.225418264115859 0.4045632601918206 0 0.25519616148288887 0.39181156593627298 0 0.22860253219506471 0.37841014948266538 0 0.25519616148288887 0.39181156593627298 0 0.24305895760768401 0.36641304215893011 0 0.22860253219506471 0.37841014948266538 0 0.25519616148288887 0.39181156593627298 0 0.2490748840761759 0.41447913741323361 0 0.23040520055063371 0.42472223384156732 0 0.24517769652138269 0.43868647355565088 0 0.225418264115859 0.4045632601918206 0 0.2490748840761759 0.41447913741323361 0 0.23040520055063371 0.42472223384156732 0 0.225418264115859 0.4045632601918206 0 0.23040520055063371 0.42472223384156732 0 0.20794960100346549 0.42683021087399747 0 0.23040520055063371 0.42472223384156732 0 0.20794960100346549 0.42683021087399747 0 0.2229924843016429 0.43948176305630821 0 0.23040520055063371 0.42472223384156732 0 0.2229924843016429 0.43948176305630821 0 0.24517769652138269 0.43868647355565088 0 0.225418264115859 0.4045632601918206 0 0.20794960100346549 0.42683021087399747 0 0.20498907662426999 0.40636669370009521 0 0.20794960100346549 0.42683021087399747 0 0.20498907662426999 0.40636669370009521 0 0.1894098998784805 0.41329321868770491 0 0.20794960100346549 0.42683021087399747 0 0.19020123220431809 0.42989189963497759 0 0.19426067079655579 0.44330707928475449 0 0.20794960100346549 0.42683021087399747 0 0.1894098998784805 0.41329321868770491 0 0.19020123220431809 0.42989189963497759 0 0.18216746451451801 0.43740730714955978 0 0.19020123220431809 0.42989189963497759 0 0.19426067079655579 0.44330707928475449 0 0.19426067079655579 0.44330707928475449 0 0.1940681668251448 0.45640187690020761 0 0.18254949088188149 0.4477470207382499 0 0.19426067079655579 0.44330707928475449 0 0.1940681668251448 0.45640187690020761 0 0.20814429074563079 0.44944136850783811 0 0.1940681668251448 0.45640187690020761 0 0.20814429074563079 0.44944136850783811 0 0.2039949308663013 0.472197178379127 0 0.1940681668251448 0.45640187690020761 0 0.2039949308663013 0.472197178379127 0 0.18608081776579821 0.46867989557539208 0 0.1940681668251448 0.45640187690020761 0 0.18608081776579821 0.46867989557539208 0 0.18254949088188149 0.4477470207382499 0 0.20814429074563079 0.44944136850783811 0 0.22852149564367849 0.45772005811557609 0 0.2039949308663013 0.472197178379127 0 0.20794960100346549 0.42683021087399747 0 0.19426067079655579 0.44330707928475449 0 0.20814429074563079 0.44944136850783811 0 0.20794960100346549 0.42683021087399747 0 0.20814429074563079 0.44944136850783811 0 0.2229924843016429 0.43948176305630821 0 0.2229924843016429 0.43948176305630821 0 0.22852149564367849 0.45772005811557609 0 0.24517769652138269 0.43868647355565088 0 0.20814429074563079 0.44944136850783811 0 0.2229924843016429 0.43948176305630821 0 0.22852149564367849 0.45772005811557609 0 0.22852149564367849 0.45772005811557609 0 0.2480713074063006 0.45455858161591112 0 0.2508124586903176 0.47172026355836871 0 0.22852149564367849 0.45772005811557609 0 0.2480713074063006 0.45455858161591112 0 0.24517769652138269 0.43868647355565088 0 0.24658834009167641 0.5 0 0.2268462464291012 0.47913099520174052 0 0.2508124586903176 0.47172026355836871 0 0.22852149564367849 0.45772005811557609 0 0.2268462464291012 0.47913099520174052 0 0.2508124586903176 0.47172026355836871 0 0.22852149564367849 0.45772005811557609 0 0.2268462464291012 0.47913099520174052 0 0.2039949308663013 0.472197178379127 0 0.24658834009167641 0.5 0 0.2268462464291012 0.47913099520174052 0 0.21774471386125249 0.5 0 0.2039949308663013 0.472197178379127 0 0.18890108763082861 0.5 0 0.18608081776579821 0.46867989557539208 0 0.21774471386125249 0.5 0 0.2039949308663013 0.472197178379127 0 0.18890108763082861 0.5 0 0.2268462464291012 0.47913099520174052 0 0.21774471386125249 0.5 0 0.2039949308663013 0.472197178379127 0 0.18890108763082861 0.5 0 0.16570119088049859 0.47142090597577962 0 0.18608081776579821 0.46867989557539208 0 0.18890108763082861 0.5 0 0.1600574614004048 0.499999999999998 0 0.16570119088049859 0.47142090597577962 0 0.1600574614004048 0.499999999999998 0 0.16570119088049859 0.47142090597577962 0 0.1600574614004048 0.499999999999998 0 0.16570119088049859 0.47142090597577962 0 0.1473140710794911 0.47841155746419622 0 0.16570119088049859 0.47142090597577962 0 0.18608081776579821 0.46867989557539208 0 0.18254949088188149 0.4477470207382499 0 0.16570119088049859 0.47142090597577962 0 0.18254949088188149 0.4477470207382499 0 0.1713449203605947 0.44284181195156158 0 0.18216746451451801 0.43740730714955978 0 0.19426067079655579 0.44330707928475449 0 0.18254949088188149 0.4477470207382499 0 0.18254949088188149 0.4477470207382499 0 0.1713449203605947 0.44284181195156158 0 0.18216746451451801 0.43740730714955978 0 0.18254949088188149 0.4477470207382499 0 0.1713449203605947 0.44284181195156158 0 0.16570119088049859 0.47142090597577962 0 0.1713449203605947 0.44284181195156158 0 0.16570119088049859 0.47142090597577962 0 0.1713449203605947 0.44284181195156158 0 0.15076126992746861 0.45128164001408699 0 0.16570119088049859 0.47142090597577962 0 0.14979107830043681 0.4659705410046826 0 0.15076126992746861 0.45128164001408699 0 0.14979107830043681 0.4659705410046826 0 0.15076126992746861 0.45128164001408699 0 0.13538778131428869 0.46276806056466779 0 0.13914808732176639 0.43525501877606959 0 0.14380353536204241 0.43078456768362461 0 0.15076126992746861 0.45128164001408699 0 0.14380353536204241 0.43078456768362461 0 0.1713449203605947 0.44284181195156158 0 0.15076126992746861 0.45128164001408699 0 0.13914808732176639 0.43525501877606959 0 0.15076126992746861 0.45128164001408699 0 0.13538778131428869 0.46276806056466779 0 0.13914808732176639 0.43525501877606959 0 0.13538778131428869 0.46276806056466779 0 0.1205619018159948 0.44674810255646558 0 0.13914808732176639 0.43525501877606959 0 0.13538778131428869 0.46276806056466779 0 0.1248616532684987 0.47476888169724352 0 0.1205619018159948 0.44674810255646558 0 0.13538778131428869 0.46276806056466779 0 0.13538778131428869 0.46276806056466779 0 0.13162747530681079 0.49028110235326611 0 0.1248616532684987 0.47476888169724352 0 0.13538778131428869 0.46276806056466779 0 0.13162747530681079 0.49028110235326611 0 0.13538778131428869 0.46276806056466779 0 0.13162747530681079 0.49028110235326611 0 0.1473140710794911 0.47841155746419622 0 0.1248616532684987 0.47476888169724352 0 0.13162747530681079 0.49028110235326611 0 0.1248616532684987 0.47476888169724352 0 0.1287333349596296 0.50000000000000233 0 0.1248616532684987 0.47476888169724352 0 0.13162747530681079 0.49028110235326611 0 0.1287333349596296 0.50000000000000233 0 0.13162747530681079 0.49028110235326611 0 0.1302991587401483 0.50000000000000044 0 0.13162747530681079 0.49028110235326611 0 0.1302991587401483 0.50000000000000044 0 0.13586647714571501 0.50000000000000044 0 0.13162747530681079 0.49028110235326611 0 0.1287333349596296 0.50000000000000233 0 0.1302991587401483 0.50000000000000044 0 0.13162747530681079 0.49028110235326611 0 0.13586647714571501 0.50000000000000044 0 0.14406777576738011 0.49099847585001533 0 0.13162747530681079 0.49028110235326611 0 0.13586647714571501 0.50000000000000044 0 0.1600574614004048 0.499999999999998 0 0.13586647714571501 0.50000000000000044 0 0.14406777576738011 0.49099847585001533 0 0.1600574614004048 0.499999999999998 0 0.14406777576738011 0.49099847585001533 0 0.1473140710794911 0.47841155746419622 0 0.13162747530681079 0.49028110235326611 0 0.14406777576738011 0.49099847585001533 0 0.1473140710794911 0.47841155746419622 0 0.16570119088049859 0.47142090597577962 0 0.14979107830043681 0.4659705410046826 0 0.1473140710794911 0.47841155746419622 0 0.14979107830043681 0.4659705410046826 0 0.13538778131428869 0.46276806056466779 0 0.1473140710794911 0.47841155746419622 0 0.3484716028812469 0.46927922019571022 0 0.3639431844790027 0.47792576209206161 0 0.36215729707138089 0.45952194433731441 0 0.3484716028812469 0.46927922019571022 0 0.34825454286986979 0.4866410253547736 0 0.3639431844790027 0.47792576209206161 0 0.34825454286986979 0.4866410253547736 0 0.36196284501337178 0.5 0 0.3639431844790027 0.47792576209206161 0 0.34825454286986979 0.4866410253547736 0 0.36196284501337178 0.5 0 0.33311921878294798 0.5 0 0.36196284501337178 0.5 0 0.3639431844790027 0.47792576209206161 0 0.38120033573297152 0.48442634992442057 0 0.3639431844790027 0.47792576209206161 0 0.37844435483634198 0.4675903904274426 0 0.38120033573297152 0.48442634992442057 0 0.3639431844790027 0.47792576209206161 0 0.36215729707138089 0.45952194433731441 0 0.37844435483634198 0.4675903904274426 0 0.36215729707138089 0.45952194433731441 0 0.37809165231809289 0.44568724501072521 0 0.37844435483634198 0.4675903904274426 0 0.36215729707138089 0.45952194433731441 0 0.35494335133579169 0.44207750056399991 0 0.37809165231809289 0.44568724501072521 0 0.35494335133579169 0.44207750056399991 0 0.365542703577178 0.42914551292816783 0 0.37809165231809289 0.44568724501072521 0 0.35494335133579169 0.44207750056399991 0 0.33746945485668051 0.4332718215327816 0 0.35494335133579169 0.44207750056399991 0 0.33933393763431879 0.44574212964051668 0 0.33746945485668051 0.4332718215327816 0 0.36215729707138089 0.45952194433731441 0 0.35494335133579169 0.44207750056399991 0 0.34904963657780902 0.45457154773394731 0 0.35494335133579169 0.44207750056399991 0 0.34904963657780902 0.45457154773394731 0 0.33933393763431879 0.44574212964051668 0 0.3484716028812469 0.46927922019571022 0 0.36215729707138089 0.45952194433731441 0 0.34904963657780902 0.45457154773394731 0 0.3484716028812469 0.46927922019571022 0 0.34904963657780902 0.45457154773394731 0 0.33768006752307722 0.45817683321967928 0 0.33768006752307722 0.45817683321967928 0 0.32516604183334019 0.44948070643492349 0 0.3263791186886712 0.4718105620932988 0 0.3484716028812469 0.46927922019571022 0 0.33768006752307722 0.45817683321967928 0 0.3263791186886712 0.4718105620932988 0 0.33933393763431879 0.44574212964051668 0 0.32516604183334019 0.44948070643492349 0 0.33457771181584611 0.43369686048393857 0 0.32516604183334019 0.44948070643492349 0 0.33457771181584611 0.43369686048393857 0 0.33933393763431879 0.44574212964051668 0 0.33457771181584611 0.43369686048393857 0 0.33746945485668051 0.4332718215327816 0 0.34904963657780902 0.45457154773394731 0 0.33768006752307722 0.45817683321967928 0 0.33933393763431879 0.44574212964051668 0 0.33768006752307722 0.45817683321967928 0 0.33933393763431879 0.44574212964051668 0 0.32516604183334019 0.44948070643492349 0 0.32516604183334019 0.44948070643492349 0 0.30610823095482448 0.43788140873538328 0 0.33457771181584611 0.43369686048393857 0 0.32516604183334019 0.44948070643492349 0 0.30909376894118562 0.45443190325323968 0 0.30610823095482448 0.43788140873538328 0 0.32516604183334019 0.44948070643492349 0 0.3263791186886712 0.4718105620932988 0 0.30909376894118562 0.45443190325323968 0 0.3263791186886712 0.4718105620932988 0 0.30059931196992168 0.47005809262963882 0 0.31153103284441203 0.48323920778459489 0 0.3484716028812469 0.46927922019571022 0 0.34825454286986979 0.4866410253547736 0 0.3263791186886712 0.4718105620932988 0 0.34825454286986979 0.4866410253547736 0 0.3263791186886712 0.4718105620932988 0 0.33311921878294798 0.5 0 0.3263791186886712 0.4718105620932988 0 0.33311921878294798 0.5 0 0.31153103284441203 0.48323920778459489 0 0.33311921878294798 0.5 0 0.30427559255252412 0.5 0 0.31153103284441203 0.48323920778459489 0 0.30427559255252412 0.5 0 0.31153103284441203 0.48323920778459489 0 0.29110307967174748 0.48580921065493432 0 0.30059931196992168 0.47005809262963882 0 0.31153103284441203 0.48323920778459489 0 0.29110307967174748 0.48580921065493432 0 0.30059931196992168 0.47005809262963882 0 0.29110307967174748 0.48580921065493432 0 0.27585954767988607 0.47408041721782612 0 0.30427559255252412 0.5 0 0.29110307967174748 0.48580921065493432 0 0.27543196632210021 0.5 0 0.27543196632210021 0.5 0 0.27585954767988607 0.47408041721782612 0 0.26198527678341299 0.48673919500437729 0 0.29110307967174748 0.48580921065493432 0 0.27543196632210021 0.5 0 0.27585954767988607 0.47408041721782612 0 0.27585954767988607 0.47408041721782612 0 0.2508124586903176 0.47172026355836871 0 0.26198527678341299 0.48673919500437729 0 0.24658834009167641 0.5 0 0.2508124586903176 0.47172026355836871 0 0.26198527678341299 0.48673919500437729 0 0.24658834009167641 0.5 0 0.27543196632210021 0.5 0 0.26198527678341299 0.48673919500437729 0 0.2480713074063006 0.45455858161591112 0 0.24517769652138269 0.43868647355565088 0 0.26777357876982372 0.45010753123404867 0 0.24517769652138269 0.43868647355565088 0 0.26777357876982372 0.45010753123404867 0 0.26600993858745892 0.42808938636359573 0 0.2480713074063006 0.45455858161591112 0 0.2508124586903176 0.47172026355836871 0 0.26777357876982372 0.45010753123404867 0 0.27585954767988607 0.47408041721782612 0 0.2508124586903176 0.47172026355836871 0 0.26777357876982372 0.45010753123404867 0 0.27585954767988607 0.47408041721782612 0 0.26777357876982372 0.45010753123404867 0 0.28975077836376328 0.45156795454144122 0 0.26777357876982372 0.45010753123404867 0 0.28975077836376328 0.45156795454144122 0 0.28607917402868899 0.43188291486824332 0 0.28975077836376328 0.45156795454144122 0 0.30610823095482448 0.43788140873538328 0 0.28607917402868899 0.43188291486824332 0 0.30059931196992168 0.47005809262963882 0 0.27585954767988607 0.47408041721782612 0 0.28975077836376328 0.45156795454144122 0 0.3263791186886712 0.4718105620932988 0 0.30059931196992168 0.47005809262963882 0 0.30909376894118562 0.45443190325323968 0 0.30059931196992168 0.47005809262963882 0 0.28975077836376328 0.45156795454144122 0 0.30909376894118562 0.45443190325323968 0 0.28975077836376328 0.45156795454144122 0 0.30909376894118562 0.45443190325323968 0 0.30610823095482448 0.43788140873538328 0 0.30610823095482448 0.43788140873538328 0 0.30869255759955722 0.41877018355733042 0 0.28607917402868899 0.43188291486824332 0 0.3075810200549029 0.4073564129674252 0 0.30869255759955722 0.41877018355733042 0 0.30232024370737348 0.40459188745546998 0 0.31142364564813352 0.41093370315849659 0 0.3075810200549029 0.4073564129674252 0 0.31015955469665918 0.40201373970895371 0 0.31142364564813352 0.41093370315849659 0 0.3075810200549029 0.4073564129674252 0 0.30869255759955722 0.41877018355733042 0 0.30869255759955722 0.41877018355733042 0 0.29605666041485018 0.40551048050067168 0 0.30232024370737348 0.40459188745546998 0 0.30869255759955722 0.41877018355733042 0 0.2819443595412231 0.40529087474680159 0 0.30869255759955722 0.41877018355733042 0 0.2819443595412231 0.40529087474680159 0 0.29605666041485018 0.40551048050067168 0 0.30869255759955722 0.41877018355733042 0 0.28607917402868899 0.43188291486824332 0 0.2819443595412231 0.40529087474680159 0 0.2490748840761759 0.41447913741323361 0 0.26600993858745892 0.42808938636359573 0 0.2819443595412231 0.40529087474680159 0 0.26777357876982372 0.45010753123404867 0 0.28607917402868899 0.43188291486824332 0 0.26600993858745892 0.42808938636359573 0 0.28607917402868899 0.43188291486824332 0 0.26600993858745892 0.42808938636359573 0 0.2819443595412231 0.40529087474680159 0 0.2490748840761759 0.41447913741323361 0 0.24517769652138269 0.43868647355565088 0 0.26600993858745892 0.42808938636359573 0 0.2490748840761759 0.41447913741323361 0 0.25519616148288887 0.39181156593627298 0 0.2819443595412231 0.40529087474680159 0 0.25519616148288887 0.39181156593627298 0 0.2618259464583832 0.36726095095448358 0 0.25519616148288887 0.39181156593627298 0 0.27405714121884811 0.38409687161834088 0 0.2618259464583832 0.36726095095448358 0 0.24305895760768401 0.36641304215893011 0 0.25519616148288887 0.39181156593627298 0 0.2618259464583832 0.36726095095448358 0 0.2490748840761759 0.41447913741323361 0 0.25519616148288887 0.39181156593627298 0 0.27405714121884811 0.38409687161834088 0 0.2819443595412231 0.40529087474680159 0 0.28762179706039948 0.39125587461843808 0 0.25519616148288887 0.39181156593627298 0 0.2819443595412231 0.40529087474680159 0 0.25519616148288887 0.39181156593627298 0 0.27405714121884811 0.38409687161834088 0 0.2819443595412231 0.40529087474680159 0 0.27405714121884811 0.38409687161834088 0 0.28403056220722062 0.37531448917755911 0 0.2737626695690904 0.37327007608818358 0 0.27405714121884811 0.38409687161834088 0 0.28403056220722062 0.37531448917755911 0 0.28762179706039948 0.39125587461843808 0 0.29405085274881382 0.37834813740539031 0 0.28762179706039948 0.39125587461843808 0 0.30049862001061489 0.39881078008944609 0 0.28403056220722062 0.37531448917755911 0 0.29405085274881382 0.37834813740539031 0 0.28762179706039948 0.39125587461843808 0 0.2819443595412231 0.40529087474680159 0 0.28762179706039948 0.39125587461843808 0 0.29316512877403511 0.40022580951085568 0 0.28762179706039948 0.39125587461843808 0 0.29316512877403511 0.40022580951085568 0 0.30049862001061489 0.39881078008944609 0 0.2819443595412231 0.40529087474680159 0 0.29316512877403511 0.40022580951085568 0 0.29605666041485018 0.40551048050067168 0 0.29316512877403511 0.40022580951085568 0 0.29605666041485018 0.40551048050067168 0 0.30042223720462058 0.4004666581126537 0 0.29605666041485018 0.40551048050067168 0 0.30232024370737348 0.40459188745546998 0 0.30042223720462058 0.4004666581126537 0 0.29316512877403511 0.40022580951085568 0 0.30042223720462058 0.4004666581126537 0 0.30049862001061489 0.39881078008944609 0 0.30042223720462058 0.4004666581126537 0 0.30049862001061489 0.39881078008944609 0 0.30232024370737348 0.40459188745546998 0 0.30049862001061489 0.39881078008944609 0 0.30232024370737348 0.40459188745546998 0 0.30049862001061489 0.39881078008944609 0 0.30430913302558388 0.40020258685778032 0 0.30232024370737348 0.40459188745546998 0 0.30042223720462058 0.4004666581126537 0 0.30049862001061489 0.39881078008944609 0 0.30049862001061489 0.39881078008944609 0 0.30098622665836988 0.38824011406760628 0 0.30049862001061489 0.39881078008944609 0 0.30430913302558388 0.40020258685778032 0 0.30098622665836988 0.38824011406760628 0 0.30098622665836988 0.38824011406760628 0 0.30110064445947421 0.38575968774854158 0 0.31262554991773928 0.39787599139405988 0 0.31015955469665918 0.40201373970895371 0 0.30098622665836988 0.38824011406760628 0 0.30110064445947421 0.38575968774854158 0 0.31262554991773928 0.39787599139405988 0 0.30430913302558388 0.40020258685778032 0 0.31015955469665918 0.40201373970895371 0 0.30098622665836988 0.38824011406760628 0 0.31015955469665918 0.40201373970895371 0 0.30098622665836988 0.38824011406760628 0 0.31262554991773928 0.39787599139405988 0 0.3075810200549029 0.4073564129674252 0 0.30232024370737348 0.40459188745546998 0 0.30430913302558388 0.40020258685778032 0 0.3075810200549029 0.4073564129674252 0 0.30430913302558388 0.40020258685778032 0 0.31015955469665918 0.40201373970895371 0 0.29405085274881382 0.37834813740539031 0 0.30049862001061489 0.39881078008944609 0 0.29405085274881382 0.37834813740539031 0 0.30049862001061489 0.39881078008944609 0 0.30098622665836988 0.38824011406760628 0 0.30110064445947421 0.38575968774854158 0 0.30177514978199971 0.3711373061071076 0 0.30110064445947421 0.38575968774854158 0 0.3104817065657739 0.3858680532317833 0 0.30177514978199971 0.3711373061071076 0 0.29405085274881382 0.37834813740539031 0 0.30110064445947421 0.38575968774854158 0 0.30177514978199971 0.3711373061071076 0 0.29405085274881382 0.37834813740539031 0 0.30110064445947421 0.38575968774854158 0 0.29405085274881382 0.37834813740539031 0 0.30098622665836988 0.38824011406760628 0 0.30110064445947421 0.38575968774854158 0 0.29405085274881382 0.37834813740539031 0 0.30098622665836988 0.38824011406760628 0 0.30098622665836988 0.38824011406760628 0 0.30110064445947421 0.38575968774854158 0 0.30110064445947421 0.38575968774854158 0 0.3104817065657739 0.3858680532317833 0 0.31262554991773928 0.39787599139405988 0 0.3104817065657739 0.3858680532317833 0 0.30177514978199971 0.3711373061071076 0 0.3104817065657739 0.3858680532317833 0 0.31717345926189522 0.3709258031848055 0 0.30177514978199971 0.3711373061071076 0 0.3104817065657739 0.3858680532317833 0 0.3376156911696272 0.37620073599141618 0 0.3104817065657739 0.3858680532317833 0 0.3376156911696272 0.37620073599141618 0 0.31717345926189522 0.3709258031848055 0 0.3104817065657739 0.3858680532317833 0 0.3376156911696272 0.37620073599141618 0 0.3351802944883514 0.39738750443412002 0 0.3376156911696272 0.37620073599141618 0 0.3351802944883514 0.39738750443412002 0 0.34879159400795012 0.38769315231290841 0 0.3351802944883514 0.39738750443412002 0 0.33658962428999861 0.41133204962483783 0 0.34988972217452752 0.40801784569160632 0 0.3351802944883514 0.39738750443412002 0 0.32415045537600512 0.40999229503957763 0 0.33658962428999861 0.41133204962483783 0 0.3351802944883514 0.39738750443412002 0 0.31909953512109351 0.40044867980609039 0 0.32415045537600512 0.40999229503957763 0 0.3104817065657739 0.3858680532317833 0 0.3351802944883514 0.39738750443412002 0 0.31909953512109351 0.40044867980609039 0 0.3104817065657739 0.3858680532317833 0 0.31909953512109351 0.40044867980609039 0 0.3104817065657739 0.3858680532317833 0 0.31262554991773928 0.39787599139405988 0 0.31909953512109351 0.40044867980609039 0 0.31262554991773928 0.39787599139405988 0 0.32415045537600512 0.40999229503957763 0 0.31015955469665918 0.40201373970895371 0 0.31262554991773928 0.39787599139405988 0 0.32415045537600512 0.40999229503957763 0 0.31262554991773928 0.39787599139405988 0 0.31909953512109351 0.40044867980609039 0 0.32415045537600512 0.40999229503957763 0 0.31015955469665918 0.40201373970895371 0 0.31933288273494848 0.41578736535030097 0 0.32415045537600512 0.40999229503957763 0 0.31142364564813352 0.41093370315849659 0 0.31015955469665918 0.40201373970895371 0 0.31933288273494848 0.41578736535030097 0 0.30869255759955722 0.41877018355733042 0 0.31933288273494848 0.41578736535030097 0 0.32906281765607392 0.42006619542527468 0 0.31015955469665918 0.40201373970895371 0 0.31933288273494848 0.41578736535030097 0 0.31142364564813352 0.41093370315849659 0 0.30869255759955722 0.41877018355733042 0 0.31933288273494848 0.41578736535030097 0 0.31933288273494848 0.41578736535030097 0 0.32415045537600512 0.40999229503957763 0 0.32906281765607392 0.42006619542527468 0 0.30869255759955722 0.41877018355733042 0 0.33457771181584611 0.43369686048393857 0 0.33544075565789128 0.43224949236785898 0 0.30869255759955722 0.41877018355733042 0 0.33544075565789128 0.43224949236785898 0 0.30610823095482448 0.43788140873538328 0 0.30869255759955722 0.41877018355733042 0 0.33457771181584611 0.43369686048393857 0 0.30869255759955722 0.41877018355733042 0 0.33544075565789128 0.43224949236785898 0 0.32906281765607392 0.42006619542527468 0 0.30610823095482448 0.43788140873538328 0 0.33457771181584611 0.43369686048393857 0 0.33457771181584611 0.43369686048393857 0 0.33544075565789128 0.43224949236785898 0 0.33746945485668051 0.4332718215327816 0 0.33457771181584611 0.43369686048393857 0 0.33544075565789128 0.43224949236785898 0 0.33544075565789128 0.43224949236785898 0 0.33746945485668051 0.4332718215327816 0 0.35001853239939229 0.42365555934674631 0 0.33544075565789128 0.43224949236785898 0 0.33746945485668051 0.4332718215327816 0 0.33457771181584611 0.43369686048393857 0 0.33746945485668051 0.4332718215327816 0 0.33544075565789128 0.43224949236785898 0 0.33658962428999861 0.41133204962483783 0 0.34988972217452752 0.40801784569160632 0 0.33544075565789128 0.43224949236785898 0 0.32906281765607392 0.42006619542527468 0 0.33658962428999861 0.41133204962483783 0 0.33544075565789128 0.43224949236785898 0 0.34988972217452752 0.40801784569160632 0 0.32415045537600512 0.40999229503957763 0 0.32906281765607392 0.42006619542527468 0 0.33658962428999861 0.41133204962483783 0 0.33544075565789128 0.43224949236785898 0 0.34988972217452752 0.40801784569160632 0 0.35001853239939229 0.42365555934674631 0 0.34988972217452752 0.40801784569160632 0 0.36165970526353591 0.41519797525725338 0 0.36412400085156282 0.39702719229323191 0 0.34988972217452752 0.40801784569160632 0 0.35001853239939229 0.42365555934674631 0 0.36165970526353591 0.41519797525725338 0 0.35494335133579169 0.44207750056399991 0 0.33746945485668051 0.4332718215327816 0 0.365542703577178 0.42914551292816783 0 0.33746945485668051 0.4332718215327816 0 0.35001853239939229 0.42365555934674631 0 0.365542703577178 0.42914551292816783 0 0.33746945485668051 0.4332718215327816 0 0.365542703577178 0.42914551292816783 0 0.35001853239939229 0.42365555934674631 0 0.365542703577178 0.42914551292816783 0 0.36165970526353591 0.41519797525725338 0 0.365542703577178 0.42914551292816783 0 0.36165970526353591 0.41519797525725338 0 0.37744029411777058 0.41252948965876268 0 0.36165970526353591 0.41519797525725338 0 0.36412400085156282 0.39702719229323191 0 0.37744029411777058 0.41252948965876268 0 0.36412400085156282 0.39702719229323191 0 0.38026367080056678 0.39066664182047522 0 0.37744029411777058 0.41252948965876268 0 0.34988972217452752 0.40801784569160632 0 0.36412400085156282 0.39702719229323191 0 0.36433868869116592 0.38378619901535488 0 0.36433868869116592 0.38378619901535488 0 0.3773824667175657 0.37546563606013739 0 0.38026367080056678 0.39066664182047522 0 0.36433868869116592 0.38378619901535488 0 0.36474967577348072 0.36653341875104961 0 0.3773824667175657 0.37546563606013739 0 0.36412400085156282 0.39702719229323191 0 0.36433868869116592 0.38378619901535488 0 0.38026367080056678 0.39066664182047522 0 0.36433868869116592 0.38378619901535488 0 0.36474967577348072 0.36653341875104961 0 0.36412400085156282 0.39702719229323191 0 0.36433868869116592 0.38378619901535488 0 0.3376156911696272 0.37620073599141618 0 0.34879159400795012 0.38769315231290841 0 0.36474967577348072 0.36653341875104961 0 0.36433868869116592 0.38378619901535488 0 0.34879159400795012 0.38769315231290841 0 0.36474967577348072 0.36653341875104961 0 0.3351802944883514 0.39738750443412002 0 0.34988972217452752 0.40801784569160632 0 0.34879159400795012 0.38769315231290841 0 0.34988972217452752 0.40801784569160632 0 0.36433868869116592 0.38378619901535488 0 0.34988972217452752 0.40801784569160632 0 0.36433868869116592 0.38378619901535488 0 0.34879159400795012 0.38769315231290841 0 0.34699100967064078 0.35539672769273539 0 0.36474967577348072 0.36653341875104961 0 0.36518945593320651 0.34509967395937191 0 0.34699100967064078 0.35539672769273539 0 0.36518945593320651 0.34509967395937191 0 0.348137396692076 0.34077307725183559 0 0.3376156911696272 0.37620073599141618 0 0.34699100967064078 0.35539672769273539 0 0.36474967577348072 0.36653341875104961 0 0.3376156911696272 0.37620073599141618 0 0.36474967577348072 0.36653341875104961 0 0.36474967577348072 0.36653341875104961 0 0.36518945593320651 0.34509967395937191 0 0.36474967577348072 0.36653341875104961 0 0.36518945593320651 0.34509967395937191 0 0.3855881021147175 0.35910908792858098 0 0.36518945593320651 0.34509967395937191 0 0.36562923609293069 0.32366592916769399 0 0.36518945593320651 0.34509967395937191 0 0.36562923609293069 0.32366592916769399 0 0.348137396692076 0.34077307725183559 0 0.36518945593320651 0.34509967395937191 0 0.36562923609293069 0.32366592916769399 0 0.38128435600444488 0.32837669887387311 0 0.36562923609293069 0.32366592916769399 0 0.36606901625265492 0.30223218437601618 0 0.38242981621443428 0.31397380775534678 0 0.36562923609293069 0.32366592916769399 0 0.36606901625265492 0.30223218437601618 0 0.36562923609293069 0.32366592916769399 0 0.34238706329751362 0.32476320095938682 0 0.35183379698966949 0.31056891257481539 0 0.36562923609293069 0.32366592916769399 0 0.348137396692076 0.34077307725183559 0 0.34238706329751362 0.32476320095938682 0 0.348137396692076 0.34077307725183559 0 0.33072504187423118 0.34237289876026822 0 0.34238706329751362 0.32476320095938682 0 0.33072504187423118 0.34237289876026822 0 0.34238706329751362 0.32476320095938682 0 0.32122702449841589 0.32177081607522939 0 0.34238706329751362 0.32476320095938682 0 0.33644502425256478 0.30910566618648461 0 0.35183379698966949 0.31056891257481539 0 0.34238706329751362 0.32476320095938682 0 0.32122702449841589 0.32177081607522939 0 0.33644502425256478 0.30910566618648461 0 0.32122702449841589 0.32177081607522939 0 0.31445651652981632 0.33878768779705848 0 0.30372390616191358 0.32889084998335888 0 0.33072504187423118 0.34237289876026822 0 0.32122702449841589 0.32177081607522939 0 0.31445651652981632 0.33878768779705848 0 0.33072504187423118 0.34237289876026822 0 0.31445651652981632 0.33878768779705848 0 0.31594857135045817 0.35062531106266931 0 0.33072504187423118 0.34237289876026822 0 0.31594857135045817 0.35062531106266931 0 0.32442852787466708 0.36030442639367111 0 0.31594857135045817 0.35062531106266931 0 0.32442852787466708 0.36030442639367111 0 0.31156622091740832 0.36111849420004938 0 0.34699100967064078 0.35539672769273539 0 0.348137396692076 0.34077307725183559 0 0.33072504187423118 0.34237289876026822 0 0.34699100967064078 0.35539672769273539 0 0.33072504187423118 0.34237289876026822 0 0.32442852787466708 0.36030442639367111 0 0.3376156911696272 0.37620073599141618 0 0.34699100967064078 0.35539672769273539 0 0.32442852787466708 0.36030442639367111 0 0.3376156911696272 0.37620073599141618 0 0.32442852787466708 0.36030442639367111 0 0.31717345926189522 0.3709258031848055 0 0.32442852787466708 0.36030442639367111 0 0.31717345926189522 0.3709258031848055 0 0.31156622091740832 0.36111849420004938 0 0.30177514978199971 0.3711373061071076 0 0.30274952797195698 0.35001407804523332 0 0.31717345926189522 0.3709258031848055 0 0.31156622091740832 0.36111849420004938 0 0.30177514978199971 0.3711373061071076 0 0.31156622091740832 0.36111849420004938 0 0.30177514978199971 0.3711373061071076 0 0.30274952797195698 0.35001407804523332 0 0.30177514978199971 0.3711373061071076 0 0.30274952797195698 0.35001407804523332 0 0.29106955940472562 0.3530243656434488 0 0.31445651652981632 0.33878768779705848 0 0.31594857135045817 0.35062531106266931 0 0.30274952797195698 0.35001407804523332 0 0.31594857135045817 0.35062531106266931 0 0.31156622091740832 0.36111849420004938 0 0.30274952797195698 0.35001407804523332 0 0.29106955940472562 0.3530243656434488 0 0.28705150305193838 0.35613499197806497 0 0.28036396902745148 0.33491142517978989 0 0.28705150305193838 0.35613499197806497 0 0.28036396902745148 0.33491142517978989 0 0.28705150305193838 0.35613499197806497 0 0.27644360280618341 0.34191623842927221 0 0.28036396902745148 0.33491142517978989 0 0.29106955940472562 0.3530243656434488 0 0.28036396902745148 0.33491142517978989 0 0.30274952797195698 0.35001407804523332 0 0.29106955940472562 0.3530243656434488 0 0.29374099595638509 0.3392252011883215 0 0.28705150305193838 0.35613499197806497 0 0.28458867991473008 0.36361942358965982 0 0.27543832275303448 0.34988028840297991 0 0.29405085274881382 0.37834813740539031 0 0.28705150305193838 0.35613499197806497 0 0.28458867991473008 0.36361942358965982 0 0.29405085274881382 0.37834813740539031 0 0.28705150305193838 0.35613499197806497 0 0.30177514978199971 0.3711373061071076 0 0.29106955940472562 0.3530243656434488 0 0.29405085274881382 0.37834813740539031 0 0.30177514978199971 0.3711373061071076 0 0.28705150305193838 0.35613499197806497 0 0.30177514978199971 0.3711373061071076 0 0.29106955940472562 0.3530243656434488 0 0.28705150305193838 0.35613499197806497 0 0.29405085274881382 0.37834813740539031 0 0.28458867991473008 0.36361942358965982 0 0.28403056220722062 0.37531448917755911 0 0.2815017213106239 0.3651550498314205 0 0.27898286169525299 0.37041503512408969 0 0.29405085274881382 0.37834813740539031 0 0.2815017213106239 0.3651550498314205 0 0.28403056220722062 0.37531448917755911 0 0.29405085274881382 0.37834813740539031 0 0.2815017213106239 0.3651550498314205 0 0.29405085274881382 0.37834813740539031 0 0.28458867991473008 0.36361942358965982 0 0.2815017213106239 0.3651550498314205 0 0.28403056220722062 0.37531448917755911 0 0.27898286169525299 0.37041503512408969 0 0.2737626695690904 0.37327007608818358 0 0.27663649369407689 0.36792052539919551 0 0.2737626695690904 0.37327007608818358 0 0.27125000512352843 0.36234153133647429 0 0.27405714121884811 0.38409687161834088 0 0.2737626695690904 0.37327007608818358 0 0.2618259464583832 0.36726095095448358 0 0.2815017213106239 0.3651550498314205 0 0.27898286169525299 0.37041503512408969 0 0.27663649369407689 0.36792052539919551 0 0.27898286169525299 0.37041503512408969 0 0.27663649369407689 0.36792052539919551 0 0.2737626695690904 0.37327007608818358 0 0.2737626695690904 0.37327007608818358 0 0.27125000512352843 0.36234153133647429 0 0.2618259464583832 0.36726095095448358 0 0.27125000512352843 0.36234153133647429 0 0.26895258987243392 0.3519619622574508 0 0.2618259464583832 0.36726095095448358 0 0.2815017213106239 0.3651550498314205 0 0.27125000512352843 0.36234153133647429 0 0.26895258987243392 0.3519619622574508 0 0.2815017213106239 0.3651550498314205 0 0.27663649369407689 0.36792052539919551 0 0.27125000512352843 0.36234153133647429 0 0.28458867991473008 0.36361942358965982 0 0.2815017213106239 0.3651550498314205 0 0.27543832275303448 0.34988028840297991 0 0.2815017213106239 0.3651550498314205 0 0.26895258987243392 0.3519619622574508 0 0.28458867991473008 0.36361942358965982 0 0.27543832275303448 0.34988028840297991 0 0.26895258987243392 0.3519619622574508 0 0.2618259464583832 0.36726095095448358 0 0.2684557314338783 0.34271033597269462 0 0.2815017213106239 0.3651550498314205 0 0.27543832275303448 0.34988028840297991 0 0.26895258987243392 0.3519619622574508 0 0.28705150305193838 0.35613499197806497 0 0.27543832275303448 0.34988028840297991 0 0.27644360280618341 0.34191623842927221 0 0.27543832275303448 0.34988028840297991 0 0.2684557314338783 0.34271033597269462 0 0.27644360280618341 0.34191623842927221 0 0.27543832275303448 0.34988028840297991 0 0.26895258987243392 0.3519619622574508 0 0.2684557314338783 0.34271033597269462 0 0.2618259464583832 0.36726095095448358 0 0.2684557314338783 0.34271033597269462 0 0.24521693247762111 0.35027114815259558 0 0.2618259464583832 0.36726095095448358 0 0.2684557314338783 0.34271033597269462 0 0.24305895760768401 0.36641304215893011 0 0.24521693247762111 0.35027114815259558 0 0.2618259464583832 0.36726095095448358 0 0.24490867605631639 0.32967072069511189 0 0.26050839607327853 0.32387463406168998 0 0.25114017462525878 0.31153615041935723 0 0.26050839607327853 0.32387463406168998 0 0.25114017462525878 0.31153615041935723 0 0.26342424027676908 0.31148804944983333 0 0.24490867605631639 0.32967072069511189 0 0.26050839607327853 0.32387463406168998 0 0.2684557314338783 0.34271033597269462 0 0.24490867605631639 0.32967072069511189 0 0.24521693247762111 0.35027114815259558 0 0.2684557314338783 0.34271033597269462 0 0.26050839607327853 0.32387463406168998 0 0.2684557314338783 0.34271033597269462 0 0.27508551640937329 0.31815972099090539 0 0.2684557314338783 0.34271033597269462 0 0.27508551640937329 0.31815972099090539 0 0.2684557314338783 0.34271033597269462 0 0.27787730485363338 0.33070420273373929 0 0.27508551640937329 0.31815972099090539 0 0.2684557314338783 0.34271033597269462 0 0.27644360280618341 0.34191623842927221 0 0.27787730485363338 0.33070420273373929 0 0.27644360280618341 0.34191623842927221 0 0.28036396902745148 0.33491142517978989 0 0.27787730485363338 0.33070420273373929 0 0.28036396902745148 0.33491142517978989 0 0.27787730485363338 0.33070420273373929 0 0.28036396902745148 0.33491142517978989 0 0.27787730485363338 0.33070420273373929 0 0.27508551640937329 0.31815972099090539 0 0.28036396902745148 0.33491142517978989 0 0.27508551640937329 0.31815972099090539 0 0.26050839607327853 0.32387463406168998 0 0.27508551640937329 0.31815972099090539 0 0.26342424027676908 0.31148804944983333 0 0.27584787744150779 0.31533663815394608 0 0.27508551640937329 0.31815972099090539 0 0.2839587577339367 0.31315639516335231 0 0.27584787744150779 0.31533663815394608 0 0.27508551640937329 0.31815972099090539 0 0.28036396902745148 0.33491142517978989 0 0.27508551640937329 0.31815972099090539 0 0.28884331716543121 0.32432796479040632 0 0.27508551640937329 0.31815972099090539 0 0.2839587577339367 0.31315639516335231 0 0.28884331716543121 0.32432796479040632 0 0.2839587577339367 0.31315639516335231 0 0.28884331716543121 0.32432796479040632 0 0.29436859405188742 0.31561290386725788 0 0.28884331716543121 0.32432796479040632 0 0.29436859405188742 0.31561290386725788 0 0.30372390616191358 0.32889084998335888 0 0.29106955940472562 0.3530243656434488 0 0.28036396902745148 0.33491142517978989 0 0.29374099595638509 0.3392252011883215 0 0.28036396902745148 0.33491142517978989 0 0.28884331716543121 0.32432796479040632 0 0.29374099595638509 0.3392252011883215 0 0.28884331716543121 0.32432796479040632 0 0.29374099595638509 0.3392252011883215 0 0.30372390616191358 0.32889084998335888 0 0.30274952797195698 0.35001407804523332 0 0.29374099595638509 0.3392252011883215 0 0.30372390616191358 0.32889084998335888 0 0.31445651652981632 0.33878768779705848 0 0.30274952797195698 0.35001407804523332 0 0.30372390616191358 0.32889084998335888 0 0.30274952797195698 0.35001407804523332 0 0.30372390616191358 0.32889084998335888 0 0.29436859405188742 0.31561290386725788 0 0.30372390616191358 0.32889084998335888 0 0.30469828435187041 0.30776762192148471 0 0.32122702449841589 0.32177081607522939 0 0.30372390616191358 0.32889084998335888 0 0.30469828435187041 0.30776762192148471 0 0.30372390616191358 0.32889084998335888 0 0.30469828435187041 0.30776762192148471 0 0.30469828435187041 0.30776762192148471 0 0.29887142377560671 0.29447355700322281 0 0.31975384086217118 0.29390073052843008 0 0.30469828435187041 0.30776762192148471 0 0.29887142377560671 0.29447355700322281 0 0.29061870484628499 0.30392168747768772 0 0.29887142377560671 0.29447355700322281 0 0.29803417524575498 0.27809430922643119 0 0.31975384086217118 0.29390073052843008 0 0.29887142377560671 0.29447355700322281 0 0.28125211357195179 0.28868343586208051 0 0.29803417524575498 0.27809430922643119 0 0.29887142377560671 0.29447355700322281 0 0.28125211357195179 0.28868343586208051 0 0.29061870484628499 0.30392168747768772 0 0.29436859405188742 0.31561290386725788 0 0.30469828435187041 0.30776762192148471 0 0.29061870484628499 0.30392168747768772 0 0.2839587577339367 0.31315639516335231 0 0.29436859405188742 0.31561290386725788 0 0.29061870484628499 0.30392168747768772 0 0.28125211357195179 0.28868343586208051 0 0.29061870484628499 0.30392168747768772 0 0.27979091010679558 0.3031930520058399 0 0.2839587577339367 0.31315639516335231 0 0.29061870484628499 0.30392168747768772 0 0.27979091010679558 0.3031930520058399 0 0.27584787744150779 0.31533663815394608 0 0.2839587577339367 0.31315639516335231 0 0.27979091010679558 0.3031930520058399 0 0.27584787744150779 0.31533663815394608 0 0.27979091010679558 0.3031930520058399 0 0.26696287399916629 0.2923816923273807 0 0.27508551640937329 0.31815972099090539 0 0.26696287399916629 0.2923816923273807 0 0.27508551640937329 0.31815972099090539 0 0.26696287399916629 0.2923816923273807 0 0.26342424027676908 0.31148804944983333 0 0.27584787744150779 0.31533663815394608 0 0.27508551640937329 0.31815972099090539 0 0.26696287399916629 0.2923816923273807 0 0.28125211357195179 0.28868343586208051 0 0.26696287399916629 0.2923816923273807 0 0.26185531842249993 0.2787869231154117 0 0.28125211357195179 0.28868343586208051 0 0.27979091010679558 0.3031930520058399 0 0.26696287399916629 0.2923816923273807 0 0.2454028482605469 0.29267792886045368 0 0.26696287399916629 0.2923816923273807 0 0.26185531842249993 0.2787869231154117 0 0.24818821145747599 0.27522177653690871 0 0.2454028482605469 0.29267792886045368 0 0.26185531842249993 0.2787869231154117 0 0.26696287399916629 0.2923816923273807 0 0.25114017462525878 0.31153615041935723 0 0.26342424027676908 0.31148804944983333 0 0.2454028482605469 0.29267792886045368 0 0.26696287399916629 0.2923816923273807 0 0.25114017462525878 0.31153615041935723 0 0.25404003316197471 0.25208422786308371 0 0.25530776412370298 0.26639583896058622 0 0.27103688063193948 0.26427270241964718 0 0.24090080429007341 0.26281353644332878 0 0.25404003316197471 0.25208422786308371 0 0.25530776412370298 0.26639583896058622 0 0.25530776412370298 0.26639583896058622 0 0.26185531842249993 0.2787869231154117 0 0.27103688063193948 0.26427270241964718 0 0.24818821145747599 0.27522177653690871 0 0.25530776412370298 0.26639583896058622 0 0.26185531842249993 0.2787869231154117 0 0.28125211357195179 0.28868343586208051 0 0.26185531842249993 0.2787869231154117 0 0.27103688063193948 0.26427270241964718 0 0.25404003316197471 0.25208422786308371 0 0.27103688063193948 0.26427270241964718 0 0.27355486584907379 0.24364475180805101 0 0.27103688063193948 0.26427270241964718 0 0.29692855903906679 0.25537037528416417 0 0.27355486584907379 0.24364475180805101 0 0.27103688063193948 0.26427270241964718 0 0.29803417524575498 0.27809430922643119 0 0.29692855903906679 0.25537037528416417 0 0.28125211357195179 0.28868343586208051 0 0.27103688063193948 0.26427270241964718 0 0.29803417524575498 0.27809430922643119 0 0.29803417524575498 0.27809430922643119 0 0.29692855903906679 0.25537037528416417 0 0.32239972953691409 0.26902358330948362 0 0.29692855903906679 0.25537037528416417 0 0.32239972953691409 0.26902358330948362 0 0.32448256229391081 0.244023600812113 0 0.34859232732963041 0.2656914204712259 0 0.32448256229391081 0.244023600812113 0 0.35052125483258301 0.2434514759103418 0 0.32239972953691409 0.26902358330948362 0 0.34859232732963041 0.2656914204712259 0 0.32448256229391081 0.244023600812113 0 0.32239972953691409 0.26902358330948362 0 0.34580587121379802 0.29027056413174801 0 0.34859232732963041 0.2656914204712259 0 0.32239972953691409 0.26902358330948362 0 0.34859232732963041 0.2656914204712259 0 0.29803417524575498 0.27809430922643119 0 0.32239972953691409 0.26902358330948362 0 0.31975384086217118 0.29390073052843008 0 0.32122702449841589 0.32177081607522939 0 0.30469828435187041 0.30776762192148471 0 0.31975384086217118 0.29390073052843008 0 0.32122702449841589 0.32177081607522939 0 0.31975384086217118 0.29390073052843008 0 0.33644502425256478 0.30910566618648461 0 0.31975384086217118 0.29390073052843008 0 0.33644502425256478 0.30910566618648461 0 0.34580587121379802 0.29027056413174801 0 0.32239972953691409 0.26902358330948362 0 0.31975384086217118 0.29390073052843008 0 0.34580587121379802 0.29027056413174801 0 0.34580587121379802 0.29027056413174801 0 0.35183379698966949 0.31056891257481539 0 0.36606901625265492 0.30223218437601618 0 0.33644502425256478 0.30910566618648461 0 0.34580587121379802 0.29027056413174801 0 0.35183379698966949 0.31056891257481539 0 0.36562923609293069 0.32366592916769399 0 0.35183379698966949 0.31056891257481539 0 0.36606901625265492 0.30223218437601618 0 0.36606901625265492 0.30223218437601618 0 0.37288852905391068 0.28307277276217568 0 0.38313639778678782 0.29894980138166888 0 0.34580587121379802 0.29027056413174801 0 0.36606901625265492 0.30223218437601618 0 0.37288852905391068 0.28307277276217568 0 0.37288852905391068 0.28307277276217568 0 0.37478492512234668 0.26235925763296819 0 0.34859232732963041 0.2656914204712259 0 0.37478492512234668 0.26235925763296819 0 0.34859232732963041 0.2656914204712259 0 0.37478492512234668 0.26235925763296819 0 0.34859232732963041 0.2656914204712259 0 0.35052125483258301 0.2434514759103418 0 0.34580587121379802 0.29027056413174801 0 0.37288852905391068 0.28307277276217568 0 0.34859232732963041 0.2656914204712259 0 0.40237095019481112 0.27711100542787093 0 0.40097752291506289 0.25902709479471048 0 0.38795285511664351 0.27501277358291848 0 0.40237095019481112 0.27711100542787093 0 0.38795285511664351 0.27501277358291848 0 0.39245341439736259 0.28869000139839213 0 0.37478492512234668 0.26235925763296819 0 0.40097752291506289 0.25902709479471048 0 0.37478492512234668 0.26235925763296819 0 0.40097752291506289 0.25902709479471048 0 0.38795285511664351 0.27501277358291848 0 0.37478492512234668 0.26235925763296819 0 0.40097752291506289 0.25902709479471048 0 0.39333580902427501 0.24081282939082621 0 0.37288852905391068 0.28307277276217568 0 0.37478492512234668 0.26235925763296819 0 0.38795285511664351 0.27501277358291848 0 0.37288852905391068 0.28307277276217568 0 0.38795285511664351 0.27501277358291848 0 0.39245341439736259 0.28869000139839213 0 0.37288852905391068 0.28307277276217568 0 0.38313639778678782 0.29894980138166888 0 0.39245341439736259 0.28869000139839213 0 0.38313639778678782 0.29894980138166888 0 0.40184121301557668 0.30678024061641418 0 0.38242981621443428 0.31397380775534678 0 0.36606901625265492 0.30223218437601618 0 0.38313639778678782 0.29894980138166888 0 0.38242981621443428 0.31397380775534678 0 0.38313639778678782 0.29894980138166888 0 0.40184121301557668 0.30678024061641418 0 0.39245341439736259 0.28869000139839213 0 0.40184121301557668 0.30678024061641418 0 0.39245341439736259 0.28869000139839213 0 0.4080647950624654 0.29173952990842672 0 0.40237095019481112 0.27711100542787093 0 0.39245341439736259 0.28869000139839213 0 0.4080647950624654 0.29173952990842672 0 0.4080647950624654 0.29173952990842672 0 0.42111158276914429 0.29961990628964941 0 0.41801819212357011 0.2740782959756311 0 0.42111158276914429 0.29961990628964941 0 0.41801819212357011 0.2740782959756311 0 0.42111158276914429 0.29961990628964941 0 0.41431845905081632 0.31211616404088999 0 0.42420497341471841 0.32516151660366771 0 0.40184121301557668 0.30678024061641418 0 0.41169384258873692 0.3030193229363472 0 0.41431845905081632 0.31211616404088999 0 0.4080647950624654 0.29173952990842672 0 0.41169384258873692 0.3030193229363472 0 0.42111158276914429 0.29961990628964941 0 0.40184121301557668 0.30678024061641418 0 0.4080647950624654 0.29173952990842672 0 0.41169384258873692 0.3030193229363472 0 0.41169384258873692 0.3030193229363472 0 0.42111158276914429 0.29961990628964941 0 0.41431845905081632 0.31211616404088999 0 0.42111158276914429 0.29961990628964941 0 0.42420497341471841 0.32516151660366771 0 0.42111158276914429 0.29961990628964941 0 0.42968026012840121 0.30115694743242971 0 0.43130474666914309 0.31304161877190062 0 0.42968026012840121 0.30115694743242971 0 0.44258646999382029 0.30990113159980692 0 0.42968026012840121 0.30115694743242971 0 0.44258646999382029 0.30990113159980692 0 0.43130474666914309 0.31304161877190062 0 0.42111158276914429 0.29961990628964941 0 0.42800801910193731 0.28582653817902792 0 0.41801819212357011 0.2740782959756311 0 0.42968026012840121 0.30115694743242971 0 0.42800801910193731 0.28582653817902792 0 0.44797459424715858 0.28113195035900113 0 0.42111158276914429 0.29961990628964941 0 0.42968026012840121 0.30115694743242971 0 0.42800801910193731 0.28582653817902792 0 0.4349067289361882 0.26981889711766149 0 0.41801819212357011 0.2740782959756311 0 0.42717012070777932 0.25569493195645271 0 0.42800801910193731 0.28582653817902792 0 0.4349067289361882 0.26981889711766149 0 0.44797459424715858 0.28113195035900113 0 0.42800801910193731 0.28582653817902792 0 0.4349067289361882 0.26981889711766149 0 0.41801819212357011 0.2740782959756311 0 0.40237095019481112 0.27711100542787093 0 0.4080647950624654 0.29173952990842672 0 0.41801819212357011 0.2740782959756311 0 0.40237095019481112 0.27711100542787093 0 0.40097752291506289 0.25902709479471048 0 0.41801819212357011 0.2740782959756311 0 0.40097752291506289 0.25902709479471048 0 0.42717012070777932 0.25569493195645271 0 0.40097752291506289 0.25902709479471048 0 0.41801819212357011 0.2740782959756311 0 0.42717012070777932 0.25569493195645271 0 0.40097752291506289 0.25902709479471048 0 0.42717012070777932 0.25569493195645271 0 0.41286841049430861 0.24788583003777651 0 0.42717012070777932 0.25569493195645271 0 0.45336271850049548 0.25236276911819511 0 0.42717012070777932 0.25569493195645271 0 0.45336271850049548 0.25236276911819511 0 0.44134696414428898 0.24814556957704689 0 0.4349067289361882 0.26981889711766149 0 0.42717012070777932 0.25569493195645271 0 0.45336271850049548 0.25236276911819511 0 0.44797459424715858 0.28113195035900113 0 0.45336271850049548 0.25236276911819511 0 0.4349067289361882 0.26981889711766149 0 0.44797459424715858 0.28113195035900113 0 0.45336271850049548 0.25236276911819511 0 0.44797459424715858 0.28113195035900113 0 0.46860043072286323 0.26090172283992602 0 0.47518926652314969 0.27560515809727743 0 0.44797459424715858 0.28113195035900113 0 0.45336271850049548 0.25236276911819511 0 0.46860043072286323 0.26090172283992602 0 0.45336271850049548 0.25236276911819511 0 0.46860043072286323 0.26090172283992602 0 0.48180965237011408 0.2487438147612096 0 0.45336271850049548 0.25236276911819511 0 0.48180965237011408 0.2487438147612096 0 0.46860043072286323 0.26090172283992602 0 0.48241006781490819 0.26268970127635521 0 0.48180965237011408 0.2487438147612096 0 0.46860043072286323 0.26090172283992602 0 0.48241006781490819 0.26268970127635521 0 0.47518926652314969 0.27560515809727743 0 0.48241006781490819 0.26268970127635521 0 0.47518926652314969 0.27560515809727743 0 0.48864569132575902 0.27555399191102209 0 0.48864569132575902 0.27555399191102209 0 0.5 0.25788891558126559 0 0.5 0.28784398070901179 0 0.48241006781490819 0.26268970127635521 0 0.5 0.25788891558126559 0 0.48180965237011408 0.2487438147612096 0 0.48241006781490819 0.26268970127635521 0 0.48864569132575902 0.27555399191102209 0 0.5 0.25788891558126559 0 0.49687855588093471 0.30562269631142192 0 0.5 0.28784398070901179 0 0.5 0.31779904583675789 0 0.48491490847636098 0.30901068293115042 0 0.49687855588093471 0.30562269631142192 0 0.48562912229073679 0.29374220389120048 0 0.48491490847636098 0.30901068293115042 0 0.49687855588093471 0.30562269631142192 0 0.48893996521802741 0.32077530068026477 0 0.48864569132575902 0.27555399191102209 0 0.5 0.28784398070901179 0 0.48562912229073679 0.29374220389120048 0 0.49687855588093471 0.30562269631142192 0 0.5 0.28784398070901179 0 0.48562912229073679 0.29374220389120048 0 0.47518926652314969 0.27560515809727743 0 0.48864569132575902 0.27555399191102209 0 0.48562912229073679 0.29374220389120048 0 0.47518926652314969 0.27560515809727743 0 0.48562912229073679 0.29374220389120048 0 0.46816558308298489 0.29083511245767268 0 0.48562912229073679 0.29374220389120048 0 0.47222103054853309 0.30536857664361422 0 0.46816558308298489 0.29083511245767268 0 0.48491490847636098 0.30901068293115042 0 0.48562912229073679 0.29374220389120048 0 0.47222103054853309 0.30536857664361422 0 0.48491490847636098 0.30901068293115042 0 0.47222103054853309 0.30536857664361422 0 0.47648252662976798 0.31886183994020412 0 0.47222103054853309 0.30536857664361422 0 0.45866337291811637 0.30169365927876157 0 0.46179392227446953 0.32291451832445861 0 0.45866337291811637 0.30169365927876157 0 0.44258646999382029 0.30990113159980692 0 0.46179392227446953 0.32291451832445861 0 0.47222103054853309 0.30536857664361422 0 0.45866337291811637 0.30169365927876157 0 0.46816558308298489 0.29083511245767268 0 0.44797459424715858 0.28113195035900113 0 0.45866337291811637 0.30169365927876157 0 0.46816558308298489 0.29083511245767268 0 0.44797459424715858 0.28113195035900113 0 0.47518926652314969 0.27560515809727743 0 0.46816558308298489 0.29083511245767268 0 0.44797459424715858 0.28113195035900113 0 0.44258646999382029 0.30990113159980692 0 0.42968026012840121 0.30115694743242971 0 0.44797459424715858 0.28113195035900113 0 0.44258646999382029 0.30990113159980692 0 0.44797459424715858 0.28113195035900113 0 0.45866337291811637 0.30169365927876157 0 0.44258646999382029 0.30990113159980692 0 0.44258646999382029 0.30990113159980692 0 0.46179392227446953 0.32291451832445861 0 0.44258646999382029 0.30990113159980692 0 0.43894044703962998 0.32936859193394902 0 0.46179392227446953 0.32291451832445861 0 0.44258646999382029 0.30990113159980692 0 0.43894044703962998 0.32936859193394902 0 0.44258646999382029 0.30990113159980692 0 0.43894044703962998 0.32936859193394902 0 0.43130474666914309 0.31304161877190062 0 0.43894044703962998 0.32936859193394902 0 0.45181909328986353 0.33594590439129729 0 0.43529442408543872 0.34883605226809089 0 0.43894044703962998 0.32936859193394902 0 0.45181909328986353 0.33594590439129729 0 0.46179392227446953 0.32291451832445861 0 0.45181909328986353 0.33594590439129729 0 0.46495921083649527 0.33796731498031379 0 0.45493863887308472 0.34850758154427958 0 0.45181909328986353 0.33594590439129729 0 0.46495921083649527 0.33796731498031379 0 0.46179392227446953 0.32291451832445861 0 0.47648252662976798 0.31886183994020412 0 0.48100137455512032 0.33592790504910791 0 0.48893996521802741 0.32077530068026477 0 0.46179392227446953 0.32291451832445861 0 0.47648252662976798 0.31886183994020412 0 0.48100137455512032 0.33592790504910791 0 0.47222103054853309 0.30536857664361422 0 0.46179392227446953 0.32291451832445861 0 0.47648252662976798 0.31886183994020412 0 0.48491490847636098 0.30901068293115042 0 0.47648252662976798 0.31886183994020412 0 0.48893996521802741 0.32077530068026477 0 0.46179392227446953 0.32291451832445861 0 0.48100137455512032 0.33592790504910791 0 0.46495921083649527 0.33796731498031379 0 0.48100137455512032 0.33592790504910791 0 0.47458285366073072 0.34817911082046721 0 0.46495921083649527 0.33796731498031379 0 0.46179392227446953 0.32291451832445861 0 0.48100137455512032 0.33592790504910791 0 0.48100137455512032 0.33592790504910791 0 0.47458285366073072 0.34817911082046721 0 0.48100137455512032 0.33592790504910791 0 0.48893996521802741 0.32077530068026477 0 0.48100137455512032 0.33592790504910791 0 0.4984937498586452 0.34777929695842291 0 0.5 0.31779904583675789 0 0.48893996521802741 0.32077530068026477 0 0.4984937498586452 0.34777929695842291 0 0.5 0.31779904583675789 0 0.4984937498586452 0.34777929695842291 0 0.50000000000000433 0.34775411096450393 0 0.48100137455512032 0.33592790504910791 0 0.48893996521802741 0.32077530068026477 0 0.4984937498586452 0.34777929695842291 0 0.49687855588093471 0.30562269631142192 0 0.48893996521802741 0.32077530068026477 0 0.49687855588093471 0.30562269631142192 0 0.5 0.31779904583675789 0 0.48893996521802741 0.32077530068026477 0 0.5 0.37175840028027313 0 0.48688174284785979 0.35971936811564431 0 0.50000000000000433 0.34775411096450393 0 0.5 0.37175840028027313 0 0.48688174284785979 0.35971936811564431 0 0.48177296974371542 0.3780796821533936 0 0.48100137455512032 0.33592790504910791 0 0.4984937498586452 0.34777929695842291 0 0.47458285366073072 0.34817911082046721 0 0.48688174284785979 0.35971936811564431 0 0.4984937498586452 0.34777929695842291 0 0.47458285366073072 0.34817911082046721 0 0.48688174284785979 0.35971936811564431 0 0.4984937498586452 0.34777929695842291 0 0.50000000000000433 0.34775411096450393 0 0.4984937498586452 0.34777929695842291 0 0.47458285366073072 0.34817911082046721 0 0.4984937498586452 0.34777929695842291 0 0.50000000000000433 0.34775411096450393 0 0.48688174284785979 0.35971936811564431 0 0.47458285366073072 0.34817911082046721 0 0.46644088382406917 0.36371991056145853 0 0.47458285366073072 0.34817911082046721 0 0.46644088382406917 0.36371991056145853 0 0.46644088382406917 0.36371991056145853 0 0.45829891398740957 0.37926071030245079 0 0.48177296974371542 0.3780796821533936 0 0.48688174284785979 0.35971936811564431 0 0.46644088382406917 0.36371991056145853 0 0.48177296974371542 0.3780796821533936 0 0.46644088382406917 0.36371991056145853 0 0.45829891398740957 0.37926071030245079 0 0.46644088382406917 0.36371991056145853 0 0.45450488254489102 0.36219879314378839 0 0.45829891398740957 0.37926071030245079 0 0.46495921083649527 0.33796731498031379 0 0.47458285366073072 0.34817911082046721 0 0.45493863887308472 0.34850758154427958 0 0.47458285366073072 0.34817911082046721 0 0.45493863887308472 0.34850758154427958 0 0.47458285366073072 0.34817911082046721 0 0.46644088382406917 0.36371991056145853 0 0.45493863887308472 0.34850758154427958 0 0.46644088382406917 0.36371991056145853 0 0.45450488254489102 0.36219879314378839 0 0.45493863887308472 0.34850758154427958 0 0.45181909328986353 0.33594590439129729 0 0.45493863887308472 0.34850758154427958 0 0.43529442408543872 0.34883605226809089 0 0.45493863887308472 0.34850758154427958 0 0.44448268479035308 0.35511800724889642 0 0.43529442408543872 0.34883605226809089 0 0.45493863887308472 0.34850758154427958 0 0.43529442408543872 0.34883605226809089 0 0.45450488254489102 0.36219879314378839 0 0.45493863887308472 0.34850758154427958 0 0.44448268479035308 0.35511800724889642 0 0.44448268479035308 0.35511800724889642 0 0.44279863902385319 0.36498191861006751 0 0.43487683942449812 0.35106569067825599 0 0.44448268479035308 0.35511800724889642 0 0.43529442408543872 0.34883605226809089 0 0.43487683942449812 0.35106569067825599 0 0.45450488254489102 0.36219879314378839 0 0.44279863902385319 0.36498191861006751 0 0.45829891398740957 0.37926071030245079 0 0.44279863902385319 0.36498191861006751 0 0.45829891398740957 0.37926071030245079 0 0.45450488254489102 0.36219879314378839 0 0.44448268479035308 0.35511800724889642 0 0.44279863902385319 0.36498191861006751 0 0.42892444364691579 0.3641293946929936 0 0.42225433889660879 0.37545697575276449 0 0.43605286711449009 0.38080977408974359 0 0.44279863902385319 0.36498191861006751 0 0.42892444364691579 0.3641293946929936 0 0.43605286711449009 0.38080977408974359 0 0.44279863902385319 0.36498191861006751 0 0.42892444364691579 0.3641293946929936 0 0.42729836406029548 0.35070312691768563 0 0.42892444364691579 0.3641293946929936 0 0.41660844069210962 0.35988002802349189 0 0.42225433889660879 0.37545697575276449 0 0.41660844069210962 0.35988002802349189 0 0.40918213701441342 0.3736144609854074 0 0.42225433889660879 0.37545697575276449 0 0.41660844069210962 0.35988002802349189 0 0.40918213701441342 0.3736144609854074 0 0.40205795884979889 0.36380219258680641 0 0.40642652845595439 0.35168475710611302 0 0.41593005466970517 0.35003896004439389 0 0.41338688547046137 0.33788792813028518 0 0.41660844069210962 0.35988002802349189 0 0.40642652845595439 0.35168475710611302 0 0.40205795884979889 0.36380219258680641 0 0.41660844069210962 0.35988002802349189 0 0.40642652845595439 0.35168475710611302 0 0.41593005466970517 0.35003896004439389 0 0.41660844069210962 0.35988002802349189 0 0.41593005466970517 0.35003896004439389 0 0.42729836406029548 0.35070312691768563 0 0.42729836406029548 0.35070312691768563 0 0.41338688547046137 0.33788792813028518 0 0.41593005466970517 0.35003896004439389 0 0.42729836406029548 0.35070312691768563 0 0.41338688547046137 0.33788792813028518 0 0.42892444364691579 0.3641293946929936 0 0.41660844069210962 0.35988002802349189 0 0.42729836406029548 0.35070312691768563 0 0.42892444364691579 0.3641293946929936 0 0.42729836406029548 0.35070312691768563 0 0.44279863902385319 0.36498191861006751 0 0.42729836406029548 0.35070312691768563 0 0.43487683942449812 0.35106569067825599 0 0.44279863902385319 0.36498191861006751 0 0.42729836406029548 0.35070312691768563 0 0.43109136567724748 0.3489063315667284 0 0.43529442408543872 0.34883605226809089 0 0.42729836406029548 0.35070312691768563 0 0.43109136567724748 0.3489063315667284 0 0.43487683942449812 0.35106569067825599 0 0.43109136567724748 0.3489063315667284 0 0.43529442408543872 0.34883605226809089 0 0.43487683942449812 0.35106569067825599 0 0.43529442408543872 0.34883605226809089 0 0.43487683942449812 0.35106569067825599 0 0.42729836406029548 0.35070312691768563 0 0.42420497341471841 0.32516151660366771 0 0.43894044703962998 0.32936859193394902 0 0.43529442408543872 0.34883605226809089 0 0.43894044703962998 0.32936859193394902 0 0.43109136567724748 0.3489063315667284 0 0.43529442408543872 0.34883605226809089 0 0.42729836406029548 0.35070312691768563 0 0.43109136567724748 0.3489063315667284 0 0.42420497341471841 0.32516151660366771 0 0.43894044703962998 0.32936859193394902 0 0.43109136567724748 0.3489063315667284 0 0.42420497341471841 0.32516151660366771 0 0.43894044703962998 0.32936859193394902 0 0.43130474666914309 0.31304161877190062 0 0.42420497341471841 0.32516151660366771 0 0.42111158276914429 0.29961990628964941 0 0.43130474666914309 0.31304161877190062 0 0.42420497341471841 0.32516151660366771 0 0.40184121301557668 0.30678024061641418 0 0.41431845905081632 0.31211616404088999 0 0.41140534993910638 0.32360132811636988 0 0.41431845905081632 0.31211616404088999 0 0.42420497341471841 0.32516151660366771 0 0.41140534993910638 0.32360132811636988 0 0.42729836406029548 0.35070312691768563 0 0.42420497341471841 0.32516151660366771 0 0.41338688547046137 0.33788792813028518 0 0.42420497341471841 0.32516151660366771 0 0.41140534993910638 0.32360132811636988 0 0.41338688547046137 0.33788792813028518 0 0.41140534993910638 0.32360132811636988 0 0.41338688547046137 0.33788792813028518 0 0.39947540688062583 0.32507272934288628 0 0.41338688547046137 0.33788792813028518 0 0.39947540688062583 0.32507272934288628 0 0.40642652845595439 0.35168475710611302 0 0.41338688547046137 0.33788792813028518 0 0.39105145014164849 0.3414869239971704 0 0.41338688547046137 0.33788792813028518 0 0.39105145014164849 0.3414869239971704 0 0.39947540688062583 0.32507272934288628 0 0.40184121301557668 0.30678024061641418 0 0.41140534993910638 0.32360132811636988 0 0.39947540688062583 0.32507272934288628 0 0.40184121301557668 0.30678024061641418 0 0.39947540688062583 0.32507272934288628 0 0.38242981621443428 0.31397380775534678 0 0.36562923609293069 0.32366592916769399 0 0.38242981621443428 0.31397380775534678 0 0.38128435600444488 0.32837669887387311 0 0.39947540688062583 0.32507272934288628 0 0.38242981621443428 0.31397380775534678 0 0.38128435600444488 0.32837669887387311 0 0.39105145014164849 0.3414869239971704 0 0.39947540688062583 0.32507272934288628 0 0.38128435600444488 0.32837669887387311 0 0.36518945593320651 0.34509967395937191 0 0.39105145014164849 0.3414869239971704 0 0.38128435600444488 0.32837669887387311 0 0.36518945593320651 0.34509967395937191 0 0.39105145014164849 0.3414869239971704 0 0.3855881021147175 0.35910908792858098 0 0.36474967577348072 0.36653341875104961 0 0.3855881021147175 0.35910908792858098 0 0.3855881021147175 0.35910908792858098 0 0.39248458597179969 0.37472262889043839 0 0.3773824667175657 0.37546563606013739 0 0.36474967577348072 0.36653341875104961 0 0.3855881021147175 0.35910908792858098 0 0.3773824667175657 0.37546563606013739 0 0.40918213701441342 0.3736144609854074 0 0.39248458597179969 0.37472262889043839 0 0.40205795884979889 0.36380219258680641 0 0.3855881021147175 0.35910908792858098 0 0.39248458597179969 0.37472262889043839 0 0.40205795884979889 0.36380219258680641 0 0.40642652845595439 0.35168475710611302 0 0.39105145014164849 0.3414869239971704 0 0.3855881021147175 0.35910908792858098 0 0.40642652845595439 0.35168475710611302 0 0.3855881021147175 0.35910908792858098 0 0.40642652845595439 0.35168475710611302 0 0.3855881021147175 0.35910908792858098 0 0.40205795884979889 0.36380219258680641 0 0.39221066862400811 0.40518894945558848 0 0.39940032860097008 0.38986983405391068 0 0.41033309730305728 0.40785957742124029 0 0.40918213701441342 0.3736144609854074 0 0.39248458597179969 0.37472262889043839 0 0.39940032860097008 0.38986983405391068 0 0.39248458597179969 0.37472262889043839 0 0.39940032860097008 0.38986983405391068 0 0.38026367080056678 0.39066664182047522 0 0.39248458597179969 0.37472262889043839 0 0.3773824667175657 0.37546563606013739 0 0.38026367080056678 0.39066664182047522 0 0.39221066862400811 0.40518894945558848 0 0.39940032860097008 0.38986983405391068 0 0.38026367080056678 0.39066664182047522 0 0.39221066862400811 0.40518894945558848 0 0.38026367080056678 0.39066664182047522 0 0.37744029411777058 0.41252948965876268 0 0.39221066862400811 0.40518894945558848 0 0.37744029411777058 0.41252948965876268 0 0.39361595229767549 0.42501920432355378 0 0.365542703577178 0.42914551292816783 0 0.39361595229767549 0.42501920432355378 0 0.37809165231809289 0.44568724501072521 0 0.365542703577178 0.42914551292816783 0 0.37744029411777058 0.41252948965876268 0 0.39361595229767549 0.42501920432355378 0 0.365542703577178 0.42914551292816783 0 0.39361595229767549 0.42501920432355378 0 0.39361595229767549 0.42501920432355378 0 0.41035062152962531 0.4256058815429955 0 0.40092741287151468 0.44093224530230651 0 0.39361595229767549 0.42501920432355378 0 0.40092741287151468 0.44093224530230651 0 0.37809165231809289 0.44568724501072521 0 0.39361595229767549 0.42501920432355378 0 0.41033309730305728 0.40785957742124029 0 0.41035062152962531 0.4256058815429955 0 0.39221066862400811 0.40518894945558848 0 0.39361595229767549 0.42501920432355378 0 0.41033309730305728 0.40785957742124029 0 0.41033309730305728 0.40785957742124029 0 0.41035062152962531 0.4256058815429955 0 0.42646345733135449 0.42088686527347441 0 0.41035062152962531 0.4256058815429955 0 0.4216403136361262 0.43569606407888728 0 0.42646345733135449 0.42088686527347441 0 0.41035062152962531 0.4256058815429955 0 0.4216403136361262 0.43569606407888728 0 0.40092741287151468 0.44093224530230651 0 0.43504649219903713 0.43385430946487219 0 0.42646345733135449 0.42088686527347441 0 0.44292677264660579 0.42392515796168401 0 0.4216403136361262 0.43569606407888728 0 0.43504649219903713 0.43385430946487219 0 0.42646345733135449 0.42088686527347441 0 0.4216403136361262 0.43569606407888728 0 0.43504649219903713 0.43385430946487219 0 0.4309855774719657 0.44262377444488737 0 0.41033309730305728 0.40785957742124029 0 0.42646345733135449 0.42088686527347441 0 0.43473852811684172 0.40482082561786309 0 0.42646345733135449 0.42088686527347441 0 0.43473852811684172 0.40482082561786309 0 0.44292677264660579 0.42392515796168401 0 0.43473852811684172 0.40482082561786309 0 0.42003555557297712 0.38799376876492359 0 0.43605286711449009 0.38080977408974359 0 0.41033309730305728 0.40785957742124029 0 0.43473852811684172 0.40482082561786309 0 0.42003555557297712 0.38799376876492359 0 0.39940032860097008 0.38986983405391068 0 0.41033309730305728 0.40785957742124029 0 0.42003555557297712 0.38799376876492359 0 0.40918213701441342 0.3736144609854074 0 0.39940032860097008 0.38986983405391068 0 0.42003555557297712 0.38799376876492359 0 0.40918213701441342 0.3736144609854074 0 0.42003555557297712 0.38799376876492359 0 0.42225433889660879 0.37545697575276449 0 0.42003555557297712 0.38799376876492359 0 0.42225433889660879 0.37545697575276449 0 0.43605286711449009 0.38080977408974359 0 0.44279863902385319 0.36498191861006751 0 0.43605286711449009 0.38080977408974359 0 0.45829891398740957 0.37926071030245079 0 0.43605286711449009 0.38080977408974359 0 0.44916269767969552 0.39669925538146661 0 0.45829891398740957 0.37926071030245079 0 0.43473852811684172 0.40482082561786309 0 0.43605286711449009 0.38080977408974359 0 0.44916269767969552 0.39669925538146661 0 0.43473852811684172 0.40482082561786309 0 0.44916269767969552 0.39669925538146661 0 0.45819524916971172 0.41557138043250991 0 0.44916269767969552 0.39669925538146661 0 0.47914945699370431 0.3984681476517854 0 0.45819524916971172 0.41557138043250991 0 0.44916269767969552 0.39669925538146661 0 0.45829891398740957 0.37926071030245079 0 0.47914945699370431 0.3984681476517854 0 0.45829891398740957 0.37926071030245079 0 0.47914945699370431 0.3984681476517854 0 0.44916269767969552 0.39669925538146661 0 0.45829891398740957 0.37926071030245079 0 0.45829891398740957 0.37926071030245079 0 0.48177296974371542 0.3780796821533936 0 0.47914945699370431 0.3984681476517854 0 0.47914945699370431 0.3984681476517854 0 0.5 0.39471699264069632 0 0.49999999999999928 0.41767558500111929 0 0.48177296974371542 0.3780796821533936 0 0.47914945699370431 0.3984681476517854 0 0.5 0.39471699264069632 0 0.5 0.37175840028027313 0 0.48177296974371542 0.3780796821533936 0 0.5 0.39471699264069632 0 0.48950419912568011 0.43203648207583117 0 0.49999999999999928 0.41767558500111929 0 0.47941257652712138 0.42859526255965119 0 0.48950419912568011 0.43203648207583117 0 0.49999999999999928 0.41767558500111929 0 0.50000000000000022 0.44212157098762489 0 0.49999999999999928 0.41767558500111929 0 0.47638758820359789 0.4177788365799131 0 0.47941257652712138 0.42859526255965119 0 0.47914945699370431 0.3984681476517854 0 0.49999999999999928 0.41767558500111929 0 0.47638758820359789 0.4177788365799131 0 0.47914945699370431 0.3984681476517854 0 0.49999999999999928 0.41767558500111929 0 0.47914945699370431 0.3984681476517854 0 0.47638758820359789 0.4177788365799131 0 0.45819524916971172 0.41557138043250991 0 0.47638758820359789 0.4177788365799131 0 0.46959145424244531 0.42892785421681912 0 0.47941257652712138 0.42859526255965119 0 0.48950419912568011 0.43203648207583117 0 0.47941257652712138 0.42859526255965119 0 0.47860421997559988 0.43975350975492877 0 0.46959145424244531 0.42892785421681912 0 0.47941257652712138 0.42859526255965119 0 0.47860421997559988 0.43975350975492877 0 0.46959145424244531 0.42892785421681912 0 0.45720843995119947 0.43738544852223271 0 0.45819524916971172 0.41557138043250991 0 0.46959145424244531 0.42892785421681912 0 0.45720843995119947 0.43738544852223271 0 0.47860421997559988 0.43975350975492877 0 0.47638758820359789 0.4177788365799131 0 0.46959145424244531 0.42892785421681912 0 0.45819524916971172 0.41557138043250991 0 0.43473852811684172 0.40482082561786309 0 0.45819524916971172 0.41557138043250991 0 0.44292677264660579 0.42392515796168401 0 0.45720843995119947 0.43738544852223271 0 0.45819524916971172 0.41557138043250991 0 0.44292677264660579 0.42392515796168401 0 0.45720843995119947 0.43738544852223271 0 0.44292677264660579 0.42392515796168401 0 0.44501475256406542 0.43710487641451851 0 0.43504649219903713 0.43385430946487219 0 0.44292677264660579 0.42392515796168401 0 0.44501475256406542 0.43710487641451851 0 0.44501475256406542 0.43710487641451851 0 0.44086930591740259 0.443703986550611 0 0.44426520485267701 0.44828521544284999 0 0.43504649219903713 0.43385430946487219 0 0.44501475256406542 0.43710487641451851 0 0.44086930591740259 0.443703986550611 0 0.44576605402647751 0.45131382091928901 0 0.43097115028835131 0.45382894378787952 0 0.4371491165808723 0.44919465112914592 0 0.44086930591740259 0.443703986550611 0 0.44106718496795649 0.44783878756079798 0 0.4371491165808723 0.44919465112914592 0 0.44106718496795649 0.44783878756079798 0 0.44576605402647751 0.45131382091928901 0 0.4371491165808723 0.44919465112914592 0 0.44086930591740259 0.443703986550611 0 0.44426520485267701 0.44828521544284999 0 0.44106718496795649 0.44783878756079798 0 0.44426520485267701 0.44828521544284999 0 0.44576605402647751 0.45131382091928901 0 0.44086930591740259 0.443703986550611 0 0.44106718496795649 0.44783878756079798 0 0.44426520485267701 0.44828521544284999 0 0.45720843995119947 0.43738544852223271 0 0.44501475256406542 0.43710487641451851 0 0.44426520485267701 0.44828521544284999 0 0.44576605402647751 0.45131382091928901 0 0.44334270512280699 0.46695283516179431 0 0.45751300038554987 0.46615712058798953 0 0.44426520485267701 0.44828521544284999 0 0.45751300038554987 0.46615712058798953 0 0.44576605402647751 0.45131382091928901 0 0.44334270512280699 0.46695283516179431 0 0.42744619309891668 0.4675425472795256 0 0.44426520485267701 0.44828521544284999 0 0.44576605402647751 0.45131382091928901 0 0.45751300038554987 0.46615712058798953 0 0.44426520485267701 0.44828521544284999 0 0.45751300038554987 0.46615712058798953 0 0.47213260242633898 0.44992772785007767 0 0.44426520485267701 0.44828521544284999 0 0.47213260242633898 0.44992772785007767 0 0.45720843995119947 0.43738544852223271 0 0.47860421997559988 0.43975350975492877 0 0.45720843995119947 0.43738544852223271 0 0.44426520485267701 0.44828521544284999 0 0.47213260242633898 0.44992772785007767 0 0.47213260242633898 0.44992772785007767 0 0.47860421997559988 0.43975350975492877 0 0.50000000000000067 0.45157024025730719 0 0.45720843995119947 0.43738544852223271 0 0.47213260242633898 0.44992772785007767 0 0.47860421997559988 0.43975350975492877 0 0.47213260242633898 0.44992772785007767 0 0.48064266697128027 0.4673483066551633 0 0.50000000000000067 0.45157024025730719 0 0.45751300038554987 0.46615712058798953 0 0.47213260242633898 0.44992772785007767 0 0.48064266697128027 0.4673483066551633 0 0.48064266697128027 0.4673483066551633 0 0.5 0.46843982966384828 0 0.50000000000000067 0.45157024025730719 0 0.47860421997559988 0.43975350975492877 0 0.50000000000000022 0.44212157098762489 0 0.47860421997559988 0.43975350975492877 0 0.50000000000000067 0.45157024025730719 0 0.50000000000000022 0.44212157098762489 0 0.47213260242633898 0.44992772785007767 0 0.50000000000000067 0.45157024025730719 0 0.48950419912568011 0.43203648207583117 0 0.47860421997559988 0.43975350975492877 0 0.50000000000000022 0.44212157098762489 0 0.48834007405180069 0.49233461120087918 0 0.50000000000000222 0.48530941907038949 0 0.47076079591842229 0.48402902573312923 0 0.48834007405180069 0.49233461120087918 0 0.5 0.5 0 0.48259950028877657 0.49999999999999922 0 0.50000000000000222 0.48530941907038949 0 0.47076079591842229 0.48402902573312923 0 0.48834007405180069 0.49233461120087918 0 0.5 0.5 0 0.50000000000000222 0.48530941907038949 0 0.50000000000000222 0.48530941907038949 0 0.48785086572242647 0.47628164528063233 0 0.47076079591842229 0.48402902573312923 0 0.48064266697128027 0.4673483066551633 0 0.5 0.46843982966384828 0 0.48785086572242647 0.47628164528063233 0 0.5 0.46843982966384828 0 0.50000000000000222 0.48530941907038949 0 0.48785086572242647 0.47628164528063233 0 0.45751300038554987 0.46615712058798953 0 0.48064266697128027 0.4673483066551633 0 0.47076079591842229 0.48402902573312923 0 0.48064266697128027 0.4673483066551633 0 0.48785086572242647 0.47628164528063233 0 0.47076079591842229 0.48402902573312923 0 0.47076079591842229 0.48402902573312923 0 0.48259950028877657 0.49999999999999922 0 0.45965124302753141 0.5 0 0.48834007405180069 0.49233461120087918 0 0.47076079591842229 0.48402902573312923 0 0.48259950028877657 0.49999999999999922 0 0.47076079591842229 0.48402902573312923 0 0.48259950028877657 0.49999999999999922 0 0.47076079591842229 0.48402902573312923 0 0.45965124302753141 0.5 0 0.44264557298028417 0.48279785186037327 0 0.45751300038554987 0.46615712058798953 0 0.47076079591842229 0.48402902573312923 0 0.47076079591842229 0.48402902573312923 0 0.44264557298028417 0.48279785186037327 0 0.45751300038554987 0.46615712058798953 0 0.47076079591842229 0.48402902573312923 0 0.44264557298028417 0.48279785186037327 0 0.44334270512280699 0.46695283516179431 0 0.44264557298028417 0.48279785186037327 0 0.42744619309891668 0.4675425472795256 0 0.44334270512280699 0.46695283516179431 0 0.45751300038554987 0.46615712058798953 0 0.44264557298028417 0.48279785186037327 0 0.45965124302753141 0.5 0 0.44264557298028417 0.48279785186037327 0 0.43670298576628619 0.5 0 0.44264557298028417 0.48279785186037327 0 0.42814010978677508 0.48883471415535268 0 0.41453035004214622 0.48156667798761449 0 0.43670298576628619 0.5 0 0.42814010978677508 0.48883471415535268 0 0.41868153035838401 0.49097432677342312 0 0.44264557298028417 0.48279785186037327 0 0.43670298576628619 0.5 0 0.42814010978677508 0.48883471415535268 0 0.43670298576628619 0.5 0 0.41375472850504103 0.5 0 0.41868153035838401 0.49097432677342312 0 0.41375472850504103 0.5 0 0.41868153035838401 0.49097432677342312 0 0.40912633217135602 0.48377127363976219 0 0.42814010978677508 0.48883471415535268 0 0.41868153035838401 0.49097432677342312 0 0.41453035004214622 0.48156667798761449 0 0.41868153035838401 0.49097432677342312 0 0.40912633217135602 0.48377127363976219 0 0.41453035004214622 0.48156667798761449 0 0.40882198151684829 0.470458307354371 0 0.40912633217135602 0.48377127363976219 0 0.42744619309891668 0.4675425472795256 0 0.40912633217135602 0.48377127363976219 0 0.42744619309891668 0.4675425472795256 0 0.40912633217135602 0.48377127363976219 0 0.41453035004214622 0.48156667798761449 0 0.42744619309891668 0.4675425472795256 0 0.40882198151684829 0.470458307354371 0 0.40912633217135602 0.48377127363976219 0 0.40257181831080802 0.47789339995616598 0 0.44264557298028417 0.48279785186037327 0 0.41453035004214622 0.48156667798761449 0 0.44264557298028417 0.48279785186037327 0 0.41453035004214622 0.48156667798761449 0 0.42744619309891668 0.4675425472795256 0 0.44576605402647751 0.45131382091928901 0 0.42744619309891668 0.4675425472795256 0 0.44576605402647751 0.45131382091928901 0 0.43097115028835131 0.45382894378787952 0 0.42744619309891668 0.4675425472795256 0 0.43097115028835131 0.45382894378787952 0 0.42744619309891668 0.4675425472795256 0 0.41709851720120961 0.46055572465752248 0 0.44086930591740259 0.443703986550611 0 0.4309855774719657 0.44262377444488737 0 0.4371491165808723 0.44919465112914592 0 0.43504649219903713 0.43385430946487219 0 0.44086930591740259 0.443703986550611 0 0.4309855774719657 0.44262377444488737 0 0.43097115028835131 0.45382894378787952 0 0.4309855774719657 0.44262377444488737 0 0.4371491165808723 0.44919465112914592 0 0.43097115028835131 0.45382894378787952 0 0.4309855774719657 0.44262377444488737 0 0.41665312800777271 0.44940921386284588 0 0.4216403136361262 0.43569606407888728 0 0.4309855774719657 0.44262377444488737 0 0.41665312800777271 0.44940921386284588 0 0.41665312800777271 0.44940921386284588 0 0.4029362549212489 0.45832899449672349 0 0.40092741287151468 0.44093224530230651 0 0.4216403136361262 0.43569606407888728 0 0.41665312800777271 0.44940921386284588 0 0.40092741287151468 0.44093224530230651 0 0.40882198151684829 0.470458307354371 0 0.42744619309891668 0.4675425472795256 0 0.41709851720120961 0.46055572465752248 0 0.43097115028835131 0.45382894378787952 0 0.41665312800777271 0.44940921386284588 0 0.41709851720120961 0.46055572465752248 0 0.41665312800777271 0.44940921386284588 0 0.41709851720120961 0.46055572465752248 0 0.4029362549212489 0.45832899449672349 0 0.40882198151684829 0.470458307354371 0 0.41709851720120961 0.46055572465752248 0 0.4029362549212489 0.45832899449672349 0 0.40882198151684829 0.470458307354371 0 0.4029362549212489 0.45832899449672349 0 0.3944208343110962 0.47305259584339332 0 0.4029362549212489 0.45832899449672349 0 0.38943508825963058 0.45629052964312111 0 0.3944208343110962 0.47305259584339332 0 0.4029362549212489 0.45832899449672349 0 0.40092741287151468 0.44093224530230651 0 0.38943508825963058 0.45629052964312111 0 0.40092741287151468 0.44093224530230651 0 0.37809165231809289 0.44568724501072521 0 0.38943508825963058 0.45629052964312111 0 0.37809165231809289 0.44568724501072521 0 0.38943508825963058 0.45629052964312111 0 0.37844435483634198 0.4675903904274426 0 0.38943508825963058 0.45629052964312111 0 0.37844435483634198 0.4675903904274426 0 0.3944208343110962 0.47305259584339332 0 0.37844435483634198 0.4675903904274426 0 0.38120033573297152 0.48442634992442057 0 0.3944208343110962 0.47305259584339332 0 0.38120033573297152 0.48442634992442057 0 0.3944208343110962 0.47305259584339332 0 0.39562515835400552 0.48382872387274839 0 0.36196284501337178 0.5 0 0.38120033573297152 0.48442634992442057 0 0.39080647124379558 0.49999999999999922 0 0.38120033573297152 0.48442634992442057 0 0.39080647124379558 0.49999999999999922 0 0.39562515835400552 0.48382872387274839 0 0.40912633217135602 0.48377127363976219 0 0.39080647124379558 0.49999999999999922 0 0.40912633217135602 0.48377127363976219 0 0.39080647124379558 0.49999999999999922 0 0.39562515835400552 0.48382872387274839 0 0.41375472850504103 0.5 0 0.40912633217135602 0.48377127363976219 0 0.39080647124379558 0.49999999999999922 0 0.40912633217135602 0.48377127363976219 0 0.40257181831080802 0.47789339995616598 0 0.39562515835400552 0.48382872387274839 0 0.40882198151684829 0.470458307354371 0 0.40257181831080802 0.47789339995616598 0 0.3944208343110962 0.47305259584339332 0 0.40257181831080802 0.47789339995616598 0 0.3944208343110962 0.47305259584339332 0 0.39562515835400552 0.48382872387274839 0 0.34137977846588119 0.091947059702449957 0 0.3184977734976509 0.082531855017860187 0 0.34137977846588119 0.091947059702449957 0 0.33853514524224232 0.092154422351098803 0 0.3184977734976509 0.082531855017860187 0 0.33853514524224232 0.092154422351098803 0 0.3184977734976509 0.082531855017860187 0 0.3305269393921435 0.093893314460775035 0 0.34137977846588119 0.091947059702449957 0 0.33488127772135701 0.070909675734900868 0 0.3184977734976509 0.082531855017860187 0 0.33488127772135701 0.070909675734900868 0 0.35624300874513559 0.071190975121652081 0 0.33828509493208109 0.051113002016081502 0 0.3184977734976509 0.082531855017860187 0 0.31750720709783492 0.060828210965220328 0 0.30506359630307739 0.067813250175554993 0 0.33488127772135701 0.070909675734900868 0 0.32846421329825382 0.059059627678852658 0 0.31750720709783492 0.060828210965220328 0 0.33488127772135701 0.070909675734900868 0 0.3184977734976509 0.082531855017860187 0 0.31750720709783492 0.060828210965220328 0 0.3184977734976509 0.082531855017860187 0 0.3254096333834442 0.096971455496547829 0 0.3305269393921435 0.093893314460775035 0 0.3184977734976509 0.082531855017860187 0 0.3254096333834442 0.096971455496547829 0 0.31111548734401751 0.094174984339189319 0 0.3254096333834442 0.096971455496547829 0 0.33219394353324039 0.1121017755840282 0 0.31111548734401751 0.094174984339189319 0 0.33219394353324039 0.1121017755840282 0 0.31111548734401751 0.094174984339189319 0 0.33219394353324039 0.1121017755840282 0 0.31151194808720201 0.1150643222194616 0 0.31111548734401751 0.094174984339189319 0 0.33219394353324039 0.1121017755840282 0 0.31151194808720201 0.1150643222194616 0 0.32387679174541939 0.1297141718462434 0 0.33219394353324039 0.1121017755840282 0 0.32387679174541939 0.1297141718462434 0 0.35327239972246333 0.1300285668288671 0 0.33219394353324039 0.1121017755840282 0 0.35327239972246333 0.1300285668288671 0 0.33219394353324039 0.1121017755840282 0 0.34279585490336462 0.1026082003979065 0 0.35159211237321392 0.11222190062690381 0 0.33853514524224232 0.092154422351098803 0 0.3305269393921435 0.093893314460775035 0 0.33650548478629722 0.09727411407467923 0 0.3254096333834442 0.096971455496547829 0 0.33351858274250701 0.1005678965871936 0 0.3305269393921435 0.093893314460775035 0 0.33351858274250701 0.1005678965871936 0 0.3305269393921435 0.093893314460775035 0 0.33650548478629722 0.09727411407467923 0 0.3254096333834442 0.096971455496547829 0 0.33219394353324039 0.1121017755840282 0 0.33351858274250701 0.1005678965871936 0 0.33219394353324039 0.1121017755840282 0 0.33351858274250701 0.1005678965871936 0 0.34279585490336462 0.1026082003979065 0 0.33351858274250701 0.1005678965871936 0 0.34279585490336462 0.1026082003979065 0 0.33650548478629722 0.09727411407467923 0 0.33853514524224232 0.092154422351098803 0 0.34279585490336462 0.1026082003979065 0 0.33650548478629722 0.09727411407467923 0 0.34279585490336462 0.1026082003979065 0 0.35159211237321392 0.11222190062690381 0 0.36426178343411147 0.1013622643870397 0 0.33853514524224232 0.092154422351098803 0 0.34279585490336462 0.1026082003979065 0 0.36426178343411147 0.1013622643870397 0 0.34137977846588119 0.091947059702449957 0 0.33853514524224232 0.092154422351098803 0 0.36426178343411147 0.1013622643870397 0 0.33853514524224232 0.092154422351098803 0 0.36426178343411147 0.1013622643870397 0 0.34137977846588119 0.091947059702449957 0 0.36426178343411147 0.1013622643870397 0 0.33219394353324039 0.1121017755840282 0 0.35159211237321392 0.11222190062690381 0 0.35327239972246333 0.1300285668288671 0 0.35159211237321392 0.11222190062690381 0 0.36649271172908648 0.1176987398754743 0 0.35327239972246333 0.1300285668288671 0 0.35159211237321392 0.11222190062690381 0 0.36649271172908648 0.1176987398754743 0 0.36426178343411147 0.1013622643870397 0 0.36649271172908648 0.1176987398754743 0 0.36938385952287339 0.13266757129752671 0 0.38138511069115272 0.12353481432135879 0 0.36649271172908648 0.1176987398754743 0 0.36426178343411147 0.1013622643870397 0 0.3795225325030368 0.1068242515199407 0 0.36426178343411147 0.1013622643870397 0 0.3795225325030368 0.1068242515199407 0 0.36426178343411147 0.1013622643870397 0 0.3742009225581896 0.091268948227223284 0 0.3795225325030368 0.1068242515199407 0 0.3742009225581896 0.091268948227223284 0 0.35754778501084228 0.087847667021068221 0 0.35624300874513559 0.071190975121652081 0 0.36426178343411147 0.1013622643870397 0 0.3742009225581896 0.091268948227223284 0 0.35754778501084228 0.087847667021068221 0 0.3742009225581896 0.091268948227223284 0 0.35624300874513559 0.071190975121652081 0 0.34137977846588119 0.091947059702449957 0 0.35754778501084228 0.087847667021068221 0 0.35624300874513559 0.071190975121652081 0 0.34137977846588119 0.091947059702449957 0 0.36426178343411147 0.1013622643870397 0 0.35754778501084228 0.087847667021068221 0 0.34137977846588119 0.091947059702449957 0 0.33488127772135701 0.070909675734900868 0 0.35624300874513559 0.071190975121652081 0 0.3742009225581896 0.091268948227223284 0 0.35624300874513559 0.071190975121652081 0 0.37575225644292037 0.071709270247263784 0 0.35624300874513559 0.071190975121652081 0 0.36737709041569239 0.056764699852256018 0 0.37575225644292037 0.071709270247263784 0 0.36737709041569239 0.056764699852256018 0 0.36443667806580698 0.054513224756226962 0 0.39058826119953283 0.057913447496371839 0 0.36443667806580698 0.054513224756226962 0 0.36984281421283938 0.03924660656396721 0 0.37608467898805159 0.048096788967416412 0 0.36984281421283938 0.03924660656396721 0 0.35576481933353549 0.041718099984820838 0 0.3798040161112804 0.028996110171619349 0 0.35576481933353549 0.041718099984820838 0 0.36136411866671431 0.026161729739540451 0 0.37786156531075732 0.02725125369877367 0 0.35576481933353549 0.041718099984820838 0 0.3798040161112804 0.028996110171619349 0 0.37786156531075732 0.02725125369877367 0 0.35576481933353549 0.041718099984820838 0 0.3798040161112804 0.028996110171619349 0 0.36984281421283938 0.03924660656396721 0 0.37726993283737248 0.041439113600633092 0 0.37608467898805159 0.048096788967416412 0 0.36984281421283938 0.03924660656396721 0 0.37675727284589372 0.036323400775862158 0 0.37726993283737248 0.041439113600633092 0 0.36443667806580698 0.054513224756226962 0 0.36984281421283938 0.03924660656396721 0 0.35576481933353549 0.041718099984820838 0 0.35576481933353549 0.041718099984820838 0 0.36136411866671431 0.026161729739540451 0 0.34099279295720591 0.031691385536231111 0 0.35576481933353549 0.041718099984820838 0 0.34539840685914608 0.044617690611648012 0 0.34099279295720591 0.031691385536231111 0 0.35624300874513559 0.071190975121652081 0 0.34416591963185211 0.055615952208139578 0 0.33828509493208109 0.051113002016081502 0 0.36443667806580698 0.054513224756226962 0 0.34416591963185211 0.055615952208139578 0 0.33828509493208109 0.051113002016081502 0 0.36737709041569239 0.056764699852256018 0 0.34416591963185211 0.055615952208139578 0 0.35624300874513559 0.071190975121652081 0 0.33828509493208109 0.051113002016081502 0 0.35624300874513559 0.071190975121652081 0 0.36737709041569239 0.056764699852256018 0 0.34416591963185211 0.055615952208139578 0 0.36443667806580698 0.054513224756226962 0 0.33828509493208109 0.051113002016081502 0 0.36443667806580698 0.054513224756226962 0 0.34539840685914608 0.044617690611648012 0 0.33828509493208109 0.051113002016081502 0 0.36443667806580698 0.054513224756226962 0 0.35576481933353549 0.041718099984820838 0 0.34539840685914608 0.044617690611648012 0 0.36737709041569239 0.056764699852256018 0 0.36443667806580698 0.054513224756226962 0 0.34416591963185211 0.055615952208139578 0 0.35686418876597309 0.010252504770385159 0 0.37537418671591988 0.012891754799621079 0 0.3700201466167648 -0.002195575246397889 0 0.35686418876597309 0.010252504770385159 0 0.37786156531075732 0.02725125369877367 0 0.36136411866671431 0.026161729739540451 0 0.35686418876597309 0.010252504770385159 0 0.37786156531075732 0.02725125369877367 0 0.35686418876597309 0.010252504770385159 0 0.37537418671591988 0.012891754799621079 0 0.37786156531075732 0.02725125369877367 0 0.36136411866671431 0.026161729739540451 0 0.35686418876597309 0.010252504770385159 0 0.34167945108238768 0.015605415956853899 0 0.36136411866671431 0.026161729739540451 0 0.34167945108238768 0.015605415956853899 0 0.34099279295720591 0.031691385536231111 0 0.35686418876597309 0.010252504770385159 0 0.34167945108238768 0.015605415956853899 0 0.33586681222118892 -0.0067462441580033658 0 0.35686418876597309 0.010252504770385159 0 0.33586681222118892 -0.0067462441580033658 0 0.34167945108238768 0.015605415956853899 0 0.32490055802469708 0.021190940670656921 0 0.33586681222118892 -0.0067462441580033658 0 0.34167945108238768 0.015605415956853899 0 0.32490055802469708 0.021190940670656921 0 0.34099279295720591 0.031691385536231111 0 0.32490055802469708 0.021190940670656921 0 0.34099279295720591 0.031691385536231111 0 0.32801258046435111 0.036170166979635328 0 0.32490055802469708 0.021190940670656921 0 0.31497710433926901 0.036033128519756527 0 0.30595588987094691 0.026092456194660541 0 0.32490055802469708 0.021190940670656921 0 0.31046320235639918 0.0067575729804437252 0 0.30595588987094691 0.026092456194660541 0 0.32490055802469708 0.021190940670656921 0 0.32801258046435111 0.036170166979635328 0 0.31497710433926901 0.036033128519756527 0 0.32490055802469708 0.021190940670656921 0 0.31046320235639918 0.0067575729804437252 0 0.33586681222118892 -0.0067462441580033658 0 0.33488127772135701 0.070909675734900868 0 0.32846421329825382 0.059059627678852658 0 0.33828509493208109 0.051113002016081502 0 0.33828509493208109 0.051113002016081502 0 0.33632782521092219 0.048924662700562782 0 0.31456469921871788 0.048028881697348168 0 0.34539840685914608 0.044617690611648012 0 0.33828509493208109 0.051113002016081502 0 0.33632782521092219 0.048924662700562782 0 0.33828509493208109 0.051113002016081502 0 0.33632782521092219 0.048924662700562782 0 0.34539840685914608 0.044617690611648012 0 0.33609782728063148 0.04111054955314445 0 0.34099279295720591 0.031691385536231111 0 0.34539840685914608 0.044617690611648012 0 0.33632782521092219 0.048924662700562782 0 0.33609782728063148 0.04111054955314445 0 0.33609782728063148 0.04111054955314445 0 0.34099279295720591 0.031691385536231111 0 0.32801258046435111 0.036170166979635328 0 0.33632782521092219 0.048924662700562782 0 0.33609782728063148 0.04111054955314445 0 0.33051084790212298 0.042529329228536181 0 0.33632782521092219 0.048924662700562782 0 0.33051084790212298 0.042529329228536181 0 0.32327528761916352 0.043108517346294839 0 0.33609782728063148 0.04111054955314445 0 0.33051084790212298 0.042529329228536181 0 0.32801258046435111 0.036170166979635328 0 0.33632782521092219 0.048924662700562782 0 0.32327528761916352 0.043108517346294839 0 0.31456469921871788 0.048028881697348168 0 0.33051084790212298 0.042529329228536181 0 0.32327528761916352 0.043108517346294839 0 0.32801258046435111 0.036170166979635328 0 0.32327528761916352 0.043108517346294839 0 0.32801258046435111 0.036170166979635328 0 0.31497710433926901 0.036033128519756527 0 0.32327528761916352 0.043108517346294839 0 0.31497710433926901 0.036033128519756527 0 0.31456469921871788 0.048028881697348168 0 0.33828509493208109 0.051113002016081502 0 0.31456469921871788 0.048028881697348168 0 0.32846421329825382 0.059059627678852658 0 0.33828509493208109 0.051113002016081502 0 0.31456469921871788 0.048028881697348168 0 0.32846421329825382 0.059059627678852658 0 0.31456469921871788 0.048028881697348168 0 0.31750720709783492 0.060828210965220328 0 0.31456469921871788 0.048028881697348168 0 0.31750720709783492 0.060828210965220328 0 0.30386903740065402 0.05697431224277244 0 0.31750720709783492 0.060828210965220328 0 0.30386903740065402 0.05697431224277244 0 0.30506359630307739 0.067813250175554993 0 0.31456469921871788 0.048028881697348168 0 0.30386903740065402 0.05697431224277244 0 0.29084430350535467 0.044944761378613682 0 0.30386903740065402 0.05697431224277244 0 0.29325963230024937 0.057606978803657879 0 0.29690158384745241 0.06457818982176422 0 0.31456469921871788 0.048028881697348168 0 0.30257644158749403 0.037675663858353942 0 0.29084430350535467 0.044944761378613682 0 0.31456469921871788 0.048028881697348168 0 0.29084430350535467 0.044944761378613682 0 0.30257644158749403 0.037675663858353942 0 0.28728110375769011 0.032980092644635972 0 0.30595588987094691 0.026092456194660541 0 0.31497710433926901 0.036033128519756527 0 0.31456469921871788 0.048028881697348168 0 0.30257644158749403 0.037675663858353942 0 0.31497710433926901 0.036033128519756527 0 0.30257644158749403 0.037675663858353942 0 0.30595588987094691 0.026092456194660541 0 0.28728110375769011 0.032980092644635972 0 0.28354425329012439 0.021068516806879451 0 0.27754771987688809 0.040797440569893019 0 0.30257644158749403 0.037675663858353942 0 0.29084430350535467 0.044944761378613682 0 0.28728110375769011 0.032980092644635972 0 0.28728110375769011 0.032980092644635972 0 0.2844924432277231 0.043204628682168907 0 0.27754771987688809 0.040797440569893019 0 0.29084430350535467 0.044944761378613682 0 0.28728110375769011 0.032980092644635972 0 0.2844924432277231 0.043204628682168907 0 0.2844924432277231 0.043204628682168907 0 0.28229664577095948 0.054096220135532967 0 0.27754771987688809 0.040797440569893019 0 0.29084430350535467 0.044944761378613682 0 0.2844924432277231 0.043204628682168907 0 0.28229664577095948 0.054096220135532967 0 0.29084430350535467 0.044944761378613682 0 0.28229664577095948 0.054096220135532967 0 0.29325963230024937 0.057606978803657879 0 0.28229664577095948 0.054096220135532967 0 0.28695696052130792 0.062426000594819037 0 0.29325963230024937 0.057606978803657879 0 0.28229664577095948 0.054096220135532967 0 0.28695696052130792 0.062426000594819037 0 0.27961998430175328 0.060695812266760227 0 0.28695696052130792 0.062426000594819037 0 0.29325963230024937 0.057606978803657879 0 0.29690158384745241 0.06457818982176422 0 0.30386903740065402 0.05697431224277244 0 0.29084430350535467 0.044944761378613682 0 0.29325963230024937 0.057606978803657879 0 0.31046320235639918 0.0067575729804437252 0 0.29633736445586178 0.016145334388179639 0 0.2895407867033607 0.0013395930438658619 0 0.31046320235639918 0.0067575729804437252 0 0.30595588987094691 0.026092456194660541 0 0.29633736445586178 0.016145334388179639 0 0.28728110375769011 0.032980092644635972 0 0.29633736445586178 0.016145334388179639 0 0.28354425329012439 0.021068516806879451 0 0.28728110375769011 0.032980092644635972 0 0.30595588987094691 0.026092456194660541 0 0.29633736445586178 0.016145334388179639 0 0.29633736445586178 0.016145334388179639 0 0.28354425329012439 0.021068516806879451 0 0.2895407867033607 0.0013395930438658619 0 0.28354425329012439 0.021068516806879451 0 0.2895407867033607 0.0013395930438658619 0 0.27605408581287011 0.0090157940159830471 0 0.28354425329012439 0.021068516806879451 0 0.2895407867033607 0.0013395930438658619 0 0.2895407867033607 0.0013395930438658619 0 0.27605408581287011 0.0090157940159830471 0 0.26778398551549509 -0.0036893303100333872 0 0.27605408581287011 0.0090157940159830471 0 0.26417056773795178 0.0090152440179189393 0 0.26778398551549509 -0.0036893303100333872 0 0.27605408581287011 0.0090157940159830471 0 0.26936383070045983 0.02007531215695801 0 0.26417056773795178 0.0090152440179189393 0 0.28354425329012439 0.021068516806879451 0 0.27754771987688809 0.040797440569893019 0 0.28354425329012439 0.021068516806879451 0 0.27605408581287011 0.0090157940159830471 0 0.26936383070045983 0.02007531215695801 0 0.28354425329012439 0.021068516806879451 0 0.26936383070045983 0.02007531215695801 0 0.27332262009486957 0.033728107725222278 0 0.26936383070045983 0.02007531215695801 0 0.26667678125960848 0.028969541142501901 0 0.27332262009486957 0.033728107725222278 0 0.26936383070045983 0.02007531215695801 0 0.26667678125960848 0.028969541142501901 0 0.25978705670837199 0.02772172808684556 0 0.26667678125960848 0.028969541142501901 0 0.25978705670837199 0.02772172808684556 0 0.26423361753473251 0.034353016600981737 0 0.24818833723327199 0.02644705719899533 0 0.25978705670837199 0.02772172808684556 0 0.25442723867738032 0.016379625870619269 0 0.24818833723327199 0.02644705719899533 0 0.25978705670837199 0.02772172808684556 0 0.25704478259505842 0.035809011079610743 0 0.26936383070045983 0.02007531215695801 0 0.25978705670837199 0.02772172808684556 0 0.25442723867738032 0.016379625870619269 0 0.26936383070045983 0.02007531215695801 0 0.25442723867738032 0.016379625870619269 0 0.26417056773795178 0.0090152440179189393 0 0.25442723867738032 0.016379625870619269 0 0.26417056773795178 0.0090152440179189393 0 0.25322369798355371 0.0032948183560677501 0 0.26417056773795178 0.0090152440179189393 0 0.25322369798355371 0.0032948183560677501 0 0.26778398551549509 -0.0036893303100333872 0 0.28229664577095948 0.054096220135532967 0 0.27155118646365262 0.060526364332906778 0 0.27754771987688809 0.040797440569893019 0 0.26803735397675288 0.057537922442449492 0 0.27155118646365262 0.060526364332906778 0 0.27754771987688809 0.040797440569893019 0 0.27155118646365262 0.060526364332906778 0 0.27754771987688809 0.040797440569893019 0 0.26803735397675288 0.057537922442449492 0 0.26717674565759131 0.061414912581717808 0 0.27155118646365262 0.060526364332906778 0 0.26803735397675288 0.057537922442449492 0 0.26717674565759131 0.061414912581717808 0 0.26717674565759131 0.061414912581717808 0 0.27082486665434358 0.062915996334918609 0 0.26717674565759131 0.061414912581717808 0 0.27155118646365262 0.060526364332906778 0 0.27082486665434358 0.062915996334918609 0 0.27155118646365262 0.060526364332906778 0 0.27082486665434358 0.062915996334918609 0 0.26803735397675288 0.057537922442449492 0 0.27155118646365262 0.060526364332906778 0 0.27155118646365262 0.060526364332906778 0 0.27961998430175328 0.060695812266760227 0 0.27767514445109232 0.065734664003783444 0 0.28229664577095948 0.054096220135532967 0 0.27155118646365262 0.060526364332906778 0 0.27961998430175328 0.060695812266760227 0 0.28354425329012439 0.021068516806879451 0 0.27754771987688809 0.040797440569893019 0 0.27332262009486957 0.033728107725222278 0 0.26803735397675288 0.057537922442449492 0 0.27754771987688809 0.040797440569893019 0 0.27332262009486957 0.033728107725222278 0 0.26803735397675288 0.057537922442449492 0 0.27332262009486957 0.033728107725222278 0 0.26337349528673171 0.044011131262296957 0 0.26803735397675288 0.057537922442449492 0 0.27332262009486957 0.033728107725222278 0 0.26667678125960848 0.028969541142501901 0 0.27332262009486957 0.033728107725222278 0 0.26423361753473251 0.034353016600981737 0 0.27332262009486957 0.033728107725222278 0 0.26337349528673171 0.044011131262296957 0 0.26423361753473251 0.034353016600981737 0 0.25978705670837199 0.02772172808684556 0 0.26423361753473251 0.034353016600981737 0 0.25704478259505842 0.035809011079610743 0 0.26337349528673171 0.044011131262296957 0 0.26423361753473251 0.034353016600981737 0 0.25704478259505842 0.035809011079610743 0 0.2492733855269578 0.041579555173777823 0 0.24818833723327199 0.02644705719899533 0 0.25704478259505842 0.035809011079610743 0 0.2492733855269578 0.041579555173777823 0 0.26337349528673171 0.044011131262296957 0 0.25704478259505842 0.035809011079610743 0 0.2492733855269578 0.041579555173777823 0 0.26803735397675288 0.057537922442449492 0 0.26337349528673171 0.044011131262296957 0 0.2492733855269578 0.041579555173777823 0 0.26803735397675288 0.057537922442449492 0 0.24629062771517271 0.052820950830226497 0 0.2492733855269578 0.041579555173777823 0 0.26803735397675288 0.057537922442449492 0 0.24874122334595 0.07170785510379532 0 0.24629062771517271 0.052820950830226497 0 0.26717674565759131 0.061414912581717808 0 0.24629062771517271 0.052820950830226497 0 0.26717674565759131 0.061414912581717808 0 0.24629062771517271 0.052820950830226497 0 0.26803735397675288 0.057537922442449492 0 0.26717674565759131 0.061414912581717808 0 0.24874122334595 0.07170785510379532 0 0.26717674565759131 0.061414912581717808 0 0.26207170159221099 0.084412837492877896 0 0.26717674565759131 0.061414912581717808 0 0.26207170159221099 0.084412837492877896 0 0.26717674565759131 0.061414912581717808 0 0.26459661937193729 0.083407271434054076 0 0.26207170159221099 0.084412837492877896 0 0.24736227196270541 0.090270970101712061 0 0.24874122334595 0.07170785510379532 0 0.26207170159221099 0.084412837492877896 0 0.24736227196270541 0.090270970101712061 0 0.26207170159221099 0.084412837492877896 0 0.24736227196270541 0.090270970101712061 0 0.26016144869860108 0.09301841504440217 0 0.25459763100830068 0.096141582858552177 0 0.24736227196270541 0.090270970101712061 0 0.26207170159221099 0.084412837492877896 0 0.26016144869860108 0.09301841504440217 0 0.24736227196270541 0.090270970101712061 0 0.25459763100830068 0.096141582858552177 0 0.26459661937193729 0.083407271434054076 0 0.26207170159221099 0.084412837492877896 0 0.26207170159221099 0.084412837492877896 0 0.26016144869860108 0.09301841504440217 0 0.26459661937193729 0.083407271434054076 0 0.2619867778419176 0.09199379318438361 0 0.26207170159221099 0.084412837492877896 0 0.2619867778419176 0.09199379318438361 0 0.26016144869860108 0.09301841504440217 0 0.26459661937193729 0.083407271434054076 0 0.26207170159221099 0.084412837492877896 0 0.2619867778419176 0.09199379318438361 0 0.2619867778419176 0.09199379318438361 0 0.26016144869860108 0.09301841504440217 0 0.26459661937193729 0.083407271434054076 0 0.28765643041333783 0.074223541376674432 0 0.26459661937193729 0.083407271434054076 0 0.27601190449835611 0.084120993139366301 0 0.28765643041333783 0.074223541376674432 0 0.2619867778419176 0.09199379318438361 0 0.27601190449835611 0.084120993139366301 0 0.27597760534302263 0.093816081557894046 0 0.2619867778419176 0.09199379318438361 0 0.27601190449835611 0.084120993139366301 0 0.26459661937193729 0.083407271434054076 0 0.2619867778419176 0.09199379318438361 0 0.27601190449835611 0.084120993139366301 0 0.27601190449835611 0.084120993139366301 0 0.28527214605629803 0.093542631019163408 0 0.27597760534302263 0.093816081557894046 0 0.26459661937193729 0.083407271434054076 0 0.27082486665434358 0.062915996334918609 0 0.26717674565759131 0.061414912581717808 0 0.26459661937193729 0.083407271434054076 0 0.27082486665434358 0.062915996334918609 0 0.26459661937193729 0.083407271434054076 0 0.27082486665434358 0.062915996334918609 0 0.27767514445109232 0.065734664003783444 0 0.26459661937193729 0.083407271434054076 0 0.27767514445109232 0.065734664003783444 0 0.28765643041333783 0.074223541376674432 0 0.27155118646365262 0.060526364332906778 0 0.27082486665434358 0.062915996334918609 0 0.27767514445109232 0.065734664003783444 0 0.27082486665434358 0.062915996334918609 0 0.27767514445109232 0.065734664003783444 0 0.27155118646365262 0.060526364332906778 0 0.27767514445109232 0.065734664003783444 0 0.27767514445109232 0.065734664003783444 0 0.28765643041333783 0.074223541376674432 0 0.27767514445109232 0.065734664003783444 0 0.29306802488508721 0.072068336257275281 0 0.28695696052130792 0.062426000594819037 0 0.27961998430175328 0.060695812266760227 0 0.27767514445109232 0.065734664003783444 0 0.28695696052130792 0.062426000594819037 0 0.27767514445109232 0.065734664003783444 0 0.29306802488508721 0.072068336257275281 0 0.28695696052130792 0.062426000594819037 0 0.29306802488508721 0.072068336257275281 0 0.29690158384745241 0.06457818982176422 0 0.29561576852942001 0.073116650333272012 0 0.29306802488508721 0.072068336257275281 0 0.29561576852942001 0.073116650333272012 0 0.29306802488508721 0.072068336257275281 0 0.29003703115479512 0.076248193094349867 0 0.29306802488508721 0.072068336257275281 0 0.28765643041333783 0.074223541376674432 0 0.29306802488508721 0.072068336257275281 0 0.29003703115479512 0.076248193094349867 0 0.28765643041333783 0.074223541376674432 0 0.29561576852942001 0.073116650333272012 0 0.29003703115479512 0.076248193094349867 0 0.27767514445109232 0.065734664003783444 0 0.29306802488508721 0.072068336257275281 0 0.28765643041333783 0.074223541376674432 0 0.29003703115479512 0.076248193094349867 0 0.28765643041333783 0.074223541376674432 0 0.27601190449835611 0.084120993139366301 0 0.29003703115479512 0.076248193094349867 0 0.27601190449835611 0.084120993139366301 0 0.29003703115479512 0.076248193094349867 0 0.28765643041333783 0.074223541376674432 0 0.27601190449835611 0.084120993139366301 0 0.29003703115479512 0.076248193094349867 0 0.28870857493654689 0.086239244916881869 0 0.27601190449835611 0.084120993139366301 0 0.28870857493654689 0.086239244916881869 0 0.28527214605629803 0.093542631019163408 0 0.28870857493654689 0.086239244916881869 0 0.28527214605629803 0.093542631019163408 0 0.29246213629446111 0.095768124011444758 0 0.28870857493654689 0.086239244916881869 0 0.29698271976236568 0.089899813846382556 0 0.29246213629446111 0.095768124011444758 0 0.29003703115479512 0.076248193094349867 0 0.28870857493654689 0.086239244916881869 0 0.29698271976236568 0.089899813846382556 0 0.29561576852942001 0.073116650333272012 0 0.29003703115479512 0.076248193094349867 0 0.31111548734401751 0.094174984339189319 0 0.29003703115479512 0.076248193094349867 0 0.31111548734401751 0.094174984339189319 0 0.29003703115479512 0.076248193094349867 0 0.29698271976236568 0.089899813846382556 0 0.31111548734401751 0.094174984339189319 0 0.3184977734976509 0.082531855017860187 0 0.29561576852942001 0.073116650333272012 0 0.31111548734401751 0.094174984339189319 0 0.3184977734976509 0.082531855017860187 0 0.29561576852942001 0.073116650333272012 0 0.3184977734976509 0.082531855017860187 0 0.29561576852942001 0.073116650333272012 0 0.30506359630307739 0.067813250175554993 0 0.31750720709783492 0.060828210965220328 0 0.30506359630307739 0.067813250175554993 0 0.29306802488508721 0.072068336257275281 0 0.30506359630307739 0.067813250175554993 0 0.29690158384745241 0.06457818982176422 0 0.30386903740065402 0.05697431224277244 0 0.30506359630307739 0.067813250175554993 0 0.29690158384745241 0.06457818982176422 0 0.29306802488508721 0.072068336257275281 0 0.30506359630307739 0.067813250175554993 0 0.29561576852942001 0.073116650333272012 0 0.30506359630307739 0.067813250175554993 0 0.29561576852942001 0.073116650333272012 0 0.29306802488508721 0.072068336257275281 0 0.30506359630307739 0.067813250175554993 0 0.31151194808720201 0.1150643222194616 0 0.30247500772594699 0.1071381656543656 0 0.29129275041579278 0.1172303442398579 0 0.31151194808720201 0.1150643222194616 0 0.29622008012258699 0.12991313160987961 0 0.32387679174541939 0.1297141718462434 0 0.31151194808720201 0.1150643222194616 0 0.29129275041579278 0.1172303442398579 0 0.29622008012258699 0.12991313160987961 0 0.31151194808720201 0.1150643222194616 0 0.31111548734401751 0.094174984339189319 0 0.30247500772594699 0.1071381656543656 0 0.31111548734401751 0.094174984339189319 0 0.30128354362195031 0.098124169066782854 0 0.30247500772594699 0.1071381656543656 0 0.29698271976236568 0.089899813846382556 0 0.30128354362195031 0.098124169066782854 0 0.29246213629446111 0.095768124011444758 0 0.29698271976236568 0.089899813846382556 0 0.31111548734401751 0.094174984339189319 0 0.30128354362195031 0.098124169066782854 0 0.30128354362195031 0.098124169066782854 0 0.30247500772594699 0.1071381656543656 0 0.29260899031297011 0.10538418601464609 0 0.29260899031297011 0.10538418601464609 0 0.29246213629446111 0.095768124011444758 0 0.28702757351663483 0.1001100210532227 0 0.30128354362195031 0.098124169066782854 0 0.29260899031297011 0.10538418601464609 0 0.29246213629446111 0.095768124011444758 0 0.28527214605629803 0.093542631019163408 0 0.29246213629446111 0.095768124011444758 0 0.28702757351663483 0.1001100210532227 0 0.28527214605629803 0.093542631019163408 0 0.28702757351663483 0.1001100210532227 0 0.28108272677848523 0.099874609951530163 0 0.29260899031297011 0.10538418601464609 0 0.28356239405763972 0.106033323917978 0 0.28664880997705461 0.11131452551203889 0 0.29260899031297011 0.10538418601464609 0 0.28702757351663483 0.1001100210532227 0 0.28356239405763972 0.106033323917978 0 0.28702757351663483 0.1001100210532227 0 0.28356239405763972 0.106033323917978 0 0.28108272677848523 0.099874609951530163 0 0.28356239405763972 0.106033323917978 0 0.2814598539497668 0.10990299155730229 0 0.28664880997705461 0.11131452551203889 0 0.27786688771157569 0.1150217509861922 0 0.29622008012258699 0.12991313160987961 0 0.28664880997705461 0.11131452551203889 0 0.29129275041579278 0.1172303442398579 0 0.27786688771157569 0.1150217509861922 0 0.27786688771157569 0.1150217509861922 0 0.27913813953766042 0.12972245958528131 0 0.29622008012258699 0.12991313160987961 0 0.29129275041579278 0.1172303442398579 0 0.27786688771157569 0.1150217509861922 0 0.29622008012258699 0.12991313160987961 0 0.2814598539497668 0.10990299155730229 0 0.28664880997705461 0.11131452551203889 0 0.27786688771157569 0.1150217509861922 0 0.30247500772594699 0.1071381656543656 0 0.29260899031297011 0.10538418601464609 0 0.29129275041579278 0.1172303442398579 0 0.29260899031297011 0.10538418601464609 0 0.28664880997705461 0.11131452551203889 0 0.29129275041579278 0.1172303442398579 0 0.27418517611644572 0.1163335826691398 0 0.26638390190257438 0.1102685147937751 0 0.25655208948606423 0.10927836717886751 0 0.27786688771157569 0.1150217509861922 0 0.27418517611644572 0.1163335826691398 0 0.27913813953766042 0.12972245958528131 0 0.27418517611644572 0.1163335826691398 0 0.27248198541775659 0.12784311929978001 0 0.27913813953766042 0.12972245958528131 0 0.2814598539497668 0.10990299155730229 0 0.27786688771157569 0.1150217509861922 0 0.27702128122739278 0.10689832557857171 0 0.27786688771157569 0.1150217509861922 0 0.27418517611644572 0.1163335826691398 0 0.26638390190257438 0.1102685147937751 0 0.27418517611644572 0.1163335826691398 0 0.26888095198589312 0.11979825388229511 0 0.26487973471170051 0.1148861259760711 0 0.27418517611644572 0.1163335826691398 0 0.26888095198589312 0.11979825388229511 0 0.27248198541775659 0.12784311929978001 0 0.26888095198589312 0.11979825388229511 0 0.26519442307348812 0.1188177922564181 0 0.26487973471170051 0.1148861259760711 0 0.26888095198589312 0.11979825388229511 0 0.26562400985315288 0.1251654340079911 0 0.27248198541775659 0.12784311929978001 0 0.26888095198589312 0.11979825388229511 0 0.26519442307348812 0.1188177922564181 0 0.26562400985315288 0.1251654340079911 0 0.27786688771157569 0.1150217509861922 0 0.26638390190257438 0.1102685147937751 0 0.25872482925013801 0.09949030162923457 0 0.27786688771157569 0.1150217509861922 0 0.25872482925013801 0.09949030162923457 0 0.27786688771157569 0.1150217509861922 0 0.27150352658480642 0.1040925172930806 0 0.25872482925013801 0.09949030162923457 0 0.28527214605629803 0.093542631019163408 0 0.27597760534302263 0.093816081557894046 0 0.28108272677848523 0.099874609951530163 0 0.27597760534302263 0.093816081557894046 0 0.28108272677848523 0.099874609951530163 0 0.27461357126647679 0.10027579108255071 0 0.27786688771157569 0.1150217509861922 0 0.27702128122739278 0.10689832557857171 0 0.27150352658480642 0.1040925172930806 0 0.27461357126647679 0.10027579108255071 0 0.27702128122739278 0.10689832557857171 0 0.27150352658480642 0.1040925172930806 0 0.28356239405763972 0.106033323917978 0 0.28108272677848523 0.099874609951530163 0 0.27702128122739278 0.10689832557857171 0 0.28108272677848523 0.099874609951530163 0 0.27461357126647679 0.10027579108255071 0 0.27702128122739278 0.10689832557857171 0 0.28356239405763972 0.106033323917978 0 0.2814598539497668 0.10990299155730229 0 0.27702128122739278 0.10689832557857171 0 0.2619867778419176 0.09199379318438361 0 0.27597760534302263 0.093816081557894046 0 0.26850219741802223 0.0981363484555835 0 0.27150352658480642 0.1040925172930806 0 0.26850219741802223 0.0981363484555835 0 0.25872482925013801 0.09949030162923457 0 0.27461357126647679 0.10027579108255071 0 0.27150352658480642 0.1040925172930806 0 0.26850219741802223 0.0981363484555835 0 0.27597760534302263 0.093816081557894046 0 0.27461357126647679 0.10027579108255071 0 0.26850219741802223 0.0981363484555835 0 0.2619867778419176 0.09199379318438361 0 0.26850219741802223 0.0981363484555835 0 0.25872482925013801 0.09949030162923457 0 0.2619867778419176 0.09199379318438361 0 0.26016144869860108 0.09301841504440217 0 0.25872482925013801 0.09949030162923457 0 0.2619867778419176 0.09199379318438361 0 0.25872482925013801 0.09949030162923457 0 0.26016144869860108 0.09301841504440217 0 0.25872482925013801 0.09949030162923457 0 0.26016144869860108 0.09301841504440217 0 0.25872482925013801 0.09949030162923457 0 0.25459763100830068 0.096141582858552177 0 0.26638390190257438 0.1102685147937751 0 0.25872482925013801 0.09949030162923457 0 0.26054083413963042 0.1068609537315081 0 0.26638390190257438 0.1102685147937751 0 0.26054083413963042 0.1068609537315081 0 0.25655208948606423 0.10927836717886751 0 0.25872482925013801 0.09949030162923457 0 0.258042440935632 0.10497087790269199 0 0.26054083413963042 0.1068609537315081 0 0.25872482925013801 0.09949030162923457 0 0.258042440935632 0.10497087790269199 0 0.258042440935632 0.10497087790269199 0 0.26054083413963042 0.1068609537315081 0 0.25655208948606423 0.10927836717886751 0 0.25872482925013801 0.09949030162923457 0 0.25655208948606423 0.10927836717886751 0 0.25872482925013801 0.09949030162923457 0 0.25655208948606423 0.10927836717886751 0 0.25459763100830068 0.096141582858552177 0 0.24174744587836799 0.1033548466348798 0 0.25655208948606423 0.10927836717886751 0 0.25459763100830068 0.096141582858552177 0 0.25872482925013801 0.09949030162923457 0 0.258042440935632 0.10497087790269199 0 0.25655208948606423 0.10927836717886751 0 0.25872482925013801 0.09949030162923457 0 0.25459763100830068 0.096141582858552177 0 0.26016144869860108 0.09301841504440217 0 0.25459763100830068 0.096141582858552177 0 0.27418517611644572 0.1163335826691398 0 0.25655208948606423 0.10927836717886751 0 0.26487973471170051 0.1148861259760711 0 0.27418517611644572 0.1163335826691398 0 0.25655208948606423 0.10927836717886751 0 0.2613903323121034 0.11972876860365821 0 0.25824300399834771 0.11754386918627879 0 0.25813574029091341 0.12532111527980791 0 0.2613903323121034 0.11972876860365821 0 0.25824300399834771 0.11754386918627879 0 0.26064106818342869 0.11649387083006101 0 0.2613903323121034 0.11972876860365821 0 0.26303182906276251 0.1167652494283456 0 0.26064106818342869 0.11649387083006101 0 0.2613903323121034 0.11972876860365821 0 0.25813574029091341 0.12532111527980791 0 0.26562400985315288 0.1251654340079911 0 0.2613903323121034 0.11972876860365821 0 0.26519442307348812 0.1188177922564181 0 0.26562400985315288 0.1251654340079911 0 0.2613903323121034 0.11972876860365821 0 0.26519442307348812 0.1188177922564181 0 0.26303182906276251 0.1167652494283456 0 0.26487973471170051 0.1148861259760711 0 0.2618287337373767 0.1148464313763837 0 0.2589676606418963 0.1122376160430168 0 0.25655208948606423 0.10927836717886751 0 0.26487973471170051 0.1148861259760711 0 0.2589676606418963 0.1122376160430168 0 0.26519442307348812 0.1188177922564181 0 0.26487973471170051 0.1148861259760711 0 0.26303182906276251 0.1167652494283456 0 0.26487973471170051 0.1148861259760711 0 0.2618287337373767 0.1148464313763837 0 0.26303182906276251 0.1167652494283456 0 0.2618287337373767 0.1148464313763837 0 0.26303182906276251 0.1167652494283456 0 0.26064106818342869 0.11649387083006101 0 0.2618287337373767 0.1148464313763837 0 0.26064106818342869 0.11649387083006101 0 0.26015078570541528 0.1146524558252945 0 0.2618287337373767 0.1148464313763837 0 0.2589676606418963 0.1122376160430168 0 0.26015078570541528 0.1146524558252945 0 0.2589676606418963 0.1122376160430168 0 0.26015078570541528 0.1146524558252945 0 0.25777400528710798 0.1147846643059361 0 0.25824300399834771 0.11754386918627879 0 0.26015078570541528 0.1146524558252945 0 0.25777400528710798 0.1147846643059361 0 0.25824300399834771 0.11754386918627879 0 0.26064106818342869 0.11649387083006101 0 0.26015078570541528 0.1146524558252945 0 0.24646482385440791 0.1109165710353929 0 0.25655208948606423 0.10927836717886751 0 0.255186127323073 0.11543194682551421 0 0.25824300399834771 0.11754386918627879 0 0.25777400528710798 0.1147846643059361 0 0.255186127323073 0.11543194682551421 0 0.2589676606418963 0.1122376160430168 0 0.25777400528710798 0.1147846643059361 0 0.255186127323073 0.11543194682551421 0 0.25655208948606423 0.10927836717886751 0 0.255186127323073 0.11543194682551421 0 0.25655208948606423 0.10927836717886751 0 0.2589676606418963 0.1122376160430168 0 0.255186127323073 0.11543194682551421 0 0.255186127323073 0.11543194682551421 0 0.25238596385504641 0.12804651946228041 0 0.24420216851797599 0.1292372680552665 0 0.255186127323073 0.11543194682551421 0 0.25238596385504641 0.12804651946228041 0 0.255186127323073 0.11543194682551421 0 0.25238596385504641 0.12804651946228041 0 0.25813574029091341 0.12532111527980791 0 0.25824300399834771 0.11754386918627879 0 0.255186127323073 0.11543194682551421 0 0.25813574029091341 0.12532111527980791 0 0.25238596385504641 0.12804651946228041 0 0.25813574029091341 0.12532111527980791 0 0.26818611498992623 0.1403022215883418 0 0.24420216851797599 0.1292372680552665 0 0.26818611498992623 0.1403022215883418 0 0.24301228879775941 0.13939302681245261 0 0.24420216851797599 0.1292372680552665 0 0.26818611498992623 0.1403022215883418 0 0.24420216851797599 0.1292372680552665 0 0.25238596385504641 0.12804651946228041 0 0.26818611498992623 0.1403022215883418 0 0.25813574029091341 0.12532111527980791 0 0.26562400985315288 0.1251654340079911 0 0.26818611498992623 0.1403022215883418 0 0.27248198541775659 0.12784311929978001 0 0.26818611498992623 0.1403022215883418 0 0.27913813953766042 0.12972245958528131 0 0.26562400985315288 0.1251654340079911 0 0.27248198541775659 0.12784311929978001 0 0.26818611498992623 0.1403022215883418 0 0.26818611498992623 0.1403022215883418 0 0.27913813953766042 0.12972245958528131 0 0.28414721419066807 0.1482284927670183 0 0.26818611498992623 0.1403022215883418 0 0.26583546295036609 0.16369396270660089 0 0.28414721419066807 0.1482284927670183 0 0.26818611498992623 0.1403022215883418 0 0.25486404381895789 0.1523024957907583 0 0.26583546295036609 0.16369396270660089 0 0.24301228879775941 0.13939302681245261 0 0.26818611498992623 0.1403022215883418 0 0.25486404381895789 0.1523024957907583 0 0.2424223085377801 0.16582077205563811 0 0.25486404381895789 0.1523024957907583 0 0.26583546295036609 0.16369396270660089 0 0.2424223085377801 0.16582077205563811 0 0.26032431562704572 0.18342712708893841 0 0.26583546295036609 0.16369396270660089 0 0.26032431562704572 0.18342712708893841 0 0.27712404590978218 0.18082877805207789 0 0.26583546295036609 0.16369396270660089 0 0.27712404590978218 0.18082877805207789 0 0.26583546295036609 0.16369396270660089 0 0.28977860037431658 0.16805367250728201 0 0.26583546295036609 0.16369396270660089 0 0.28977860037431658 0.16805367250728201 0 0.28414721419066807 0.1482284927670183 0 0.27712404590978218 0.18082877805207789 0 0.28977860037431658 0.16805367250728201 0 0.29478084704188562 0.18627619782702401 0 0.28977860037431658 0.16805367250728201 0 0.29478084704188562 0.18627619782702401 0 0.31259037162619269 0.16725562300018509 0 0.29478084704188562 0.18627619782702401 0 0.31732062797233113 0.1926592597090995 0 0.31259037162619269 0.16725562300018509 0 0.28977860037431658 0.16805367250728201 0 0.29946190776947251 0.15165108642358641 0 0.31259037162619269 0.16725562300018509 0 0.29946190776947251 0.15165108642358641 0 0.31457327253359829 0.14480451223356691 0 0.31259037162619269 0.16725562300018509 0 0.29946190776947251 0.15165108642358641 0 0.29622008012258699 0.12991313160987961 0 0.31457327253359829 0.14480451223356691 0 0.29622008012258699 0.12991313160987961 0 0.31457327253359829 0.14480451223356691 0 0.29622008012258699 0.12991313160987961 0 0.32387679174541939 0.1297141718462434 0 0.31457327253359829 0.14480451223356691 0 0.27913813953766042 0.12972245958528131 0 0.29622008012258699 0.12991313160987961 0 0.28414721419066807 0.1482284927670183 0 0.29946190776947251 0.15165108642358641 0 0.29622008012258699 0.12991313160987961 0 0.28414721419066807 0.1482284927670183 0 0.28977860037431658 0.16805367250728201 0 0.29946190776947251 0.15165108642358641 0 0.28414721419066807 0.1482284927670183 0 0.27355486584907379 0.24364475180805101 0 0.25452501640087027 0.2374112721999547 0 0.26408278890255732 0.22479217687295791 0 0.25404003316197471 0.25208422786308371 0 0.27355486584907379 0.24364475180805101 0 0.25452501640087027 0.2374112721999547 0 0.24523436150048811 0.24199469982198529 0 0.25404003316197471 0.25208422786308371 0 0.25452501640087027 0.2374112721999547 0 0.24868260911088891 0.2303107595792985 0 0.2471090749199483 0.2357199094212839 0 0.25452501640087027 0.2374112721999547 0 0.24868260911088891 0.2303107595792985 0 0.25452501640087027 0.2374112721999547 0 0.26408278890255732 0.22479217687295791 0 0.24868260911088891 0.2303107595792985 0 0.26408278890255732 0.22479217687295791 0 0.25357276657721323 0.21641202867955539 0 0.27355486584907379 0.24364475180805101 0 0.26408278890255732 0.22479217687295791 0 0.28109637724199782 0.22150209212538899 0 0.26408278890255732 0.22479217687295791 0 0.28109637724199782 0.22150209212538899 0 0.27306509823529962 0.19947215684549871 0 0.26408278890255732 0.22479217687295791 0 0.25357276657721323 0.21641202867955539 0 0.27306509823529962 0.19947215684549871 0 0.25357276657721323 0.21641202867955539 0 0.25471258750952741 0.20148162901819469 0 0.27306509823529962 0.19947215684549871 0 0.25357276657721323 0.21641202867955539 0 0.27306509823529962 0.19947215684549871 0 0.2418323282778008 0.1922485172988235 0 0.26032431562704572 0.18342712708893841 0 0.25471258750952741 0.20148162901819469 0 0.26032431562704572 0.18342712708893841 0 0.25471258750952741 0.20148162901819469 0 0.27306509823529962 0.19947215684549871 0 0.26032431562704572 0.18342712708893841 0 0.27712404590978218 0.18082877805207789 0 0.27306509823529962 0.19947215684549871 0 0.29478084704188562 0.18627619782702401 0 0.27306509823529962 0.19947215684549871 0 0.29788838547339219 0.20777731020547871 0 0.27712404590978218 0.18082877805207789 0 0.29478084704188562 0.18627619782702401 0 0.27306509823529962 0.19947215684549871 0 0.29478084704188562 0.18627619782702401 0 0.29788838547339219 0.20777731020547871 0 0.31732062797233113 0.1926592597090995 0 0.29788838547339219 0.20777731020547871 0 0.31916040529159301 0.2166328624030785 0 0.31732062797233113 0.1926592597090995 0 0.28109637724199782 0.22150209212538899 0 0.27306509823529962 0.19947215684549871 0 0.29788838547339219 0.20777731020547871 0 0.28109637724199782 0.22150209212538899 0 0.29788838547339219 0.20777731020547871 0 0.29668368374297521 0.23238313674276659 0 0.27355486584907379 0.24364475180805101 0 0.28109637724199782 0.22150209212538899 0 0.29668368374297521 0.23238313674276659 0 0.29788838547339219 0.20777731020547871 0 0.29668368374297521 0.23238313674276659 0 0.31916040529159301 0.2166328624030785 0 0.29692855903906679 0.25537037528416417 0 0.29668368374297521 0.23238313674276659 0 0.32448256229391081 0.244023600812113 0 0.29692855903906679 0.25537037528416417 0 0.27355486584907379 0.24364475180805101 0 0.29668368374297521 0.23238313674276659 0 0.32448256229391081 0.244023600812113 0 0.33724611662768478 0.226971671205 0 0.35052125483258301 0.2434514759103418 0 0.32448256229391081 0.244023600812113 0 0.33724611662768478 0.226971671205 0 0.31916040529159301 0.2166328624030785 0 0.29668368374297521 0.23238313674276659 0 0.32448256229391081 0.244023600812113 0 0.31916040529159301 0.2166328624030785 0 0.33724611662768478 0.226971671205 0 0.31916040529159301 0.2166328624030785 0 0.34036716376080012 0.20191553243135291 0 0.31916040529159301 0.2166328624030785 0 0.31732062797233113 0.1926592597090995 0 0.34036716376080012 0.20191553243135291 0 0.31732062797233113 0.1926592597090995 0 0.34036716376080012 0.20191553243135291 0 0.33327910971122948 0.1769249887409369 0 0.34036716376080012 0.20191553243135291 0 0.33327910971122948 0.1769249887409369 0 0.35363051640006049 0.1838751638919715 0 0.34036716376080012 0.20191553243135291 0 0.36940151407566268 0.20038014978660379 0 0.35363051640006049 0.1838751638919715 0 0.36940151407566268 0.20038014978660379 0 0.35418005050780299 0.2186338278764331 0 0.36970064025412291 0.2313836502337521 0 0.34036716376080012 0.20191553243135291 0 0.36940151407566268 0.20038014978660379 0 0.35418005050780299 0.2186338278764331 0 0.33724611662768478 0.226971671205 0 0.34036716376080012 0.20191553243135291 0 0.35418005050780299 0.2186338278764331 0 0.33724611662768478 0.226971671205 0 0.35418005050780299 0.2186338278764331 0 0.35052125483258301 0.2434514759103418 0 0.35418005050780299 0.2186338278764331 0 0.36970064025412291 0.2313836502337521 0 0.35052125483258301 0.2434514759103418 0 0.37478492512234668 0.26235925763296819 0 0.36970064025412291 0.2313836502337521 0 0.35052125483258301 0.2434514759103418 0 0.33497932682518311 0.1519205034936916 0 0.32387679174541939 0.1297141718462434 0 0.35327239972246333 0.1300285668288671 0 0.33497932682518311 0.1519205034936916 0 0.31457327253359829 0.14480451223356691 0 0.31259037162619269 0.16725562300018509 0 0.33497932682518311 0.1519205034936916 0 0.32387679174541939 0.1297141718462434 0 0.31457327253359829 0.14480451223356691 0 0.33497932682518311 0.1519205034936916 0 0.31259037162619269 0.16725562300018509 0 0.33327910971122948 0.1769249887409369 0 0.31732062797233113 0.1926592597090995 0 0.31259037162619269 0.16725562300018509 0 0.33327910971122948 0.1769249887409369 0 0.33497932682518311 0.1519205034936916 0 0.33327910971122948 0.1769249887409369 0 0.34907151432127381 0.16521020144779211 0 0.34907151432127381 0.16521020144779211 0 0.35363051640006049 0.1838751638919715 0 0.37277469716236061 0.17385369407461371 0 0.33327910971122948 0.1769249887409369 0 0.34907151432127381 0.16521020144779211 0 0.35363051640006049 0.1838751638919715 0 0.36940151407566268 0.20038014978660379 0 0.35363051640006049 0.1838751638919715 0 0.37277469716236061 0.17385369407461371 0 0.37277469716236061 0.17385369407461371 0 0.36285879787080821 0.15032831482926681 0 0.3843829660287168 0.1587008111838667 0 0.34907151432127381 0.16521020144779211 0 0.37277469716236061 0.17385369407461371 0 0.36285879787080821 0.15032831482926681 0 0.36285879787080821 0.15032831482926681 0 0.36938385952287339 0.13266757129752671 0 0.38232915319187621 0.14145147187989651 0 0.33497932682518311 0.1519205034936916 0 0.36285879787080821 0.15032831482926681 0 0.35327239972246333 0.1300285668288671 0 0.33497932682518311 0.1519205034936916 0 0.34907151432127381 0.16521020144779211 0 0.36285879787080821 0.15032831482926681 0 0.36649271172908648 0.1176987398754743 0 0.35327239972246333 0.1300285668288671 0 0.36938385952287339 0.13266757129752671 0 0.36285879787080821 0.15032831482926681 0 0.35327239972246333 0.1300285668288671 0 0.36938385952287339 0.13266757129752671 0 0.39421974672685411 0.13240309148155921 0 0.38232915319187621 0.14145147187989651 0 0.38138511069115272 0.12353481432135879 0 0.36938385952287339 0.13266757129752671 0 0.38232915319187621 0.14145147187989651 0 0.38138511069115272 0.12353481432135879 0 0.39421974672685411 0.13240309148155921 0 0.41199731756477831 0.13352747615702071 0 0.3942733283070321 0.11371104406223111 0 0.39421974672685411 0.13240309148155921 0 0.40120830104283178 0.15077536395034899 0 0.41199731756477831 0.13352747615702071 0 0.39421974672685411 0.13240309148155921 0 0.40120830104283178 0.15077536395034899 0 0.38232915319187621 0.14145147187989651 0 0.36285879787080821 0.15032831482926681 0 0.38232915319187621 0.14145147187989651 0 0.3843829660287168 0.1587008111838667 0 0.40120830104283178 0.15077536395034899 0 0.38232915319187621 0.14145147187989651 0 0.3843829660287168 0.1587008111838667 0 0.37277469716236061 0.17385369407461371 0 0.3843829660287168 0.1587008111838667 0 0.39936082591505218 0.176604797209717 0 0.37277469716236061 0.17385369407461371 0 0.39936082591505218 0.176604797209717 0 0.38992891259608609 0.19548318162929729 0 0.40120830104283178 0.15077536395034899 0 0.39936082591505218 0.176604797209717 0 0.41410660213767347 0.1652382216241598 0 0.40120830104283178 0.15077536395034899 0 0.3843829660287168 0.1587008111838667 0 0.39936082591505218 0.176604797209717 0 0.40120830104283178 0.15077536395034899 0 0.41410660213767347 0.1652382216241598 0 0.42972130682252457 0.1533439082518103 0 0.39936082591505218 0.176604797209717 0 0.41410660213767347 0.1652382216241598 0 0.42626679864566441 0.18172907206941921 0 0.42626679864566441 0.18172907206941921 0 0.42972130682252457 0.1533439082518103 0 0.45055708181009879 0.1690731760043504 0 0.41410660213767347 0.1652382216241598 0 0.42626679864566441 0.18172907206941921 0 0.42972130682252457 0.1533439082518103 0 0.42972130682252457 0.1533439082518103 0 0.43054248402473921 0.1250848439374013 0 0.44904083753606949 0.1441389705362057 0 0.42972130682252457 0.1533439082518103 0 0.43054248402473921 0.1250848439374013 0 0.41199731756477831 0.13352747615702071 0 0.43054248402473921 0.1250848439374013 0 0.41199731756477831 0.13352747615702071 0 0.41135066019799099 0.1182158826350982 0 0.40120830104283178 0.15077536395034899 0 0.42972130682252457 0.1533439082518103 0 0.41199731756477831 0.13352747615702071 0 0.42972130682252457 0.1533439082518103 0 0.41199731756477831 0.13352747615702071 0 0.40097752291506289 0.25902709479471048 0 0.39333580902427501 0.24081282939082621 0 0.41286841049430861 0.24788583003777651 0 0.37478492512234668 0.26235925763296819 0 0.36970064025412291 0.2313836502337521 0 0.39333580902427501 0.24081282939082621 0 0.36970064025412291 0.2313836502337521 0 0.39333580902427501 0.24081282939082621 0 0.39338333076520482 0.2163019563834182 0 0.39338333076520482 0.2163019563834182 0 0.41736514745474701 0.23222376298023259 0 0.39333580902427501 0.24081282939082621 0 0.39338333076520482 0.2163019563834182 0 0.41736514745474701 0.23222376298023259 0 0.39338333076520482 0.2163019563834182 0 0.38992891259608609 0.19548318162929729 0 0.41508715600771068 0.20488700545500521 0 0.36940151407566268 0.20038014978660379 0 0.39338333076520482 0.2163019563834182 0 0.36940151407566268 0.20038014978660379 0 0.39338333076520482 0.2163019563834182 0 0.38992891259608609 0.19548318162929729 0 0.36940151407566268 0.20038014978660379 0 0.36970064025412291 0.2313836502337521 0 0.39338333076520482 0.2163019563834182 0 0.36940151407566268 0.20038014978660379 0 0.37277469716236061 0.17385369407461371 0 0.38992891259608609 0.19548318162929729 0 0.39936082591505218 0.176604797209717 0 0.38992891259608609 0.19548318162929729 0 0.41508715600771068 0.20488700545500521 0 0.39936082591505218 0.176604797209717 0 0.42626679864566441 0.18172907206941921 0 0.41508715600771068 0.20488700545500521 0 0.42626679864566441 0.18172907206941921 0 0.44140000057487638 0.20455834627575151 0 0.44473765559285833 0.18692520255949671 0 0.42626679864566441 0.18172907206941921 0 0.41508715600771068 0.20488700545500521 0 0.44140000057487638 0.20455834627575151 0 0.41508715600771068 0.20488700545500521 0 0.43790507610234408 0.2273079216372012 0 0.44140000057487638 0.20455834627575151 0 0.39338333076520482 0.2163019563834182 0 0.41508715600771068 0.20488700545500521 0 0.41736514745474701 0.23222376298023259 0 0.41508715600771068 0.20488700545500521 0 0.41736514745474701 0.23222376298023259 0 0.43790507610234408 0.2273079216372012 0 0.42717012070777932 0.25569493195645271 0 0.41736514745474701 0.23222376298023259 0 0.44134696414428898 0.24814556957704689 0 0.41736514745474701 0.23222376298023259 0 0.44134696414428898 0.24814556957704689 0 0.41736514745474701 0.23222376298023259 0 0.44134696414428898 0.24814556957704689 0 0.43790507610234408 0.2273079216372012 0 0.39333580902427501 0.24081282939082621 0 0.41736514745474701 0.23222376298023259 0 0.41286841049430861 0.24788583003777651 0 0.42717012070777932 0.25569493195645271 0 0.41736514745474701 0.23222376298023259 0 0.41286841049430861 0.24788583003777651 0 0.45336271850049548 0.25236276911819511 0 0.45602225988021539 0.23816249748875179 0 0.48180965237011408 0.2487438147612096 0 0.45336271850049548 0.25236276911819511 0 0.45602225988021539 0.23816249748875179 0 0.44134696414428898 0.24814556957704689 0 0.44600400848591359 0.23698591979390529 0 0.43790507610234408 0.2273079216372012 0 0.45336271850049548 0.25236276911819511 0 0.44134696414428898 0.24814556957704689 0 0.44600400848591359 0.23698591979390529 0 0.45336271850049548 0.25236276911819511 0 0.45602225988021539 0.23816249748875179 0 0.44600400848591359 0.23698591979390529 0 0.45602225988021539 0.23816249748875179 0 0.44600400848591359 0.23698591979390529 0 0.45492939023952461 0.2194397610932603 0 0.44600400848591359 0.23698591979390529 0 0.43790507610234408 0.2273079216372012 0 0.45492939023952461 0.2194397610932603 0 0.45602225988021539 0.23816249748875179 0 0.45492939023952461 0.2194397610932603 0 0.47419086539053962 0.2296972043723752 0 0.45492939023952461 0.2194397610932603 0 0.46072674134079361 0.19234021588846559 0 0.47847088324409548 0.2092058758105422 0 0.45492939023952461 0.2194397610932603 0 0.44140000057487638 0.20455834627575151 0 0.46072674134079361 0.19234021588846559 0 0.43790507610234408 0.2273079216372012 0 0.45492939023952461 0.2194397610932603 0 0.44140000057487638 0.20455834627575151 0 0.44140000057487638 0.20455834627575151 0 0.46072674134079361 0.19234021588846559 0 0.44473765559285833 0.18692520255949671 0 0.46072674134079361 0.19234021588846559 0 0.4812983336831132 0.1885899983914231 0 0.47847088324409548 0.2092058758105422 0 0.4812983336831132 0.1885899983914231 0 0.5 0.19797878532577309 0 0.47847088324409548 0.2092058758105422 0 0.5 0.19797878532577309 0 0.47847088324409548 0.2092058758105422 0 0.5 0.22793385045351919 0 0.47847088324409548 0.2092058758105422 0 0.47419086539053962 0.2296972043723752 0 0.5 0.22793385045351919 0 0.45492939023952461 0.2194397610932603 0 0.47847088324409548 0.2092058758105422 0 0.47419086539053962 0.2296972043723752 0 0.5 0.25788891558126559 0 0.5 0.22793385045351919 0 0.48180965237011408 0.2487438147612096 0 0.47419086539053962 0.2296972043723752 0 0.5 0.22793385045351919 0 0.48180965237011408 0.2487438147612096 0 0.45602225988021539 0.23816249748875179 0 0.47419086539053962 0.2296972043723752 0 0.48180965237011408 0.2487438147612096 0 0.46287167922105149 0.15545842773829099 0 0.44904083753606949 0.1441389705362057 0 0.45055708181009879 0.1690731760043504 0 0.46287167922105149 0.15545842773829099 0 0.46355845200513762 0.13850516077978961 0 0.47909635670674228 0.14767892477560191 0 0.46287167922105149 0.15545842773829099 0 0.46355845200513762 0.13850516077978961 0 0.44904083753606949 0.1441389705362057 0 0.46355845200513762 0.13850516077978961 0 0.47795750643906171 0.12649365297180731 0 0.4559740449914913 0.1245921335342187 0 0.46355845200513762 0.13850516077978961 0 0.44904083753606949 0.1441389705362057 0 0.4559740449914913 0.1245921335342187 0 0.43054248402473921 0.1250848439374013 0 0.44904083753606949 0.1441389705362057 0 0.4559740449914913 0.1245921335342187 0 0.42972130682252457 0.1533439082518103 0 0.44904083753606949 0.1441389705362057 0 0.45055708181009879 0.1690731760043504 0 0.42626679864566441 0.18172907206941921 0 0.45055708181009879 0.1690731760043504 0 0.44473765559285833 0.18692520255949671 0 0.46072674134079361 0.19234021588846559 0 0.45055708181009879 0.1690731760043504 0 0.44473765559285833 0.18692520255949671 0 0.46072674134079361 0.19234021588846559 0 0.45055708181009879 0.1690731760043504 0 0.4752785409050499 0.1685484481011886 0 0.46287167922105149 0.15545842773829099 0 0.45055708181009879 0.1690731760043504 0 0.4752785409050499 0.1685484481011886 0 0.45055708181009879 0.1690731760043504 0 0.4752785409050499 0.1685484481011886 0 0.46287167922105149 0.15545842773829099 0 0.4752785409050499 0.1685484481011886 0 0.47909635670674228 0.14767892477560191 0 0.46072674134079361 0.19234021588846559 0 0.4812983336831132 0.1885899983914231 0 0.4752785409050499 0.1685484481011886 0 0.4812983336831132 0.1885899983914231 0 0.4752785409050499 0.1685484481011886 0 0.50000000000000111 0.1680237201980268 0 0.4812983336831132 0.1885899983914231 0 0.5 0.19797878532577309 0 0.50000000000000111 0.1680237201980268 0 0.4752785409050499 0.1685484481011886 0 0.50000000000000111 0.1680237201980268 0 0.4752785409050499 0.1685484481011886 0 0.50000000000000111 0.1680237201980268 0 0.47909635670674228 0.14767892477560191 0 0.50000000000000111 0.1680237201980268 0 0.5 0.14405257421324749 0 0.47909635670674228 0.14767892477560191 0 0.46355845200513762 0.13850516077978961 0 0.47909635670674228 0.14767892477560191 0 0.47795750643906171 0.12649365297180731 0 0.5 0.14405257421324749 0 0.47795750643906171 0.12649365297180731 0 0.5 0.12008142822846821 0 0.5 0.14405257421324749 0 0.47909635670674228 0.14767892477560191 0 0.47795750643906171 0.12649365297180731 0 0.47795750643906171 0.12649365297180731 0 0.5 0.12008142822846821 0 0.48437617198066579 0.1083096126220475 0 0.48437617198066579 0.1083096126220475 0 0.5 0.096110282243688894 0 0.4787628640296252 0.09057766153942011 0 0.5 0.12008142822846821 0 0.48437617198066579 0.1083096126220475 0 0.5 0.096110282243688894 0 0.48437617198066579 0.1083096126220475 0 0.4787628640296252 0.09057766153942011 0 0.46516048943464161 0.10828503812685281 0 0.47795750643906171 0.12649365297180731 0 0.48437617198066579 0.1083096126220475 0 0.46516048943464161 0.10828503812685281 0 0.49999999999999389 0.072139136258909636 0 0.47264706529987838 0.068582714068275596 0 0.5 0.096110282243688894 0 0.49999999999999389 0.072139136258909636 0 0.4787628640296252 0.09057766153942011 0 0.49999999999999389 0.072139136258909636 0 0.4787628640296252 0.09057766153942011 0 0.47264706529987838 0.068582714068275596 0 0.47264706529987838 0.068582714068275596 0 0.44529413059976319 0.065026291877640793 0 0.47264706529987838 0.068582714068275596 0 0.45009241250792742 0.089848104882156193 0 0.44529413059976319 0.065026291877640793 0 0.4787628640296252 0.09057766153942011 0 0.47264706529987838 0.068582714068275596 0 0.45009241250792742 0.089848104882156193 0 0.45009241250792742 0.089848104882156193 0 0.44529413059976319 0.065026291877640793 0 0.42710943965072512 0.080764761008918995 0 0.4559740449914913 0.1245921335342187 0 0.46516048943464161 0.10828503812685281 0 0.44660059903698529 0.1095612823054605 0 0.47795750643906171 0.12649365297180731 0 0.4559740449914913 0.1245921335342187 0 0.46516048943464161 0.10828503812685281 0 0.45009241250792742 0.089848104882156193 0 0.46516048943464161 0.10828503812685281 0 0.44660059903698529 0.1095612823054605 0 0.4787628640296252 0.09057766153942011 0 0.45009241250792742 0.089848104882156193 0 0.46516048943464161 0.10828503812685281 0 0.45009241250792742 0.089848104882156193 0 0.44660059903698529 0.1095612823054605 0 0.42999027194599682 0.1018780191517587 0 0.43054248402473921 0.1250848439374013 0 0.4559740449914913 0.1245921335342187 0 0.44660059903698529 0.1095612823054605 0 0.43054248402473921 0.1250848439374013 0 0.44660059903698529 0.1095612823054605 0 0.42999027194599682 0.1018780191517587 0 0.43054248402473921 0.1250848439374013 0 0.41661501870526302 0.10782610780512 0 0.42999027194599682 0.1018780191517587 0 0.43054248402473921 0.1250848439374013 0 0.41135066019799099 0.1182158826350982 0 0.41661501870526302 0.10782610780512 0 0.43054248402473921 0.1250848439374013 0 0.41135066019799099 0.1182158826350982 0 0.41135066019799099 0.1182158826350982 0 0.41661501870526302 0.10782610780512 0 0.40605193543095291 0.1101899923625959 0 0.41199731756477831 0.13352747615702071 0 0.40856435551682457 0.1195913393650266 0 0.41135066019799099 0.1182158826350982 0 0.41661501870526302 0.10782610780512 0 0.42999027194599682 0.1018780191517587 0 0.41050144950628809 0.092342992232264526 0 0.41661501870526302 0.10782610780512 0 0.41050144950628809 0.092342992232264526 0 0.40408322644931421 0.10337105767737099 0 0.41661501870526302 0.10782610780512 0 0.40605193543095291 0.1101899923625959 0 0.40408322644931421 0.10337105767737099 0 0.45009241250792742 0.089848104882156193 0 0.42999027194599682 0.1018780191517587 0 0.42710943965072512 0.080764761008918995 0 0.42999027194599682 0.1018780191517587 0 0.42710943965072512 0.080764761008918995 0 0.41050144950628809 0.092342992232264526 0 0.44529413059976319 0.065026291877640793 0 0.42710943965072512 0.080764761008918995 0 0.41794119589964812 0.061469869687005997 0 0.44529413059976319 0.065026291877640793 0 0.41794119589964812 0.061469869687005997 0 0.42710943965072512 0.080764761008918995 0 0.40780427562880051 0.074340584248736047 0 0.41794119589964812 0.061469869687005997 0 0.42710943965072512 0.080764761008918995 0 0.40780427562880051 0.074340584248736047 0 0.41050144950628809 0.092342992232264526 0 0.41050144950628809 0.092342992232264526 0 0.39288103188780799 0.079211850819119467 0 0.39173805803946632 0.094638931286680023 0 0.40780427562880051 0.074340584248736047 0 0.41050144950628809 0.092342992232264526 0 0.39288103188780799 0.079211850819119467 0 0.40780427562880051 0.074340584248736047 0 0.39058826119953283 0.057913447496371839 0 0.41794119589964812 0.061469869687005997 0 0.40780427562880051 0.074340584248736047 0 0.39288103188780799 0.079211850819119467 0 0.39058826119953283 0.057913447496371839 0 0.39288103188780799 0.079211850819119467 0 0.37575225644292037 0.071709270247263784 0 0.39058826119953283 0.057913447496371839 0 0.3742009225581896 0.091268948227223284 0 0.39288103188780799 0.079211850819119467 0 0.39173805803946632 0.094638931286680023 0 0.3742009225581896 0.091268948227223284 0 0.39288103188780799 0.079211850819119467 0 0.37575225644292037 0.071709270247263784 0 0.3742009225581896 0.091268948227223284 0 0.39215883637124299 0.11134692133279479 0 0.39173805803946632 0.094638931286680023 0 0.3742009225581896 0.091268948227223284 0 0.39215883637124299 0.11134692133279479 0 0.3742009225581896 0.091268948227223284 0 0.3795225325030368 0.1068242515199407 0 0.39215883637124299 0.11134692133279479 0 0.3795225325030368 0.1068242515199407 0 0.39215883637124299 0.11134692133279479 0 0.3795225325030368 0.1068242515199407 0 0.38138511069115272 0.12353481432135879 0 0.3942733283070321 0.11371104406223111 0 0.36649271172908648 0.1176987398754743 0 0.3795225325030368 0.1068242515199407 0 0.38138511069115272 0.12353481432135879 0 0.39421974672685411 0.13240309148155921 0 0.38138511069115272 0.12353481432135879 0 0.3942733283070321 0.11371104406223111 0 0.3795225325030368 0.1068242515199407 0 0.3942733283070321 0.11371104406223111 0 0.3795225325030368 0.1068242515199407 0 0.39215883637124299 0.11134692133279479 0 0.3942733283070321 0.11371104406223111 0 0.41135066019799099 0.1182158826350982 0 0.39215883637124299 0.11134692133279479 0 0.40605193543095291 0.1101899923625959 0 0.41135066019799099 0.1182158826350982 0 0.39215883637124299 0.11134692133279479 0 0.3942733283070321 0.11371104406223111 0 0.41135066019799099 0.1182158826350982 0 0.39215883637124299 0.11134692133279479 0 0.41199731756477831 0.13352747615702071 0 0.40856435551682457 0.1195913393650266 0 0.3942733283070321 0.11371104406223111 0 0.41199731756477831 0.13352747615702071 0 0.3942733283070321 0.11371104406223111 0 0.40856435551682457 0.1195913393650266 0 0.41135066019799099 0.1182158826350982 0 0.3942733283070321 0.11371104406223111 0 0.39215883637124299 0.11134692133279479 0 0.3942733283070321 0.11371104406223111 0 0.40856435551682457 0.1195913393650266 0 0.3942733283070321 0.11371104406223111 0 0.39215883637124299 0.11134692133279479 0 0.40408322644931421 0.10337105767737099 0 0.39173805803946632 0.094638931286680023 0 0.39215883637124299 0.11134692133279479 0 0.40605193543095291 0.1101899923625959 0 0.40408322644931421 0.10337105767737099 0 0.41050144950628809 0.092342992232264526 0 0.40408322644931421 0.10337105767737099 0 0.39173805803946632 0.094638931286680023 0 0.4038432128890253 0.016274120358417851 0 0.39452024459155199 0.029629145094844 0 0.3798040161112804 0.028996110171619349 0 0.4038432128890253 0.016274120358417851 0 0.39452024459155199 0.029629145094844 0 0.40714332068978548 0.032011032787191827 0 0.4038432128890253 0.016274120358417851 0 0.3798040161112804 0.028996110171619349 0 0.4038432128890253 0.016274120358417851 0 0.39390920682105918 0.0040204267233196643 0 0.38813729234829519 0.016219836643301819 0 0.4038432128890253 0.016274120358417851 0 0.39390920682105918 0.0040204267233196643 0 0.40369857438468087 -0.0060371637805465179 0 0.39390920682105918 0.0040204267233196643 0 0.38212023564171321 0.001094655884648786 0 0.38813729234829519 0.016219836643301819 0 0.38212023564171321 0.001094655884648786 0 0.37537418671591988 0.012891754799621079 0 0.3700201466167648 -0.002195575246397889 0 0.38212023564171321 0.001094655884648786 0 0.37537418671591988 0.012891754799621079 0 0.38813729234829519 0.016219836643301819 0 0.38029426512156322 0.021339738828328979 0 0.38813729234829519 0.016219836643301819 0 0.3798040161112804 0.028996110171619349 0 0.4038432128890253 0.016274120358417851 0 0.38813729234829519 0.016219836643301819 0 0.3798040161112804 0.028996110171619349 0 0.37537418671591988 0.012891754799621079 0 0.38029426512156322 0.021339738828328979 0 0.37786156531075732 0.02725125369877367 0 0.37537418671591988 0.012891754799621079 0 0.38029426512156322 0.021339738828328979 0 0.38813729234829519 0.016219836643301819 0 0.39452024459155199 0.029629145094844 0 0.3798040161112804 0.028996110171619349 0 0.384792923869274 0.033192425096464057 0 0.38029426512156322 0.021339738828328979 0 0.3798040161112804 0.028996110171619349 0 0.37786156531075732 0.02725125369877367 0 0.36984281421283938 0.03924660656396721 0 0.3798040161112804 0.028996110171619349 0 0.37675727284589372 0.036323400775862158 0 0.3798040161112804 0.028996110171619349 0 0.38012370578730592 0.033949837724153123 0 0.37675727284589372 0.036323400775862158 0 0.3798040161112804 0.028996110171619349 0 0.38012370578730592 0.033949837724153123 0 0.384792923869274 0.033192425096464057 0 0.38012370578730592 0.033949837724153123 0 0.38115894465086869 0.037510150111343843 0 0.384792923869274 0.033192425096464057 0 0.38012370578730592 0.033949837724153123 0 0.38115894465086869 0.037510150111343843 0 0.37675727284589372 0.036323400775862158 0 0.38115894465086869 0.037510150111343843 0 0.37675727284589372 0.036323400775862158 0 0.37726993283737248 0.041439113600633092 0 0.37726993283737248 0.041439113600633092 0 0.38325871491723518 0.0441773091346798 0 0.37608467898805159 0.048096788967416412 0 0.38115894465086869 0.037510150111343843 0 0.37726993283737248 0.041439113600633092 0 0.38325871491723518 0.0441773091346798 0 0.38115894465086869 0.037510150111343843 0 0.38325871491723518 0.0441773091346798 0 0.38884635116990662 0.036871995634108659 0 0.38325871491723518 0.0441773091346798 0 0.38884635116990662 0.036871995634108659 0 0.39118926401298038 0.043344116461786472 0 0.39452024459155199 0.029629145094844 0 0.38884635116990662 0.036871995634108659 0 0.384792923869274 0.033192425096464057 0 0.38115894465086869 0.037510150111343843 0 0.38884635116990662 0.036871995634108659 0 0.384792923869274 0.033192425096464057 0 0.36737709041569239 0.056764699852256018 0 0.39058826119953283 0.057913447496371839 0 0.36443667806580698 0.054513224756226962 0 0.37608467898805159 0.048096788967416412 0 0.39058826119953283 0.057913447496371839 0 0.36737709041569239 0.056764699852256018 0 0.37575225644292037 0.071709270247263784 0 0.39058826119953283 0.057913447496371839 0 0.36443667806580698 0.054513224756226962 0 0.39058826119953283 0.057913447496371839 0 0.38325871491723518 0.0441773091346798 0 0.37608467898805159 0.048096788967416412 0 0.39058826119953283 0.057913447496371839 0 0.38325871491723518 0.0441773091346798 0 0.39058826119953283 0.057913447496371839 0 0.39118926401298038 0.043344116461786472 0 0.39058826119953283 0.057913447496371839 0 0.39917917489280202 0.048669550515315511 0 0.40824027372044169 0.058787065978875973 0 0.39058826119953283 0.057913447496371839 0 0.40824027372044169 0.058787065978875973 0 0.39058826119953283 0.057913447496371839 0 0.41794119589964812 0.061469869687005997 0 0.40824027372044169 0.058787065978875973 0 0.39058826119953283 0.057913447496371839 0 0.41794119589964812 0.061469869687005997 0 0.39058826119953283 0.057913447496371839 0 0.39917917489280202 0.048669550515315511 0 0.39118926401298038 0.043344116461786472 0 0.39917917489280202 0.048669550515315511 0 0.40803146459590139 0.044566129264659721 0 0.40824027372044169 0.058787065978875973 0 0.39452024459155199 0.029629145094844 0 0.38884635116990662 0.036871995634108659 0 0.39784661093515339 0.038736993374884177 0 0.39917917489280202 0.048669550515315511 0 0.39784661093515339 0.038736993374884177 0 0.39118926401298038 0.043344116461786472 0 0.38884635116990662 0.036871995634108659 0 0.39784661093515339 0.038736993374884177 0 0.39118926401298038 0.043344116461786472 0 0.39917917489280202 0.048669550515315511 0 0.39784661093515339 0.038736993374884177 0 0.40803146459590139 0.044566129264659721 0 0.39452024459155199 0.029629145094844 0 0.39784661093515339 0.038736993374884177 0 0.40714332068978548 0.032011032787191827 0 0.39784661093515339 0.038736993374884177 0 0.40714332068978548 0.032011032787191827 0 0.40803146459590139 0.044566129264659721 0 0.40714332068978548 0.032011032787191827 0 0.40803146459590139 0.044566129264659721 0 0.41964440497126981 0.040250358009145122 0 0.40803146459590139 0.044566129264659721 0 0.41964440497126981 0.040250358009145122 0 0.41733432138732551 0.050785193364838402 0 0.40714332068978548 0.032011032787191827 0 0.41964440497126981 0.040250358009145122 0 0.41891932927970088 0.026081136014491389 0 0.40824027372044169 0.058787065978875973 0 0.41733432138732551 0.050785193364838402 0 0.42589228624135061 0.059660684461379461 0 0.40824027372044169 0.058787065978875973 0 0.42589228624135061 0.059660684461379461 0 0.41794119589964812 0.061469869687005997 0 0.40824027372044169 0.058787065978875973 0 0.42589228624135061 0.059660684461379461 0 0.40803146459590139 0.044566129264659721 0 0.40824027372044169 0.058787065978875973 0 0.41733432138732551 0.050785193364838402 0 0.41964440497126981 0.040250358009145122 0 0.41733432138732551 0.050785193364838402 0 0.42647272639553008 0.050672874727357403 0 0.44529413059976319 0.065026291877640793 0 0.42589228624135061 0.059660684461379461 0 0.43583307009461808 0.053135938561971199 0 0.44529413059976319 0.065026291877640793 0 0.41794119589964812 0.061469869687005997 0 0.42589228624135061 0.059660684461379461 0 0.42589228624135061 0.059660684461379461 0 0.42647272639553008 0.050672874727357403 0 0.43583307009461808 0.053135938561971199 0 0.41733432138732551 0.050785193364838402 0 0.42589228624135061 0.059660684461379461 0 0.42647272639553008 0.050672874727357403 0 0.42647272639553008 0.050672874727357403 0 0.43583307009461808 0.053135938561971199 0 0.4340740022190257 0.043822740937536728 0 0.41964440497126981 0.040250358009145122 0 0.42987588244635011 0.033334548906864728 0 0.41891932927970088 0.026081136014491389 0 0.41964440497126981 0.040250358009145122 0 0.4340740022190257 0.043822740937536728 0 0.42987588244635011 0.033334548906864728 0 0.41964440497126981 0.040250358009145122 0 0.42647272639553008 0.050672874727357403 0 0.4340740022190257 0.043822740937536728 0 0.4340740022190257 0.043822740937536728 0 0.42987588244635011 0.033334548906864728 0 0.44528176508543132 0.032905620831071007 0 0.42987588244635011 0.033334548906864728 0 0.43184963590009789 0.021236349906575389 0 0.44528176508543132 0.032905620831071007 0 0.43184963590009789 0.021236349906575389 0 0.42259879527057942 0.015927249454054739 0 0.43188165484739188 0.01287087804949661 0 0.43184963590009789 0.021236349906575389 0 0.42259879527057942 0.015927249454054739 0 0.41891932927970088 0.026081136014491389 0 0.42987588244635011 0.033334548906864728 0 0.43184963590009789 0.021236349906575389 0 0.41891932927970088 0.026081136014491389 0 0.4038432128890253 0.016274120358417851 0 0.42259879527057942 0.015927249454054739 0 0.41891932927970088 0.026081136014491389 0 0.4038432128890253 0.016274120358417851 0 0.40714332068978548 0.032011032787191827 0 0.41891932927970088 0.026081136014491389 0 0.4038432128890253 0.016274120358417851 0 0.41402040698134779 -0.0025911497673051101 0 0.40369857438468087 -0.0060371637805465179 0 0.4038432128890253 0.016274120358417851 0 0.42788240966677021 0.003552130545216341 0 0.4038432128890253 0.016274120358417851 0 0.42101935538117791 0.0050386314779034547 0 0.41402040698134779 -0.0025911497673051101 0 0.4038432128890253 0.016274120358417851 0 0.42259879527057942 0.015927249454054739 0 0.42788240966677021 0.003552130545216341 0 0.4038432128890253 0.016274120358417851 0 0.42101935538117791 0.0050386314779034547 0 0.42788240966677021 0.003552130545216341 0 0.42788240966677021 0.003552130545216341 0 0.43188165484739188 0.01287087804949661 0 0.44740740452026229 0.01137317045841814 0 0.42259879527057942 0.015927249454054739 0 0.42788240966677021 0.003552130545216341 0 0.43188165484739188 0.01287087804949661 0 0.43184963590009789 0.021236349906575389 0 0.43188165484739188 0.01287087804949661 0 0.44740740452026229 0.01137317045841814 0 0.42788240966677021 0.003552130545216341 0 0.44740740452026229 0.01137317045841814 0 0.45192160644451512 -0.0091698592679851504 0 0.43184963590009789 0.021236349906575389 0 0.44740740452026229 0.01137317045841814 0 0.44528176508543132 0.032905620831071007 0 0.44740740452026229 0.01137317045841814 0 0.44528176508543132 0.032905620831071007 0 0.46875558315454652 0.02621282055229885 0 0.44740740452026229 0.01137317045841814 0 0.4740075662235973 0.0028935560396234419 0 0.46875558315454652 0.02621282055229885 0 0.44740740452026229 0.01137317045841814 0 0.4740075662235973 0.0028935560396234419 0 0.45192160644451512 -0.0091698592679851504 0 0.44529413059976319 0.065026291877640793 0 0.44587589901867808 0.047550444472131762 0 0.4614262583005877 0.04791767975015173 0 0.44529413059976319 0.065026291877640793 0 0.43583307009461808 0.053135938561971199 0 0.44587589901867808 0.047550444472131762 0 0.43583307009461808 0.053135938561971199 0 0.4340740022190257 0.043822740937536728 0 0.44587589901867808 0.047550444472131762 0 0.44587589901867808 0.047550444472131762 0 0.44528176508543132 0.032905620831071007 0 0.4614262583005877 0.04791767975015173 0 0.4340740022190257 0.043822740937536728 0 0.44587589901867808 0.047550444472131762 0 0.44528176508543132 0.032905620831071007 0 0.44528176508543132 0.032905620831071007 0 0.4614262583005877 0.04791767975015173 0 0.46875558315454652 0.02621282055229885 0 0.47264706529987838 0.068582714068275596 0 0.44529413059976319 0.065026291877640793 0 0.4614262583005877 0.04791767975015173 0 0.47264706529987838 0.068582714068275596 0 0.4614262583005877 0.04791767975015173 0 0.48053199367993171 0.043851827509569327 0 0.4614262583005877 0.04791767975015173 0 0.48053199367993171 0.043851827509569327 0 0.46875558315454652 0.02621282055229885 0 0.48053199367993171 0.043851827509569327 0 0.5 0.04545089247058498 0 0.5 0.018762648682260189 0 0.49999999999999389 0.072139136258909636 0 0.47264706529987838 0.068582714068275596 0 0.48053199367993171 0.043851827509569327 0 0.49999999999999389 0.072139136258909636 0 0.48053199367993171 0.043851827509569327 0 0.5 0.04545089247058498 0 0.48053199367993171 0.043851827509569327 0 0.46875558315454652 0.02621282055229885 0 0.5 0.018762648682260189 0 0.4740075662235973 0.0028935560396234419 0 0.46875558315454652 0.02621282055229885 0 0.5 0.018762648682260189 0 0.4740075662235973 0.0028935560396234419 0 0.5 0.018762648682260189 0 0.5 -0.0079255951060647756 0 0.4740075662235973 0.0028935560396234419 0 0.5 -0.0079255951060647756 0 0.47596080322225992 -0.02189184908118659 0 0.47596080322225992 -0.02189184908118659 0 0.50000000000000377 -0.034613838894389633 0 0.5 -0.0079255951060647756 0 0.47596080322225992 -0.02189184908118659 0 0.50000000000000377 -0.034613838894389633 0 0.47596080322225992 -0.02189184908118659 0 0.50000000000000377 -0.034613838894389633 0 0.48339532061042467 -0.042675677639817791 0 0.50000000000000377 -0.034613838894389633 0 0.5 -0.052291970509826757 0 0.48339532061042467 -0.042675677639817791 0 0.5 -0.052291970509826757 0 0.48378938215607542 -0.060491629721736481 0 0.49999999999999678 -0.069970102125263903 0 0.5 -0.052291970509826757 0 0.48378938215607542 -0.060491629721736481 0 0.48339532061042467 -0.042675677639817791 0 0.48378938215607542 -0.060491629721736481 0 0.47035919737641452 -0.05083356829212015 0 0.48339532061042467 -0.042675677639817791 0 0.48378938215607542 -0.060491629721736481 0 0.47035919737641452 -0.05083356829212015 0 0.46263532094350251 -0.0655193079319734 0 0.47596080322225992 -0.02189184908118659 0 0.48339532061042467 -0.042675677639817791 0 0.46122373864745198 -0.034064038759572521 0 0.47035919737641452 -0.05083356829212015 0 0.48339532061042467 -0.042675677639817791 0 0.46122373864745198 -0.034064038759572521 0 0.46122373864745198 -0.034064038759572521 0 0.45641225836005789 -0.05051217933658872 0 0.44483042593949818 -0.041063070916932051 0 0.47035919737641452 -0.05083356829212015 0 0.46122373864745198 -0.034064038759572521 0 0.45641225836005789 -0.05051217933658872 0 0.45641225836005789 -0.05051217933658872 0 0.44526353314296241 -0.062107813217869068 0 0.46263532094350251 -0.0655193079319734 0 0.47035919737641452 -0.05083356829212015 0 0.45641225836005789 -0.05051217933658872 0 0.46263532094350251 -0.0655193079319734 0 0.45641225836005789 -0.05051217933658872 0 0.44526353314296241 -0.062107813217869068 0 0.44483042593949818 -0.041063070916932051 0 0.44526353314296241 -0.062107813217869068 0 0.44483042593949818 -0.041063070916932051 0 0.42768193525564641 -0.052738548234870043 0 0.46122373864745198 -0.034064038759572521 0 0.44483042593949818 -0.041063070916932051 0 0.44260817666721519 -0.025216613737701819 0 0.44483042593949818 -0.041063070916932051 0 0.44260817666721519 -0.025216613737701819 0 0.43454865465473302 -0.032105158367880783 0 0.46122373864745198 -0.034064038759572521 0 0.44260817666721519 -0.025216613737701819 0 0.45192160644451512 -0.0091698592679851504 0 0.42788240966677021 0.003552130545216341 0 0.45192160644451512 -0.0091698592679851504 0 0.44260817666721519 -0.025216613737701819 0 0.45192160644451512 -0.0091698592679851504 0 0.43543049063324413 -0.012350052332502739 0 0.42788240966677021 0.003552130545216341 0 0.45192160644451512 -0.0091698592679851504 0 0.43543049063324413 -0.012350052332502739 0 0.4740075662235973 0.0028935560396234419 0 0.47596080322225992 -0.02189184908118659 0 0.45192160644451512 -0.0091698592679851504 0 0.47596080322225992 -0.02189184908118659 0 0.45192160644451512 -0.0091698592679851504 0 0.47596080322225992 -0.02189184908118659 0 0.46122373864745198 -0.034064038759572521 0 0.45192160644451512 -0.0091698592679851504 0 0.47621403880257929 -0.099362679963144546 0 0.45825176112352212 -0.1171944005084963 0 0.47461064769812122 -0.12772964805397971 0 0.50000000000000433 -0.1143432737178363 0 0.47621403880257929 -0.099362679963144546 0 0.47461064769812122 -0.12772964805397971 0 0.50000000000000433 -0.1143432737178363 0 0.47461064769812122 -0.12772964805397971 0 0.49999999999998102 -0.1000967699598443 0 0.47621403880257929 -0.099362679963144546 0 0.49999999999998102 -0.1000967699598443 0 0.47621403880257929 -0.099362679963144546 0 0.48785951469139027 -0.086657123706384981 0 0.50000000000000433 -0.1143432737178363 0 0.49999999999998102 -0.1000967699598443 0 0.47621403880257929 -0.099362679963144546 0 0.47621403880257929 -0.099362679963144546 0 0.48785951469139027 -0.086657123706384981 0 0.47522401996300467 -0.077198942777287505 0 0.47621403880257929 -0.099362679963144546 0 0.47522401996300467 -0.077198942777287505 0 0.46460819440086443 -0.0896918568577834 0 0.49999999999998102 -0.1000967699598443 0 0.48785951469139027 -0.086657123706384981 0 0.49999999999999678 -0.069970102125263903 0 0.49999999999999678 -0.069970102125263903 0 0.47522401996300467 -0.077198942777287505 0 0.48785951469139027 -0.086657123706384981 0 0.49999999999999678 -0.069970102125263903 0 0.47522401996300467 -0.077198942777287505 0 0.48378938215607542 -0.060491629721736481 0 0.49999999999999678 -0.069970102125263903 0 0.47522401996300467 -0.077198942777287505 0 0.48378938215607542 -0.060491629721736481 0 0.47522401996300467 -0.077198942777287505 0 0.46263532094350251 -0.0655193079319734 0 0.47522401996300467 -0.077198942777287505 0 0.46263532094350251 -0.0655193079319734 0 0.4504480399260129 -0.084427783429311939 0 0.44526353314296241 -0.062107813217869068 0 0.46263532094350251 -0.0655193079319734 0 0.4504480399260129 -0.084427783429311939 0 0.44526353314296241 -0.062107813217869068 0 0.4504480399260129 -0.084427783429311939 0 0.43069868055782679 -0.078899440675300136 0 0.4504480399260129 -0.084427783429311939 0 0.45242807760517778 -0.098628589966444233 0 0.42864211640777627 -0.097894499969741214 0 0.4504480399260129 -0.084427783429311939 0 0.42567205988902129 -0.091656624081337568 0 0.47522401996300467 -0.077198942777287505 0 0.4504480399260129 -0.084427783429311939 0 0.47522401996300467 -0.077198942777287505 0 0.4504480399260129 -0.084427783429311939 0 0.46460819440086443 -0.0896918568577834 0 0.4504480399260129 -0.084427783429311939 0 0.46460819440086443 -0.0896918568577834 0 0.45242807760517778 -0.098628589966444233 0 0.47621403880257929 -0.099362679963144546 0 0.45242807760517778 -0.098628589966444233 0 0.45825176112352212 -0.1171944005084963 0 0.47621403880257929 -0.099362679963144546 0 0.45242807760517778 -0.098628589966444233 0 0.47621403880257929 -0.099362679963144546 0 0.46460819440086443 -0.0896918568577834 0 0.45242807760517778 -0.098628589966444233 0 0.45242807760517778 -0.098628589966444233 0 0.42864211640777627 -0.097894499969741214 0 0.45242807760517778 -0.098628589966444233 0 0.43893170590200609 -0.1195052611799315 0 0.42864211640777627 -0.097894499969741214 0 0.45242807760517778 -0.098628589966444233 0 0.43893170590200609 -0.1195052611799315 0 0.45825176112352212 -0.1171944005084963 0 0.42080162445294911 -0.1170697999396166 0 0.40604313277712428 -0.1171380761358455 0 0.41368108829086198 -0.13554811058748131 0 0.42080162445294911 -0.1170697999396166 0 0.40662173914453831 -0.097214899993173481 0 0.40604313277712428 -0.1171380761358455 0 0.43893170590200609 -0.1195052611799315 0 0.42080162445294911 -0.1170697999396166 0 0.430889964195386 -0.135117951771525 0 0.43893170590200609 -0.1195052611799315 0 0.42080162445294911 -0.1170697999396166 0 0.42864211640777627 -0.097894499969741214 0 0.43893170590200609 -0.1195052611799315 0 0.42864211640777627 -0.097894499969741214 0 0.42864211640777627 -0.097894499969741214 0 0.42567205988902129 -0.091656624081337568 0 0.42864211640777627 -0.097894499969741214 0 0.40662173914453831 -0.097214899993173481 0 0.42567205988902129 -0.091656624081337568 0 0.42080162445294911 -0.1170697999396166 0 0.42864211640777627 -0.097894499969741214 0 0.40662173914453831 -0.097214899993173481 0 0.42864211640777627 -0.097894499969741214 0 0.40662173914453831 -0.097214899993173481 0 0.40662173914453831 -0.097214899993173481 0 0.42567205988902129 -0.091656624081337568 0 0.40662173914453831 -0.097214899993173481 0 0.41829766411352998 -0.087706900461061957 0 0.42567205988902129 -0.091656624081337568 0 0.40662173914453831 -0.097214899993173481 0 0.41020628866808312 -0.08357079425946129 0 0.41829766411352998 -0.087706900461061957 0 0.41020628866808312 -0.08357079425946129 0 0.42012861486432151 -0.07981881462850364 0 0.41094109939792961 -0.074512111623280808 0 0.41020628866808312 -0.08357079425946129 0 0.41094109939792961 -0.074512111623280808 0 0.40556094342569721 -0.078918860306745137 0 0.41020628866808312 -0.08357079425946129 0 0.42012861486432151 -0.07981881462850364 0 0.41829766411352998 -0.087706900461061957 0 0.42012861486432151 -0.07981881462850364 0 0.41829766411352998 -0.087706900461061957 0 0.42254342745458301 -0.084546146485576762 0 0.41829766411352998 -0.087706900461061957 0 0.42461385466063262 -0.08943412331831832 0 0.42254342745458301 -0.084546146485576762 0 0.42567205988902129 -0.091656624081337568 0 0.42461385466063262 -0.08943412331831832 0 0.43069868055782679 -0.078899440675300136 0 0.4504480399260129 -0.084427783429311939 0 0.42567205988902129 -0.091656624081337568 0 0.43069868055782679 -0.078899440675300136 0 0.4504480399260129 -0.084427783429311939 0 0.42864211640777627 -0.097894499969741214 0 0.42567205988902129 -0.091656624081337568 0 0.42567205988902129 -0.091656624081337568 0 0.42461385466063262 -0.08943412331831832 0 0.41829766411352998 -0.087706900461061957 0 0.42567205988902129 -0.091656624081337568 0 0.42461385466063262 -0.08943412331831832 0 0.42012861486432151 -0.07981881462850364 0 0.43069868055782679 -0.078899440675300136 0 0.42254342745458301 -0.084546146485576762 0 0.42461385466063262 -0.08943412331831832 0 0.43069868055782679 -0.078899440675300136 0 0.42254342745458301 -0.084546146485576762 0 0.43069868055782679 -0.078899440675300136 0 0.42085386234523608 -0.065266903626460593 0 0.41911482919747139 -0.073234494934215744 0 0.43069868055782679 -0.078899440675300136 0 0.42085386234523608 -0.065266903626460593 0 0.42768193525564641 -0.052738548234870043 0 0.44526353314296241 -0.062107813217869068 0 0.43069868055782679 -0.078899440675300136 0 0.42768193525564641 -0.052738548234870043 0 0.43069868055782679 -0.078899440675300136 0 0.42768193525564641 -0.052738548234870043 0 0.42012861486432151 -0.07981881462850364 0 0.43069868055782679 -0.078899440675300136 0 0.41911482919747139 -0.073234494934215744 0 0.42085386234523608 -0.065266903626460593 0 0.41911482919747139 -0.073234494934215744 0 0.41247118756252621 -0.068972059658544485 0 0.41911482919747139 -0.073234494934215744 0 0.41094109939792961 -0.074512111623280808 0 0.41247118756252621 -0.068972059658544485 0 0.42012861486432151 -0.07981881462850364 0 0.41911482919747139 -0.073234494934215744 0 0.41094109939792961 -0.074512111623280808 0 0.41094109939792961 -0.074512111623280808 0 0.41247118756252621 -0.068972059658544485 0 0.40519344017519737 -0.069697512887539489 0 0.42085386234523608 -0.065266903626460593 0 0.41247118756252621 -0.068972059658544485 0 0.40625270669679608 -0.06214927522122575 0 0.41247118756252621 -0.068972059658544485 0 0.40519344017519737 -0.069697512887539489 0 0.40625270669679608 -0.06214927522122575 0 0.40519344017519737 -0.069697512887539489 0 0.3909339432522656 -0.07145852807871525 0 0.40625270669679608 -0.06214927522122575 0 0.41094109939792961 -0.074512111623280808 0 0.40094221169150912 -0.074554002884685597 0 0.40556094342569721 -0.078918860306745137 0 0.40519344017519737 -0.069697512887539489 0 0.40094221169150912 -0.074554002884685597 0 0.3909339432522656 -0.07145852807871525 0 0.41094109939792961 -0.074512111623280808 0 0.40519344017519737 -0.069697512887539489 0 0.40094221169150912 -0.074554002884685597 0 0.40094221169150912 -0.074554002884685597 0 0.3909339432522656 -0.07145852807871525 0 0.39616481607021642 -0.077435810443283751 0 0.3909339432522656 -0.07145852807871525 0 0.39616481607021642 -0.077435810443283751 0 0.39262893539182381 -0.080692178350181262 0 0.39181446083091098 -0.066763706552935329 0 0.38421934743036401 -0.068446750892908373 0 0.38398729378694407 -0.058429379279077209 0 0.38421934743036401 -0.068446750892908373 0 0.37813424473731178 -0.068262582352726586 0 0.38398729378694407 -0.058429379279077209 0 0.37813424473731178 -0.068262582352726586 0 0.38294139036628899 -0.080331335386894381 0 0.37353404377441052 -0.075370636612477671 0 0.38421934743036401 -0.068446750892908373 0 0.37813424473731178 -0.068262582352726586 0 0.38294139036628899 -0.080331335386894381 0 0.39181446083091098 -0.066763706552935329 0 0.38294139036628899 -0.080331335386894381 0 0.39181446083091098 -0.066763706552935329 0 0.38421934743036401 -0.068446750892908373 0 0.38294139036628899 -0.080331335386894381 0 0.3909339432522656 -0.07145852807871525 0 0.39181446083091098 -0.066763706552935329 0 0.38294139036628899 -0.080331335386894381 0 0.38598565568847482 -0.085166122563822014 0 0.39289996883908601 -0.089154852807517448 0 0.39262893539182381 -0.080692178350181262 0 0.3909339432522656 -0.07145852807871525 0 0.38598565568847482 -0.085166122563822014 0 0.39262893539182381 -0.080692178350181262 0 0.3909339432522656 -0.07145852807871525 0 0.37406831990166722 -0.093898964220853504 0 0.3909339432522656 -0.07145852807871525 0 0.38598565568847482 -0.085166122563822014 0 0.37406831990166722 -0.093898964220853504 0 0.3909339432522656 -0.07145852807871525 0 0.38294139036628899 -0.080331335386894381 0 0.37406831990166722 -0.093898964220853504 0 0.38294139036628899 -0.080331335386894381 0 0.37406831990166722 -0.093898964220853504 0 0.38598565568847482 -0.085166122563822014 0 0.38240509603332101 -0.092127683864182172 0 0.37406831990166722 -0.093898964220853504 0 0.38240509603332101 -0.092127683864182172 0 0.39289996883908601 -0.089154852807517448 0 0.38960421283109031 -0.096689699614190994 0 0.38598565568847482 -0.085166122563822014 0 0.38240509603332101 -0.092127683864182172 0 0.39289996883908601 -0.089154852807517448 0 0.39289996883908601 -0.089154852807517448 0 0.39262893539182381 -0.080692178350181262 0 0.40015417394526698 -0.083038532459552866 0 0.39616481607021642 -0.077435810443283751 0 0.39262893539182381 -0.080692178350181262 0 0.40015417394526698 -0.083038532459552866 0 0.40094221169150912 -0.074554002884685597 0 0.40556094342569721 -0.078918860306745137 0 0.40015417394526698 -0.083038532459552866 0 0.40094221169150912 -0.074554002884685597 0 0.39616481607021642 -0.077435810443283751 0 0.40015417394526698 -0.083038532459552866 0 0.41020628866808312 -0.08357079425946129 0 0.40556094342569721 -0.078918860306745137 0 0.40015417394526698 -0.083038532459552866 0 0.40662173914453831 -0.097214899993173481 0 0.39289996883908601 -0.089154852807517448 0 0.40015417394526698 -0.083038532459552866 0 0.40662173914453831 -0.097214899993173481 0 0.41020628866808312 -0.08357079425946129 0 0.40015417394526698 -0.083038532459552866 0 0.40662173914453831 -0.097214899993173481 0 0.3851668720105898 -0.10347474583943909 0 0.38960421283109031 -0.096689699614190994 0 0.40662173914453831 -0.097214899993173481 0 0.3851668720105898 -0.10347474583943909 0 0.40662173914453831 -0.097214899993173481 0 0.39289996883908601 -0.089154852807517448 0 0.38960421283109031 -0.096689699614190994 0 0.40662173914453831 -0.097214899993173481 0 0.38960421283109031 -0.096689699614190994 0 0.40662173914453831 -0.097214899993173481 0 0.3851668720105898 -0.10347474583943909 0 0.39374350655696688 -0.1137959578468639 0 0.38960421283109031 -0.096689699614190994 0 0.37237061700676077 -0.09615783082836224 0 0.3851668720105898 -0.10347474583943909 0 0.38960421283109031 -0.096689699614190994 0 0.37237061700676077 -0.09615783082836224 0 0.38240509603332101 -0.092127683864182172 0 0.38960421283109031 -0.096689699614190994 0 0.37237061700676077 -0.09615783082836224 0 0.38240509603332101 -0.092127683864182172 0 0.37406831990166722 -0.093898964220853504 0 0.37237061700676077 -0.09615783082836224 0 0.3785150876385216 -0.1195111518185689 0 0.39374350655696688 -0.1137959578468639 0 0.39237070121405998 -0.13164091544729051 0 0.3851668720105898 -0.10347474583943909 0 0.3785150876385216 -0.1195111518185689 0 0.36371200487664068 -0.10973459168570281 0 0.3851668720105898 -0.10347474583943909 0 0.3785150876385216 -0.1195111518185689 0 0.39374350655696688 -0.1137959578468639 0 0.40662173914453831 -0.097214899993173481 0 0.39374350655696688 -0.1137959578468639 0 0.40604313277712428 -0.1171380761358455 0 0.39374350655696688 -0.1137959578468639 0 0.40604313277712428 -0.1171380761358455 0 0.39237070121405998 -0.13164091544729051 0 0.41728163952739061 -0.019334187549187701 0 0.42284227266732188 -0.010769512158268201 0 0.42466518995346408 -0.026577655794440151 0 0.41728163952739061 -0.019334187549187701 0 0.41227128108974659 -0.029924501558089681 0 0.42466518995346408 -0.026577655794440151 0 0.41227128108974659 -0.029924501558089681 0 0.40863720631140932 -0.019892986955346081 0 0.40014031603924488 -0.033106741091830219 0 0.41728163952739061 -0.019334187549187701 0 0.41227128108974659 -0.029924501558089681 0 0.40863720631140932 -0.019892986955346081 0 0.41728163952739061 -0.019334187549187701 0 0.40863720631140932 -0.019892986955346081 0 0.41436166681859882 -0.01226683791037885 0 0.40863720631140932 -0.019892986955346081 0 0.41436166681859882 -0.01226683791037885 0 0.40369857438468087 -0.0060371637805465179 0 0.42101935538117791 0.0050386314779034547 0 0.41402040698134779 -0.0025911497673051101 0 0.42284227266732188 -0.010769512158268201 0 0.41402040698134779 -0.0025911497673051101 0 0.41436166681859882 -0.01226683791037885 0 0.40369857438468087 -0.0060371637805465179 0 0.41402040698134779 -0.0025911497673051101 0 0.41436166681859882 -0.01226683791037885 0 0.42284227266732188 -0.010769512158268201 0 0.41728163952739061 -0.019334187549187701 0 0.41436166681859882 -0.01226683791037885 0 0.42284227266732188 -0.010769512158268201 0 0.42284227266732188 -0.010769512158268201 0 0.43543049063324413 -0.012350052332502739 0 0.42769414368384923 -0.02254750278133769 0 0.42101935538117791 0.0050386314779034547 0 0.42284227266732188 -0.010769512158268201 0 0.42101935538117791 0.0050386314779034547 0 0.42788240966677021 0.003552130545216341 0 0.42284227266732188 -0.010769512158268201 0 0.42788240966677021 0.003552130545216341 0 0.42284227266732188 -0.010769512158268201 0 0.43543049063324413 -0.012350052332502739 0 0.42284227266732188 -0.010769512158268201 0 0.42466518995346408 -0.026577655794440151 0 0.42284227266732188 -0.010769512158268201 0 0.42769414368384923 -0.02254750278133769 0 0.42466518995346408 -0.026577655794440151 0 0.44260817666721519 -0.025216613737701819 0 0.43543049063324413 -0.012350052332502739 0 0.42769414368384923 -0.02254750278133769 0 0.42769414368384923 -0.02254750278133769 0 0.42466518995346408 -0.026577655794440151 0 0.43454865465473302 -0.032105158367880783 0 0.42769414368384923 -0.02254750278133769 0 0.42466518995346408 -0.026577655794440151 0 0.44260817666721519 -0.025216613737701819 0 0.42769414368384923 -0.02254750278133769 0 0.43454865465473302 -0.032105158367880783 0 0.42466518995346408 -0.026577655794440151 0 0.43454865465473302 -0.032105158367880783 0 0.42768193525564641 -0.052738548234870043 0 0.42466518995346408 -0.026577655794440151 0 0.42768193525564641 -0.052738548234870043 0 0.44483042593949818 -0.041063070916932051 0 0.43454865465473302 -0.032105158367880783 0 0.42768193525564641 -0.052738548234870043 0 0.42085386234523608 -0.065266903626460593 0 0.42768193525564641 -0.052738548234870043 0 0.40779956660286398 -0.049018091936576927 0 0.42085386234523608 -0.065266903626460593 0 0.40779956660286398 -0.049018091936576927 0 0.40625270669679608 -0.06214927522122575 0 0.42466518995346408 -0.026577655794440151 0 0.42768193525564641 -0.052738548234870043 0 0.40779956660286398 -0.049018091936576927 0 0.42466518995346408 -0.026577655794440151 0 0.40779956660286398 -0.049018091936576927 0 0.41227128108974659 -0.029924501558089681 0 0.42466518995346408 -0.026577655794440151 0 0.40779956660286398 -0.049018091936576927 0 0.41227128108974659 -0.029924501558089681 0 0.40779956660286398 -0.049018091936576927 0 0.40014031603924488 -0.033106741091830219 0 0.40779956660286398 -0.049018091936576927 0 0.40014031603924488 -0.033106741091830219 0 0.3912967176308087 -0.04756724484766426 0 0.40014031603924488 -0.033106741091830219 0 0.3912967176308087 -0.04756724484766426 0 0.38547037370043469 -0.032308846426106139 0 0.3909339432522656 -0.07145852807871525 0 0.40779956660286398 -0.049018091936576927 0 0.40625270669679608 -0.06214927522122575 0 0.3909339432522656 -0.07145852807871525 0 0.39181446083091098 -0.066763706552935329 0 0.40779956660286398 -0.049018091936576927 0 0.39181446083091098 -0.066763706552935329 0 0.40779956660286398 -0.049018091936576927 0 0.3912967176308087 -0.04756724484766426 0 0.3909339432522656 -0.07145852807871525 0 0.40779956660286398 -0.049018091936576927 0 0.3912967176308087 -0.04756724484766426 0 0.38398729378694407 -0.058429379279077209 0 0.37514153202862571 -0.045861082966856079 0 0.39181446083091098 -0.066763706552935329 0 0.3912967176308087 -0.04756724484766426 0 0.38398729378694407 -0.058429379279077209 0 0.38398729378694407 -0.058429379279077209 0 0.37514153202862571 -0.045861082966856079 0 0.37192531576168952 -0.05914395824800911 0 0.37813424473731178 -0.068262582352726586 0 0.38398729378694407 -0.058429379279077209 0 0.37192531576168952 -0.05914395824800911 0 0.3912967176308087 -0.04756724484766426 0 0.38547037370043469 -0.032308846426106139 0 0.37514153202862571 -0.045861082966856079 0 0.38547037370043469 -0.032308846426106139 0 0.37514153202862571 -0.045861082966856079 0 0.36877413775607049 -0.02995327657106206 0 0.38547037370043469 -0.032308846426106139 0 0.37927030083329177 -0.015743113788958679 0 0.36877413775607049 -0.02995327657106206 0 0.38547037370043469 -0.032308846426106139 0 0.37927030083329177 -0.015743113788958679 0 0.39536675090020662 -0.019928774827198261 0 0.40014031603924488 -0.033106741091830219 0 0.38547037370043469 -0.032308846426106139 0 0.39536675090020662 -0.019928774827198261 0 0.40863720631140932 -0.019892986955346081 0 0.40014031603924488 -0.033106741091830219 0 0.39536675090020662 -0.019928774827198261 0 0.40863720631140932 -0.019892986955346081 0 0.39536675090020662 -0.019928774827198261 0 0.40369857438468087 -0.0060371637805465179 0 0.39536675090020662 -0.019928774827198261 0 0.40369857438468087 -0.0060371637805465179 0 0.39174671884158141 -0.0074493154892236006 0 0.39390920682105918 0.0040204267233196643 0 0.40369857438468087 -0.0060371637805465179 0 0.39174671884158141 -0.0074493154892236006 0 0.38212023564171321 0.001094655884648786 0 0.37927030083329177 -0.015743113788958679 0 0.39174671884158141 -0.0074493154892236006 0 0.38212023564171321 0.001094655884648786 0 0.37927030083329177 -0.015743113788958679 0 0.3700201466167648 -0.002195575246397889 0 0.37927030083329177 -0.015743113788958679 0 0.39536675090020662 -0.019928774827198261 0 0.39174671884158141 -0.0074493154892236006 0 0.39390920682105918 0.0040204267233196643 0 0.38212023564171321 0.001094655884648786 0 0.39174671884158141 -0.0074493154892236006 0 0.35686418876597309 0.010252504770385159 0 0.3700201466167648 -0.002195575246397889 0 0.35727920934793722 -0.0129667368589869 0 0.37927030083329177 -0.015743113788958679 0 0.3700201466167648 -0.002195575246397889 0 0.35727920934793722 -0.0129667368589869 0 0.36877413775607049 -0.02995327657106206 0 0.35727920934793722 -0.0129667368589869 0 0.35227314840285812 -0.03152257084722427 0 0.37927030083329177 -0.015743113788958679 0 0.36877413775607049 -0.02995327657106206 0 0.35727920934793722 -0.0129667368589869 0 0.35727920934793722 -0.0129667368589869 0 0.33875503928457851 -0.02222753562310531 0 0.35227314840285812 -0.03152257084722427 0 0.35727920934793722 -0.0129667368589869 0 0.33586681222118892 -0.0067462441580033658 0 0.33875503928457851 -0.02222753562310531 0 0.35686418876597309 0.010252504770385159 0 0.35727920934793722 -0.0129667368589869 0 0.33586681222118892 -0.0067462441580033658 0 0.33586681222118892 -0.0067462441580033658 0 0.33875503928457851 -0.02222753562310531 0 0.31486943567640469 -0.023744993086391868 0 0.33875503928457851 -0.02222753562310531 0 0.31486943567640469 -0.023744993086391868 0 0.33348659077450338 -0.036157133164920148 0 0.33875503928457851 -0.02222753562310531 0 0.33348659077450338 -0.036157133164920148 0 0.35227314840285812 -0.03152257084722427 0 0.31046320235639918 0.0067575729804437252 0 0.33586681222118892 -0.0067462441580033658 0 0.3153830815233527 -0.0087530987426132929 0 0.33586681222118892 -0.0067462441580033658 0 0.31486943567640469 -0.023744993086391868 0 0.3153830815233527 -0.0087530987426132929 0 0.33586681222118892 -0.0067462441580033658 0 0.31486943567640469 -0.023744993086391868 0 0.32115491610998381 -0.052976688016941227 0 0.32092150739102382 -0.073097043805500014 0 0.30601744289912669 -0.055409131432484229 0 0.32115491610998381 -0.052976688016941227 0 0.31197137499350902 -0.041008225260955711 0 0.30601744289912669 -0.055409131432484229 0 0.31486943567640469 -0.023744993086391868 0 0.33348659077450338 -0.036157133164920148 0 0.31197137499350902 -0.041008225260955711 0 0.32115491610998381 -0.052976688016941227 0 0.33348659077450338 -0.036157133164920148 0 0.31197137499350902 -0.041008225260955711 0 0.33348659077450338 -0.036157133164920148 0 0.3363568723602065 -0.050864743298462772 0 0.35116628403686417 -0.048621598638038131 0 0.32115491610998381 -0.052976688016941227 0 0.33348659077450338 -0.036157133164920148 0 0.3363568723602065 -0.050864743298462772 0 0.32115491610998381 -0.052976688016941227 0 0.3363568723602065 -0.050864743298462772 0 0.33388625794764348 -0.064812423232177271 0 0.3363568723602065 -0.050864743298462772 0 0.34794047334546518 -0.063974584280765273 0 0.33388625794764348 -0.064812423232177271 0 0.3363568723602065 -0.050864743298462772 0 0.35116628403686417 -0.048621598638038131 0 0.34794047334546518 -0.063974584280765273 0 0.35116628403686417 -0.048621598638038131 0 0.35914505774559541 -0.060409417065886872 0 0.36392372675137458 -0.051574144679805103 0 0.35116628403686417 -0.048621598638038131 0 0.36240463436463582 -0.041692596330413237 0 0.36392372675137458 -0.051574144679805103 0 0.35116628403686417 -0.048621598638038131 0 0.35914505774559541 -0.060409417065886872 0 0.34794047334546518 -0.063974584280765273 0 0.35116628403686417 -0.048621598638038131 0 0.35227314840285812 -0.03152257084722427 0 0.36240463436463582 -0.041692596330413237 0 0.33348659077450338 -0.036157133164920148 0 0.35116628403686417 -0.048621598638038131 0 0.35227314840285812 -0.03152257084722427 0 0.37514153202862571 -0.045861082966856079 0 0.36877413775607049 -0.02995327657106206 0 0.36240463436463582 -0.041692596330413237 0 0.36877413775607049 -0.02995327657106206 0 0.35227314840285812 -0.03152257084722427 0 0.36240463436463582 -0.041692596330413237 0 0.37514153202862571 -0.045861082966856079 0 0.36240463436463582 -0.041692596330413237 0 0.36392372675137458 -0.051574144679805103 0 0.35914505774559541 -0.060409417065886872 0 0.36392372675137458 -0.051574144679805103 0 0.37192531576168952 -0.05914395824800911 0 0.37514153202862571 -0.045861082966856079 0 0.36392372675137458 -0.051574144679805103 0 0.37192531576168952 -0.05914395824800911 0 0.37813424473731178 -0.068262582352726586 0 0.37192531576168952 -0.05914395824800911 0 0.3680772617285144 -0.06977757947088653 0 0.35914505774559541 -0.060409417065886872 0 0.37192531576168952 -0.05914395824800911 0 0.3680772617285144 -0.06977757947088653 0 0.35914505774559541 -0.060409417065886872 0 0.3680772617285144 -0.06977757947088653 0 0.35837286676988928 -0.071968688592424085 0 0.3680772617285144 -0.06977757947088653 0 0.36498327826552668 -0.083111049239403226 0 0.35837286676988928 -0.071968688592424085 0 0.3680772617285144 -0.06977757947088653 0 0.37353404377441052 -0.075370636612477671 0 0.36498327826552668 -0.083111049239403226 0 0.37813424473731178 -0.068262582352726586 0 0.3680772617285144 -0.06977757947088653 0 0.37353404377441052 -0.075370636612477671 0 0.38294139036628899 -0.080331335386894381 0 0.37353404377441052 -0.075370636612477671 0 0.36498327826552668 -0.083111049239403226 0 0.36498327826552668 -0.083111049239403226 0 0.37237061700676077 -0.09615783082836224 0 0.34241852099989789 -0.095233439592861846 0 0.38294139036628899 -0.080331335386894381 0 0.36498327826552668 -0.083111049239403226 0 0.37406831990166722 -0.093898964220853504 0 0.36498327826552668 -0.083111049239403226 0 0.37406831990166722 -0.093898964220853504 0 0.37237061700676077 -0.09615783082836224 0 0.36498327826552668 -0.083111049239403226 0 0.3449175019875389 -0.076917716904771144 0 0.34241852099989789 -0.095233439592861846 0 0.36498327826552668 -0.083111049239403226 0 0.3449175019875389 -0.076917716904771144 0 0.35837286676988928 -0.071968688592424085 0 0.3449175019875389 -0.076917716904771144 0 0.34794047334546518 -0.063974584280765273 0 0.35837286676988928 -0.071968688592424085 0 0.35914505774559541 -0.060409417065886872 0 0.34794047334546518 -0.063974584280765273 0 0.35837286676988928 -0.071968688592424085 0 0.36371200487664068 -0.10973459168570281 0 0.35664352332635268 -0.13060513793896061 0 0.36779594019891898 -0.12729788290040461 0 0.3785150876385216 -0.1195111518185689 0 0.36371200487664068 -0.10973459168570281 0 0.36779594019891898 -0.12729788290040461 0 0.36371200487664068 -0.10973459168570281 0 0.37237061700676077 -0.09615783082836224 0 0.34241852099989789 -0.095233439592861846 0 0.3851668720105898 -0.10347474583943909 0 0.36371200487664068 -0.10973459168570281 0 0.37237061700676077 -0.09615783082836224 0 0.3851668720105898 -0.10347474583943909 0 0.36371200487664068 -0.10973459168570281 0 0.36371200487664068 -0.10973459168570281 0 0.37237061700676077 -0.09615783082836224 0 0.37406831990166722 -0.093898964220853504 0 0.37237061700676077 -0.09615783082836224 0 0.36371200487664068 -0.10973459168570281 0 0.34332012240242971 -0.1020930362129598 0 0.34241852099989789 -0.095233439592861846 0 0.36371200487664068 -0.10973459168570281 0 0.35002252173753962 -0.112446561286345 0 0.34332012240242971 -0.1020930362129598 0 0.37237061700676077 -0.09615783082836224 0 0.34241852099989789 -0.095233439592861846 0 0.35002252173753962 -0.112446561286345 0 0.34025414842832208 -0.11782241666052221 0 0.34332012240242971 -0.1020930362129598 0 0.36371200487664068 -0.10973459168570281 0 0.35355367174401742 -0.1211945845718113 0 0.34779048707731292 -0.1340798558009649 0 0.36371200487664068 -0.10973459168570281 0 0.35664352332635268 -0.13060513793896061 0 0.34779048707731292 -0.1340798558009649 0 0.36371200487664068 -0.10973459168570281 0 0.34779048707731292 -0.1340798558009649 0 0.36371200487664068 -0.10973459168570281 0 0.35002252173753962 -0.112446561286345 0 0.35355367174401742 -0.1211945845718113 0 0.36371200487664068 -0.10973459168570281 0 0.35355367174401742 -0.1211945845718113 0 0.35002252173753962 -0.112446561286345 0 0.35355367174401742 -0.1211945845718113 0 0.34025414842832208 -0.11782241666052221 0 0.35355367174401742 -0.1211945845718113 0 0.34025414842832208 -0.11782241666052221 0 0.34381162934489939 -0.12854128697128539 0 0.33094534805706732 -0.1177437606496905 0 0.31854024801571379 -0.1183964408803808 0 0.33718817445421712 -0.13355179710808501 0 0.34025414842832208 -0.11782241666052221 0 0.33378984816934337 -0.1086297847084315 0 0.34332012240242971 -0.1020930362129598 0 0.33094534805706732 -0.1177437606496905 0 0.34025414842832208 -0.11782241666052221 0 0.33718817445421712 -0.13355179710808501 0 0.34025414842832208 -0.11782241666052221 0 0.34332012240242971 -0.1020930362129598 0 0.33094534805706732 -0.1177437606496905 0 0.33378984816934337 -0.1086297847084315 0 0.32495432121773932 -0.110318363891034 0 0.33094534805706732 -0.1177437606496905 0 0.34025414842832208 -0.11782241666052221 0 0.33378984816934337 -0.1086297847084315 0 0.33378984816934337 -0.1086297847084315 0 0.32725903490077729 -0.10071499943534749 0 0.32495432121773932 -0.110318363891034 0 0.33378984816934337 -0.1086297847084315 0 0.33669688161811212 -0.1016678149874002 0 0.32725903490077729 -0.10071499943534749 0 0.33378984816934337 -0.1086297847084315 0 0.34332012240242971 -0.1020930362129598 0 0.33669688161811212 -0.1016678149874002 0 0.34332012240242971 -0.1020930362129598 0 0.33669688161811212 -0.1016678149874002 0 0.34241852099989789 -0.095233439592861846 0 0.33669688161811212 -0.1016678149874002 0 0.34241852099989789 -0.095233439592861846 0 0.32725903490077729 -0.10071499943534749 0 0.34241852099989789 -0.095233439592861846 0 0.31246642499303512 -0.0943090483573608 0 0.34241852099989789 -0.095233439592861846 0 0.32725903490077729 -0.10071499943534749 0 0.31246642499303512 -0.0943090483573608 0 0.32725903490077729 -0.10071499943534749 0 0.31716114910448651 -0.10565591717263 0 0.31246642499303512 -0.0943090483573608 0 0.32725903490077729 -0.10071499943534749 0 0.31716114910448651 -0.10565591717263 0 0.32495432121773932 -0.110318363891034 0 0.33094534805706732 -0.1177437606496905 0 0.32495432121773932 -0.110318363891034 0 0.31854024801571379 -0.1183964408803808 0 0.31716114910448651 -0.10565591717263 0 0.32495432121773932 -0.110318363891034 0 0.31854024801571379 -0.1183964408803808 0 0.31716114910448651 -0.10565591717263 0 0.31854024801571379 -0.1183964408803808 0 0.30531265091832138 -0.10738965970164049 0 0.3449175019875389 -0.076917716904771144 0 0.33388625794764348 -0.064812423232177271 0 0.32092150739102382 -0.073097043805500014 0 0.3449175019875389 -0.076917716904771144 0 0.34794047334546518 -0.063974584280765273 0 0.33388625794764348 -0.064812423232177271 0 0.3449175019875389 -0.076917716904771144 0 0.34241852099989789 -0.095233439592861846 0 0.32092150739102382 -0.073097043805500014 0 0.34241852099989789 -0.095233439592861846 0 0.32092150739102382 -0.073097043805500014 0 0.31246642499303512 -0.0943090483573608 0 0.32115491610998381 -0.052976688016941227 0 0.33388625794764348 -0.064812423232177271 0 0.32092150739102382 -0.073097043805500014 0 0.32092150739102382 -0.073097043805500014 0 0.28819319405889499 -0.06706419956831737 0 0.31246642499303512 -0.0943090483573608 0 0.32092150739102382 -0.073097043805500014 0 0.28819319405889499 -0.06706419956831737 0 0.30601744289912669 -0.055409131432484229 0 0.28251432898617262 -0.093384657121855619 0 0.28819319405889499 -0.06706419956831737 0 0.31246642499303512 -0.0943090483573608 0 0.28251432898617262 -0.093384657121855619 0 0.28819319405889499 -0.06706419956831737 0 0.28251432898617262 -0.093384657121855619 0 0.28819319405889499 -0.06706419956831737 0 0.2788070763813692 -0.075616481315712358 0 0.30531265091832138 -0.10738965970164049 0 0.29209333803684512 -0.1204183792118467 0 0.30316218715013699 -0.13585617877411299 0 0.31854024801571379 -0.1183964408803808 0 0.30531265091832138 -0.10738965970164049 0 0.30316218715013699 -0.13585617877411299 0 0.30531265091832138 -0.10738965970164049 0 0.30316218715013699 -0.13585617877411299 0 0.30531265091832138 -0.10738965970164049 0 0.31246642499303512 -0.0943090483573608 0 0.2913954051317153 -0.1063448066268642 0 0.28251432898617262 -0.093384657121855619 0 0.31246642499303512 -0.0943090483573608 0 0.31716114910448651 -0.10565591717263 0 0.30531265091832138 -0.10738965970164049 0 0.31246642499303512 -0.0943090483573608 0 0.28251432898617262 -0.093384657121855619 0 0.31246642499303512 -0.0943090483573608 0 0.2913954051317153 -0.1063448066268642 0 0.28251432898617262 -0.093384657121855619 0 0.2913954051317153 -0.1063448066268642 0 0.27794998204403759 -0.11453953550188679 0 0.30531265091832138 -0.10738965970164049 0 0.2913954051317153 -0.1063448066268642 0 0.29209333803684512 -0.1204183792118467 0 0.2913954051317153 -0.1063448066268642 0 0.29209333803684512 -0.1204183792118467 0 0.27794998204403759 -0.11453953550188679 0 0.27794998204403759 -0.11453953550188679 0 0.25915390151091949 -0.11811210275817149 0 0.27338563510190422 -0.1356944138819183 0 0.29209333803684512 -0.1204183792118467 0 0.27794998204403759 -0.11453953550188679 0 0.27338563510190422 -0.1356944138819183 0 0.28251432898617262 -0.093384657121855619 0 0.27794998204403759 -0.11453953550188679 0 0.25666672159796139 -0.092586939936295867 0 0.28251432898617262 -0.093384657121855619 0 0.27794998204403759 -0.11453953550188679 0 0.25915390151091949 -0.11811210275817149 0 0.25666672159796139 -0.092586939936295867 0 0.23839025179526999 -0.1151992729885977 0 0.27794998204403759 -0.11453953550188679 0 0.25915390151091949 -0.11811210275817149 0 0.25666672159796139 -0.092586939936295867 0 0.28819319405889499 -0.06706419956831737 0 0.27512965144911827 -0.070681904186227995 0 0.27783686619476677 -0.05372527893061739 0 0.26897876163713708 -0.070467118147906876 0 0.27512965144911827 -0.070681904186227995 0 0.27783686619476677 -0.05372527893061739 0 0.26897876163713708 -0.070467118147906876 0 0.26180167325791431 -0.066706815846455908 0 0.27783686619476677 -0.05372527893061739 0 0.27067132333055188 -0.076788874412469815 0 0.26897876163713708 -0.070467118147906876 0 0.26145119023330071 -0.079000043976386408 0 0.27067132333055188 -0.076788874412469815 0 0.26897876163713708 -0.070467118147906876 0 0.2788070763813692 -0.075616481315712358 0 0.26897876163713708 -0.070467118147906876 0 0.27512965144911827 -0.070681904186227995 0 0.28819319405889499 -0.06706419956831737 0 0.2788070763813692 -0.075616481315712358 0 0.27512965144911827 -0.070681904186227995 0 0.26897876163713708 -0.070467118147906876 0 0.2788070763813692 -0.075616481315712358 0 0.26897876163713708 -0.070467118147906876 0 0.2788070763813692 -0.075616481315712358 0 0.27512965144911827 -0.070681904186227995 0 0.28251432898617262 -0.093384657121855619 0 0.25666672159796139 -0.092586939936295867 0 0.28251432898617262 -0.093384657121855619 0 0.27051227275229911 -0.08315566172012806 0 0.25666672159796139 -0.092586939936295867 0 0.28251432898617262 -0.093384657121855619 0 0.2788070763813692 -0.075616481315712358 0 0.27051227275229911 -0.08315566172012806 0 0.27067132333055188 -0.076788874412469815 0 0.27051227275229911 -0.08315566172012806 0 0.26145119023330071 -0.079000043976386408 0 0.27067132333055188 -0.076788874412469815 0 0.2788070763813692 -0.075616481315712358 0 0.27051227275229911 -0.08315566172012806 0 0.26145119023330071 -0.079000043976386408 0 0.25666672159796139 -0.092586939936295867 0 0.24423239209720191 -0.080930297464084477 0 0.27051227275229911 -0.08315566172012806 0 0.26145119023330071 -0.079000043976386408 0 0.25666672159796139 -0.092586939936295867 0 0.26180167325791431 -0.066706815846455908 0 0.25764566998465072 -0.070071372177431313 0 0.24120587699226881 -0.055916030502087773 0 0.26145119023330071 -0.079000043976386408 0 0.25764566998465072 -0.070071372177431313 0 0.24423239209720191 -0.080930297464084477 0 0.25764566998465072 -0.070071372177431313 0 0.24423239209720191 -0.080930297464084477 0 0.26897876163713708 -0.070467118147906876 0 0.26145119023330071 -0.079000043976386408 0 0.25764566998465072 -0.070071372177431313 0 0.26897876163713708 -0.070467118147906876 0 0.26180167325791431 -0.066706815846455908 0 0.25764566998465072 -0.070071372177431313 0 0.26897876163713708 -0.070467118147906876 0 0.25764566998465072 -0.070071372177431313 0 0.26897876163713708 -0.070467118147906876 0 0.26180167325791431 -0.066706815846455908 0 0.26180167325791431 -0.066706815846455908 0 0.25764566998465072 -0.070071372177431313 0 0.26180167325791431 -0.066706815846455908 0 0.26029261894245981 -0.048826031507571623 0 0.24120587699226881 -0.055916030502087773 0 0.26180167325791431 -0.066706815846455908 0 0.24120587699226881 -0.055916030502087773 0 0.26180167325791431 -0.066706815846455908 0 0.26029261894245981 -0.048826031507571623 0 0.27783686619476677 -0.05372527893061739 0 0.26180167325791431 -0.066706815846455908 0 0.27783686619476677 -0.05372527893061739 0 0.26029261894245981 -0.048826031507571623 0 0.27783686619476677 -0.05372527893061739 0 0.27031708646619812 -0.033638605470610219 0 0.27783686619476677 -0.05372527893061739 0 0.27031708646619812 -0.033638605470610219 0 0.28437966209514692 -0.033534114227583768 0 0.26029261894245981 -0.048826031507571623 0 0.27031708646619812 -0.033638605470610219 0 0.25030159180115191 -0.034143426788088307 0 0.26029261894245981 -0.048826031507571623 0 0.25030159180115191 -0.034143426788088307 0 0.24120587699226881 -0.055916030502087773 0 0.25030159180115191 -0.034143426788088307 0 0.26299580833271302 -0.019789195105520681 0 0.2464198669495459 -0.012097030270161889 0 0.27031708646619812 -0.033638605470610219 0 0.25030159180115191 -0.034143426788088307 0 0.26299580833271302 -0.019789195105520681 0 0.25322369798355371 0.0032948183560677501 0 0.26778398551549509 -0.0036893303100333872 0 0.2464198669495459 -0.012097030270161889 0 0.26299580833271302 -0.019789195105520681 0 0.26778398551549509 -0.0036893303100333872 0 0.2464198669495459 -0.012097030270161889 0 0.26299580833271302 -0.019789195105520681 0 0.26778398551549509 -0.0036893303100333872 0 0.28231604015163769 -0.018351258625531171 0 0.2895407867033607 0.0013395930438658619 0 0.26778398551549509 -0.0036893303100333872 0 0.28231604015163769 -0.018351258625531171 0 0.27031708646619812 -0.033638605470610219 0 0.26299580833271302 -0.019789195105520681 0 0.28231604015163769 -0.018351258625531171 0 0.27031708646619812 -0.033638605470610219 0 0.28231604015163769 -0.018351258625531171 0 0.28437966209514692 -0.033534114227583768 0 0.28231604015163769 -0.018351258625531171 0 0.29600028882747859 -0.03087980289019443 0 0.28437966209514692 -0.033534114227583768 0 0.28231604015163769 -0.018351258625531171 0 0.29600028882747859 -0.03087980289019443 0 0.30132541624728598 -0.01217829343577128 0 0.2895407867033607 0.0013395930438658619 0 0.28231604015163769 -0.018351258625531171 0 0.30132541624728598 -0.01217829343577128 0 0.31046320235639918 0.0067575729804437252 0 0.2895407867033607 0.0013395930438658619 0 0.30132541624728598 -0.01217829343577128 0 0.31046320235639918 0.0067575729804437252 0 0.3153830815233527 -0.0087530987426132929 0 0.30132541624728598 -0.01217829343577128 0 0.31486943567640469 -0.023744993086391868 0 0.3153830815233527 -0.0087530987426132929 0 0.30132541624728598 -0.01217829343577128 0 0.31486943567640469 -0.023744993086391868 0 0.29600028882747859 -0.03087980289019443 0 0.30132541624728598 -0.01217829343577128 0 0.31486943567640469 -0.023744993086391868 0 0.31197137499350902 -0.041008225260955711 0 0.29387205913161968 -0.04074374201477949 0 0.31486943567640469 -0.023744993086391868 0 0.29600028882747859 -0.03087980289019443 0 0.29387205913161968 -0.04074374201477949 0 0.31486943567640469 -0.023744993086391868 0 0.29387205913161968 -0.04074374201477949 0 0.31197137499350902 -0.041008225260955711 0 0.30601744289912669 -0.055409131432484229 0 0.29387205913161968 -0.04074374201477949 0 0.28819319405889499 -0.06706419956831737 0 0.27783686619476677 -0.05372527893061739 0 0.29387205913161968 -0.04074374201477949 0 0.28819319405889499 -0.06706419956831737 0 0.29387205913161968 -0.04074374201477949 0 0.27783686619476677 -0.05372527893061739 0 0.29387205913161968 -0.04074374201477949 0 0.28819319405889499 -0.06706419956831737 0 0.30601744289912669 -0.055409131432484229 0 0.29387205913161968 -0.04074374201477949 0 0.27783686619476677 -0.05372527893061739 0 0.28437966209514692 -0.033534114227583768 0 0.29387205913161968 -0.04074374201477949 0 0.29600028882747859 -0.03087980289019443 0 0.28437966209514692 -0.033534114227583768 0 0.29387205913161968 -0.04074374201477949 0 0.29600028882747859 -0.03087980289019443 0 0.29387205913161968 -0.04074374201477949 0 0.28925369461552242 -0.21547475378801551 0 0.29798535605087828 -0.20438389051808681 0 0.27851755886665591 -0.20371457102860641 0 0.28925369461552242 -0.21547475378801551 0 0.28465086540799672 -0.2254021489655588 0 0.27851755886665591 -0.20371457102860641 0 0.28925369461552242 -0.21547475378801551 0 0.29798535605087828 -0.20438389051808681 0 0.29625974568445868 -0.22722646109941139 0 0.28994099481116897 -0.19128490440727269 0 0.29798535605087828 -0.20438389051808681 0 0.29971096641729777 -0.18154131993676231 0 0.28994099481116897 -0.19128490440727269 0 0.27851755886665591 -0.20371457102860641 0 0.28355009790984409 -0.17549983614563519 0 0.28994099481116897 -0.19128490440727269 0 0.29798535605087828 -0.20438389051808681 0 0.27851755886665591 -0.20371457102860641 0 0.30866677822314281 -0.19370433905286669 0 0.29798535605087828 -0.20438389051808681 0 0.29971096641729777 -0.18154131993676231 0 0.29798535605087828 -0.20438389051808681 0 0.29971096641729777 -0.18154131993676231 0 0.30866677822314281 -0.19370433905286669 0 0.30817512199612251 -0.208018461664154 0 0.29798535605087828 -0.20438389051808681 0 0.29798535605087828 -0.20438389051808681 0 0.29625974568445868 -0.22722646109941139 0 0.30367267472900389 -0.2178556058656746 0 0.31200739898088131 -0.22851072207886541 0 0.31883562653249692 -0.20986103607638071 0 0.29798535605087828 -0.20438389051808681 0 0.30367267472900389 -0.2178556058656746 0 0.29625974568445868 -0.22722646109941139 0 0.30817512199612251 -0.208018461664154 0 0.29798535605087828 -0.20438389051808681 0 0.30367267472900389 -0.2178556058656746 0 0.30817512199612251 -0.208018461664154 0 0.30367267472900389 -0.2178556058656746 0 0.31883562653249692 -0.20986103607638071 0 0.30367267472900389 -0.2178556058656746 0 0.31883562653249692 -0.20986103607638071 0 0.31200739898088131 -0.22851072207886541 0 0.30517917142926537 -0.24716040808135001 0 0.29625974568445868 -0.22722646109941139 0 0.30367267472900389 -0.2178556058656746 0 0.31200739898088131 -0.22851072207886541 0 0.29625974568445868 -0.22722646109941139 0 0.31200739898088131 -0.22851072207886541 0 0.30517917142926537 -0.24716040808135001 0 0.30517917142926537 -0.24716040808135001 0 0.28765229627979871 -0.24304032400626949 0 0.29625974568445868 -0.22722646109941139 0 0.28765229627979871 -0.24304032400626949 0 0.29625974568445868 -0.22722646109941139 0 0.28465086540799672 -0.2254021489655588 0 0.28765229627979871 -0.24304032400626949 0 0.28465086540799672 -0.2254021489655588 0 0.27348501982346762 -0.23192930591157759 0 0.28925369461552242 -0.21547475378801551 0 0.29625974568445868 -0.22722646109941139 0 0.28465086540799672 -0.2254021489655588 0 0.28465086540799672 -0.2254021489655588 0 0.27348501982346762 -0.23192930591157759 0 0.27851755886665591 -0.20371457102860641 0 0.27348501982346762 -0.23192930591157759 0 0.25787859859726192 -0.24372773219337371 0 0.26845248078028039 -0.26014404079454911 0 0.28765229627979871 -0.24304032400626949 0 0.27348501982346762 -0.23192930591157759 0 0.26845248078028039 -0.26014404079454911 0 0.27348501982346762 -0.23192930591157759 0 0.26845248078028039 -0.26014404079454911 0 0.27348501982346762 -0.23192930591157759 0 0.25787859859726192 -0.24372773219337371 0 0.2485278721491469 -0.22983386195931649 0 0.27348501982346762 -0.23192930591157759 0 0.25806059678156651 -0.21160485628964759 0 0.2485278721491469 -0.22983386195931649 0 0.27348501982346762 -0.23192930591157759 0 0.27851755886665591 -0.20371457102860641 0 0.27348501982346762 -0.23192930591157759 0 0.25806059678156651 -0.21160485628964759 0 0.27851755886665591 -0.20371457102860641 0 0.27851755886665591 -0.20371457102860641 0 0.26140201073716351 -0.19316186481753209 0 0.27335445324682811 -0.1824409541049711 0 0.25806059678156651 -0.21160485628964759 0 0.27851755886665591 -0.20371457102860641 0 0.26140201073716351 -0.19316186481753209 0 0.27851755886665591 -0.20371457102860641 0 0.28355009790984409 -0.17549983614563519 0 0.25806059678156651 -0.21160485628964759 0 0.26140201073716351 -0.19316186481753209 0 0.24624710011957149 -0.19756578472926509 0 0.26140201073716351 -0.19316186481753209 0 0.25030889548151403 -0.1837077448593728 0 0.24624710011957149 -0.19756578472926509 0 0.25969225384889538 -0.18295045636353721 0 0.2550208565069661 -0.17514012483034949 0 0.27335445324682811 -0.1824409541049711 0 0.26140201073716351 -0.19316186481753209 0 0.25030889548151403 -0.1837077448593728 0 0.25969225384889538 -0.18295045636353721 0 0.25030889548151403 -0.1837077448593728 0 0.25969225384889538 -0.18295045636353721 0 0.2550208565069661 -0.17514012483034949 0 0.2550208565069661 -0.17514012483034949 0 0.2530488896403309 -0.16079061319898569 0 0.27335445324682811 -0.1824409541049711 0 0.26140201073716351 -0.19316186481753209 0 0.25969225384889538 -0.18295045636353721 0 0.27335445324682811 -0.1824409541049711 0 0.2530488896403309 -0.16079061319898569 0 0.272260185211738 -0.168331689764908 0 0.26878477807763418 -0.16016356734556891 0 0.2530488896403309 -0.16079061319898569 0 0.26878477807763418 -0.16016356734556891 0 0.26293682869207591 -0.15391070786642169 0 0.2530488896403309 -0.16079061319898569 0 0.27335445324682811 -0.1824409541049711 0 0.272260185211738 -0.168331689764908 0 0.27899515764395177 -0.15443660918041571 0 0.28355009790984409 -0.17549983614563519 0 0.2530488896403309 -0.16079061319898569 0 0.272260185211738 -0.168331689764908 0 0.27335445324682811 -0.1824409541049711 0 0.272260185211738 -0.168331689764908 0 0.26878477807763418 -0.16016356734556891 0 0.27899515764395177 -0.15443660918041571 0 0.272260185211738 -0.168331689764908 0 0.27335445324682811 -0.1824409541049711 0 0.28355009790984409 -0.17549983614563519 0 0.27851755886665591 -0.20371457102860641 0 0.27335445324682811 -0.1824409541049711 0 0.28355009790984409 -0.17549983614563519 0 0.25915390151091949 -0.11811210275817149 0 0.25133622254172122 -0.13557462765415079 0 0.27338563510190422 -0.1356944138819183 0 0.25133622254172122 -0.13557462765415079 0 0.27338563510190422 -0.1356944138819183 0 0.25133622254172122 -0.13557462765415079 0 0.25208407187516418 -0.1419613505697605 0 0.27338563510190422 -0.1356944138819183 0 0.26557247671991108 -0.14774187414890411 0 0.25208407187516418 -0.1419613505697605 0 0.27142481771649529 -0.14478242884651979 0 0.25208407187516418 -0.1419613505697605 0 0.27142481771649529 -0.14478242884651979 0 0.2530488896403309 -0.16079061319898569 0 0.25208407187516418 -0.1419613505697605 0 0.26293682869207591 -0.15391070786642169 0 0.26557247671991108 -0.14774187414890411 0 0.25208407187516418 -0.1419613505697605 0 0.26293682869207591 -0.15391070786642169 0 0.27899515764395177 -0.15443660918041571 0 0.27142481771649529 -0.14478242884651979 0 0.28858263695303038 -0.1472851012626637 0 0.25208407187516418 -0.1419613505697605 0 0.27142481771649529 -0.14478242884651979 0 0.27338563510190422 -0.1356944138819183 0 0.27142481771649529 -0.14478242884651979 0 0.28858263695303038 -0.1472851012626637 0 0.27142481771649529 -0.14478242884651979 0 0.27338563510190422 -0.1356944138819183 0 0.28952553314766588 -0.14199879033185039 0 0.26878477807763418 -0.16016356734556891 0 0.27009527632936597 -0.15279308215900331 0 0.27899515764395177 -0.15443660918041571 0 0.26557247671991108 -0.14774187414890411 0 0.27009527632936597 -0.15279308215900331 0 0.27142481771649529 -0.14478242884651979 0 0.26878477807763418 -0.16016356734556891 0 0.26293682869207591 -0.15391070786642169 0 0.27009527632936597 -0.15279308215900331 0 0.26557247671991108 -0.14774187414890411 0 0.26293682869207591 -0.15391070786642169 0 0.27009527632936597 -0.15279308215900331 0 0.27009527632936597 -0.15279308215900331 0 0.27899515764395177 -0.15443660918041571 0 0.27142481771649529 -0.14478242884651979 0 0.27794998204403759 -0.11453953550188679 0 0.27338563510190422 -0.1356944138819183 0 0.27142481771649529 -0.14478242884651979 0 0.27338563510190422 -0.1356944138819183 0 0.27338563510190422 -0.1356944138819183 0 0.30316218715013699 -0.13585617877411299 0 0.29209333803684512 -0.1204183792118467 0 0.27338563510190422 -0.1356944138819183 0 0.30316218715013699 -0.13585617877411299 0 0.27338563510190422 -0.1356944138819183 0 0.28952553314766588 -0.14199879033185039 0 0.30316218715013699 -0.13585617877411299 0 0.27142481771649529 -0.14478242884651979 0 0.28952553314766588 -0.14199879033185039 0 0.28858263695303038 -0.1472851012626637 0 0.28858263695303038 -0.1472851012626637 0 0.30013596324633868 -0.14897029159077979 0 0.28952553314766588 -0.14199879033185039 0 0.28858263695303038 -0.1472851012626637 0 0.30013596324633868 -0.14897029159077979 0 0.28952553314766588 -0.14199879033185039 0 0.28858263695303038 -0.1472851012626637 0 0.28858263695303038 -0.1472851012626637 0 0.30013596324633868 -0.14897029159077979 0 0.29372711844303928 -0.1600295372122347 0 0.30316218715013699 -0.13585617877411299 0 0.30143657678371732 -0.15869874935543771 0 0.30013596324633868 -0.14897029159077979 0 0.30316218715013699 -0.13585617877411299 0 0.30143657678371732 -0.15869874935543771 0 0.30316218715013699 -0.13585617877411299 0 0.30143657678371732 -0.15869874935543771 0 0.31253980123811259 -0.14771969478669131 0 0.30013596324633868 -0.14897029159077979 0 0.29372711844303928 -0.1600295372122347 0 0.30143657678371732 -0.15869874935543771 0 0.30143657678371732 -0.15869874935543771 0 0.31557079919726838 -0.1590044961535387 0 0.31253980123811259 -0.14771969478669131 0 0.28952553314766588 -0.14199879033185039 0 0.30013596324633868 -0.14897029159077979 0 0.30316218715013699 -0.13585617877411299 0 0.30316218715013699 -0.13585617877411299 0 0.31993283661344418 -0.13594728745244961 0 0.31253980123811259 -0.14771969478669131 0 0.30316218715013699 -0.13585617877411299 0 0.31993283661344418 -0.13594728745244961 0 0.28994099481116897 -0.19128490440727269 0 0.28355009790984409 -0.17549983614563519 0 0.29971096641729777 -0.18154131993676231 0 0.28355009790984409 -0.17549983614563519 0 0.29493031732226571 -0.16969370770665679 0 0.29971096641729777 -0.18154131993676231 0 0.27899515764395177 -0.15443660918041571 0 0.28858263695303038 -0.1472851012626637 0 0.28355009790984409 -0.17549983614563519 0 0.28858263695303038 -0.1472851012626637 0 0.28355009790984409 -0.17549983614563519 0 0.28858263695303038 -0.1472851012626637 0 0.28355009790984409 -0.17549983614563519 0 0.29372711844303928 -0.1600295372122347 0 0.29372711844303928 -0.1600295372122347 0 0.29493031732226571 -0.16969370770665679 0 0.30143657678371732 -0.15869874935543771 0 0.28355009790984409 -0.17549983614563519 0 0.29372711844303928 -0.1600295372122347 0 0.29493031732226571 -0.16969370770665679 0 0.30143657678371732 -0.15869874935543771 0 0.29971096641729777 -0.18154131993676231 0 0.30143657678371732 -0.15869874935543771 0 0.30809610970482848 -0.16795036279156811 0 0.29971096641729777 -0.18154131993676231 0 0.29493031732226571 -0.16969370770665679 0 0.30143657678371732 -0.15869874935543771 0 0.29971096641729777 -0.18154131993676231 0 0.30143657678371732 -0.15869874935543771 0 0.30809610970482848 -0.16795036279156811 0 0.31557079919726838 -0.1590044961535387 0 0.29971096641729777 -0.18154131993676231 0 0.31498869866721663 -0.1848028620899877 0 0.3156660964210305 -0.17255688572053399 0 0.30809610970482848 -0.16795036279156811 0 0.29971096641729777 -0.18154131993676231 0 0.3156660964210305 -0.17255688572053399 0 0.30866677822314281 -0.19370433905286669 0 0.29971096641729777 -0.18154131993676231 0 0.31498869866721663 -0.1848028620899877 0 0.32729102930978993 -0.18432716657830939 0 0.3156660964210305 -0.17255688572053399 0 0.33199725769327038 -0.160182781354547 0 0.31498869866721663 -0.1848028620899877 0 0.32729102930978993 -0.18432716657830939 0 0.3156660964210305 -0.17255688572053399 0 0.3156660964210305 -0.17255688572053399 0 0.31557079919726838 -0.1590044961535387 0 0.33199725769327038 -0.160182781354547 0 0.30809610970482848 -0.16795036279156811 0 0.3156660964210305 -0.17255688572053399 0 0.31557079919726838 -0.1590044961535387 0 0.32729102930978993 -0.18432716657830939 0 0.34572674800851178 -0.17666980330527179 0 0.34152908302092871 -0.19789605564194099 0 0.32729102930978993 -0.18432716657830939 0 0.33199725769327038 -0.160182781354547 0 0.34572674800851178 -0.17666980330527179 0 0.32729102930978993 -0.18432716657830939 0 0.33199725769327038 -0.160182781354547 0 0.31854024801571379 -0.1183964408803808 0 0.30316218715013699 -0.13585617877411299 0 0.31993283661344418 -0.13594728745244961 0 0.31993283661344418 -0.13594728745244961 0 0.32334883616376942 -0.1477785311756023 0 0.33670348607675138 -0.13603839613078461 0 0.31854024801571379 -0.1183964408803808 0 0.31993283661344418 -0.13594728745244961 0 0.33718817445421712 -0.13355179710808501 0 0.31854024801571379 -0.1183964408803808 0 0.33718817445421712 -0.13355179710808501 0 0.31557079919726838 -0.1590044961535387 0 0.33199725769327038 -0.160182781354547 0 0.32334883616376942 -0.1477785311756023 0 0.31993283661344418 -0.13594728745244961 0 0.32334883616376942 -0.1477785311756023 0 0.31253980123811259 -0.14771969478669131 0 0.31557079919726838 -0.1590044961535387 0 0.32334883616376942 -0.1477785311756023 0 0.31253980123811259 -0.14771969478669131 0 0.33199725769327038 -0.160182781354547 0 0.34027166502062639 -0.13605778071504529 0 0.33670348607675138 -0.13603839613078461 0 0.33199725769327038 -0.160182781354547 0 0.32334883616376942 -0.1477785311756023 0 0.33670348607675138 -0.13603839613078461 0 0.33199725769327038 -0.160182781354547 0 0.33670348607675138 -0.13603839613078461 0 0.31993283661344418 -0.13594728745244961 0 0.33670348607675138 -0.13603839613078461 0 0.31993283661344418 -0.13594728745244961 0 0.33670348607675138 -0.13603839613078461 0 0.33718817445421712 -0.13355179710808501 0 0.34025414842832208 -0.11782241666052221 0 0.33718817445421712 -0.13355179710808501 0 0.34381162934489939 -0.12854128697128539 0 0.34025414842832208 -0.11782241666052221 0 0.33718817445421712 -0.13355179710808501 0 0.34027166502062639 -0.13605778071504529 0 0.33670348607675138 -0.13603839613078461 0 0.33718817445421712 -0.13355179710808501 0 0.34027166502062639 -0.13605778071504529 0 0.33718817445421712 -0.13355179710808501 0 0.34027166502062639 -0.13605778071504529 0 0.33670348607675138 -0.13603839613078461 0 0.33670348607675138 -0.13603839613078461 0 0.33718817445421712 -0.13355179710808501 0 0.34027166502062639 -0.13605778071504529 0 0.33718817445421712 -0.13355179710808501 0 0.34381162934489939 -0.12854128697128539 0 0.33199725769327038 -0.160182781354547 0 0.34027166502062639 -0.13605778071504529 0 0.36359383050920879 -0.15501193774405861 0 0.35355367174401742 -0.1211945845718113 0 0.34381162934489939 -0.12854128697128539 0 0.34779048707731292 -0.1340798558009649 0 0.34027166502062639 -0.13605778071504529 0 0.34884821061351562 -0.13610437388577321 0 0.35664352332635268 -0.13060513793896061 0 0.34779048707731292 -0.1340798558009649 0 0.34884821061351562 -0.13610437388577321 0 0.34027166502062639 -0.13605778071504529 0 0.34779048707731292 -0.1340798558009649 0 0.34884821061351562 -0.13610437388577321 0 0.34027166502062639 -0.13605778071504529 0 0.34381162934489939 -0.12854128697128539 0 0.34779048707731292 -0.1340798558009649 0 0.35664352332635268 -0.13060513793896061 0 0.34884821061351562 -0.13610437388577321 0 0.36374720336072303 -0.13810563056468389 0 0.34884821061351562 -0.13610437388577321 0 0.36359383050920879 -0.15501193774405861 0 0.36374720336072303 -0.13810563056468389 0 0.34027166502062639 -0.13605778071504529 0 0.36359383050920879 -0.15501193774405861 0 0.34027166502062639 -0.13605778071504529 0 0.34884821061351562 -0.13610437388577321 0 0.36359383050920879 -0.15501193774405861 0 0.36359383050920879 -0.15501193774405861 0 0.36374720336072303 -0.13810563056468389 0 0.37656812491251679 -0.13846106794218549 0 0.3785150876385216 -0.1195111518185689 0 0.36779594019891898 -0.12729788290040461 0 0.37656812491251679 -0.13846106794218549 0 0.36374720336072303 -0.13810563056468389 0 0.36779594019891898 -0.12729788290040461 0 0.37656812491251679 -0.13846106794218549 0 0.35664352332635268 -0.13060513793896061 0 0.36374720336072303 -0.13810563056468389 0 0.36779594019891898 -0.12729788290040461 0 0.33199725769327038 -0.160182781354547 0 0.36359383050920879 -0.15501193774405861 0 0.34572674800851178 -0.17666980330527179 0 0.34572674800851178 -0.17666980330527179 0 0.36422253950936112 -0.1859310752075029 0 0.34152908302092871 -0.19789605564194099 0 0.36359383050920879 -0.15501193774405861 0 0.34572674800851178 -0.17666980330527179 0 0.36422253950936112 -0.1859310752075029 0 0.36359383050920879 -0.15501193774405861 0 0.36422253950936112 -0.1859310752075029 0 0.38691599599779503 -0.1739660947730671 0 0.36422253950936112 -0.1859310752075029 0 0.37220629557919183 -0.19612338441269381 0 0.37910290544765168 -0.18685571494790659 0 0.36422253950936112 -0.1859310752075029 0 0.37220629557919183 -0.19612338441269381 0 0.35685044422528578 -0.20027094664828951 0 0.37220629557919183 -0.19612338441269381 0 0.3556522221671049 -0.2162457527497984 0 0.35685044422528578 -0.20027094664828951 0 0.37220629557919183 -0.19612338441269381 0 0.3556522221671049 -0.2162457527497984 0 0.37273333868611941 -0.2093978965492076 0 0.3556522221671049 -0.2162457527497984 0 0.3731990688381891 -0.2228302363117915 0 0.37220629557919183 -0.19612338441269381 0 0.37273333868611941 -0.2093978965492076 0 0.3556522221671049 -0.2162457527497984 0 0.34913249600123192 -0.20719712371303781 0 0.34152908302092871 -0.19789605564194099 0 0.34144894007629428 -0.2139395960038605 0 0.3556522221671049 -0.2162457527497984 0 0.34913249600123192 -0.20719712371303781 0 0.35685044422528578 -0.20027094664828951 0 0.3556522221671049 -0.2162457527497984 0 0.34913249600123192 -0.20719712371303781 0 0.34144894007629428 -0.2139395960038605 0 0.36422253950936112 -0.1859310752075029 0 0.35685044422528578 -0.20027094664828951 0 0.34152908302092871 -0.19789605564194099 0 0.36422253950936112 -0.1859310752075029 0 0.34152908302092871 -0.19789605564194099 0 0.34913249600123192 -0.20719712371303781 0 0.35685044422528578 -0.20027094664828951 0 0.34152908302092871 -0.19789605564194099 0 0.32729102930978993 -0.18432716657830939 0 0.34152908302092871 -0.19789605564194099 0 0.32289957828838461 -0.19876131457419149 0 0.34152908302092871 -0.19789605564194099 0 0.31883562653249692 -0.20986103607638071 0 0.34152908302092871 -0.19789605564194099 0 0.34144894007629428 -0.2139395960038605 0 0.31883562653249692 -0.20986103607638071 0 0.34144894007629428 -0.2139395960038605 0 0.31883562653249692 -0.20986103607638071 0 0.32331405575278033 -0.23055000204260581 0 0.31883562653249692 -0.20986103607638071 0 0.32289957828838461 -0.19876131457419149 0 0.30817512199612251 -0.208018461664154 0 0.31883562653249692 -0.20986103607638071 0 0.32289957828838461 -0.19876131457419149 0 0.30866677822314281 -0.19370433905286669 0 0.30817512199612251 -0.208018461664154 0 0.32289957828838461 -0.19876131457419149 0 0.34152908302092871 -0.19789605564194099 0 0.31883562653249692 -0.20986103607638071 0 0.32289957828838461 -0.19876131457419149 0 0.30866677822314281 -0.19370433905286669 0 0.31498869866721663 -0.1848028620899877 0 0.32289957828838461 -0.19876131457419149 0 0.31498869866721663 -0.1848028620899877 0 0.32729102930978993 -0.18432716657830939 0 0.32289957828838461 -0.19876131457419149 0 0.30517917142926537 -0.24716040808135001 0 0.32331405575278033 -0.23055000204260581 0 0.30517917142926537 -0.24716040808135001 0 0.32331405575278033 -0.23055000204260581 0 0.322544075342931 -0.25649048942400782 0 0.31200739898088131 -0.22851072207886541 0 0.30517917142926537 -0.24716040808135001 0 0.32331405575278033 -0.23055000204260581 0 0.31200739898088131 -0.22851072207886541 0 0.31883562653249692 -0.20986103607638071 0 0.31200739898088131 -0.22851072207886541 0 0.31883562653249692 -0.20986103607638071 0 0.32331405575278033 -0.23055000204260581 0 0.34144894007629428 -0.2139395960038605 0 0.32331405575278033 -0.23055000204260581 0 0.34144894007629428 -0.2139395960038605 0 0.32331405575278033 -0.23055000204260581 0 0.33909814875501798 -0.23636812108690311 0 0.33909814875501798 -0.23636812108690311 0 0.322544075342931 -0.25649048942400782 0 0.32331405575278033 -0.23055000204260581 0 0.33909814875501798 -0.23636812108690311 0 0.322544075342931 -0.25649048942400782 0 0.33909814875501798 -0.23636812108690311 0 0.35007299243335749 -0.24785688602667111 0 0.33700232267718733 -0.25494009872172468 0 0.33909814875501798 -0.23636812108690311 0 0.322544075342931 -0.25649048942400782 0 0.33700232267718733 -0.25494009872172468 0 0.33909814875501798 -0.23636812108690311 0 0.35007299243335749 -0.24785688602667111 0 0.35471840821638012 -0.232162972911199 0 0.35007299243335749 -0.24785688602667111 0 0.35471840821638012 -0.232162972911199 0 0.36225179838031341 -0.2439392928582107 0 0.35007299243335749 -0.24785688602667111 0 0.36225179838031341 -0.2439392928582107 0 0.36124693131331159 -0.25807728632712912 0 0.3556522221671049 -0.2162457527497984 0 0.33909814875501798 -0.23636812108690311 0 0.3556522221671049 -0.2162457527497984 0 0.33909814875501798 -0.23636812108690311 0 0.35471840821638012 -0.232162972911199 0 0.3556522221671049 -0.2162457527497984 0 0.34144894007629428 -0.2139395960038605 0 0.33909814875501798 -0.23636812108690311 0 0.35471840821638012 -0.232162972911199 0 0.3731990688381891 -0.2228302363117915 0 0.36225179838031341 -0.2439392928582107 0 0.3556522221671049 -0.2162457527497984 0 0.35471840821638012 -0.232162972911199 0 0.3731990688381891 -0.2228302363117915 0 0.3731990688381891 -0.2228302363117915 0 0.36225179838031341 -0.2439392928582107 0 0.3731990688381891 -0.2228302363117915 0 0.36225179838031341 -0.2439392928582107 0 0.38186963046980549 -0.2367879359972051 0 0.36225179838031341 -0.2439392928582107 0 0.38186963046980549 -0.2367879359972051 0 0.37510228513818711 -0.25237727586059511 0 0.38186963046980549 -0.2367879359972051 0 0.39206528024080278 -0.24921397013056479 0 0.37510228513818711 -0.25237727586059511 0 0.39206528024080278 -0.24921397013056479 0 0.40137725565661481 -0.22692044649349019 0 0.4148006158986044 -0.24103970595398019 0 0.39206528024080278 -0.24921397013056479 0 0.4148006158986044 -0.24103970595398019 0 0.40884184876520419 -0.25890250189124958 0 0.38186963046980549 -0.2367879359972051 0 0.39206528024080278 -0.24921397013056479 0 0.40137725565661481 -0.22692044649349019 0 0.40137725565661481 -0.22692044649349019 0 0.39915185452682361 -0.21610044156742811 0 0.41396763236883027 -0.21470461273584779 0 0.40137725565661481 -0.22692044649349019 0 0.38700545273377529 -0.2233412248148075 0 0.39915185452682361 -0.21610044156742811 0 0.38186963046980549 -0.2367879359972051 0 0.40137725565661481 -0.22692044649349019 0 0.38700545273377529 -0.2233412248148075 0 0.3731990688381891 -0.2228302363117915 0 0.38186963046980549 -0.2367879359972051 0 0.38700545273377529 -0.2233412248148075 0 0.3731990688381891 -0.2228302363117915 0 0.38414633929606479 -0.2017211797653724 0 0.37273333868611941 -0.2093978965492076 0 0.3731990688381891 -0.2228302363117915 0 0.38414633929606479 -0.2017211797653724 0 0.3731990688381891 -0.2228302363117915 0 0.38675328488958288 -0.2095276895359276 0 0.38414633929606479 -0.2017211797653724 0 0.3731990688381891 -0.2228302363117915 0 0.38700545273377529 -0.2233412248148075 0 0.38675328488958288 -0.2095276895359276 0 0.38675328488958288 -0.2095276895359276 0 0.38414633929606479 -0.2017211797653724 0 0.39287005569986072 -0.20314648074516001 0 0.38414633929606479 -0.2017211797653724 0 0.38373621375160438 -0.1885238144486111 0 0.39509360975394031 -0.18061212321895309 0 0.38414633929606479 -0.2017211797653724 0 0.39509360975394031 -0.18061212321895309 0 0.37999921147615667 -0.19503406661491049 0 0.38373621375160438 -0.1885238144486111 0 0.37910290544765168 -0.18685571494790659 0 0.37999921147615667 -0.19503406661491049 0 0.38414633929606479 -0.2017211797653724 0 0.38373621375160438 -0.1885238144486111 0 0.37220629557919183 -0.19612338441269381 0 0.37999921147615667 -0.19503406661491049 0 0.37910290544765168 -0.18685571494790659 0 0.37220629557919183 -0.19612338441269381 0 0.37273333868611941 -0.2093978965492076 0 0.38414633929606479 -0.2017211797653724 0 0.37220629557919183 -0.19612338441269381 0 0.37999921147615667 -0.19503406661491049 0 0.38414633929606479 -0.2017211797653724 0 0.38414633929606479 -0.2017211797653724 0 0.39694758591794982 -0.18886739411602391 0 0.39509360975394031 -0.18061212321895309 0 0.39694758591794982 -0.18886739411602391 0 0.3969424320709618 -0.1972324897541754 0 0.40101572763622523 -0.19231380306325679 0 0.38414633929606479 -0.2017211797653724 0 0.39694758591794982 -0.18886739411602391 0 0.3969424320709618 -0.1972324897541754 0 0.38414633929606479 -0.2017211797653724 0 0.3969424320709618 -0.1972324897541754 0 0.39287005569986072 -0.20314648074516001 0 0.3969424320709618 -0.1972324897541754 0 0.400612395600416 -0.20053006859666331 0 0.39287005569986072 -0.20314648074516001 0 0.3969424320709618 -0.1972324897541754 0 0.4059814476455269 -0.19573306963025069 0 0.400612395600416 -0.20053006859666331 0 0.4059814476455269 -0.19573306963025069 0 0.400612395600416 -0.20053006859666331 0 0.40665564698531481 -0.2060082342570673 0 0.3969424320709618 -0.1972324897541754 0 0.4059814476455269 -0.19573306963025069 0 0.40101572763622523 -0.19231380306325679 0 0.4059814476455269 -0.19573306963025069 0 0.40101572763622523 -0.19231380306325679 0 0.40419144491046238 -0.1874222587525772 0 0.39694758591794982 -0.18886739411602391 0 0.40101572763622523 -0.19231380306325679 0 0.40419144491046238 -0.1874222587525772 0 0.38675328488958288 -0.2095276895359276 0 0.40665564698531481 -0.2060082342570673 0 0.38675328488958288 -0.2095276895359276 0 0.39915185452682361 -0.21610044156742811 0 0.40665564698531481 -0.2060082342570673 0 0.38675328488958288 -0.2095276895359276 0 0.39287005569986072 -0.20314648074516001 0 0.40665564698531481 -0.2060082342570673 0 0.38700545273377529 -0.2233412248148075 0 0.38675328488958288 -0.2095276895359276 0 0.39915185452682361 -0.21610044156742811 0 0.400612395600416 -0.20053006859666331 0 0.39287005569986072 -0.20314648074516001 0 0.40665564698531481 -0.2060082342570673 0 0.41396763236883027 -0.21470461273584779 0 0.40665564698531481 -0.2060082342570673 0 0.42655800908104652 -0.20248877897820619 0 0.40665564698531481 -0.2060082342570673 0 0.42655800908104652 -0.20248877897820619 0 0.39915185452682361 -0.21610044156742811 0 0.41396763236883027 -0.21470461273584779 0 0.40665564698531481 -0.2060082342570673 0 0.41396763236883027 -0.21470461273584779 0 0.42655800908104652 -0.20248877897820619 0 0.40665564698531481 -0.2060082342570673 0 0.41640017291144837 -0.19588579121564459 0 0.42655800908104652 -0.20248877897820619 0 0.4059814476455269 -0.19573306963025069 0 0.41640017291144837 -0.19588579121564459 0 0.41453364601533049 -0.1862870086825022 0 0.4059814476455269 -0.19573306963025069 0 0.40419144491046238 -0.1874222587525772 0 0.41453364601533049 -0.1862870086825022 0 0.4059814476455269 -0.19573306963025069 0 0.40665564698531481 -0.2060082342570673 0 0.41640017291144837 -0.19588579121564459 0 0.41640017291144837 -0.19588579121564459 0 0.42581299264578848 -0.18832250896932939 0 0.41453364601533049 -0.1862870086825022 0 0.42655800908104652 -0.20248877897820619 0 0.444302871767289 -0.18527179670816579 0 0.42581299264578848 -0.18832250896932939 0 0.42655800908104652 -0.20248877897820619 0 0.444302871767289 -0.18527179670816579 0 0.41640017291144837 -0.19588579121564459 0 0.42581299264578848 -0.18832250896932939 0 0.42655800908104652 -0.20248877897820619 0 0.42655800908104652 -0.20248877897820619 0 0.43237997939727391 -0.21969514264188619 0 0.44995934289594253 -0.19835057932979169 0 0.41396763236883027 -0.21470461273584779 0 0.42655800908104652 -0.20248877897820619 0 0.43237997939727391 -0.21969514264188619 0 0.43237997939727391 -0.21969514264188619 0 0.43199948472716282 -0.23703470349933331 0 0.4148006158986044 -0.24103970595398019 0 0.43237997939727391 -0.21969514264188619 0 0.4148006158986044 -0.24103970595398019 0 0.43199948472716282 -0.23703470349933331 0 0.4148006158986044 -0.24103970595398019 0 0.42892204251950339 -0.2594807324876427 0 0.43199948472716282 -0.23703470349933331 0 0.44338493428344739 -0.24574379201886831 0 0.42892204251950339 -0.2594807324876427 0 0.43237997939727391 -0.21969514264188619 0 0.4148006158986044 -0.24103970595398019 0 0.41563137083033092 -0.22558997695630109 0 0.41396763236883027 -0.21470461273584779 0 0.43237997939727391 -0.21969514264188619 0 0.41563137083033092 -0.22558997695630109 0 0.40137725565661481 -0.22692044649349019 0 0.4148006158986044 -0.24103970595398019 0 0.41563137083033092 -0.22558997695630109 0 0.40137725565661481 -0.22692044649349019 0 0.41396763236883027 -0.21470461273584779 0 0.40137725565661481 -0.22692044649349019 0 0.41396763236883027 -0.21470461273584779 0 0.41563137083033092 -0.22558997695630109 0 0.39237070121405998 -0.13164091544729051 0 0.39988799210863701 -0.14408364481314989 0 0.41368108829086198 -0.13554811058748131 0 0.40604313277712428 -0.1171380761358455 0 0.39237070121405998 -0.13164091544729051 0 0.41368108829086198 -0.13554811058748131 0 0.39237070121405998 -0.13164091544729051 0 0.37656812491251679 -0.13846106794218549 0 0.38605620033535121 -0.1499684147877679 0 0.3785150876385216 -0.1195111518185689 0 0.39237070121405998 -0.13164091544729051 0 0.37656812491251679 -0.13846106794218549 0 0.36359383050920879 -0.15501193774405861 0 0.37656812491251679 -0.13846106794218549 0 0.38605620033535121 -0.1499684147877679 0 0.39237070121405998 -0.13164091544729051 0 0.38605620033535121 -0.1499684147877679 0 0.39988799210863701 -0.14408364481314989 0 0.38605620033535121 -0.1499684147877679 0 0.39988799210863701 -0.14408364481314989 0 0.39700055726989097 -0.15664682800685811 0 0.39988799210863701 -0.14408364481314989 0 0.39700055726989097 -0.15664682800685811 0 0.40766935758353628 -0.1563629578155839 0 0.40291487034120532 -0.16553079014728059 0 0.39700055726989097 -0.15664682800685811 0 0.38691599599779503 -0.1739660947730671 0 0.40291487034120532 -0.16553079014728059 0 0.38691599599779503 -0.1739660947730671 0 0.40291487034120532 -0.16553079014728059 0 0.39700055726989097 -0.15664682800685811 0 0.40766935758353628 -0.1563629578155839 0 0.40291487034120532 -0.16553079014728059 0 0.40766935758353628 -0.1563629578155839 0 0.38605620033535121 -0.1499684147877679 0 0.39700055726989097 -0.15664682800685811 0 0.38691599599779503 -0.1739660947730671 0 0.36359383050920879 -0.15501193774405861 0 0.38691599599779503 -0.1739660947730671 0 0.36359383050920879 -0.15501193774405861 0 0.38605620033535121 -0.1499684147877679 0 0.38691599599779503 -0.1739660947730671 0 0.36422253950936112 -0.1859310752075029 0 0.38691599599779503 -0.1739660947730671 0 0.37910290544765168 -0.18685571494790659 0 0.36422253950936112 -0.1859310752075029 0 0.38691599599779503 -0.1739660947730671 0 0.38691599599779503 -0.1739660947730671 0 0.38753717637180268 -0.18155585423065651 0 0.39509360975394031 -0.18061212321895309 0 0.38373621375160438 -0.1885238144486111 0 0.38753717637180268 -0.18155585423065651 0 0.39509360975394031 -0.18061212321895309 0 0.38691599599779503 -0.1739660947730671 0 0.37910290544765168 -0.18685571494790659 0 0.38753717637180268 -0.18155585423065651 0 0.38373621375160438 -0.1885238144486111 0 0.37910290544765168 -0.18685571494790659 0 0.38753717637180268 -0.18155585423065651 0 0.40291487034120532 -0.16553079014728059 0 0.38691599599779503 -0.1739660947730671 0 0.39509360975394031 -0.18061212321895309 0 0.39694758591794982 -0.18886739411602391 0 0.39665445354372708 -0.18451779314135289 0 0.39509360975394031 -0.18061212321895309 0 0.39694758591794982 -0.18886739411602391 0 0.39665445354372708 -0.18451779314135289 0 0.40021252966215071 -0.18382207331845951 0 0.39665445354372708 -0.18451779314135289 0 0.39509360975394031 -0.18061212321895309 0 0.40021252966215071 -0.18382207331845951 0 0.38691599599779503 -0.1739660947730671 0 0.39509360975394031 -0.18061212321895309 0 0.40291487034120532 -0.16553079014728059 0 0.39509360975394031 -0.18061212321895309 0 0.40549068313545528 -0.17742909809594989 0 0.40291487034120532 -0.16553079014728059 0 0.39509360975394031 -0.18061212321895309 0 0.40549068313545528 -0.17742909809594989 0 0.40419144491046238 -0.1874222587525772 0 0.40021252966215071 -0.18382207331845951 0 0.39509360975394031 -0.18061212321895309 0 0.40549068313545528 -0.17742909809594989 0 0.40021252966215071 -0.18382207331845951 0 0.39694758591794982 -0.18886739411602391 0 0.40419144491046238 -0.1874222587525772 0 0.40021252966215071 -0.18382207331845951 0 0.42581299264578848 -0.18832250896932939 0 0.41453364601533049 -0.1862870086825022 0 0.42235201908535791 -0.17050045814039369 0 0.40549068313545528 -0.17742909809594989 0 0.41453364601533049 -0.1862870086825022 0 0.42235201908535791 -0.17050045814039369 0 0.40549068313545528 -0.17742909809594989 0 0.40419144491046238 -0.1874222587525772 0 0.41453364601533049 -0.1862870086825022 0 0.42235201908535791 -0.17050045814039369 0 0.44127751826325029 -0.16493106072254701 0 0.444302871767289 -0.18527179670816579 0 0.42581299264578848 -0.18832250896932939 0 0.42235201908535791 -0.17050045814039369 0 0.444302871767289 -0.18527179670816579 0 0.42235201908535791 -0.17050045814039369 0 0.42606808286872072 -0.1533234062687002 0 0.44127751826325029 -0.16493106072254701 0 0.40291487034120532 -0.16553079014728059 0 0.40766935758353628 -0.1563629578155839 0 0.42606808286872072 -0.1533234062687002 0 0.40291487034120532 -0.16553079014728059 0 0.42606808286872072 -0.1533234062687002 0 0.40291487034120532 -0.16553079014728059 0 0.42235201908535791 -0.17050045814039369 0 0.42606808286872072 -0.1533234062687002 0 0.40291487034120532 -0.16553079014728059 0 0.40549068313545528 -0.17742909809594989 0 0.42235201908535791 -0.17050045814039369 0 0.41182663021293903 -0.1473295298712288 0 0.42606808286872072 -0.1533234062687002 0 0.41368108829086198 -0.13554811058748131 0 0.40766935758353628 -0.1563629578155839 0 0.41182663021293903 -0.1473295298712288 0 0.42606808286872072 -0.1533234062687002 0 0.39988799210863701 -0.14408364481314989 0 0.40766935758353628 -0.1563629578155839 0 0.41182663021293903 -0.1473295298712288 0 0.39988799210863701 -0.14408364481314989 0 0.41182663021293903 -0.1473295298712288 0 0.41368108829086198 -0.13554811058748131 0 0.42606808286872072 -0.1533234062687002 0 0.430889964195386 -0.135117951771525 0 0.44922129539623712 -0.14111602239012119 0 0.42606808286872072 -0.1533234062687002 0 0.430889964195386 -0.135117951771525 0 0.41368108829086198 -0.13554811058748131 0 0.42080162445294911 -0.1170697999396166 0 0.430889964195386 -0.135117951771525 0 0.41368108829086198 -0.13554811058748131 0 0.45825176112352212 -0.1171944005084963 0 0.44922129539623712 -0.14111602239012119 0 0.47461064769812122 -0.12772964805397971 0 0.44922129539623712 -0.14111602239012119 0 0.47461064769812122 -0.12772964805397971 0 0.44922129539623712 -0.14111602239012119 0 0.47041229806123103 -0.14236165737458781 0 0.47461064769812122 -0.12772964805397971 0 0.43893170590200609 -0.1195052611799315 0 0.430889964195386 -0.135117951771525 0 0.44922129539623712 -0.14111602239012119 0 0.43893170590200609 -0.1195052611799315 0 0.45825176112352212 -0.1171944005084963 0 0.44922129539623712 -0.14111602239012119 0 0.43893170590200609 -0.1195052611799315 0 0.44922129539623712 -0.14111602239012119 0 0.42606808286872072 -0.1533234062687002 0 0.44922129539623712 -0.14111602239012119 0 0.44127751826325029 -0.16493106072254701 0 0.42606808286872072 -0.1533234062687002 0 0.44922129539623712 -0.14111602239012119 0 0.44922129539623712 -0.14111602239012119 0 0.46204773445353348 -0.16805481443812731 0 0.44922129539623712 -0.14111602239012119 0 0.46204773445353348 -0.16805481443812731 0 0.47041229806123103 -0.14236165737458781 0 0.44922129539623712 -0.14111602239012119 0 0.46204773445353348 -0.16805481443812731 0 0.44127751826325029 -0.16493106072254701 0 0.46204773445353348 -0.16805481443812731 0 0.44127751826325029 -0.16493106072254701 0 0.444302871767289 -0.18527179670816579 0 0.46204773445353348 -0.16805481443812731 0 0.444302871767289 -0.18527179670816579 0 0.46675991992270621 -0.1779516052682695 0 0.47013600328087812 -0.185042241033678 0 0.44995934289594253 -0.19835057932979169 0 0.444302871767289 -0.18527179670816579 0 0.46675991992270621 -0.1779516052682695 0 0.44995934289594253 -0.19835057932979169 0 0.46204773445353348 -0.16805481443812731 0 0.444302871767289 -0.18527179670816579 0 0.46675991992270621 -0.1779516052682695 0 0.46204773445353348 -0.16805481443812731 0 0.46675991992270621 -0.1779516052682695 0 0.46675991992270621 -0.1779516052682695 0 0.47013600328087812 -0.185042241033678 0 0.46675991992270621 -0.1779516052682695 0 0.48388214138120561 -0.17390417728894431 0 0.47927416581767118 -0.18397687174081401 0 0.46675991992270621 -0.1779516052682695 0 0.47013600328087812 -0.185042241033678 0 0.47927416581767118 -0.18397687174081401 0 0.48388214138120561 -0.17390417728894431 0 0.47927416581767118 -0.18397687174081401 0 0.48987334582395858 -0.18140433091368091 0 0.48987334582395858 -0.18140433091368091 0 0.5 -0.16492372169971509 0 0.5 -0.19225537639104809 0 0.48388214138120561 -0.17390417728894431 0 0.48987334582395858 -0.18140433091368091 0 0.5 -0.16492372169971509 0 0.47927416581767118 -0.18397687174081401 0 0.48987334582395858 -0.18140433091368091 0 0.48552241192915191 -0.19206174635411891 0 0.48388214138120561 -0.17390417728894431 0 0.5 -0.16492372169971509 0 0.48337995996135552 -0.1577718361383266 0 0.46675991992270621 -0.1779516052682695 0 0.48388214138120561 -0.17390417728894431 0 0.48337995996135552 -0.1577718361383266 0 0.46204773445353348 -0.16805481443812731 0 0.46675991992270621 -0.1779516052682695 0 0.48337995996135552 -0.1577718361383266 0 0.46204773445353348 -0.16805481443812731 0 0.48337995996135552 -0.1577718361383266 0 0.47713463147989749 -0.15341672773068571 0 0.46675991992270621 -0.1779516052682695 0 0.48337995996135552 -0.1577718361383266 0 0.46204773445353348 -0.16805481443812731 0 0.47713463147989749 -0.15341672773068571 0 0.46204773445353348 -0.16805481443812731 0 0.47041229806123103 -0.14236165737458781 0 0.47713463147989749 -0.15341672773068571 0 0.48337995996135552 -0.1577718361383266 0 0.47713463147989749 -0.15341672773068571 0 0.48456351921585428 -0.1397192317593817 0 0.47041229806123103 -0.14236165737458781 0 0.47713463147989749 -0.15341672773068571 0 0.48456351921585428 -0.1397192317593817 0 0.48337995996135552 -0.1577718361383266 0 0.50000000000000311 -0.1375920670083822 0 0.48456351921585428 -0.1397192317593817 0 0.5 -0.16492372169971509 0 0.48337995996135552 -0.1577718361383266 0 0.50000000000000311 -0.1375920670083822 0 0.48337995996135552 -0.1577718361383266 0 0.50000000000000311 -0.1375920670083822 0 0.50000000000000433 -0.1143432737178363 0 0.50000000000000311 -0.1375920670083822 0 0.48456351921585428 -0.1397192317593817 0 0.50000000000000433 -0.1143432737178363 0 0.48456351921585428 -0.1397192317593817 0 0.47461064769812122 -0.12772964805397971 0 0.47041229806123103 -0.14236165737458781 0 0.48456351921585428 -0.1397192317593817 0 0.47461064769812122 -0.12772964805397971 0 0.46695018322910392 -0.22473955239466681 0 0.44975785303280541 -0.2255898949688982 0 0.46528918090086291 -0.2095084705765255 0 0.46695018322910392 -0.22473955239466681 0 0.46086119099944728 -0.24298014516654151 0 0.44975785303280541 -0.2255898949688982 0 0.46086119099944728 -0.24298014516654151 0 0.44338493428344739 -0.24574379201886831 0 0.44975785303280541 -0.2255898949688982 0 0.43199948472716282 -0.23703470349933331 0 0.44338493428344739 -0.24574379201886831 0 0.44975785303280541 -0.2255898949688982 0 0.46086119099944728 -0.24298014516654151 0 0.44338493428344739 -0.24574379201886831 0 0.45165913482636821 -0.26068325523694041 0 0.43237997939727391 -0.21969514264188619 0 0.43199948472716282 -0.23703470349933331 0 0.44975785303280541 -0.2255898949688982 0 0.43237997939727391 -0.21969514264188619 0 0.44975785303280541 -0.2255898949688982 0 0.44995934289594253 -0.19835057932979169 0 0.43237997939727391 -0.21969514264188619 0 0.44995934289594253 -0.19835057932979169 0 0.42655800908104652 -0.20248877897820619 0 0.444302871767289 -0.18527179670816579 0 0.44995934289594253 -0.19835057932979169 0 0.42655800908104652 -0.20248877897820619 0 0.44995934289594253 -0.19835057932979169 0 0.46675991992270621 -0.1779516052682695 0 0.44995934289594253 -0.19835057932979169 0 0.44995934289594253 -0.19835057932979169 0 0.46774087741254722 -0.19520616284195491 0 0.47013600328087812 -0.185042241033678 0 0.44995934289594253 -0.19835057932979169 0 0.46774087741254722 -0.19520616284195491 0 0.44995934289594253 -0.19835057932979169 0 0.46774087741254722 -0.19520616284195491 0 0.46528918090086291 -0.2095084705765255 0 0.44975785303280541 -0.2255898949688982 0 0.44995934289594253 -0.19835057932979169 0 0.46528918090086291 -0.2095084705765255 0 0.46695018322910392 -0.22473955239466681 0 0.46528918090086291 -0.2095084705765255 0 0.48029579162163721 -0.21558854579597769 0 0.46528918090086291 -0.2095084705765255 0 0.47801733861628259 -0.20339364304417529 0 0.48029579162163721 -0.21558854579597769 0 0.47801733861628259 -0.20339364304417529 0 0.48029579162163721 -0.21558854579597769 0 0.48876710843341442 -0.20457726853354019 0 0.46774087741254722 -0.19520616284195491 0 0.47801733861628259 -0.20339364304417529 0 0.48552241192915191 -0.19206174635411891 0 0.47927416581767118 -0.18397687174081401 0 0.46774087741254722 -0.19520616284195491 0 0.48552241192915191 -0.19206174635411891 0 0.46774087741254722 -0.19520616284195491 0 0.48552241192915191 -0.19206174635411891 0 0.47013600328087812 -0.185042241033678 0 0.47927416581767118 -0.18397687174081401 0 0.46774087741254722 -0.19520616284195491 0 0.46774087741254722 -0.19520616284195491 0 0.46528918090086291 -0.2095084705765255 0 0.47801733861628259 -0.20339364304417529 0 0.47801733861628259 -0.20339364304417529 0 0.48552241192915191 -0.19206174635411891 0 0.48876710843341442 -0.20457726853354019 0 0.48987334582395858 -0.18140433091368091 0 0.48552241192915191 -0.19206174635411891 0 0.5 -0.19225537639104809 0 0.48552241192915191 -0.19206174635411891 0 0.5 -0.19225537639104809 0 0.48876710843341442 -0.20457726853354019 0 0.5 -0.19225537639104809 0 0.48876710843341442 -0.20457726853354019 0 0.5 -0.21958703108238101 0 0.48029579162163721 -0.21558854579597769 0 0.48876710843341442 -0.20457726853354019 0 0.5 -0.21958703108238101 0 0.5 -0.21958703108238101 0 0.48033598971293961 -0.23536730169414519 0 0.5 -0.24691868577371379 0 0.48029579162163721 -0.21558854579597769 0 0.5 -0.21958703108238101 0 0.48033598971293961 -0.23536730169414519 0 0.46695018322910392 -0.22473955239466681 0 0.46086119099944728 -0.24298014516654151 0 0.48033598971293961 -0.23536730169414519 0 0.46695018322910392 -0.22473955239466681 0 0.48029579162163721 -0.21558854579597769 0 0.48033598971293961 -0.23536730169414519 0 0.46086119099944728 -0.24298014516654151 0 0.48033598971293961 -0.23536730169414519 0 0.47450143065275591 -0.2599846894272051 0 0.48033598971293961 -0.23536730169414519 0 0.5 -0.24691868577371379 0 0.47450143065275591 -0.2599846894272051 0 0.5 -0.24691868577371379 0 0.50000000000000222 -0.27425034046504659 0 0.47450143065275591 -0.2599846894272051 0 0.50000000000000222 -0.27425034046504659 0 0.47605513413645029 -0.28008102786359129 0 0.47450143065275591 -0.2599846894272051 0 0.47605513413645029 -0.28008102786359129 0 0.47450143065275591 -0.2599846894272051 0 0.45931845050930209 -0.27772900618102819 0 0.46086119099944728 -0.24298014516654151 0 0.47450143065275591 -0.2599846894272051 0 0.45165913482636821 -0.26068325523694041 0 0.47450143065275591 -0.2599846894272051 0 0.45931845050930209 -0.27772900618102819 0 0.45165913482636821 -0.26068325523694041 0 0.45931845050930209 -0.27772900618102819 0 0.44355941821905998 -0.27577600561597132 0 0.45165913482636821 -0.26068325523694041 0 0.44338493428344739 -0.24574379201886831 0 0.45165913482636821 -0.26068325523694041 0 0.42892204251950339 -0.2594807324876427 0 0.44355941821905998 -0.27577600561597132 0 0.45165913482636821 -0.26068325523694041 0 0.42892204251950339 -0.2594807324876427 0 0.44743457629936911 -0.29125199491084608 0 0.45088585771739531 -0.31517042999936162 0 0.43686388954492023 -0.30206384222820981 0 0.45088585771739531 -0.31517042999936162 0 0.43602078127065758 -0.31524868357114688 0 0.43686388954492023 -0.30206384222820981 0 0.45931845050930209 -0.27772900618102819 0 0.44355941821905998 -0.27577600561597132 0 0.44743457629936911 -0.29125199491084608 0 0.44355941821905998 -0.27577600561597132 0 0.44743457629936911 -0.29125199491084608 0 0.42611848489587972 -0.28658767974219163 0 0.47605513413645029 -0.28008102786359129 0 0.45931845050930209 -0.27772900618102819 0 0.46516191830632447 -0.295844547827811 0 0.45931845050930209 -0.27772900618102819 0 0.44743457629936911 -0.29125199491084608 0 0.46516191830632447 -0.295844547827811 0 0.44743457629936911 -0.29125199491084608 0 0.46516191830632447 -0.295844547827811 0 0.45088585771739531 -0.31517042999936162 0 0.46516191830632447 -0.295844547827811 0 0.47218478901913252 -0.31616939882945228 0 0.45088585771739531 -0.31517042999936162 0 0.4860923945095682 -0.29520986964724988 0 0.47218478901913252 -0.31616939882945228 0 0.50000000000000222 -0.27425034046504659 0 0.4860923945095682 -0.29520986964724988 0 0.5 -0.307151228172029 0 0.46516191830632447 -0.295844547827811 0 0.4860923945095682 -0.29520986964724988 0 0.47218478901913252 -0.31616939882945228 0 0.47605513413645029 -0.28008102786359129 0 0.46516191830632447 -0.295844547827811 0 0.4860923945095682 -0.29520986964724988 0 0.50000000000000222 -0.27425034046504659 0 0.47605513413645029 -0.28008102786359129 0 0.4860923945095682 -0.29520986964724988 0 0.50000000000000222 -0.27425034046504659 0 0.4860923945095682 -0.29520986964724988 0 0.4860923945095682 -0.29520986964724988 0 0.5 -0.307151228172029 0 0.47218478901913252 -0.31616939882945228 0 0.5 -0.307151228172029 0 0.47500442815187882 -0.33618410333150461 0 0.5 -0.35237408365171952 0 0.5 -0.307151228172029 0 0.47500442815187882 -0.33618410333150461 0 0.47218478901913252 -0.31616939882945228 0 0.47500442815187882 -0.33618410333150461 0 0.5 -0.35237408365171952 0 0.46252966193221051 -0.36479181955861489 0 0.5 -0.35237408365171952 0 0.46252966193221051 -0.36479181955861489 0 0.4680243894331878 -0.39009447735167219 0 0.46252966193221051 -0.36479181955861489 0 0.44439653888602387 -0.37108278870097211 0 0.45518384933885458 -0.37953704158418422 0 0.46252966193221051 -0.36479181955861489 0 0.4490308344886651 -0.35295870566956811 0 0.45703493443123322 -0.33948916176555749 0 0.47500442815187882 -0.33618410333150461 0 0.46252966193221051 -0.36479181955861489 0 0.45703493443123322 -0.33948916176555749 0 0.46252966193221051 -0.36479181955861489 0 0.45703493443123322 -0.33948916176555749 0 0.4490308344886651 -0.35295870566956811 0 0.44439653888602387 -0.37108278870097211 0 0.43547581015886039 -0.35374612963373181 0 0.44432011104097457 -0.34600420025309703 0 0.4490308344886651 -0.35295870566956811 0 0.45042795048268808 -0.34263813410543531 0 0.4490308344886651 -0.35295870566956811 0 0.45703493443123322 -0.33948916176555749 0 0.45042795048268808 -0.34263813410543531 0 0.44432011104097457 -0.34600420025309703 0 0.4490308344886651 -0.35295870566956811 0 0.43547581015886039 -0.35374612963373181 0 0.44432011104097457 -0.34600420025309703 0 0.43877314986606192 -0.33818418946214152 0 0.43547581015886039 -0.35374612963373181 0 0.46252966193221051 -0.36479181955861489 0 0.4490308344886651 -0.35295870566956811 0 0.44439653888602387 -0.37108278870097211 0 0.47218478901913252 -0.31616939882945228 0 0.45845081404400378 -0.32484725803309861 0 0.45088585771739531 -0.31517042999936162 0 0.47218478901913252 -0.31616939882945228 0 0.45845081404400378 -0.32484725803309861 0 0.45827718352869679 -0.33712892801165451 0 0.47218478901913252 -0.31616939882945228 0 0.45827718352869679 -0.33712892801165451 0 0.45845081404400378 -0.32484725803309861 0 0.45465012105844921 -0.33200612518688721 0 0.44755831468875862 -0.32470483606049327 0 0.47500442815187882 -0.33618410333150461 0 0.45703493443123322 -0.33948916176555749 0 0.45827718352869679 -0.33712892801165451 0 0.47500442815187882 -0.33618410333150461 0 0.47218478901913252 -0.31616939882945228 0 0.45827718352869679 -0.33712892801165451 0 0.45703493443123322 -0.33948916176555749 0 0.4547926195999189 -0.33699511694280199 0 0.45042795048268808 -0.34263813410543531 0 0.45703493443123322 -0.33948916176555749 0 0.45827718352869679 -0.33712892801165451 0 0.4547926195999189 -0.33699511694280199 0 0.45845081404400378 -0.32484725803309861 0 0.45827718352869679 -0.33712892801165451 0 0.45465012105844921 -0.33200612518688721 0 0.4547926195999189 -0.33699511694280199 0 0.45465012105844921 -0.33200612518688721 0 0.45190540097192972 -0.33615439765103378 0 0.45827718352869679 -0.33712892801165451 0 0.4547926195999189 -0.33699511694280199 0 0.45465012105844921 -0.33200612518688721 0 0.45465012105844921 -0.33200612518688721 0 0.44749393872662357 -0.33307274595813069 0 0.44755831468875862 -0.32470483606049327 0 0.45465012105844921 -0.33200612518688721 0 0.44749393872662357 -0.33307274595813069 0 0.45190540097192972 -0.33615439765103378 0 0.4547926195999189 -0.33699511694280199 0 0.45042795048268808 -0.34263813410543531 0 0.45190540097192972 -0.33615439765103378 0 0.45042795048268808 -0.34263813410543531 0 0.45190540097192972 -0.33615439765103378 0 0.44691761172297523 -0.33872250108465612 0 0.44749393872662357 -0.33307274595813069 0 0.45190540097192972 -0.33615439765103378 0 0.44691761172297523 -0.33872250108465612 0 0.44432011104097457 -0.34600420025309703 0 0.45042795048268808 -0.34263813410543531 0 0.44691761172297523 -0.33872250108465612 0 0.44432011104097457 -0.34600420025309703 0 0.44691761172297523 -0.33872250108465612 0 0.43877314986606192 -0.33818418946214152 0 0.44749393872662357 -0.33307274595813069 0 0.44691761172297523 -0.33872250108465612 0 0.43877314986606192 -0.33818418946214152 0 0.44749393872662357 -0.33307274595813069 0 0.43877314986606192 -0.33818418946214152 0 0.43784837531542259 -0.32788377361433518 0 0.44749393872662357 -0.33307274595813069 0 0.43784837531542259 -0.32788377361433518 0 0.44755831468875862 -0.32470483606049327 0 0.43784837531542259 -0.32788377361433518 0 0.44755831468875862 -0.32470483606049327 0 0.43602078127065758 -0.31524868357114688 0 0.45845081404400378 -0.32484725803309861 0 0.44755831468875862 -0.32470483606049327 0 0.45088585771739531 -0.31517042999936162 0 0.44755831468875862 -0.32470483606049327 0 0.45088585771739531 -0.31517042999936162 0 0.43602078127065758 -0.31524868357114688 0 0.43784837531542259 -0.32788377361433518 0 0.42583518759170652 -0.33528639298719382 0 0.41775460495295358 -0.31793141321765611 0 0.43784837531542259 -0.32788377361433518 0 0.43602078127065758 -0.31524868357114688 0 0.41775460495295358 -0.31793141321765611 0 0.43877314986606192 -0.33818418946214152 0 0.43784837531542259 -0.32788377361433518 0 0.42583518759170652 -0.33528639298719382 0 0.43877314986606192 -0.33818418946214152 0 0.42583518759170652 -0.33528639298719382 0 0.43547581015886039 -0.35374612963373181 0 0.41250416259223432 -0.33960725990233392 0 0.41775460495295358 -0.31793141321765611 0 0.39805431729583179 -0.33510365622952631 0 0.41250416259223432 -0.33960725990233392 0 0.41775460495295358 -0.31793141321765611 0 0.42583518759170652 -0.33528639298719382 0 0.41250416259223432 -0.33960725990233392 0 0.41775460495295358 -0.31793141321765611 0 0.42583518759170652 -0.33528639298719382 0 0.41250416259223432 -0.33960725990233392 0 0.42034794007649889 -0.35298104146800569 0 0.43547581015886039 -0.35374612963373181 0 0.42034794007649889 -0.35298104146800569 0 0.42578668388574042 -0.37577956855813549 0 0.44439653888602387 -0.37108278870097211 0 0.43547581015886039 -0.35374612963373181 0 0.42578668388574042 -0.37577956855813549 0 0.42583518759170652 -0.33528639298719382 0 0.43547581015886039 -0.35374612963373181 0 0.42034794007649889 -0.35298104146800569 0 0.41250416259223432 -0.33960725990233392 0 0.42034794007649889 -0.35298104146800569 0 0.40725372023151529 -0.36128310658701179 0 0.41250416259223432 -0.33960725990233392 0 0.40725372023151529 -0.36128310658701179 0 0.40725372023151529 -0.36128310658701179 0 0.42578668388574042 -0.37577956855813549 0 0.40193856510946419 -0.3832261124550107 0 0.40725372023151529 -0.36128310658701179 0 0.42578668388574042 -0.37577956855813549 0 0.42034794007649889 -0.35298104146800569 0 0.40725372023151529 -0.36128310658701179 0 0.42578668388574042 -0.37577956855813549 0 0.40725372023151529 -0.36128310658701179 0 0.39425043507280438 -0.36432915978129837 0 0.40193856510946419 -0.3832261124550107 0 0.40725372023151529 -0.36128310658701179 0 0.40193856510946419 -0.3832261124550107 0 0.39425043507280438 -0.36432915978129837 0 0.38081427771294768 -0.36737052156009248 0 0.40193856510946419 -0.3832261124550107 0 0.40725372023151529 -0.36128310658701179 0 0.38699517723729038 -0.34543689852307891 0 0.39805431729583179 -0.33510365622952631 0 0.40725372023151529 -0.36128310658701179 0 0.39425043507280438 -0.36432915978129837 0 0.38699517723729038 -0.34543689852307891 0 0.40725372023151529 -0.36128310658701179 0 0.38699517723729038 -0.34543689852307891 0 0.41250416259223432 -0.33960725990233392 0 0.40725372023151529 -0.36128310658701179 0 0.39805431729583179 -0.33510365622952631 0 0.38699517723729038 -0.34543689852307891 0 0.38081427771294768 -0.36737052156009248 0 0.37640125955739012 -0.35149107478397351 0 0.38465179156333151 -0.34360390505586791 0 0.36805061276354478 -0.3427907498460791 0 0.39425043507280438 -0.36432915978129837 0 0.38699517723729038 -0.34543689852307891 0 0.38081427771294768 -0.36737052156009248 0 0.38699517723729038 -0.34543689852307891 0 0.37640125955739012 -0.35149107478397351 0 0.38081427771294768 -0.36737052156009248 0 0.38699517723729038 -0.34543689852307891 0 0.38465179156333151 -0.34360390505586791 0 0.38699517723729038 -0.34543689852307891 0 0.37640125955739012 -0.35149107478397351 0 0.38465179156333151 -0.34360390505586791 0 0.41775460495295358 -0.31793141321765611 0 0.39401776620237461 -0.32051644503610022 0 0.39805431729583179 -0.33510365622952631 0 0.38699517723729038 -0.34543689852307891 0 0.39401776620237461 -0.32051644503610022 0 0.39805431729583179 -0.33510365622952631 0 0.38699517723729038 -0.34543689852307891 0 0.39401776620237461 -0.32051644503610022 0 0.38465179156333151 -0.34360390505586791 0 0.37858644206980091 -0.32769985780377792 0 0.36805061276354478 -0.3427907498460791 0 0.38699517723729038 -0.34543689852307891 0 0.39401776620237461 -0.32051644503610022 0 0.38465179156333151 -0.34360390505586791 0 0.39401776620237461 -0.32051644503610022 0 0.38465179156333151 -0.34360390505586791 0 0.37858644206980091 -0.32769985780377792 0 0.39401776620237461 -0.32051644503610022 0 0.37858644206980091 -0.32769985780377792 0 0.37861767820969228 -0.30691821554646831 0 0.41775460495295358 -0.31793141321765611 0 0.39401776620237461 -0.32051644503610022 0 0.40104035516745928 -0.29559599154912142 0 0.39401776620237461 -0.32051644503610022 0 0.37861767820969228 -0.30691821554646831 0 0.40104035516745928 -0.29559599154912142 0 0.39401776620237461 -0.32051644503610022 0 0.40104035516745928 -0.29559599154912142 0 0.40104035516745928 -0.29559599154912142 0 0.38498320530945151 -0.287592927137584 0 0.39655653748852282 -0.27284147297554762 0 0.38498320530945151 -0.287592927137584 0 0.37764450162479901 -0.26965755496232408 0 0.36873774536035581 -0.28861226174546889 0 0.37861767820969228 -0.30691821554646831 0 0.40104035516745928 -0.29559599154912142 0 0.38498320530945151 -0.287592927137584 0 0.37861767820969228 -0.30691821554646831 0 0.38498320530945151 -0.287592927137584 0 0.36873774536035581 -0.28861226174546889 0 0.38498320530945151 -0.287592927137584 0 0.37764450162479901 -0.26965755496232408 0 0.39655653748852282 -0.27284147297554762 0 0.39206528024080278 -0.24921397013056479 0 0.37764450162479901 -0.26965755496232408 0 0.39655653748852282 -0.27284147297554762 0 0.39206528024080278 -0.24921397013056479 0 0.37764450162479901 -0.26965755496232408 0 0.37510228513818711 -0.25237727586059511 0 0.39206528024080278 -0.24921397013056479 0 0.39655653748852282 -0.27284147297554762 0 0.40884184876520419 -0.25890250189124958 0 0.40104035516745928 -0.29559599154912142 0 0.39655653748852282 -0.27284147297554762 0 0.4136044294752057 -0.2739163227279473 0 0.39655653748852282 -0.27284147297554762 0 0.4136044294752057 -0.2739163227279473 0 0.40884184876520419 -0.25890250189124958 0 0.4148006158986044 -0.24103970595398019 0 0.40884184876520419 -0.25890250189124958 0 0.42892204251950339 -0.2594807324876427 0 0.4136044294752057 -0.2739163227279473 0 0.40884184876520419 -0.25890250189124958 0 0.42892204251950339 -0.2594807324876427 0 0.4136044294752057 -0.2739163227279473 0 0.42892204251950339 -0.2594807324876427 0 0.42611848489587972 -0.28658767974219163 0 0.44355941821905998 -0.27577600561597132 0 0.42892204251950339 -0.2594807324876427 0 0.42611848489587972 -0.28658767974219163 0 0.44743457629936911 -0.29125199491084608 0 0.42611848489587972 -0.28658767974219163 0 0.43686388954492023 -0.30206384222820981 0 0.43602078127065758 -0.31524868357114688 0 0.41775460495295358 -0.31793141321765611 0 0.42179240152309172 -0.30222108271158582 0 0.42611848489587972 -0.28658767974219163 0 0.43686388954492023 -0.30206384222820981 0 0.42179240152309172 -0.30222108271158582 0 0.43602078127065758 -0.31524868357114688 0 0.43686388954492023 -0.30206384222820981 0 0.42179240152309172 -0.30222108271158582 0 0.41775460495295358 -0.31793141321765611 0 0.40104035516745928 -0.29559599154912142 0 0.42179240152309172 -0.30222108271158582 0 0.40104035516745928 -0.29559599154912142 0 0.4136044294752057 -0.2739163227279473 0 0.42611848489587972 -0.28658767974219163 0 0.40104035516745928 -0.29559599154912142 0 0.42611848489587972 -0.28658767974219163 0 0.42179240152309172 -0.30222108271158582 0 0.5 -0.5 0 0.478892924595126 -0.45923392689990328 0 0.5 -0.41454166856117469 0 0.5 -0.5 0 0.47943423265092072 -0.49342116463239621 0 0.40014079662082208 -0.5 0 0.43983937115661631 -0.46972557693384148 0 0.47943423265092072 -0.49342116463239621 0 0.40014079662082208 -0.5 0 0.43983937115661631 -0.46972557693384148 0 0.46715606132834708 -0.47012790102379598 0 0.47943423265092072 -0.49342116463239621 0 0.5 -0.5 0 0.47943423265092072 -0.49342116463239621 0 0.478892924595126 -0.45923392689990328 0 0.46715606132834708 -0.47012790102379598 0 0.47943423265092072 -0.49342116463239621 0 0.478892924595126 -0.45923392689990328 0 0.46715606132834708 -0.47012790102379598 0 0.47943423265092072 -0.49342116463239621 0 0.478892924595126 -0.45923392689990328 0 0.45487789000577361 -0.44683463741519602 0 0.47188936358571532 -0.4304781897668572 0 0.46715606132834708 -0.47012790102379598 0 0.45487789000577361 -0.44683463741519602 0 0.46715606132834708 -0.47012790102379598 0 0.478892924595126 -0.45923392689990328 0 0.45487789000577361 -0.44683463741519602 0 0.43983937115661631 -0.46972557693384148 0 0.46715606132834708 -0.47012790102379598 0 0.45487789000577361 -0.44683463741519602 0 0.43983937115661631 -0.46972557693384148 0 0.45487789000577361 -0.44683463741519602 0 0.43095981599733307 -0.44753658110846528 0 0.45487789000577361 -0.44683463741519602 0 0.43408281430989271 -0.43319973453275151 0 0.43095981599733307 -0.44753658110846528 0 0.45487789000577361 -0.44683463741519602 0 0.44259971868320003 -0.42354137380659601 0 0.45487789000577361 -0.44683463741519602 0 0.44259971868320003 -0.42354137380659601 0 0.43408281430989271 -0.43319973453275151 0 0.45487789000577361 -0.44683463741519602 0 0.44259971868320003 -0.42354137380659601 0 0.45959372781066021 -0.42263882295877442 0 0.44259971868320003 -0.42354137380659601 0 0.45186952978880229 -0.40983589673226128 0 0.45959372781066021 -0.42263882295877442 0 0.44259971868320003 -0.42354137380659601 0 0.45186952978880229 -0.40983589673226128 0 0.44161148704613862 -0.40579593671517361 0 0.44259971868320003 -0.42354137380659601 0 0.44161148704613862 -0.40579593671517361 0 0.43098246877755192 -0.41858878846052949 0 0.45186952978880229 -0.40983589673226128 0 0.45959372781066021 -0.42263882295877442 0 0.46285261119418991 -0.40477249250038388 0 0.45959372781066021 -0.42263882295877442 0 0.4735191169341651 -0.41539713514472942 0 0.46285261119418991 -0.40477249250038388 0 0.45959372781066021 -0.42263882295877442 0 0.47188936358571532 -0.4304781897668572 0 0.4735191169341651 -0.41539713514472942 0 0.45487789000577361 -0.44683463741519602 0 0.45959372781066021 -0.42263882295877442 0 0.47188936358571532 -0.4304781897668572 0 0.5 -0.41454166856117469 0 0.4735191169341651 -0.41539713514472942 0 0.4680243894331878 -0.39009447735167219 0 0.478892924595126 -0.45923392689990328 0 0.47188936358571532 -0.4304781897668572 0 0.5 -0.41454166856117469 0 0.47188936358571532 -0.4304781897668572 0 0.5 -0.41454166856117469 0 0.4735191169341651 -0.41539713514472942 0 0.5 -0.35237408365171952 0 0.5 -0.41454166856117469 0 0.4680243894331878 -0.39009447735167219 0 0.4735191169341651 -0.41539713514472942 0 0.4680243894331878 -0.39009447735167219 0 0.46252966193221051 -0.36479181955861489 0 0.45518384933885458 -0.37953704158418422 0 0.4680243894331878 -0.39009447735167219 0 0.45518384933885458 -0.37953704158418422 0 0.4680243894331878 -0.39009447735167219 0 0.44431964753996511 -0.39027603052925969 0 0.46252966193221051 -0.36479181955861489 0 0.4680243894331878 -0.39009447735167219 0 0.4735191169341651 -0.41539713514472942 0 0.4680243894331878 -0.39009447735167219 0 0.46285261119418991 -0.40477249250038388 0 0.4680243894331878 -0.39009447735167219 0 0.46285261119418991 -0.40477249250038388 0 0.44431964753996511 -0.39027603052925969 0 0.46285261119418991 -0.40477249250038388 0 0.44431964753996511 -0.39027603052925969 0 0.45186952978880229 -0.40983589673226128 0 0.44161148704613862 -0.40579593671517361 0 0.44431964753996511 -0.39027603052925969 0 0.45186952978880229 -0.40983589673226128 0 0.46285261119418991 -0.40477249250038388 0 0.44431964753996511 -0.39027603052925969 0 0.44439653888602387 -0.37108278870097211 0 0.44431964753996511 -0.39027603052925969 0 0.42578668388574042 -0.37577956855813549 0 0.44439653888602387 -0.37108278870097211 0 0.45518384933885458 -0.37953704158418422 0 0.44431964753996511 -0.39027603052925969 0 0.44431964753996511 -0.39027603052925969 0 0.42578668388574042 -0.37577956855813549 0 0.42627525148907153 -0.39512359141131242 0 0.44431964753996511 -0.39027603052925969 0 0.42578668388574042 -0.37577956855813549 0 0.44161148704613862 -0.40579593671517361 0 0.44431964753996511 -0.39027603052925969 0 0.42627525148907153 -0.39512359141131242 0 0.44161148704613862 -0.40579593671517361 0 0.42627525148907153 -0.39512359141131242 0 0.41380476734409732 -0.40903711363024231 0 0.41288573556315727 -0.39366710087554208 0 0.39662340998741341 -0.40516911832300972 0 0.41380476734409732 -0.40903711363024231 0 0.42627525148907153 -0.39512359141131242 0 0.41288573556315727 -0.39366710087554208 0 0.41380476734409732 -0.40903711363024231 0 0.42578668388574042 -0.37577956855813549 0 0.41288573556315727 -0.39366710087554208 0 0.40193856510946419 -0.3832261124550107 0 0.42578668388574042 -0.37577956855813549 0 0.42627525148907153 -0.39512359141131242 0 0.41288573556315727 -0.39366710087554208 0 0.38081427771294768 -0.36737052156009248 0 0.37463337818860382 -0.38930414459710588 0 0.3737028077843495 -0.38742295831448542 0 0.38081427771294768 -0.36737052156009248 0 0.38897026210220897 -0.39170162293651239 0 0.37463337818860382 -0.38930414459710588 0 0.38081427771294768 -0.36737052156009248 0 0.37463337818860382 -0.38930414459710588 0 0.38081427771294768 -0.36737052156009248 0 0.40193856510946419 -0.3832261124550107 0 0.38897026210220897 -0.39170162293651239 0 0.38599804764205609 -0.41227829054531151 0 0.37463337818860382 -0.38930414459710588 0 0.38897026210220897 -0.39170162293651239 0 0.39662340998741341 -0.40516911832300972 0 0.38599804764205609 -0.41227829054531151 0 0.38599804764205609 -0.41227829054531151 0 0.36755341006792419 -0.41442821452601158 0 0.37463337818860382 -0.38930414459710588 0 0.38897026210220897 -0.39170162293651239 0 0.38599804764205609 -0.41227829054531151 0 0.37463337818860382 -0.38930414459710588 0 0.40193856510946419 -0.3832261124550107 0 0.38897026210220897 -0.39170162293651239 0 0.39662340998741341 -0.40516911832300972 0 0.41288573556315727 -0.39366710087554208 0 0.40193856510946419 -0.3832261124550107 0 0.39662340998741341 -0.40516911832300972 0 0.40193856510946419 -0.3832261124550107 0 0.39662340998741341 -0.40516911832300972 0 0.38599804764205609 -0.41227829054531151 0 0.41380476734409732 -0.40903711363024231 0 0.39662340998741341 -0.40516911832300972 0 0.38599804764205609 -0.41227829054531151 0 0.41380476734409732 -0.40903711363024231 0 0.40147331832312588 -0.42054231308375889 0 0.38599804764205609 -0.41227829054531151 0 0.41380476734409732 -0.40903711363024231 0 0.38599804764205609 -0.41227829054531151 0 0.36755341006792419 -0.41442821452601158 0 0.38599804764205609 -0.41227829054531151 0 0.37837193070639508 -0.43074191130029282 0 0.36755341006792419 -0.41442821452601158 0 0.38599804764205609 -0.41227829054531151 0 0.37837193070639508 -0.43074191130029282 0 0.39716653888589531 -0.43485585418744782 0 0.37837193070639508 -0.43074191130029282 0 0.39716653888589531 -0.43485585418744782 0 0.38455236834147782 -0.44235831893697952 0 0.38599804764205609 -0.41227829054531151 0 0.39716653888589531 -0.43485585418744782 0 0.40147331832312588 -0.42054231308375889 0 0.38599804764205609 -0.41227829054531151 0 0.39716653888589531 -0.43485585418744782 0 0.40147331832312588 -0.42054231308375889 0 0.39716653888589531 -0.43485585418744782 0 0.40988830344794153 -0.42850982814637428 0 0.39716653888589531 -0.43485585418744782 0 0.40988830344794153 -0.42850982814637428 0 0.41424956646142452 -0.44145335337101582 0 0.40988830344794153 -0.42850982814637428 0 0.42255857874347952 -0.42798536962106742 0 0.41424956646142452 -0.44145335337101582 0 0.40147331832312588 -0.42054231308375889 0 0.40988830344794153 -0.42850982814637428 0 0.41380476734409732 -0.40903711363024231 0 0.40988830344794153 -0.42850982814637428 0 0.41380476734409732 -0.40903711363024231 0 0.42255857874347952 -0.42798536962106742 0 0.44161148704613862 -0.40579593671517361 0 0.41380476734409732 -0.40903711363024231 0 0.43098246877755192 -0.41858878846052949 0 0.44161148704613862 -0.40579593671517361 0 0.41380476734409732 -0.40903711363024231 0 0.41380476734409732 -0.40903711363024231 0 0.43098246877755192 -0.41858878846052949 0 0.42255857874347952 -0.42798536962106742 0 0.43408281430989271 -0.43319973453275151 0 0.42255857874347952 -0.42798536962106742 0 0.43095981599733307 -0.44753658110846528 0 0.44259971868320003 -0.42354137380659601 0 0.43098246877755192 -0.41858878846052949 0 0.43408281430989271 -0.43319973453275151 0 0.43098246877755192 -0.41858878846052949 0 0.43408281430989271 -0.43319973453275151 0 0.42255857874347952 -0.42798536962106742 0 0.42255857874347952 -0.42798536962106742 0 0.43095981599733307 -0.44753658110846528 0 0.41424956646142452 -0.44145335337101582 0 0.43983937115661631 -0.46972557693384148 0 0.42706067288056998 -0.45966910190407051 0 0.41707216494033877 -0.46659444091922031 0 0.43983937115661631 -0.46972557693384148 0 0.43095981599733307 -0.44753658110846528 0 0.42706067288056998 -0.45966910190407051 0 0.43095981599733307 -0.44753658110846528 0 0.42706067288056998 -0.45966910190407051 0 0.42037133942799187 -0.45481980865475502 0 0.42037133942799187 -0.45481980865475502 0 0.41707216494033877 -0.46659444091922031 0 0.40833503012973449 -0.45743341782958391 0 0.42706067288056998 -0.45966910190407051 0 0.42037133942799187 -0.45481980865475502 0 0.41707216494033877 -0.46659444091922031 0 0.41707216494033877 -0.46659444091922031 0 0.40833503012973449 -0.45743341782958391 0 0.39424227281986102 -0.46676003377889269 0 0.43095981599733307 -0.44753658110846528 0 0.42037133942799187 -0.45481980865475502 0 0.41424956646142452 -0.44145335337101582 0 0.42037133942799187 -0.45481980865475502 0 0.40833503012973449 -0.45743341782958391 0 0.41424956646142452 -0.44145335337101582 0 0.39716653888589531 -0.43485585418744782 0 0.40833503012973449 -0.45743341782958391 0 0.41424956646142452 -0.44145335337101582 0 0.39716653888589531 -0.43485585418744782 0 0.39345157537004599 -0.45057062730194619 0 0.38455236834147782 -0.44235831893697952 0 0.39716653888589531 -0.43485585418744782 0 0.40833503012973449 -0.45743341782958391 0 0.39345157537004599 -0.45057062730194619 0 0.39716653888589531 -0.43485585418744782 0 0.40833503012973449 -0.45743341782958391 0 0.39345157537004599 -0.45057062730194619 0 0.38455236834147782 -0.44235831893697952 0 0.38182359321740972 -0.45292134106576409 0 0.38455236834147782 -0.44235831893697952 0 0.38182359321740972 -0.45292134106576409 0 0.37194820352764257 -0.4427018608294464 0 0.37837193070639508 -0.43074191130029282 0 0.38455236834147782 -0.44235831893697952 0 0.37194820352764257 -0.4427018608294464 0 0.38182359321740972 -0.45292134106576409 0 0.39424227281986102 -0.46676003377889269 0 0.37141238069938332 -0.46692562663856529 0 0.39345157537004599 -0.45057062730194619 0 0.38182359321740972 -0.45292134106576409 0 0.39424227281986102 -0.46676003377889269 0 0.39424227281986102 -0.46676003377889269 0 0.37141238069938332 -0.46692562663856529 0 0.40833503012973449 -0.45743341782958391 0 0.39345157537004599 -0.45057062730194619 0 0.39424227281986102 -0.46676003377889269 0 0.41707216494033877 -0.46659444091922031 0 0.39424227281986102 -0.46676003377889269 0 0.41707216494033877 -0.46659444091922031 0 0.39424227281986102 -0.46676003377889269 0 0.40014079662082208 -0.5 0 0.39424227281986102 -0.46676003377889269 0 0.40014079662082208 -0.5 0 0.37141238069938332 -0.46692562663856529 0 0.43983937115661631 -0.46972557693384148 0 0.41707216494033877 -0.46659444091922031 0 0.40014079662082208 -0.5 0 0.40014079662082208 -0.5 0 0.32546065004022617 -0.5 0 0.3462765218470546 -0.48033279556006703 0 0.32546065004022617 -0.5 0 0.3462765218470546 -0.48033279556006703 0 0.30631021868456298 -0.48072311486568892 0 0.3462765218470546 -0.48033279556006703 0 0.32575259645842791 -0.46725681235791028 0 0.30631021868456298 -0.48072311486568892 0 0.3462765218470546 -0.48033279556006703 0 0.3485824885789055 -0.46709121949823779 0 0.32575259645842791 -0.46725681235791028 0 0.40014079662082208 -0.5 0 0.3462765218470546 -0.48033279556006703 0 0.37141238069938332 -0.46692562663856529 0 0.3462765218470546 -0.48033279556006703 0 0.3485824885789055 -0.46709121949823779 0 0.37141238069938332 -0.46692562663856529 0 0.3485824885789055 -0.46709121949823779 0 0.37141238069938332 -0.46692562663856529 0 0.35324569388809701 -0.44989359131069062 0 0.3485824885789055 -0.46709121949823779 0 0.35324569388809701 -0.44989359131069062 0 0.33806214337105372 -0.45777686618061397 0 0.38182359321740972 -0.45292134106576409 0 0.37141238069938332 -0.46692562663856529 0 0.35324569388809701 -0.44989359131069062 0 0.3485824885789055 -0.46709121949823779 0 0.37141238069938332 -0.46692562663856529 0 0.36060935802898147 -0.43906997082244181 0 0.37194820352764257 -0.4427018608294464 0 0.35324569388809701 -0.44989359131069062 0 0.38182359321740972 -0.45292134106576409 0 0.35324569388809701 -0.44989359131069062 0 0.37837193070639508 -0.43074191130029282 0 0.36060935802898147 -0.43906997082244181 0 0.37194820352764257 -0.4427018608294464 0 0.38182359321740972 -0.45292134106576409 0 0.37194820352764257 -0.4427018608294464 0 0.35324569388809701 -0.44989359131069062 0 0.36060935802898147 -0.43906997082244181 0 0.35324569388809701 -0.44989359131069062 0 0.34315104194743368 -0.43483422324315929 0 0.32466779455878442 -0.44686584155561709 0 0.32761501992215097 -0.43116249501185328 0 0.34315104194743368 -0.43483422324315929 0 0.35324569388809701 -0.44989359131069062 0 0.33806214337105372 -0.45777686618061397 0 0.32466779455878442 -0.44686584155561709 0 0.35324569388809701 -0.44989359131069062 0 0.32466779455878442 -0.44686584155561709 0 0.34315104194743368 -0.43483422324315929 0 0.35324569388809701 -0.44989359131069062 0 0.32466779455878442 -0.44686584155561709 0 0.3485824885789055 -0.46709121949823779 0 0.32575259645842791 -0.46725681235791028 0 0.3485824885789055 -0.46709121949823779 0 0.33806214337105372 -0.45777686618061397 0 0.32575259645842791 -0.46725681235791028 0 0.33806214337105372 -0.45777686618061397 0 0.32575259645842791 -0.46725681235791028 0 0.32466779455878442 -0.44686584155561709 0 0.32575259645842791 -0.46725681235791028 0 0.30904716904302271 -0.45792120175055678 0 0.30631021868456298 -0.48072311486568892 0 0.32575259645842791 -0.46725681235791028 0 0.32466779455878442 -0.44686584155561709 0 0.30904716904302271 -0.45792120175055678 0 0.32466779455878442 -0.44686584155561709 0 0.31800868577585262 -0.43516031519895321 0 0.30735360635596409 -0.43632211706289747 0 0.32466779455878442 -0.44686584155561709 0 0.32761501992215097 -0.43116249501185328 0 0.31800868577585262 -0.43516031519895321 0 0.32761501992215097 -0.43116249501185328 0 0.32339131420283213 -0.41656724990055422 0 0.31239832226651099 -0.42629080716544471 0 0.32761501992215097 -0.43116249501185328 0 0.31800868577585262 -0.43516031519895321 0 0.31239832226651099 -0.42629080716544471 0 0.31800868577585262 -0.43516031519895321 0 0.31239832226651099 -0.42629080716544471 0 0.30735360635596409 -0.43632211706289747 0 0.32339131420283213 -0.41656724990055422 0 0.31120060169272079 -0.4133373498197 0 0.31239832226651099 -0.42629080716544471 0 0.32339131420283213 -0.41656724990055422 0 0.319673984964159 -0.40346676889879052 0 0.31120060169272079 -0.4133373498197 0 0.319673984964159 -0.40346676889879052 0 0.30884060304287331 -0.40229515593698711 0 0.31120060169272079 -0.4133373498197 0 0.32339131420283213 -0.41656724990055422 0 0.33281994217864741 -0.40778505865636938 0 0.319673984964159 -0.40346676889879052 0 0.32761501992215097 -0.43116249501185328 0 0.32339131420283213 -0.41656724990055422 0 0.33796042338316851 -0.41787760036937549 0 0.32339131420283213 -0.41656724990055422 0 0.33281994217864741 -0.40778505865636938 0 0.33796042338316851 -0.41787760036937549 0 0.33281994217864741 -0.40778505865636938 0 0.33796042338316851 -0.41787760036937549 0 0.34601675315157321 -0.40486547886918423 0 0.32761501992215097 -0.43116249501185328 0 0.33796042338316851 -0.41787760036937549 0 0.34315104194743368 -0.43483422324315929 0 0.33796042338316851 -0.41787760036937549 0 0.34315104194743368 -0.43483422324315929 0 0.35231855835687692 -0.42655250224024699 0 0.36060935802898147 -0.43906997082244181 0 0.34315104194743368 -0.43483422324315929 0 0.35231855835687692 -0.42655250224024699 0 0.37837193070639508 -0.43074191130029282 0 0.36060935802898147 -0.43906997082244181 0 0.36755341006792419 -0.41442821452601158 0 0.36060935802898147 -0.43906997082244181 0 0.35231855835687692 -0.42655250224024699 0 0.36755341006792419 -0.41442821452601158 0 0.36060935802898147 -0.43906997082244181 0 0.36755341006792419 -0.41442821452601158 0 0.33796042338316851 -0.41787760036937549 0 0.35231855835687692 -0.42655250224024699 0 0.36755341006792419 -0.41442821452601158 0 0.33796042338316851 -0.41787760036937549 0 0.36755341006792419 -0.41442821452601158 0 0.34601675315157321 -0.40486547886918423 0 0.33796042338316851 -0.41787760036937549 0 0.36755341006792419 -0.41442821452601158 0 0.36755341006792419 -0.41442821452601158 0 0.34601675315157321 -0.40486547886918423 0 0.35566250251704978 -0.3975177511027051 0 0.34601675315157321 -0.40486547886918423 0 0.34667365318154342 -0.39629832909528578 0 0.35566250251704978 -0.3975177511027051 0 0.34667365318154342 -0.39629832909528578 0 0.34795812186604658 -0.38666189116531141 0 0.33705723519150399 -0.3961481952439429 0 0.34667365318154342 -0.39629832909528578 0 0.35566250251704978 -0.3975177511027051 0 0.34795812186604658 -0.38666189116531141 0 0.36755341006792419 -0.41442821452601158 0 0.35566250251704978 -0.3975177511027051 0 0.36706103815962848 -0.39187921332532882 0 0.36755341006792419 -0.41442821452601158 0 0.37463337818860382 -0.38930414459710588 0 0.36755341006792419 -0.41442821452601158 0 0.36706103815962848 -0.39187921332532882 0 0.37463337818860382 -0.38930414459710588 0 0.35566250251704978 -0.3975177511027051 0 0.36706103815962848 -0.39187921332532882 0 0.35924801608749379 -0.38543857686598643 0 0.38081427771294768 -0.36737052156009248 0 0.36848073339739068 -0.37517807712711049 0 0.3737028077843495 -0.38742295831448542 0 0.36848073339739068 -0.37517807712711049 0 0.3737028077843495 -0.38742295831448542 0 0.36599997940964812 -0.38379980358563692 0 0.36706103815962848 -0.39187921332532882 0 0.3737028077843495 -0.38742295831448542 0 0.36599997940964812 -0.38379980358563692 0 0.36706103815962848 -0.39187921332532882 0 0.37463337818860382 -0.38930414459710588 0 0.3737028077843495 -0.38742295831448542 0 0.37463337818860382 -0.38930414459710588 0 0.3737028077843495 -0.38742295831448542 0 0.36706103815962848 -0.39187921332532882 0 0.36599997940964812 -0.38379980358563692 0 0.35924801608749379 -0.38543857686598643 0 0.36599997940964812 -0.38379980358563692 0 0.36207090148421361 -0.37959838259465167 0 0.35924801608749379 -0.38543857686598643 0 0.36848073339739068 -0.37517807712711049 0 0.36599997940964812 -0.38379980358563692 0 0.36207090148421361 -0.37959838259465167 0 0.36848073339739068 -0.37517807712711049 0 0.36207090148421361 -0.37959838259465167 0 0.3554566368260581 -0.37480617727887811 0 0.36207090148421361 -0.37959838259465167 0 0.35924801608749379 -0.38543857686598643 0 0.3554566368260581 -0.37480617727887811 0 0.35924801608749379 -0.38543857686598643 0 0.34795812186604658 -0.38666189116531141 0 0.3554566368260581 -0.37480617727887811 0 0.35566250251704978 -0.3975177511027051 0 0.35924801608749379 -0.38543857686598643 0 0.34795812186604658 -0.38666189116531141 0 0.34795812186604658 -0.38666189116531141 0 0.34537995690420659 -0.3737828605913362 0 0.3554566368260581 -0.37480617727887811 0 0.34795812186604658 -0.38666189116531141 0 0.33323562740676532 -0.37769939737979058 0 0.34537995690420659 -0.3737828605913362 0 0.34795812186604658 -0.38666189116531141 0 0.33323562740676532 -0.37769939737979058 0 0.33705723519150399 -0.3961481952439429 0 0.33323562740676532 -0.37769939737979058 0 0.33705723519150399 -0.3961481952439429 0 0.319673984964159 -0.40346676889879052 0 0.33281994217864741 -0.40778505865636938 0 0.33705723519150399 -0.3961481952439429 0 0.319673984964159 -0.40346676889879052 0 0.33281994217864741 -0.40778505865636938 0 0.34601675315157321 -0.40486547886918423 0 0.33705723519150399 -0.3961481952439429 0 0.34601675315157321 -0.40486547886918423 0 0.34667365318154342 -0.39629832909528578 0 0.33705723519150399 -0.3961481952439429 0 0.33323562740676532 -0.37769939737979058 0 0.319673984964159 -0.40346676889879052 0 0.31422368515007948 -0.393427126581603 0 0.319673984964159 -0.40346676889879052 0 0.31422368515007948 -0.393427126581603 0 0.30884060304287331 -0.40229515593698711 0 0.33323562740676532 -0.37769939737979058 0 0.319673984964159 -0.40346676889879052 0 0.31422368515007948 -0.393427126581603 0 0.30591552541026101 -0.37751124227982003 0 0.32002671755222051 -0.36641101040373808 0 0.33323562740676532 -0.37769939737979058 0 0.31422368515007948 -0.393427126581603 0 0.32002671755222051 -0.36641101040373808 0 0.31422368515007948 -0.393427126581603 0 0.32002671755222051 -0.36641101040373808 0 0.30591552541026101 -0.37751124227982003 0 0.29934269892459558 -0.39453707190143028 0 0.28871394442674109 -0.38265385864092483 0 0.31422368515007948 -0.393427126581603 0 0.30591552541026101 -0.37751124227982003 0 0.29934269892459558 -0.39453707190143028 0 0.31422368515007948 -0.393427126581603 0 0.30884060304287331 -0.40229515593698711 0 0.29934269892459558 -0.39453707190143028 0 0.30884060304287331 -0.40229515593698711 0 0.29934269892459558 -0.39453707190143028 0 0.29896657827583012 -0.40866065312134409 0 0.28871394442674109 -0.38265385864092483 0 0.27786210523133942 -0.40981541802129928 0 0.29934269892459558 -0.39453707190143028 0 0.27786210523133942 -0.40981541802129928 0 0.29896657827583012 -0.40866065312134409 0 0.29934269892459558 -0.39453707190143028 0 0.28871394442674109 -0.38265385864092483 0 0.27786210523133942 -0.40981541802129928 0 0.28871394442674109 -0.38265385864092483 0 0.26416245427686541 -0.38049931320234009 0 0.26125098829365018 -0.39969694482297641 0 0.28871394442674109 -0.38265385864092483 0 0.26416245427686541 -0.38049931320234009 0 0.27571190406721402 -0.36345127203525351 0 0.26416245427686541 -0.38049931320234009 0 0.24971336314328341 -0.36520417674804972 0 0.24502858373403441 -0.39146921073642488 0 0.26416245427686541 -0.38049931320234009 0 0.26125098829365018 -0.39969694482297641 0 0.24502858373403441 -0.39146921073642488 0 0.28871394442674109 -0.38265385864092483 0 0.26125098829365018 -0.39969694482297641 0 0.27786210523133942 -0.40981541802129928 0 0.26125098829365018 -0.39969694482297641 0 0.25610826383841628 -0.42120346698794331 0 0.2333640889907381 -0.41241884790723538 0 0.26125098829365018 -0.39969694482297641 0 0.27786210523133942 -0.40981541802129928 0 0.25610826383841628 -0.42120346698794331 0 0.25610826383841628 -0.42120346698794331 0 0.26701026603593758 -0.43697697740167368 0 0.2518592606704963 -0.43815060111373921 0 0.27786210523133942 -0.40981541802129928 0 0.26701026603593758 -0.43697697740167368 0 0.28078102790119369 -0.4274552938509788 0 0.27786210523133942 -0.40981541802129928 0 0.26701026603593758 -0.43697697740167368 0 0.27786210523133942 -0.40981541802129928 0 0.25610826383841628 -0.42120346698794331 0 0.26701026603593758 -0.43697697740167368 0 0.26701026603593758 -0.43697697740167368 0 0.28078102790119369 -0.4274552938509788 0 0.27712236562531017 -0.4375193999175232 0 0.28078102790119369 -0.4274552938509788 0 0.28865243891263809 -0.43215364344327012 0 0.27712236562531017 -0.4375193999175232 0 0.28865243891263809 -0.43215364344327012 0 0.28959476197880307 -0.44168956347039928 0 0.27712236562531017 -0.4375193999175232 0 0.28865243891263809 -0.43215364344327012 0 0.29503220707493127 -0.43614369036708622 0 0.29829711678041942 -0.42866378264525379 0 0.28865243891263809 -0.43215364344327012 0 0.29503220707493127 -0.43614369036708622 0 0.28959476197880307 -0.44168956347039928 0 0.28865243891263809 -0.43215364344327012 0 0.29108715411517122 -0.42145013040837909 0 0.29829711678041942 -0.42866378264525379 0 0.28078102790119369 -0.4274552938509788 0 0.28865243891263809 -0.43215364344327012 0 0.29108715411517122 -0.42145013040837909 0 0.27786210523133942 -0.40981541802129928 0 0.28078102790119369 -0.4274552938509788 0 0.29108715411517122 -0.42145013040837909 0 0.27786210523133942 -0.40981541802129928 0 0.29108715411517122 -0.42145013040837909 0 0.29896657827583012 -0.40866065312134409 0 0.29108715411517122 -0.42145013040837909 0 0.30377653118007591 -0.4205559058691733 0 0.29896657827583012 -0.40866065312134409 0 0.30377653118007591 -0.4205559058691733 0 0.29896657827583012 -0.40866065312134409 0 0.31120060169272079 -0.4133373498197 0 0.30884060304287331 -0.40229515593698711 0 0.29896657827583012 -0.40866065312134409 0 0.31120060169272079 -0.4133373498197 0 0.30377653118007591 -0.4205559058691733 0 0.31120060169272079 -0.4133373498197 0 0.31239832226651099 -0.42629080716544471 0 0.30377653118007591 -0.4205559058691733 0 0.31239832226651099 -0.42629080716544471 0 0.29829711678041942 -0.42866378264525379 0 0.31239832226651099 -0.42629080716544471 0 0.30735360635596409 -0.43632211706289747 0 0.29829711678041942 -0.42866378264525379 0 0.29503220707493127 -0.43614369036708622 0 0.30735360635596409 -0.43632211706289747 0 0.29829711678041942 -0.42866378264525379 0 0.29108715411517122 -0.42145013040837909 0 0.30377653118007591 -0.4205559058691733 0 0.29829711678041942 -0.42866378264525379 0 0.32466779455878442 -0.44686584155561709 0 0.30904716904302271 -0.45792120175055678 0 0.29608989522947149 -0.44383809180054362 0 0.32466779455878442 -0.44686584155561709 0 0.29608989522947149 -0.44383809180054362 0 0.32466779455878442 -0.44686584155561709 0 0.30735360635596409 -0.43632211706289747 0 0.29608989522947149 -0.44383809180054362 0 0.30904716904302271 -0.45792120175055678 0 0.29860320416278402 -0.45529674645956592 0 0.29608989522947149 -0.44383809180054362 0 0.29503220707493127 -0.43614369036708622 0 0.30735360635596409 -0.43632211706289747 0 0.29608989522947149 -0.44383809180054362 0 0.30904716904302271 -0.45792120175055678 0 0.29721119201091789 -0.46522563712477349 0 0.30631021868456298 -0.48072311486568892 0 0.30904716904302271 -0.45792120175055678 0 0.29721119201091789 -0.46522563712477349 0 0.29860320416278402 -0.45529674645956592 0 0.28932919617959602 -0.45338424297023883 0 0.27756010650442758 -0.45518222858252849 0 0.28072062580449653 -0.47155582870540619 0 0.29721119201091789 -0.46522563712477349 0 0.28932919617959602 -0.45338424297023883 0 0.28072062580449653 -0.47155582870540619 0 0.29721119201091789 -0.46522563712477349 0 0.29860320416278402 -0.45529674645956592 0 0.28932919617959602 -0.45338424297023883 0 0.28932919617959602 -0.45338424297023883 0 0.28959476197880307 -0.44168956347039928 0 0.27756010650442758 -0.45518222858252849 0 0.29860320416278402 -0.45529674645956592 0 0.28932919617959602 -0.45338424297023883 0 0.29608989522947149 -0.44383809180054362 0 0.28932919617959602 -0.45338424297023883 0 0.29608989522947149 -0.44383809180054362 0 0.28959476197880307 -0.44168956347039928 0 0.29503220707493127 -0.43614369036708622 0 0.29608989522947149 -0.44383809180054362 0 0.28959476197880307 -0.44168956347039928 0 0.28959476197880307 -0.44168956347039928 0 0.26138620688844749 -0.44792543592233808 0 0.26701026603593758 -0.43697697740167368 0 0.27712236562531017 -0.4375193999175232 0 0.26138620688844749 -0.44792543592233808 0 0.28959476197880307 -0.44168956347039928 0 0.26138620688844749 -0.44792543592233808 0 0.27756010650442758 -0.45518222858252849 0 0.28959476197880307 -0.44168956347039928 0 0.27712236562531017 -0.4375193999175232 0 0.26138620688844749 -0.44792543592233808 0 0.26701026603593758 -0.43697697740167368 0 0.26138620688844749 -0.44792543592233808 0 0.2518592606704963 -0.43815060111373921 0 0.26138620688844749 -0.44792543592233808 0 0.26339579246569877 -0.46312143350125029 0 0.23317765179809191 -0.45416130837427687 0 0.26138620688844749 -0.44792543592233808 0 0.26339579246569877 -0.46312143350125029 0 0.27756010650442758 -0.45518222858252849 0 0.26339579246569877 -0.46312143350125029 0 0.27756010650442758 -0.45518222858252849 0 0.28072062580449653 -0.47155582870540619 0 0.28072062580449653 -0.47155582870540619 0 0.2532296876789632 -0.47497352743918242 0 0.27004646425256568 -0.5 0 0.26339579246569877 -0.46312143350125029 0 0.28072062580449653 -0.47155582870540619 0 0.2532296876789632 -0.47497352743918242 0 0.32546065004022617 -0.5 0 0.27004646425256568 -0.5 0 0.30631021868456298 -0.48072311486568892 0 0.28072062580449653 -0.47155582870540619 0 0.27004646425256568 -0.5 0 0.30631021868456298 -0.48072311486568892 0 0.29721119201091789 -0.46522563712477349 0 0.28072062580449653 -0.47155582870540619 0 0.30631021868456298 -0.48072311486568892 0 0.33743581475864359 -0.28536266187014298 0 0.3388307833371127 -0.27886836189579028 0 0.34706744656536048 -0.28007479224216619 0 0.33743581475864359 -0.28536266187014298 0 0.3388307833371127 -0.27886836189579028 0 0.33743581475864359 -0.28536266187014298 0 0.33163278235650262 -0.31237877804800812 0 0.33743581475864359 -0.28536266187014298 0 0.33163278235650262 -0.31237877804800812 0 0.34308905326158867 -0.30070827197480321 0 0.33743581475864359 -0.28536266187014298 0 0.33163278235650262 -0.31237877804800812 0 0.32364365619397351 -0.29600562892690968 0 0.33163278235650262 -0.31237877804800812 0 0.32364365619397351 -0.29600562892690968 0 0.30954970221622308 -0.30462347215273478 0 0.31296692944630888 -0.29314018565426941 0 0.32364365619397351 -0.29600562892690968 0 0.30954970221622308 -0.30462347215273478 0 0.31296692944630888 -0.29314018565426941 0 0.32364365619397351 -0.29600562892690968 0 0.31569414790308259 -0.28159305760617132 0 0.33743581475864359 -0.28536266187014298 0 0.32364365619397351 -0.29600562892690968 0 0.31569414790308259 -0.28159305760617132 0 0.33743581475864359 -0.28536266187014298 0 0.31569414790308259 -0.28159305760617132 0 0.33743581475864359 -0.28536266187014298 0 0.31569414790308259 -0.28159305760617132 0 0.32852563272885182 -0.27784073863383552 0 0.31569414790308259 -0.28159305760617132 0 0.31275786215232049 -0.27168837282467972 0 0.32066228436037369 -0.27402337931129878 0 0.31275786215232049 -0.27168837282467972 0 0.32001527731196461 -0.26686042829596718 0 0.31054181011664339 -0.26140137874582919 0 0.31275786215232049 -0.27168837282467972 0 0.32001527731196461 -0.26686042829596718 0 0.32066228436037369 -0.27402337931129878 0 0.32001527731196461 -0.26686042829596718 0 0.32631850170564902 -0.27213429919584042 0 0.32066228436037369 -0.27402337931129878 0 0.32001527731196461 -0.26686042829596718 0 0.32631850170564902 -0.27213429919584042 0 0.32861545200372733 -0.26431566092564712 0 0.32631850170564902 -0.27213429919584042 0 0.32066228436037369 -0.27402337931129878 0 0.32852563272885182 -0.27784073863383552 0 0.31569414790308259 -0.28159305760617132 0 0.32066228436037369 -0.27402337931129878 0 0.32852563272885182 -0.27784073863383552 0 0.30517917142926537 -0.24716040808135001 0 0.322544075342931 -0.25649048942400782 0 0.31054181011664339 -0.26140137874582919 0 0.32001527731196461 -0.26686042829596718 0 0.322544075342931 -0.25649048942400782 0 0.31054181011664339 -0.26140137874582919 0 0.32001527731196461 -0.26686042829596718 0 0.322544075342931 -0.25649048942400782 0 0.32861545200372733 -0.26431566092564712 0 0.322544075342931 -0.25649048942400782 0 0.32861545200372733 -0.26431566092564712 0 0.33700232267718733 -0.25494009872172468 0 0.32861545200372733 -0.26431566092564712 0 0.33700232267718733 -0.25494009872172468 0 0.3370936559567923 -0.26597622971595652 0 0.33700232267718733 -0.25494009872172468 0 0.3370936559567923 -0.26597622971595652 0 0.34612034525793539 -0.26165354425485998 0 0.32852563272885182 -0.27784073863383552 0 0.33374486488877292 -0.2728357791174113 0 0.3388307833371127 -0.27886836189579028 0 0.33743581475864359 -0.28536266187014298 0 0.32852563272885182 -0.27784073863383552 0 0.3388307833371127 -0.27886836189579028 0 0.32631850170564902 -0.27213429919584042 0 0.32852563272885182 -0.27784073863383552 0 0.33374486488877292 -0.2728357791174113 0 0.32631850170564902 -0.27213429919584042 0 0.32861545200372733 -0.26431566092564712 0 0.33374486488877292 -0.2728357791174113 0 0.32861545200372733 -0.26431566092564712 0 0.33374486488877292 -0.2728357791174113 0 0.3370936559567923 -0.26597622971595652 0 0.34349817463331772 -0.27223575233246988 0 0.3370936559567923 -0.26597622971595652 0 0.34612034525793539 -0.26165354425485998 0 0.33374486488877292 -0.2728357791174113 0 0.34349817463331772 -0.27223575233246988 0 0.3370936559567923 -0.26597622971595652 0 0.33374486488877292 -0.2728357791174113 0 0.34349817463331772 -0.27223575233246988 0 0.3388307833371127 -0.27886836189579028 0 0.34349817463331772 -0.27223575233246988 0 0.3388307833371127 -0.27886836189579028 0 0.34706744656536048 -0.28007479224216619 0 0.34349817463331772 -0.27223575233246988 0 0.34706744656536048 -0.28007479224216619 0 0.35711558672006172 -0.27354793744083078 0 0.34349817463331772 -0.27223575233246988 0 0.35711558672006172 -0.27354793744083078 0 0.34612034525793539 -0.26165354425485998 0 0.34706744656536048 -0.28007479224216619 0 0.35711558672006172 -0.27354793744083078 0 0.35357832102308678 -0.28816147489813743 0 0.35007299243335749 -0.24785688602667111 0 0.33700232267718733 -0.25494009872172468 0 0.34612034525793539 -0.26165354425485998 0 0.35711558672006172 -0.27354793744083078 0 0.34612034525793539 -0.26165354425485998 0 0.36124693131331159 -0.25807728632712912 0 0.35007299243335749 -0.24785688602667111 0 0.34612034525793539 -0.26165354425485998 0 0.36124693131331159 -0.25807728632712912 0 0.37764450162479901 -0.26965755496232408 0 0.37510228513818711 -0.25237727586059511 0 0.36124693131331159 -0.25807728632712912 0 0.36225179838031341 -0.2439392928582107 0 0.37510228513818711 -0.25237727586059511 0 0.36124693131331159 -0.25807728632712912 0 0.37764450162479901 -0.26965755496232408 0 0.35711558672006172 -0.27354793744083078 0 0.36124693131331159 -0.25807728632712912 0 0.37764450162479901 -0.26965755496232408 0 0.35711558672006172 -0.27354793744083078 0 0.36873774536035581 -0.28861226174546889 0 0.36873774536035581 -0.28861226174546889 0 0.35357832102308678 -0.28816147489813743 0 0.36087634202934032 -0.30211297570133377 0 0.35711558672006172 -0.27354793744083078 0 0.36873774536035581 -0.28861226174546889 0 0.35357832102308678 -0.28816147489813743 0 0.33743581475864359 -0.28536266187014298 0 0.35357832102308678 -0.28816147489813743 0 0.33743581475864359 -0.28536266187014298 0 0.34706744656536048 -0.28007479224216619 0 0.35357832102308678 -0.28816147489813743 0 0.33743581475864359 -0.28536266187014298 0 0.34308905326158867 -0.30070827197480321 0 0.35357832102308678 -0.28816147489813743 0 0.34308905326158867 -0.30070827197480321 0 0.36087634202934032 -0.30211297570133377 0 0.3603589122919777 -0.32616465434179109 0 0.34308905326158867 -0.30070827197480321 0 0.35357832102308678 -0.28816147489813743 0 0.36087634202934032 -0.30211297570133377 0 0.37861767820969228 -0.30691821554646831 0 0.36873774536035581 -0.28861226174546889 0 0.36087634202934032 -0.30211297570133377 0 0.37861767820969228 -0.30691821554646831 0 0.36087634202934032 -0.30211297570133377 0 0.3603589122919777 -0.32616465434179109 0 0.37858644206980091 -0.32769985780377792 0 0.37861767820969228 -0.30691821554646831 0 0.3603589122919777 -0.32616465434179109 0 0.37858644206980091 -0.32769985780377792 0 0.3603589122919777 -0.32616465434179109 0 0.36805061276354478 -0.3427907498460791 0 0.3603589122919777 -0.32616465434179109 0 0.34679726984937148 -0.35193202586079081 0 0.3603589122919777 -0.32616465434179109 0 0.34679726984937148 -0.35193202586079081 0 0.3423644242317993 -0.33453707324987059 0 0.3603589122919777 -0.32616465434179109 0 0.36805061276354478 -0.3427907498460791 0 0.34679726984937148 -0.35193202586079081 0 0.33163278235650262 -0.31237877804800812 0 0.34308905326158867 -0.30070827197480321 0 0.3603589122919777 -0.32616465434179109 0 0.33163278235650262 -0.31237877804800812 0 0.3603589122919777 -0.32616465434179109 0 0.3423644242317993 -0.33453707324987059 0 0.37640125955739012 -0.35149107478397351 0 0.38081427771294768 -0.36737052156009248 0 0.36600013168445039 -0.36059477107615401 0 0.36848073339739068 -0.37517807712711049 0 0.36600013168445039 -0.36059477107615401 0 0.3554566368260581 -0.37480617727887811 0 0.38081427771294768 -0.36737052156009248 0 0.36848073339739068 -0.37517807712711049 0 0.36600013168445039 -0.36059477107615401 0 0.36805061276354478 -0.3427907498460791 0 0.36600013168445039 -0.36059477107615401 0 0.34679726984937148 -0.35193202586079081 0 0.37640125955739012 -0.35149107478397351 0 0.36805061276354478 -0.3427907498460791 0 0.36600013168445039 -0.36059477107615401 0 0.36600013168445039 -0.36059477107615401 0 0.34679726984937148 -0.35193202586079081 0 0.3554566368260581 -0.37480617727887811 0 0.34679726984937148 -0.35193202586079081 0 0.34537995690420659 -0.3737828605913362 0 0.3554566368260581 -0.37480617727887811 0 0.33323562740676532 -0.37769939737979058 0 0.33171275220581908 -0.35441984147836231 0 0.32002671755222051 -0.36641101040373808 0 0.33323562740676532 -0.37769939737979058 0 0.34679726984937148 -0.35193202586079081 0 0.33323562740676532 -0.37769939737979058 0 0.34679726984937148 -0.35193202586079081 0 0.34537995690420659 -0.3737828605913362 0 0.33323562740676532 -0.37769939737979058 0 0.34679726984937148 -0.35193202586079081 0 0.33171275220581908 -0.35441984147836231 0 0.34679726984937148 -0.35193202586079081 0 0.33171275220581908 -0.35441984147836231 0 0.3423644242317993 -0.33453707324987059 0 0.33171275220581908 -0.35441984147836231 0 0.32002671755222051 -0.36641101040373808 0 0.32582974995436148 -0.33939489422587321 0 0.32002671755222051 -0.36641101040373808 0 0.32582974995436148 -0.33939489422587321 0 0.31500009593534162 -0.35119999692538878 0 0.32002671755222051 -0.36641101040373808 0 0.32582974995436148 -0.33939489422587321 0 0.33163278235650262 -0.31237877804800812 0 0.32582974995436148 -0.33939489422587321 0 0.33163278235650262 -0.31237877804800812 0 0.3423644242317993 -0.33453707324987059 0 0.32582974995436148 -0.33939489422587321 0 0.33171275220581908 -0.35441984147836231 0 0.3423644242317993 -0.33453707324987059 0 0.32582974995436148 -0.33939489422587321 0 0.31500009593534162 -0.35119999692538878 0 0.32582974995436148 -0.33939489422587321 0 0.31041762281754448 -0.32833073988017608 0 0.33163278235650262 -0.31237877804800812 0 0.32582974995436148 -0.33939489422587321 0 0.31041762281754448 -0.32833073988017608 0 0.33163278235650262 -0.31237877804800812 0 0.31041762281754448 -0.32833073988017608 0 0.30954970221622308 -0.30462347215273478 0 0.31041762281754448 -0.32833073988017608 0 0.29592063247569211 -0.31558436997640987 0 0.30954970221622308 -0.30462347215273478 0 0.31041762281754448 -0.32833073988017608 0 0.29132656616613523 -0.33188180257029998 0 0.29592063247569211 -0.31558436997640987 0 0.31041762281754448 -0.32833073988017608 0 0.29132656616613523 -0.33188180257029998 0 0.29956578362214281 -0.35549229926055048 0 0.31041762281754448 -0.32833073988017608 0 0.29956578362214281 -0.35549229926055048 0 0.29132656616613523 -0.33188180257029998 0 0.28219501787468609 -0.34702129220438421 0 0.27282035448602859 -0.33554085100614839 0 0.29132656616613523 -0.33188180257029998 0 0.29592063247569211 -0.31558436997640987 0 0.27986439667319313 -0.31630171845149863 0 0.29132656616613523 -0.33188180257029998 0 0.27986439667319313 -0.31630171845149863 0 0.27282035448602859 -0.33554085100614839 0 0.30591552541026101 -0.37751124227982003 0 0.28871394442674109 -0.38265385864092483 0 0.29956578362214281 -0.35549229926055048 0 0.30591552541026101 -0.37751124227982003 0 0.32002671755222051 -0.36641101040373808 0 0.29956578362214281 -0.35549229926055048 0 0.31500009593534162 -0.35119999692538878 0 0.32002671755222051 -0.36641101040373808 0 0.29956578362214281 -0.35549229926055048 0 0.31500009593534162 -0.35119999692538878 0 0.31041762281754448 -0.32833073988017608 0 0.29956578362214281 -0.35549229926055048 0 0.29956578362214281 -0.35549229926055048 0 0.28219501787468609 -0.34702129220438421 0 0.27571190406721402 -0.36345127203525351 0 0.29132656616613523 -0.33188180257029998 0 0.29956578362214281 -0.35549229926055048 0 0.28219501787468609 -0.34702129220438421 0 0.28871394442674109 -0.38265385864092483 0 0.29956578362214281 -0.35549229926055048 0 0.27571190406721402 -0.36345127203525351 0 0.28871394442674109 -0.38265385864092483 0 0.29956578362214281 -0.35549229926055048 0 0.28219501787468609 -0.34702129220438421 0 0.27571190406721402 -0.36345127203525351 0 0.2669677564247489 -0.35003134695070198 0 0.28219501787468609 -0.34702129220438421 0 0.2669677564247489 -0.35003134695070198 0 0.27282035448602859 -0.33554085100614839 0 0.2669677564247489 -0.35003134695070198 0 0.2543981425525324 -0.33893914275967452 0 0.24971336314328341 -0.36520417674804972 0 0.2543981425525324 -0.33893914275967452 0 0.24971336314328341 -0.36520417674804972 0 0.26416245427686541 -0.38049931320234009 0 0.27571190406721402 -0.36345127203525351 0 0.24971336314328341 -0.36520417674804972 0 0.27571190406721402 -0.36345127203525351 0 0.2669677564247489 -0.35003134695070198 0 0.24971336314328341 -0.36520417674804972 0 0.27986439667319313 -0.31630171845149863 0 0.27282035448602859 -0.33554085100614839 0 0.27986439667319313 -0.31630171845149863 0 0.27282035448602859 -0.33554085100614839 0 0.2590829219617814 -0.31267410877129931 0 0.2669677564247489 -0.35003134695070198 0 0.27282035448602859 -0.33554085100614839 0 0.2543981425525324 -0.33893914275967452 0 0.27282035448602859 -0.33554085100614839 0 0.2543981425525324 -0.33893914275967452 0 0.2590829219617814 -0.31267410877129931 0 0.2543981425525324 -0.33893914275967452 0 0.2590829219617814 -0.31267410877129931 0 0.24087195768162309 -0.32614810142562012 0 0.2543981425525324 -0.33893914275967452 0 0.2590829219617814 -0.31267410877129931 0 0.2590829219617814 -0.31267410877129931 0 0.26376770137103039 -0.2864090747829241 0 0.27385105082646688 -0.29718155094811333 0 0.2590829219617814 -0.31267410877129931 0 0.26376770137103039 -0.2864090747829241 0 0.24821325608307901 -0.29522124281265988 0 0.2590829219617814 -0.31267410877129931 0 0.26376770137103039 -0.2864090747829241 0 0.26376770137103039 -0.2864090747829241 0 0.24785603391849151 -0.27709942466880599 0 0.24821325608307901 -0.29522124281265988 0 0.26376770137103039 -0.2864090747829241 0 0.27275834958840189 -0.28372268528309152 0 0.2724225943816766 -0.27409056785933389 0 0.26376770137103039 -0.2864090747829241 0 0.27275834958840189 -0.28372268528309152 0 0.27385105082646688 -0.29718155094811333 0 0.28072449650403741 -0.28691913250301798 0 0.27385105082646688 -0.29718155094811333 0 0.2869084388603575 -0.29706258589684881 0 0.27275834958840189 -0.28372268528309152 0 0.28072449650403741 -0.28691913250301798 0 0.27385105082646688 -0.29718155094811333 0 0.27275834958840189 -0.28372268528309152 0 0.28072449650403741 -0.28691913250301798 0 0.27996448038040939 -0.28063895974691061 0 0.27986439667319313 -0.31630171845149863 0 0.2590829219617814 -0.31267410877129931 0 0.27385105082646688 -0.29718155094811333 0 0.27986439667319313 -0.31630171845149863 0 0.27385105082646688 -0.29718155094811333 0 0.2869084388603575 -0.29706258589684881 0 0.27986439667319313 -0.31630171845149863 0 0.2869084388603575 -0.29706258589684881 0 0.29592063247569211 -0.31558436997640987 0 0.27986439667319313 -0.31630171845149863 0 0.2869084388603575 -0.29706258589684881 0 0.2869084388603575 -0.29706258589684881 0 0.30298021147195658 -0.29033858393126172 0 0.29395248104752192 -0.27782345334219888 0 0.28072449650403741 -0.28691913250301798 0 0.2869084388603575 -0.29706258589684881 0 0.29395248104752192 -0.27782345334219888 0 0.2869084388603575 -0.29706258589684881 0 0.29395248104752192 -0.27782345334219888 0 0.28072449650403741 -0.28691913250301798 0 0.29395248104752192 -0.27782345334219888 0 0.27996448038040939 -0.28063895974691061 0 0.31569414790308259 -0.28159305760617132 0 0.30298021147195658 -0.29033858393126172 0 0.29395248104752192 -0.27782345334219888 0 0.31296692944630888 -0.29314018565426941 0 0.31569414790308259 -0.28159305760617132 0 0.30298021147195658 -0.29033858393126172 0 0.31296692944630888 -0.29314018565426941 0 0.30298021147195658 -0.29033858393126172 0 0.30954970221622308 -0.30462347215273478 0 0.2869084388603575 -0.29706258589684881 0 0.30298021147195658 -0.29033858393126172 0 0.30954970221622308 -0.30462347215273478 0 0.29592063247569211 -0.31558436997640987 0 0.2869084388603575 -0.29706258589684881 0 0.30954970221622308 -0.30462347215273478 0 0.30517917142926537 -0.24716040808135001 0 0.31054181011664339 -0.26140137874582919 0 0.2976408850071105 -0.26774945168120262 0 0.30517917142926537 -0.24716040808135001 0 0.2976408850071105 -0.26774945168120262 0 0.31275786215232049 -0.27168837282467972 0 0.2976408850071105 -0.26774945168120262 0 0.29395248104752192 -0.27782345334219888 0 0.31275786215232049 -0.27168837282467972 0 0.2976408850071105 -0.26774945168120262 0 0.31275786215232049 -0.27168837282467972 0 0.31054181011664339 -0.26140137874582919 0 0.2976408850071105 -0.26774945168120262 0 0.31569414790308259 -0.28159305760617132 0 0.29395248104752192 -0.27782345334219888 0 0.31569414790308259 -0.28159305760617132 0 0.31275786215232049 -0.27168837282467972 0 0.29395248104752192 -0.27782345334219888 0 0.2976408850071105 -0.26774945168120262 0 0.28600938745522969 -0.26471871668720698 0 0.2976408850071105 -0.26774945168120262 0 0.29395248104752192 -0.27782345334219888 0 0.29395248104752192 -0.27782345334219888 0 0.27996448038040939 -0.28063895974691061 0 0.2724225943816766 -0.27409056785933389 0 0.29395248104752192 -0.27782345334219888 0 0.28600938745522969 -0.26471871668720698 0 0.27658132089261911 -0.27335422882897692 0 0.2976408850071105 -0.26774945168120262 0 0.29395248104752192 -0.27782345334219888 0 0.28600938745522969 -0.26471871668720698 0 0.29395248104752192 -0.27782345334219888 0 0.2724225943816766 -0.27409056785933389 0 0.28600938745522969 -0.26471871668720698 0 0.27658132089261911 -0.27335422882897692 0 0.30517917142926537 -0.24716040808135001 0 0.28600938745522969 -0.26471871668720698 0 0.30517917142926537 -0.24716040808135001 0 0.2976408850071105 -0.26774945168120262 0 0.28600938745522969 -0.26471871668720698 0 0.30517917142926537 -0.24716040808135001 0 0.28765229627979871 -0.24304032400626949 0 0.28600938745522969 -0.26471871668720698 0 0.28600938745522969 -0.26471871668720698 0 0.26845248078028039 -0.26014404079454911 0 0.28765229627979871 -0.24304032400626949 0 0.28600938745522969 -0.26471871668720698 0 0.26845248078028039 -0.26014404079454911 0 0.26376770137103039 -0.2864090747829241 0 0.26845248078028039 -0.26014404079454911 0 0.2724225943816766 -0.27409056785933389 0 0.28600938745522969 -0.26471871668720698 0 0.26845248078028039 -0.26014404079454911 0 0.27658132089261911 -0.27335422882897692 0 0.26376770137103039 -0.2864090747829241 0 0.26845248078028039 -0.26014404079454911 0 0.29395248104752192 -0.27782345334219888 0 0.27658132089261911 -0.27335422882897692 0 0.2724225943816766 -0.27409056785933389 0 0.27275834958840189 -0.28372268528309152 0 0.27996448038040939 -0.28063895974691061 0 0.2724225943816766 -0.27409056785933389 0 0.26845248078028039 -0.26014404079454911 0 0.27658132089261911 -0.27335422882897692 0 0.2724225943816766 -0.27409056785933389 0 0.26376770137103039 -0.2864090747829241 0 0.26845248078028039 -0.26014404079454911 0 0.24785603391849151 -0.27709942466880599 0 0.26845248078028039 -0.26014404079454911 0 0.2410490216361528 -0.25300372010805161 0 0.26845248078028039 -0.26014404079454911 0 0.2410490216361528 -0.25300372010805161 0 0.24785603391849151 -0.27709942466880599 0 0.25787859859726192 -0.24372773219337371 0 0.26845248078028039 -0.26014404079454911 0 0.2410490216361528 -0.25300372010805161 0 0.2410490216361528 -0.25300372010805161 0 0.24785603391849151 -0.27709942466880599 0 0.23139485578507429 -0.27647983237136509 0 0.23139485578507429 -0.27647983237136509 0 0.2171028506536257 -0.26700629366950379 0 0.21674952071488601 -0.28686299221921707 0 0.2410490216361528 -0.25300372010805161 0 0.23139485578507429 -0.27647983237136509 0 0.2171028506536257 -0.26700629366950379 0 0.2410490216361528 -0.25300372010805161 0 0.2171028506536257 -0.26700629366950379 0 0.2136455624920251 -0.24586339942155419 0 0.2171028506536257 -0.26700629366950379 0 0.1960217485778272 -0.26205501631648559 0 0.2136455624920251 -0.24586339942155419 0 0.2171028506536257 -0.26700629366950379 0 0.2037572178097509 -0.27803645254629672 0 0.1960217485778272 -0.26205501631648559 0 0.2171028506536257 -0.26700629366950379 0 0.2037572178097509 -0.27803645254629672 0 0.21674952071488601 -0.28686299221921707 0 0.2037572178097509 -0.27803645254629672 0 0.1960217485778272 -0.26205501631648559 0 0.18672217274589489 -0.28463667424064248 0 0.1960217485778272 -0.26205501631648559 0 0.2136455624920251 -0.24586339942155419 0 0.1970165427207646 -0.2431475676051908 0 0.1960217485778272 -0.26205501631648559 0 0.1970165427207646 -0.2431475676051908 0 0.18013525364959199 -0.24590787480667409 0 0.19163287831415901 -0.30538761534618902 0 0.20219697373587131 -0.29192032270869461 0 0.2153952098199983 -0.30425933719731207 0 0.2037572178097509 -0.27803645254629672 0 0.20219697373587131 -0.29192032270869461 0 0.18672217274589489 -0.28463667424064248 0 0.19163287831415901 -0.30538761534618902 0 0.20219697373587131 -0.29192032270869461 0 0.18672217274589489 -0.28463667424064248 0 0.20219697373587131 -0.29192032270869461 0 0.21674952071488601 -0.28686299221921707 0 0.2153952098199983 -0.30425933719731207 0 0.2037572178097509 -0.27803645254629672 0 0.20219697373587131 -0.29192032270869461 0 0.21674952071488601 -0.28686299221921707 0 0.19163287831415901 -0.30538761534618902 0 0.2153952098199983 -0.30425933719731207 0 0.20381788977078771 -0.32236963909420019 0 0.2153952098199983 -0.30425933719731207 0 0.2333373149176502 -0.29099433783704243 0 0.2370223082464416 -0.30892926800322767 0 0.2153952098199983 -0.30425933719731207 0 0.2370223082464416 -0.30892926800322767 0 0.22300958304019269 -0.32335118517261402 0 0.21674952071488601 -0.28686299221921707 0 0.2153952098199983 -0.30425933719731207 0 0.2333373149176502 -0.29099433783704243 0 0.23139485578507429 -0.27647983237136509 0 0.21674952071488601 -0.28686299221921707 0 0.2333373149176502 -0.29099433783704243 0 0.24785603391849151 -0.27709942466880599 0 0.2333373149176502 -0.29099433783704243 0 0.24821325608307901 -0.29522124281265988 0 0.24785603391849151 -0.27709942466880599 0 0.23139485578507429 -0.27647983237136509 0 0.2333373149176502 -0.29099433783704243 0 0.2333373149176502 -0.29099433783704243 0 0.24821325608307901 -0.29522124281265988 0 0.2370223082464416 -0.30892926800322767 0 0.2590829219617814 -0.31267410877129931 0 0.24821325608307901 -0.29522124281265988 0 0.2370223082464416 -0.30892926800322767 0 0.2590829219617814 -0.31267410877129931 0 0.2370223082464416 -0.30892926800322767 0 0.24087195768162309 -0.32614810142562012 0 0.2543981425525324 -0.33893914275967452 0 0.24087195768162309 -0.32614810142562012 0 0.2308468326071676 -0.34684680242128502 0 0.24087195768162309 -0.32614810142562012 0 0.22300958304019269 -0.32335118517261402 0 0.2308468326071676 -0.34684680242128502 0 0.22300958304019269 -0.32335118517261402 0 0.2308468326071676 -0.34684680242128502 0 0.21275128108028149 -0.33749920242868869 0 0.2370223082464416 -0.30892926800322767 0 0.24087195768162309 -0.32614810142562012 0 0.22300958304019269 -0.32335118517261402 0 0.24971336314328341 -0.36520417674804972 0 0.2308468326071676 -0.34684680242128502 0 0.229200177642885 -0.36995291413531828 0 0.2543981425525324 -0.33893914275967452 0 0.24971336314328341 -0.36520417674804972 0 0.2308468326071676 -0.34684680242128502 0 0.229200177642885 -0.36995291413531828 0 0.20725651587090471 -0.36571099534901208 0 0.22031030243082139 -0.38906492162812378 0 0.2308468326071676 -0.34684680242128502 0 0.229200177642885 -0.36995291413531828 0 0.20725651587090471 -0.36571099534901208 0 0.2308468326071676 -0.34684680242128502 0 0.20725651587090471 -0.36571099534901208 0 0.21275128108028149 -0.33749920242868869 0 0.20725651587090471 -0.36571099534901208 0 0.21275128108028149 -0.33749920242868869 0 0.194202729310988 -0.34235706906990038 0 0.20725651587090471 -0.36571099534901208 0 0.194202729310988 -0.34235706906990038 0 0.180238718969634 -0.3612454971324468 0 0.20725651587090471 -0.36571099534901208 0 0.194202729310988 -0.34235706906990038 0 0.20725651587090471 -0.36571099534901208 0 0.19261827162763251 -0.374541644607297 0 0.180238718969634 -0.3612454971324468 0 0.22300958304019269 -0.32335118517261402 0 0.20381788977078771 -0.32236963909420019 0 0.21275128108028149 -0.33749920242868869 0 0.2153952098199983 -0.30425933719731207 0 0.22300958304019269 -0.32335118517261402 0 0.20381788977078771 -0.32236963909420019 0 0.20381788977078771 -0.32236963909420019 0 0.21275128108028149 -0.33749920242868869 0 0.194202729310988 -0.34235706906990038 0 0.20381788977078771 -0.32236963909420019 0 0.194202729310988 -0.34235706906990038 0 0.18384400034678741 -0.32250280289756078 0 0.19163287831415901 -0.30538761534618902 0 0.20381788977078771 -0.32236963909420019 0 0.18384400034678741 -0.32250280289756078 0 0.18384400034678741 -0.32250280289756078 0 0.17702055828029431 -0.33666004199980942 0 0.15719449589681389 -0.32866913917705798 0 0.194202729310988 -0.34235706906990038 0 0.18384400034678741 -0.32250280289756078 0 0.17702055828029431 -0.33666004199980942 0 0.15719449589681389 -0.32866913917705798 0 0.16581699513551909 -0.35306125248096398 0 0.17702055828029431 -0.33666004199980942 0 0.15719449589681389 -0.32866913917705798 0 0.16581699513551909 -0.35306125248096398 0 0.18384400034678741 -0.32250280289756078 0 0.15719449589681389 -0.32866913917705798 0 0.17186855286937899 -0.30453082832045192 0 0.180238718969634 -0.3612454971324468 0 0.1834568796589737 -0.38583095226508418 0 0.17443949437422429 -0.37745336578486988 0 0.180238718969634 -0.3612454971324468 0 0.16581699513551909 -0.35306125248096398 0 0.17443949437422429 -0.37745336578486988 0 0.180238718969634 -0.3612454971324468 0 0.1834568796589737 -0.38583095226508418 0 0.19261827162763251 -0.374541644607297 0 0.180238718969634 -0.3612454971324468 0 0.1834568796589737 -0.38583095226508418 0 0.17702055828029431 -0.33666004199980942 0 0.180238718969634 -0.3612454971324468 0 0.16581699513551909 -0.35306125248096398 0 0.17702055828029431 -0.33666004199980942 0 0.180238718969634 -0.3612454971324468 0 0.194202729310988 -0.34235706906990038 0 0.17702055828029431 -0.33666004199980942 0 0.180238718969634 -0.3612454971324468 0 0.16581699513551909 -0.35306125248096398 0 0.1602354860011011 -0.36875954027416918 0 0.14952990885070691 -0.36034775620209553 0 0.16581699513551909 -0.35306125248096398 0 0.17443949437422429 -0.37745336578486988 0 0.16581699513551909 -0.35306125248096398 0 0.1602354860011011 -0.36875954027416918 0 0.17443949437422429 -0.37745336578486988 0 0.1602354860011011 -0.36875954027416918 0 0.14673951295096799 -0.37363029079717242 0 0.14952990885070691 -0.36034775620209553 0 0.16581699513551909 -0.35306125248096398 0 0.14952990885070691 -0.36034775620209553 0 0.144826286403443 -0.34676284914488159 0 0.14952990885070691 -0.36034775620209553 0 0.144826286403443 -0.34676284914488159 0 0.12334710111447229 -0.36406834251145731 0 0.144826286403443 -0.34676284914488159 0 0.12334710111447229 -0.36406834251145731 0 0.144826286403443 -0.34676284914488159 0 0.12334710111447229 -0.36406834251145731 0 0.11573058637367541 -0.34380091622275832 0 0.13273239812562251 -0.3803535413873157 0 0.1208593498238435 -0.38006314209191833 0 0.12334710111447229 -0.36406834251145731 0 0.14673951295096799 -0.37363029079717242 0 0.14952990885070691 -0.36034775620209553 0 0.12334710111447229 -0.36406834251145731 0 0.14673951295096799 -0.37363029079717242 0 0.13273239812562251 -0.3803535413873157 0 0.12334710111447229 -0.36406834251145731 0 0.15719449589681389 -0.32866913917705798 0 0.13978194378111039 -0.33004063130878142 0 0.14857199665810869 -0.30427702587315197 0 0.15719449589681389 -0.32866913917705798 0 0.14857199665810869 -0.30427702587315197 0 0.15719449589681389 -0.32866913917705798 0 0.144826286403443 -0.34676284914488159 0 0.13978194378111039 -0.33004063130878142 0 0.15719449589681389 -0.32866913917705798 0 0.16581699513551909 -0.35306125248096398 0 0.144826286403443 -0.34676284914488159 0 0.13978194378111039 -0.33004063130878142 0 0.1249111379911398 -0.32186001205002218 0 0.11573058637367541 -0.34380091622275832 0 0.144826286403443 -0.34676284914488159 0 0.13978194378111039 -0.33004063130878142 0 0.11573058637367541 -0.34380091622275832 0 0.13978194378111039 -0.33004063130878142 0 0.14857199665810869 -0.30427702587315197 0 0.1249111379911398 -0.32186001205002218 0 0.14857199665810869 -0.30427702587315197 0 0.13584279120622419 -0.29064916595208462 0 0.1212075847983899 -0.30357596212866123 0 0.14857199665810869 -0.30427702587315197 0 0.1212075847983899 -0.30357596212866123 0 0.1249111379911398 -0.32186001205002218 0 0.14857199665810869 -0.30427702587315197 0 0.14941647374314521 -0.28066083506566319 0 0.1659314811884508 -0.28303851802095531 0 0.14857199665810869 -0.30427702587315197 0 0.13584279120622419 -0.29064916595208462 0 0.14941647374314521 -0.28066083506566319 0 0.13554841089854469 -0.28148943716570812 0 0.13584279120622419 -0.29064916595208462 0 0.14941647374314521 -0.28066083506566319 0 0.13554841089854469 -0.28148943716570812 0 0.13584279120622419 -0.29064916595208462 0 0.1176113560141319 -0.2851589593963586 0 0.1376178273856396 -0.2676878026278281 0 0.13932302263067731 -0.26948878824872591 0 0.1176113560141319 -0.2851589593963586 0 0.13554841089854469 -0.28148943716570812 0 0.13932302263067731 -0.26948878824872591 0 0.1176113560141319 -0.2851589593963586 0 0.13932302263067731 -0.26948878824872591 0 0.1176113560141319 -0.2851589593963586 0 0.1376178273856396 -0.2676878026278281 0 0.1200034520355143 -0.24749468667538321 0 0.1376178273856396 -0.2676878026278281 0 0.1200034520355143 -0.24749468667538321 0 0.1412434604122122 -0.24631040783256791 0 0.1376178273856396 -0.2676878026278281 0 0.16103468924722281 -0.25381861710109321 0 0.1412434604122122 -0.24631040783256791 0 0.1376178273856396 -0.2676878026278281 0 0.13932302263067731 -0.26948878824872591 0 0.16103468924722281 -0.25381861710109321 0 0.13932302263067731 -0.26948878824872591 0 0.16103468924722281 -0.25381861710109321 0 0.13932302263067731 -0.26948878824872591 0 0.14941647374314521 -0.28066083506566319 0 0.16103468924722281 -0.25381861710109321 0 0.13554841089854469 -0.28148943716570812 0 0.13932302263067731 -0.26948878824872591 0 0.14941647374314521 -0.28066083506566319 0 0.14941647374314521 -0.28066083506566319 0 0.16103468924722281 -0.25381861710109321 0 0.1659314811884508 -0.28303851802095531 0 0.16103468924722281 -0.25381861710109321 0 0.1779690690817976 -0.26589134009717008 0 0.1659314811884508 -0.28303851802095531 0 0.16103468924722281 -0.25381861710109321 0 0.1779690690817976 -0.26589134009717008 0 0.18013525364959199 -0.24590787480667409 0 0.1960217485778272 -0.26205501631648559 0 0.1779690690817976 -0.26589134009717008 0 0.18013525364959199 -0.24590787480667409 0 0.1960217485778272 -0.26205501631648559 0 0.1779690690817976 -0.26589134009717008 0 0.18672217274589489 -0.28463667424064248 0 0.1779690690817976 -0.26589134009717008 0 0.18672217274589489 -0.28463667424064248 0 0.1659314811884508 -0.28303851802095531 0 0.18672217274589489 -0.28463667424064248 0 0.17186855286937899 -0.30453082832045192 0 0.1659314811884508 -0.28303851802095531 0 0.19163287831415901 -0.30538761534618902 0 0.18384400034678741 -0.32250280289756078 0 0.17186855286937899 -0.30453082832045192 0 0.19163287831415901 -0.30538761534618902 0 0.18672217274589489 -0.28463667424064248 0 0.17186855286937899 -0.30453082832045192 0 0.14857199665810869 -0.30427702587315197 0 0.17186855286937899 -0.30453082832045192 0 0.1659314811884508 -0.28303851802095531 0 0.15719449589681389 -0.32866913917705798 0 0.14857199665810869 -0.30427702587315197 0 0.17186855286937899 -0.30453082832045192 0 0.27004646425256568 -0.5 0 0.19840125792562099 -0.499999999999995 0 0.2258071254777905 -0.47806137695806639 0 0.19840125792562099 -0.499999999999995 0 0.1955652389629654 -0.47833395417678298 0 0.19840125792562099 -0.499999999999995 0 0.1955652389629654 -0.47833395417678298 0 0.1857239970351309 -0.48926605560099218 0 0.1955652389629654 -0.47833395417678298 0 0.2258071254777905 -0.47806137695806639 0 0.20496909670773639 -0.46039718082621561 0 0.19840125792562099 -0.499999999999995 0 0.1955652389629654 -0.47833395417678298 0 0.2258071254777905 -0.47806137695806639 0 0.2532296876789632 -0.47497352743918242 0 0.27004646425256568 -0.5 0 0.2258071254777905 -0.47806137695806639 0 0.2532296876789632 -0.47497352743918242 0 0.2258071254777905 -0.47806137695806639 0 0.23317765179809191 -0.45416130837427687 0 0.2258071254777905 -0.47806137695806639 0 0.23317765179809191 -0.45416130837427687 0 0.20496909670773639 -0.46039718082621561 0 0.23317765179809191 -0.45416130837427687 0 0.20496909670773639 -0.46039718082621561 0 0.26339579246569877 -0.46312143350125029 0 0.2532296876789632 -0.47497352743918242 0 0.23317765179809191 -0.45416130837427687 0 0.26138620688844749 -0.44792543592233808 0 0.2518592606704963 -0.43815060111373921 0 0.23317765179809191 -0.45416130837427687 0 0.26138620688844749 -0.44792543592233808 0 0.23317765179809191 -0.45416130837427687 0 0.2518592606704963 -0.43815060111373921 0 0.23317765179809191 -0.45416130837427687 0 0.24161391479158839 -0.43048581688246368 0 0.23317765179809191 -0.45416130837427687 0 0.21274467024756119 -0.44537306322652892 0 0.22596778666418391 -0.43195218695593612 0 0.23317765179809191 -0.45416130837427687 0 0.22596778666418391 -0.43195218695593612 0 0.24161391479158839 -0.43048581688246368 0 0.20738663592967541 -0.43977689630152639 0 0.21274467024756119 -0.44537306322652892 0 0.21231789143938981 -0.43260924517595267 0 0.20738663592967541 -0.43977689630152639 0 0.20306963394956029 -0.44528763306514119 0 0.2014143480821905 -0.43583764373848299 0 0.20738663592967541 -0.43977689630152639 0 0.21274467024756119 -0.44537306322652892 0 0.20306963394956029 -0.44528763306514119 0 0.21274467024756119 -0.44537306322652892 0 0.20306963394956029 -0.44528763306514119 0 0.20202636709778779 -0.45196992376671852 0 0.21274467024756119 -0.44537306322652892 0 0.20496909670773639 -0.46039718082621561 0 0.20202636709778779 -0.45196992376671852 0 0.23317765179809191 -0.45416130837427687 0 0.21274467024756119 -0.44537306322652892 0 0.20496909670773639 -0.46039718082621561 0 0.1955652389629654 -0.47833395417678298 0 0.20496909670773639 -0.46039718082621561 0 0.1927292200003092 -0.45666790835357102 0 0.1955652389629654 -0.47833395417678298 0 0.1927292200003092 -0.45666790835357102 0 0.1955652389629654 -0.47833395417678298 0 0.19047701204926121 -0.46094242075341862 0 0.1927292200003092 -0.45666790835357102 0 0.20496909670773639 -0.46039718082621561 0 0.1927292200003092 -0.45666790835357102 0 0.20202636709778779 -0.45196992376671852 0 0.19047701204926121 -0.46094242075341862 0 0.1927292200003092 -0.45666790835357102 0 0.1876592352144193 -0.45673372923780892 0 0.1927292200003092 -0.45666790835357102 0 0.1876592352144193 -0.45673372923780892 0 0.18777566972406101 -0.44981142861604279 0 0.1927292200003092 -0.45666790835357102 0 0.19595067699787469 -0.4453334870477933 0 0.18989320103765239 -0.43500186253035911 0 0.1927292200003092 -0.45666790835357102 0 0.18989320103765239 -0.43500186253035911 0 0.1927292200003092 -0.45666790835357102 0 0.18777566972406101 -0.44981142861604279 0 0.18989320103765239 -0.43500186253035911 0 0.19521760998379711 -0.43854214036159178 0 0.19595067699787469 -0.4453334870477933 0 0.1916906899727929 -0.43609695451772118 0 0.19595067699787469 -0.4453334870477933 0 0.1916906899727929 -0.43609695451772118 0 0.18989320103765239 -0.43500186253035911 0 0.19521760998379711 -0.43854214036159178 0 0.19821003569121751 -0.44088076654097252 0 0.19595067699787469 -0.4453334870477933 0 0.19821003569121751 -0.44088076654097252 0 0.20306963394956029 -0.44528763306514119 0 0.19595067699787469 -0.4453334870477933 0 0.19821003569121751 -0.44088076654097252 0 0.20306963394956029 -0.44528763306514119 0 0.2014143480821905 -0.43583764373848299 0 0.19521760998379711 -0.43854214036159178 0 0.19821003569121751 -0.44088076654097252 0 0.19632921389935129 -0.43529695882979857 0 0.20306963394956029 -0.44528763306514119 0 0.20202636709778779 -0.45196992376671852 0 0.19595067699787469 -0.4453334870477933 0 0.1927292200003092 -0.45666790835357102 0 0.20202636709778779 -0.45196992376671852 0 0.19595067699787469 -0.4453334870477933 0 0.18989320103765239 -0.43500186253035911 0 0.193210065479164 -0.42351508711829272 0 0.18667504034831339 -0.41041640739772162 0 0.18989320103765239 -0.43500186253035911 0 0.18667504034831339 -0.41041640739772162 0 0.1973860855611401 -0.42692030526330021 0 0.193210065479164 -0.42351508711829272 0 0.19846083006015189 -0.42045811652912207 0 0.1973860855611401 -0.42692030526330021 0 0.19846083006015189 -0.42045811652912207 0 0.20326441538295181 -0.42746054266679712 0 0.1973860855611401 -0.42692030526330021 0 0.19826447490927249 -0.43151164360587502 0 0.20326441538295181 -0.42746054266679712 0 0.2014143480821905 -0.43583764373848299 0 0.19826447490927249 -0.43151164360587502 0 0.20326441538295181 -0.42746054266679712 0 0.19821003569121751 -0.44088076654097252 0 0.2014143480821905 -0.43583764373848299 0 0.19632921389935129 -0.43529695882979857 0 0.2014143480821905 -0.43583764373848299 0 0.19632921389935129 -0.43529695882979857 0 0.19826447490927249 -0.43151164360587502 0 0.19632921389935129 -0.43529695882979857 0 0.19826447490927249 -0.43151164360587502 0 0.1929283116207289 -0.43204276753099607 0 0.1973860855611401 -0.42692030526330021 0 0.19826447490927249 -0.43151164360587502 0 0.1929283116207289 -0.43204276753099607 0 0.1929283116207289 -0.43204276753099607 0 0.18989320103765239 -0.43500186253035911 0 0.193210065479164 -0.42351508711829272 0 0.19521760998379711 -0.43854214036159178 0 0.19632921389935129 -0.43529695882979857 0 0.19377820557052011 -0.43520734882518619 0 0.19521760998379711 -0.43854214036159178 0 0.19377820557052011 -0.43520734882518619 0 0.1916906899727929 -0.43609695451772118 0 0.19632921389935129 -0.43529695882979857 0 0.1929283116207289 -0.43204276753099607 0 0.19377820557052011 -0.43520734882518619 0 0.1929283116207289 -0.43204276753099607 0 0.19210490899723079 -0.4345610298626873 0 0.18989320103765239 -0.43500186253035911 0 0.19377820557052011 -0.43520734882518619 0 0.19210490899723079 -0.4345610298626873 0 0.1916906899727929 -0.43609695451772118 0 0.1929283116207289 -0.43204276753099607 0 0.19377820557052011 -0.43520734882518619 0 0.19210490899723079 -0.4345610298626873 0 0.1916906899727929 -0.43609695451772118 0 0.18989320103765239 -0.43500186253035911 0 0.19210490899723079 -0.4345610298626873 0 0.1916906899727929 -0.43609695451772118 0 0.18989320103765239 -0.43500186253035911 0 0.1973860855611401 -0.42692030526330021 0 0.1929283116207289 -0.43204276753099607 0 0.193210065479164 -0.42351508711829272 0 0.193210065479164 -0.42351508711829272 0 0.1939169242469973 -0.41625106345825691 0 0.18667504034831339 -0.41041640739772162 0 0.193210065479164 -0.42351508711829272 0 0.1939169242469973 -0.41625106345825691 0 0.19846083006015189 -0.42045811652912207 0 0.1968341740193896 -0.41150644481021997 0 0.19418069224578771 -0.40518464808912641 0 0.18667504034831339 -0.41041640739772162 0 0.1939169242469973 -0.41625106345825691 0 0.1968341740193896 -0.41150644481021997 0 0.18667504034831339 -0.41041640739772162 0 0.1968341740193896 -0.41150644481021997 0 0.20469814770209749 -0.41520386531910081 0 0.20485234226760879 -0.40188257102108682 0 0.19846083006015189 -0.42045811652912207 0 0.20469814770209749 -0.41520386531910081 0 0.20326441538295181 -0.42746054266679712 0 0.1939169242469973 -0.41625106345825691 0 0.1968341740193896 -0.41150644481021997 0 0.19846083006015189 -0.42045811652912207 0 0.1968341740193896 -0.41150644481021997 0 0.19846083006015189 -0.42045811652912207 0 0.20469814770209749 -0.41520386531910081 0 0.20469814770209749 -0.41520386531910081 0 0.21626227209603979 -0.41615869782113413 0 0.20326441538295181 -0.42746054266679712 0 0.20469814770209749 -0.41520386531910081 0 0.21626227209603979 -0.41615869782113413 0 0.20485234226760879 -0.40188257102108682 0 0.21626227209603979 -0.41615869782113413 0 0.20326441538295181 -0.42746054266679712 0 0.21231789143938981 -0.43260924517595267 0 0.21626227209603979 -0.41615869782113413 0 0.21231789143938981 -0.43260924517595267 0 0.22596778666418391 -0.43195218695593612 0 0.20738663592967541 -0.43977689630152639 0 0.2014143480821905 -0.43583764373848299 0 0.21231789143938981 -0.43260924517595267 0 0.2014143480821905 -0.43583764373848299 0 0.20326441538295181 -0.42746054266679712 0 0.21231789143938981 -0.43260924517595267 0 0.21274467024756119 -0.44537306322652892 0 0.21231789143938981 -0.43260924517595267 0 0.22596778666418391 -0.43195218695593612 0 0.22596778666418391 -0.43195218695593612 0 0.24161391479158839 -0.43048581688246368 0 0.2333640889907381 -0.41241884790723538 0 0.25610826383841628 -0.42120346698794331 0 0.2518592606704963 -0.43815060111373921 0 0.24161391479158839 -0.43048581688246368 0 0.25610826383841628 -0.42120346698794331 0 0.24161391479158839 -0.43048581688246368 0 0.2333640889907381 -0.41241884790723538 0 0.21626227209603979 -0.41615869782113413 0 0.22596778666418391 -0.43195218695593612 0 0.2333640889907381 -0.41241884790723538 0 0.2333640889907381 -0.41241884790723538 0 0.24502858373403441 -0.39146921073642488 0 0.22031030243082139 -0.38906492162812378 0 0.21626227209603979 -0.41615869782113413 0 0.2333640889907381 -0.41241884790723538 0 0.22031030243082139 -0.38906492162812378 0 0.2333640889907381 -0.41241884790723538 0 0.22031030243082139 -0.38906492162812378 0 0.26125098829365018 -0.39969694482297641 0 0.2333640889907381 -0.41241884790723538 0 0.24502858373403441 -0.39146921073642488 0 0.24971336314328341 -0.36520417674804972 0 0.24502858373403441 -0.39146921073642488 0 0.24971336314328341 -0.36520417674804972 0 0.229200177642885 -0.36995291413531828 0 0.24502858373403441 -0.39146921073642488 0 0.229200177642885 -0.36995291413531828 0 0.24502858373403441 -0.39146921073642488 0 0.22031030243082139 -0.38906492162812378 0 0.20725651587090471 -0.36571099534901208 0 0.22031030243082139 -0.38906492162812378 0 0.19952097201101759 -0.38537913368264481 0 0.20725651587090471 -0.36571099534901208 0 0.22031030243082139 -0.38906492162812378 0 0.21626227209603979 -0.41615869782113413 0 0.22031030243082139 -0.38906492162812378 0 0.20485234226760879 -0.40188257102108682 0 0.22031030243082139 -0.38906492162812378 0 0.20485234226760879 -0.40188257102108682 0 0.19952097201101759 -0.38537913368264481 0 0.20485234226760879 -0.40188257102108682 0 0.19159455078491761 -0.39726910731705511 0 0.19952097201101759 -0.38537913368264481 0 0.1968341740193896 -0.41150644481021997 0 0.20485234226760879 -0.40188257102108682 0 0.19418069224578771 -0.40518464808912641 0 0.20485234226760879 -0.40188257102108682 0 0.19418069224578771 -0.40518464808912641 0 0.19159455078491761 -0.39726910731705511 0 0.19418069224578771 -0.40518464808912641 0 0.19159455078491761 -0.39726910731705511 0 0.18667504034831339 -0.41041640739772162 0 0.20725651587090471 -0.36571099534901208 0 0.19261827162763251 -0.374541644607297 0 0.19952097201101759 -0.38537913368264481 0 0.19261827162763251 -0.374541644607297 0 0.19952097201101759 -0.38537913368264481 0 0.1834568796589737 -0.38583095226508418 0 0.19159455078491761 -0.39726910731705511 0 0.19952097201101759 -0.38537913368264481 0 0.1834568796589737 -0.38583095226508418 0 0.17443949437422429 -0.37745336578486988 0 0.18306199361292941 -0.40184547908877583 0 0.1834568796589737 -0.38583095226508418 0 0.17443949437422429 -0.37745336578486988 0 0.18306199361292941 -0.40184547908877583 0 0.17443949437422429 -0.37745336578486988 0 0.18306199361292941 -0.40184547908877583 0 0.1699565165384864 -0.39219147373696051 0 0.19159455078491761 -0.39726910731705511 0 0.1834568796589737 -0.38583095226508418 0 0.18667504034831339 -0.41041640739772162 0 0.1834568796589737 -0.38583095226508418 0 0.18667504034831339 -0.41041640739772162 0 0.1834568796589737 -0.38583095226508418 0 0.18306199361292941 -0.40184547908877583 0 0.18667504034831339 -0.41041640739772162 0 0.18306199361292941 -0.40184547908877583 0 0.1699565165384864 -0.39219147373696051 0 0.17103987791038719 -0.40450309618882169 0 0.18306199361292941 -0.40184547908877583 0 0.17103987791038719 -0.40450309618882169 0 0.1814131781600461 -0.40758752999736902 0 0.1699565165384864 -0.39219147373696051 0 0.17103987791038719 -0.40450309618882169 0 0.15993177942481909 -0.39557864441750712 0 0.17103987791038719 -0.40450309618882169 0 0.15993177942481909 -0.39557864441750712 0 0.14638679418839309 -0.40849626541203388 0 0.1699565165384864 -0.39219147373696051 0 0.15993177942481909 -0.39557864441750712 0 0.1595700277473481 -0.38298567724053401 0 0.17443949437422429 -0.37745336578486988 0 0.1699565165384864 -0.39219147373696051 0 0.1595700277473481 -0.38298567724053401 0 0.1602354860011011 -0.36875954027416918 0 0.17443949437422429 -0.37745336578486988 0 0.1595700277473481 -0.38298567724053401 0 0.1602354860011011 -0.36875954027416918 0 0.14673951295096799 -0.37363029079717242 0 0.1595700277473481 -0.38298567724053401 0 0.14673951295096799 -0.37363029079717242 0 0.1595700277473481 -0.38298567724053401 0 0.14586341328622179 -0.39002728499933198 0 0.14673951295096799 -0.37363029079717242 0 0.14586341328622179 -0.39002728499933198 0 0.13273239812562251 -0.3803535413873157 0 0.15993177942481909 -0.39557864441750712 0 0.1595700277473481 -0.38298567724053401 0 0.14586341328622179 -0.39002728499933198 0 0.14586341328622179 -0.39002728499933198 0 0.13273239812562251 -0.3803535413873157 0 0.12412735500694751 -0.39493505064503392 0 0.13273239812562251 -0.3803535413873157 0 0.12412735500694751 -0.39493505064503392 0 0.1208593498238435 -0.38006314209191833 0 0.14586341328622179 -0.39002728499933198 0 0.14638679418839309 -0.40849626541203388 0 0.12412735500694751 -0.39493505064503392 0 0.14638679418839309 -0.40849626541203388 0 0.1185943653130178 -0.41089393958744808 0 0.12412735500694751 -0.39493505064503392 0 0.14638679418839309 -0.40849626541203388 0 0.12412735500694751 -0.39493505064503392 0 0.15993177942481909 -0.39557864441750712 0 0.14586341328622179 -0.39002728499933198 0 0.14638679418839309 -0.40849626541203388 0 0.14638679418839309 -0.40849626541203388 0 0.12945713117598301 -0.42527718494859718 0 0.1185943653130178 -0.41089393958744808 0 0.12945713117598301 -0.42527718494859718 0 0.1521605439778134 -0.43517333823265708 0 0.13567485458578729 -0.448289196286278 0 0.14638679418839309 -0.40849626541203388 0 0.12945713117598301 -0.42527718494859718 0 0.1521605439778134 -0.43517333823265708 0 0.14638679418839309 -0.40849626541203388 0 0.1521605439778134 -0.43517333823265708 0 0.16864623336983819 -0.42205748017903449 0 0.1521605439778134 -0.43517333823265708 0 0.16864623336983819 -0.42205748017903449 0 0.1521605439778134 -0.43517333823265708 0 0.16864623336983819 -0.42205748017903449 0 0.16573483381671769 -0.43911683261624462 0 0.16864623336983819 -0.42205748017903449 0 0.17670256027174869 -0.43608133600128551 0 0.16573483381671769 -0.43911683261624462 0 0.17103987791038719 -0.40450309618882169 0 0.14638679418839309 -0.40849626541203388 0 0.16962733287145829 -0.41306172809692981 0 0.14638679418839309 -0.40849626541203388 0 0.16864623336983819 -0.42205748017903449 0 0.14638679418839309 -0.40849626541203388 0 0.16864623336983819 -0.42205748017903449 0 0.16962733287145829 -0.41306172809692981 0 0.16864623336983819 -0.42205748017903449 0 0.17965678171287719 -0.41329759239238029 0 0.18989320103765239 -0.43500186253035911 0 0.17965678171287719 -0.41329759239238029 0 0.18667504034831339 -0.41041640739772162 0 0.16864623336983819 -0.42205748017903449 0 0.16962733287145829 -0.41306172809692981 0 0.17965678171287719 -0.41329759239238029 0 0.17103987791038719 -0.40450309618882169 0 0.16962733287145829 -0.41306172809692981 0 0.17965678171287719 -0.41329759239238029 0 0.17103987791038719 -0.40450309618882169 0 0.17965678171287719 -0.41329759239238029 0 0.1814131781600461 -0.40758752999736902 0 0.18306199361292941 -0.40184547908877583 0 0.1814131781600461 -0.40758752999736902 0 0.18667504034831339 -0.41041640739772162 0 0.17965678171287719 -0.41329759239238029 0 0.1814131781600461 -0.40758752999736902 0 0.18667504034831339 -0.41041640739772162 0 0.18989320103765239 -0.43500186253035911 0 0.16864623336983819 -0.42205748017903449 0 0.18989320103765239 -0.43500186253035911 0 0.16864623336983819 -0.42205748017903449 0 0.17965678171287719 -0.41329759239238029 0 0.18989320103765239 -0.43500186253035911 0 0.16864623336983819 -0.42205748017903449 0 0.17670256027174869 -0.43608133600128551 0 0.18989320103765239 -0.43500186253035911 0 0.17670256027174869 -0.43608133600128551 0 0.18208037526260021 -0.440172852945236 0 0.17851738694434799 -0.45081987712854771 0 0.17618275988476059 -0.44374183802639611 0 0.18401323307134959 -0.44581129240036288 0 0.17851738694434799 -0.45081987712854771 0 0.1776998484129505 -0.456552179461992 0 0.17120073938054131 -0.45123220200337888 0 0.17851738694434799 -0.45081987712854771 0 0.17618275988476059 -0.44374183802639611 0 0.17120073938054131 -0.45123220200337888 0 0.17670256027174869 -0.43608133600128551 0 0.17618275988476059 -0.44374183802639611 0 0.16573483381671769 -0.43911683261624462 0 0.17670256027174869 -0.43608133600128551 0 0.17618275988476059 -0.44374183802639611 0 0.18208037526260021 -0.440172852945236 0 0.18989320103765239 -0.43500186253035911 0 0.18208037526260021 -0.440172852945236 0 0.18401323307134959 -0.44581129240036288 0 0.18777566972406101 -0.44981142861604279 0 0.18989320103765239 -0.43500186253035911 0 0.18401323307134959 -0.44581129240036288 0 0.17618275988476059 -0.44374183802639611 0 0.18208037526260021 -0.440172852945236 0 0.18401323307134959 -0.44581129240036288 0 0.18777566972406101 -0.44981142861604279 0 0.18401323307134959 -0.44581129240036288 0 0.18385690407389799 -0.45446609953290928 0 0.17851738694434799 -0.45081987712854771 0 0.18401323307134959 -0.44581129240036288 0 0.18385690407389799 -0.45446609953290928 0 0.19047701204926121 -0.46094242075341862 0 0.1876592352144193 -0.45673372923780892 0 0.1806900259799068 -0.46227126151247672 0 0.1876592352144193 -0.45673372923780892 0 0.18777566972406101 -0.44981142861604279 0 0.18385690407389799 -0.45446609953290928 0 0.19047701204926121 -0.46094242075341862 0 0.1806900259799068 -0.46227126151247672 0 0.17298031468751371 -0.48047121037671059 0 0.1876592352144193 -0.45673372923780892 0 0.18385690407389799 -0.45446609953290928 0 0.1806900259799068 -0.46227126151247672 0 0.18385690407389799 -0.45446609953290928 0 0.1806900259799068 -0.46227126151247672 0 0.1776998484129505 -0.456552179461992 0 0.17851738694434799 -0.45081987712854771 0 0.18385690407389799 -0.45446609953290928 0 0.1776998484129505 -0.456552179461992 0 0.1806900259799068 -0.46227126151247672 0 0.1776998484129505 -0.456552179461992 0 0.17146684144139809 -0.46446192971202138 0 0.1776998484129505 -0.456552179461992 0 0.17146684144139809 -0.46446192971202138 0 0.17120073938054131 -0.45123220200337888 0 0.17146684144139809 -0.46446192971202138 0 0.15759213853868431 -0.45113306297151079 0 0.14900727366634989 -0.46501884712825781 0 0.17146684144139809 -0.46446192971202138 0 0.15759213853868431 -0.45113306297151079 0 0.17120073938054131 -0.45123220200337888 0 0.1521605439778134 -0.43517333823265708 0 0.15759213853868431 -0.45113306297151079 0 0.16573483381671769 -0.43911683261624462 0 0.15759213853868431 -0.45113306297151079 0 0.17120073938054131 -0.45123220200337888 0 0.16573483381671769 -0.43911683261624462 0 0.17618275988476059 -0.44374183802639611 0 0.17120073938054131 -0.45123220200337888 0 0.16573483381671769 -0.43911683261624462 0 0.1521605439778134 -0.43517333823265708 0 0.15759213853868431 -0.45113306297151079 0 0.13567485458578729 -0.448289196286278 0 0.1521605439778134 -0.43517333823265708 0 0.13567485458578729 -0.448289196286278 0 0.13567485458578729 -0.448289196286278 0 0.1191891651937612 -0.46140505433989892 0 0.12203304576274319 -0.43975504748265359 0 0.12945713117598301 -0.42527718494859718 0 0.13567485458578729 -0.448289196286278 0 0.12203304576274319 -0.43975504748265359 0 0.13567485458578729 -0.448289196286278 0 0.1191891651937612 -0.46140505433989892 0 0.13567485458578729 -0.448289196286278 0 0.13480127744719991 -0.46410976413563299 0 0.1191891651937612 -0.46140505433989892 0 0.13567485458578729 -0.448289196286278 0 0.13480127744719991 -0.46410976413563299 0 0.14900727366634989 -0.46501884712825781 0 0.15759213853868431 -0.45113306297151079 0 0.13567485458578729 -0.448289196286278 0 0.14900727366634989 -0.46501884712825781 0 0.14900727366634989 -0.46501884712825781 0 0.15577652408963519 -0.48266000469618581 0 0.13873200589539489 -0.47945912496791759 0 0.13480127744719991 -0.46410976413563299 0 0.14900727366634989 -0.46501884712825781 0 0.13873200589539489 -0.47945912496791759 0 0.13480127744719991 -0.46410976413563299 0 0.13873200589539489 -0.47945912496791759 0 0.11801755443736479 -0.48060781756800708 0 0.13873200589539489 -0.47945912496791759 0 0.13581988522262109 -0.50000000000000244 0 0.11801755443736479 -0.48060781756800708 0 0.13581988522262109 -0.50000000000000244 0 0.11801755443736479 -0.48060781756800708 0 0.15577652408963519 -0.48266000469618581 0 0.13873200589539489 -0.47945912496791759 0 0.13581988522262109 -0.50000000000000244 0 0.15577652408963519 -0.48266000469618581 0 0.13581988522262109 -0.50000000000000244 0 0.15548361732576529 -0.50000000000000178 0 0.15577652408963519 -0.48266000469618581 0 0.15548361732576529 -0.50000000000000178 0 0.17298031468751371 -0.48047121037671059 0 0.15548361732576529 -0.50000000000000178 0 0.17298031468751371 -0.48047121037671059 0 0.1769424376256932 -0.5 0 0.15548361732576529 -0.50000000000000178 0 0.17298031468751371 -0.48047121037671059 0 0.17146684144139809 -0.46446192971202138 0 0.15577652408963519 -0.48266000469618581 0 0.17298031468751371 -0.48047121037671059 0 0.17146684144139809 -0.46446192971202138 0 0.14900727366634989 -0.46501884712825781 0 0.15577652408963519 -0.48266000469618581 0 0.19047701204926121 -0.46094242075341862 0 0.17298031468751371 -0.48047121037671059 0 0.1806900259799068 -0.46227126151247672 0 0.17146684144139809 -0.46446192971202138 0 0.17298031468751371 -0.48047121037671059 0 0.1955652389629654 -0.47833395417678298 0 0.19047701204926121 -0.46094242075341862 0 0.17298031468751371 -0.48047121037671059 0 0.1955652389629654 -0.47833395417678298 0 0.17298031468751371 -0.48047121037671059 0 0.1857239970351309 -0.48926605560099218 0 0.19840125792562099 -0.499999999999995 0 0.1857239970351309 -0.48926605560099218 0 0.1769424376256932 -0.5 0 0.17298031468751371 -0.48047121037671059 0 0.1857239970351309 -0.48926605560099218 0 0.1769424376256932 -0.5 0 0.074737975103940479 -0.48487994098964171 0 0.071046826552429457 -0.50000000000000733 0 0.059434139084113012 -0.47963991399004141 0 0.071046826552429457 -0.50000000000000733 0 0.059434139084113012 -0.47963991399004141 0 0.074737975103940479 -0.48487994098964171 0 0.05802097188470097 -0.46975988197928431 0 0.059434139084113012 -0.47963991399004141 0 0.074737975103940479 -0.48487994098964171 0 0.071955909258469009 -0.46877079283141743 0 0.05802097188470097 -0.46975988197928431 0 0.074737975103940479 -0.48487994098964171 0 0.071955909258469009 -0.46877079283141743 0 0.082737354296077953 -0.47427357099325013 0 0.074737975103940479 -0.48487994098964171 0 0.05802097188470097 -0.46975988197928431 0 0.074737975103940479 -0.48487994098964171 0 0.082737354296077953 -0.47427357099325013 0 0.094811061721812542 -0.48112121468145302 0 0.082737354296077953 -0.47427357099325013 0 0.094811061721812542 -0.48112121468145302 0 0.1002152236521098 -0.46121563513601083 0 0.074737975103940479 -0.48487994098964171 0 0.091454978323179614 -0.49999999999999939 0 0.094811061721812542 -0.48112121468145302 0 0.074737975103940479 -0.48487994098964171 0 0.091454978323179614 -0.49999999999999939 0 0.074737975103940479 -0.48487994098964171 0 0.071046826552429457 -0.50000000000000733 0 0.091454978323179614 -0.49999999999999939 0 0.1136374317729003 -0.5 0 0.11801755443736479 -0.48060781756800708 0 0.094811061721812542 -0.48112121468145302 0 0.091454978323179614 -0.49999999999999939 0 0.1136374317729003 -0.5 0 0.094811061721812542 -0.48112121468145302 0 0.13581988522262109 -0.50000000000000244 0 0.1136374317729003 -0.5 0 0.11801755443736479 -0.48060781756800708 0 0.11801755443736479 -0.48060781756800708 0 0.094811061721812542 -0.48112121468145302 0 0.1002152236521098 -0.46121563513601083 0 0.11801755443736479 -0.48060781756800708 0 0.1002152236521098 -0.46121563513601083 0 0.1002152236521098 -0.46121563513601083 0 0.1191891651937612 -0.46140505433989892 0 0.1082504500781146 -0.44478934181291102 0 0.11801755443736479 -0.48060781756800708 0 0.1002152236521098 -0.46121563513601083 0 0.1191891651937612 -0.46140505433989892 0 0.13480127744719991 -0.46410976413563299 0 0.11801755443736479 -0.48060781756800708 0 0.1191891651937612 -0.46140505433989892 0 0.1191891651937612 -0.46140505433989892 0 0.12203304576274319 -0.43975504748265359 0 0.1082504500781146 -0.44478934181291102 0 0.1002152236521098 -0.46121563513601083 0 0.1082504500781146 -0.44478934181291102 0 0.082412892866854714 -0.44182345270401441 0 0.1002152236521098 -0.46121563513601083 0 0.082412892866854714 -0.44182345270401441 0 0.082737354296077953 -0.47427357099325013 0 0.1002152236521098 -0.46121563513601083 0 0.07989865607697158 -0.46093656822545309 0 0.1002152236521098 -0.46121563513601083 0 0.082412892866854714 -0.44182345270401441 0 0.07989865607697158 -0.46093656822545309 0 0.071955909258469009 -0.46877079283141743 0 0.082737354296077953 -0.47427357099325013 0 0.07989865607697158 -0.46093656822545309 0 0.071955909258469009 -0.46877079283141743 0 0.07989865607697158 -0.46093656822545309 0 0.064942869781788204 -0.45298741250561531 0 0.071955909258469009 -0.46877079283141743 0 0.064942869781788204 -0.45298741250561531 0 0.05802097188470097 -0.46975988197928431 0 0.082412892866854714 -0.44182345270401441 0 0.07989865607697158 -0.46093656822545309 0 0.064942869781788204 -0.45298741250561531 0 0.082412892866854714 -0.44182345270401441 0 0.064942869781788204 -0.45298741250561531 0 0.064610562081599654 -0.42243127027201799 0 0.082412892866854714 -0.44182345270401441 0 0.064610562081599654 -0.42243127027201799 0 0.085410796704641828 -0.41553833344022301 0 0.082412892866854714 -0.44182345270401441 0 0.064610562081599654 -0.42243127027201799 0 0.064610562081599654 -0.42243127027201799 0 0.085410796704641828 -0.41553833344022301 0 0.071260751408415451 -0.40583032332525898 0 0.082412892866854714 -0.44182345270401441 0 0.085410796704641828 -0.41553833344022301 0 0.10565257718969159 -0.42402980380391259 0 0.1082504500781146 -0.44478934181291102 0 0.10565257718969159 -0.42402980380391259 0 0.1082504500781146 -0.44478934181291102 0 0.082412892866854714 -0.44182345270401441 0 0.10565257718969159 -0.42402980380391259 0 0.12203304576274319 -0.43975504748265359 0 0.1082504500781146 -0.44478934181291102 0 0.10565257718969159 -0.42402980380391259 0 0.12945713117598301 -0.42527718494859718 0 0.12203304576274319 -0.43975504748265359 0 0.10565257718969159 -0.42402980380391259 0 0.12945713117598301 -0.42527718494859718 0 0.10565257718969159 -0.42402980380391259 0 0.1185943653130178 -0.41089393958744808 0 0.10565257718969159 -0.42402980380391259 0 0.10305470430126849 -0.40327026579491432 0 0.10565257718969159 -0.42402980380391259 0 0.1185943653130178 -0.41089393958744808 0 0.10305470430126849 -0.40327026579491432 0 0.085410796704641828 -0.41553833344022301 0 0.10565257718969159 -0.42402980380391259 0 0.10305470430126849 -0.40327026579491432 0 0.10305470430126849 -0.40327026579491432 0 0.1092296532162271 -0.39195520602732847 0 0.1018679158255022 -0.38137383587803358 0 0.10305470430126849 -0.40327026579491432 0 0.1018679158255022 -0.38137383587803358 0 0.084827885114816814 -0.39510276155480978 0 0.10305470430126849 -0.40327026579491432 0 0.1018679158255022 -0.38137383587803358 0 0.1185943653130178 -0.41089393958744808 0 0.10305470430126849 -0.40327026579491432 0 0.1092296532162271 -0.39195520602732847 0 0.1185943653130178 -0.41089393958744808 0 0.1092296532162271 -0.39195520602732847 0 0.12412735500694751 -0.39493505064503392 0 0.12412735500694751 -0.39493505064503392 0 0.1208593498238435 -0.38006314209191833 0 0.1018679158255022 -0.38137383587803358 0 0.1092296532162271 -0.39195520602732847 0 0.12412735500694751 -0.39493505064503392 0 0.1018679158255022 -0.38137383587803358 0 0.12412735500694751 -0.39493505064503392 0 0.1018679158255022 -0.38137383587803358 0 0.1208593498238435 -0.38006314209191833 0 0.1018679158255022 -0.38137383587803358 0 0.12334710111447229 -0.36406834251145731 0 0.1018679158255022 -0.38137383587803358 0 0.1001863568717406 -0.38034937241650962 0 0.10879209213087419 -0.36797725762153549 0 0.1018679158255022 -0.38137383587803358 0 0.1001863568717406 -0.38034937241650962 0 0.092680417082859706 -0.38189565836938699 0 0.1018679158255022 -0.38137383587803358 0 0.1001863568717406 -0.38034937241650962 0 0.1001863568717406 -0.38034937241650962 0 0.092680417082859706 -0.38189565836938699 0 0.078941289569781151 -0.36740614783332631 0 0.1018679158255022 -0.38137383587803358 0 0.084827885114816814 -0.39510276155480978 0 0.1018679158255022 -0.38137383587803358 0 0.092680417082859706 -0.38189565836938699 0 0.084827885114816814 -0.39510276155480978 0 0.083667078469080447 -0.3817485906143725 0 0.076461538166658155 -0.38231907318138902 0 0.078941289569781151 -0.36740614783332631 0 0.092680417082859706 -0.38189565836938699 0 0.083667078469080447 -0.3817485906143725 0 0.078941289569781151 -0.36740614783332631 0 0.084827885114816814 -0.39510276155480978 0 0.073546264855348126 -0.39398280964304111 0 0.076461538166658155 -0.38231907318138902 0 0.083667078469080447 -0.3817485906143725 0 0.084827885114816814 -0.39510276155480978 0 0.076461538166658155 -0.38231907318138902 0 0.092680417082859706 -0.38189565836938699 0 0.083667078469080447 -0.3817485906143725 0 0.084827885114816814 -0.39510276155480978 0 0.085410796704641828 -0.41553833344022301 0 0.10305470430126849 -0.40327026579491432 0 0.084827885114816814 -0.39510276155480978 0 0.085410796704641828 -0.41553833344022301 0 0.084827885114816814 -0.39510276155480978 0 0.071260751408415451 -0.40583032332525898 0 0.084827885114816814 -0.39510276155480978 0 0.073546264855348126 -0.39398280964304111 0 0.071260751408415451 -0.40583032332525898 0 0.073546264855348126 -0.39398280964304111 0 0.071260751408415451 -0.40583032332525898 0 0.061634884731502082 -0.39267908051070671 0 0.076461538166658155 -0.38231907318138902 0 0.061634884731502082 -0.39267908051070671 0 0.076461538166658155 -0.38231907318138902 0 0.061634884731502082 -0.39267908051070671 0 0.061904282875925747 -0.37237526148823941 0 0.073546264855348126 -0.39398280964304111 0 0.076461538166658155 -0.38231907318138902 0 0.061634884731502082 -0.39267908051070671 0 0.051370350477500881 -0.3764161884637201 0 0.045801185216693012 -0.38580832539780119 0 0.043663507306638913 -0.36868104746756258 0 0.051370350477500881 -0.3764161884637201 0 0.061634884731502082 -0.39267908051070671 0 0.045801185216693012 -0.38580832539780119 0 0.051370350477500881 -0.3764161884637201 0 0.061634884731502082 -0.39267908051070671 0 0.061904282875925747 -0.37237526148823941 0 0.071260751408415451 -0.40583032332525898 0 0.061634884731502082 -0.39267908051070671 0 0.04680823129634433 -0.40303908784002201 0 0.061634884731502082 -0.39267908051070671 0 0.04680823129634433 -0.40303908784002201 0 0.045801185216693012 -0.38580832539780119 0 0.061634884731502082 -0.39267908051070671 0 0.04680823129634433 -0.40303908784002201 0 0.04680823129634433 -0.40303908784002201 0 0.02837172461734 -0.38295609391969199 0 0.04680823129634433 -0.40303908784002201 0 0.02837172461734 -0.38295609391969199 0 0.028215565298714249 -0.40094151263492078 0 0.045801185216693012 -0.38580832539780119 0 0.02837172461734 -0.38295609391969199 0 0.043663507306638913 -0.36868104746756258 0 0.04680823129634433 -0.40303908784002201 0 0.045801185216693012 -0.38580832539780119 0 0.02837172461734 -0.38295609391969199 0 0.02837172461734 -0.38295609391969199 0 0.0122991559467155 -0.37891225603134221 0 0.011208636448502229 -0.39508796301279092 0 -0.002178803782163227 -0.37161627006544062 0 0.0122991559467155 -0.37891225603134221 0 0.011208636448502229 -0.39508796301279092 0 -0.002178803782163227 -0.37161627006544062 0 0.011208636448502229 -0.39508796301279092 0 -0.002178803782163227 -0.37161627006544062 0 -0.0066930742226519926 -0.39143820132839208 0 0.011208636448502229 -0.39508796301279092 0 -0.001728596279610697 -0.40597762003102339 0 0.011208636448502229 -0.39508796301279092 0 0.0082246319185010179 -0.41465428951275207 0 -0.0066930742226519926 -0.39143820132839208 0 -0.001728596279610697 -0.40597762003102339 0 0.011208636448502229 -0.39508796301279092 0 0.011208636448502229 -0.39508796301279092 0 0.028215565298714249 -0.40094151263492078 0 0.024596076679173799 -0.41855965596013778 0 0.02837172461734 -0.38295609391969199 0 0.011208636448502229 -0.39508796301279092 0 0.028215565298714249 -0.40094151263492078 0 0.011208636448502229 -0.39508796301279092 0 0.024596076679173799 -0.41855965596013778 0 0.011208636448502229 -0.39508796301279092 0 0.024596076679173799 -0.41855965596013778 0 0.0082246319185010179 -0.41465428951275207 0 0.024596076679173799 -0.41855965596013778 0 0.0082246319185010179 -0.41465428951275207 0 0.01039378864355619 -0.42848339288335913 0 -0.009537301248459449 -0.42510302968362512 0 0.0082246319185010179 -0.41465428951275207 0 0.01039378864355619 -0.42848339288335913 0 0.024596076679173799 -0.41855965596013778 0 0.036208764147486278 -0.43891974197010591 0 0.024596076679173799 -0.41855965596013778 0 0.036208764147486278 -0.43891974197010591 0 0.020713539006084219 -0.44010250100644183 0 0.024596076679173799 -0.41855965596013778 0 0.01039378864355619 -0.42848339288335913 0 0.020713539006084219 -0.44010250100644183 0 0.024596076679173799 -0.41855965596013778 0 0.01039378864355619 -0.42848339288335913 0 0.024596076679173799 -0.41855965596013778 0 0.043950702345966319 -0.42295947833088071 0 0.036208764147486278 -0.43891974197010591 0 0.043950702345966319 -0.42295947833088071 0 0.051347790295756007 -0.43901682978775403 0 0.036208764147486278 -0.43891974197010591 0 0.04680823129634433 -0.40303908784002201 0 0.024596076679173799 -0.41855965596013778 0 0.04680823129634433 -0.40303908784002201 0 0.028215565298714249 -0.40094151263492078 0 0.024596076679173799 -0.41855965596013778 0 0.04680823129634433 -0.40303908784002201 0 0.024596076679173799 -0.41855965596013778 0 0.043950702345966319 -0.42295947833088071 0 0.064610562081599654 -0.42243127027201799 0 0.071260751408415451 -0.40583032332525898 0 0.04680823129634433 -0.40303908784002201 0 0.064610562081599654 -0.42243127027201799 0 0.04680823129634433 -0.40303908784002201 0 0.064610562081599654 -0.42243127027201799 0 0.04680823129634433 -0.40303908784002201 0 0.043950702345966319 -0.42295947833088071 0 0.064610562081599654 -0.42243127027201799 0 0.043950702345966319 -0.42295947833088071 0 0.051347790295756007 -0.43901682978775403 0 0.064942869781788204 -0.45298741250561531 0 0.064610562081599654 -0.42243127027201799 0 0.051347790295756007 -0.43901682978775403 0 0.064942869781788204 -0.45298741250561531 0 0.051347790295756007 -0.43901682978775403 0 0.047821451615799627 -0.45927982798007361 0 0.064942869781788204 -0.45298741250561531 0 0.047821451615799627 -0.45927982798007361 0 0.05802097188470097 -0.46975988197928431 0 0.047821451615799627 -0.45927982798007361 0 0.023714967739582489 -0.4565662814222432 0 0.032020960621095843 -0.47777188036233098 0 0.047821451615799627 -0.45927982798007361 0 0.036208764147486278 -0.43891974197010591 0 0.051347790295756007 -0.43901682978775403 0 0.047821451615799627 -0.45927982798007361 0 0.036208764147486278 -0.43891974197010591 0 0.047821451615799627 -0.45927982798007361 0 0.036208764147486278 -0.43891974197010591 0 0.023714967739582489 -0.4565662814222432 0 0.036208764147486278 -0.43891974197010591 0 0.020713539006084219 -0.44010250100644183 0 0.023714967739582489 -0.4565662814222432 0 -0.0013374034004768371 -0.44947558896604423 0 0.01039378864355619 -0.42848339288335913 0 0.020713539006084219 -0.44010250100644183 0 -0.0013374034004768371 -0.44947558896604423 0 0.020713539006084219 -0.44010250100644183 0 0.023714967739582489 -0.4565662814222432 0 -0.0013374034004768371 -0.44947558896604423 0 0.0068624944475057766 -0.47384814824846327 0 -0.0013374034004768371 -0.44947558896604423 0 0.023714967739582489 -0.4565662814222432 0 0.0068624944475057766 -0.47384814824846327 0 0.023714967739582489 -0.4565662814222432 0 0.0068624944475057766 -0.47384814824846327 0 0.032020960621095843 -0.47777188036233098 0 0.0068624944475057766 -0.47384814824846327 0 0.0150623922954884 -0.49822070753088238 0 0.032020960621095843 -0.47777188036233098 0 -0.015217900669161011 -0.5 0 0.0024053695883212941 -0.48891336768777249 0 0.013537008404702511 -0.5 0 0.0068624944475057766 -0.47384814824846327 0 0.0024053695883212941 -0.48891336768777249 0 0.0150623922954884 -0.49822070753088238 0 0.0068624944475057766 -0.47384814824846327 0 0.0150623922954884 -0.49822070753088238 0 0.0024053695883212941 -0.48891336768777249 0 0.0150623922954884 -0.49822070753088238 0 0.013537008404702511 -0.5 0 0.0150623922954884 -0.49822070753088238 0 0.013537008404702511 -0.5 0 0.042291917478565873 -0.5 0 0.0150623922954884 -0.49822070753088238 0 0.042291917478565873 -0.5 0 0.032020960621095843 -0.47777188036233098 0 0.042291917478565873 -0.5 0 0.032020960621095843 -0.47777188036233098 0 0.059434139084113012 -0.47963991399004141 0 0.047821451615799627 -0.45927982798007361 0 0.032020960621095843 -0.47777188036233098 0 0.059434139084113012 -0.47963991399004141 0 0.047821451615799627 -0.45927982798007361 0 0.05802097188470097 -0.46975988197928431 0 0.059434139084113012 -0.47963991399004141 0 0.047821451615799627 -0.45927982798007361 0 0.059434139084113012 -0.47963991399004141 0 0.071046826552429457 -0.50000000000000733 0 0.042291917478565873 -0.5 0 0.059434139084113012 -0.47963991399004141 0 0.078456545354339768 -0.28525100698693651 0 0.075192778843485145 -0.3004755496101415 0 0.095899689397586599 -0.3008291305439913 0 0.078456545354339768 -0.28525100698693651 0 0.095711127176573443 -0.2751242682777974 0 0.095899689397586599 -0.3008291305439913 0 0.075192778843485145 -0.3004755496101415 0 0.095899689397586599 -0.3008291305439913 0 0.074188022781041252 -0.31649930169162399 0 0.095899689397586599 -0.3008291305439913 0 0.074188022781041252 -0.31649930169162399 0 0.075192778843485145 -0.3004755496101415 0 0.074188022781041252 -0.31649930169162399 0 0.058270312985904418 -0.30816514798469019 0 0.075192778843485145 -0.3004755496101415 0 0.068995976747761104 -0.2945131319279734 0 0.058270312985904418 -0.30816514798469019 0 0.068995976747761104 -0.2945131319279734 0 0.064064269807315097 -0.28416082313012542 0 0.058270312985904418 -0.30816514798469019 0 0.078456545354339768 -0.28525100698693651 0 0.075192778843485145 -0.3004755496101415 0 0.068995976747761104 -0.2945131319279734 0 0.078456545354339768 -0.28525100698693651 0 0.068995976747761104 -0.2945131319279734 0 0.064064269807315097 -0.28416082313012542 0 0.064064269807315097 -0.28416082313012542 0 0.069858226628725775 -0.26015649827556059 0 0.078456545354339768 -0.28525100698693651 0 0.064064269807315097 -0.28416082313012542 0 0.069858226628725775 -0.26015649827556059 0 0.069858226628725775 -0.26015649827556059 0 0.095711127176573443 -0.2751242682777974 0 0.096521476943682558 -0.25181800011133371 0 0.078456545354339768 -0.28525100698693651 0 0.069858226628725775 -0.26015649827556059 0 0.095711127176573443 -0.2751242682777974 0 0.095711127176573443 -0.2751242682777974 0 0.114720785939063 -0.26575264298982931 0 0.1176113560141319 -0.2851589593963586 0 0.095711127176573443 -0.2751242682777974 0 0.096521476943682558 -0.25181800011133371 0 0.114720785939063 -0.26575264298982931 0 0.1376178273856396 -0.2676878026278281 0 0.114720785939063 -0.26575264298982931 0 0.1200034520355143 -0.24749468667538321 0 0.096521476943682558 -0.25181800011133371 0 0.114720785939063 -0.26575264298982931 0 0.1200034520355143 -0.24749468667538321 0 0.1376178273856396 -0.2676878026278281 0 0.114720785939063 -0.26575264298982931 0 0.1176113560141319 -0.2851589593963586 0 0.13584279120622419 -0.29064916595208462 0 0.1176113560141319 -0.2851589593963586 0 0.1212075847983899 -0.30357596212866123 0 0.1176113560141319 -0.2851589593963586 0 0.095899689397586599 -0.3008291305439913 0 0.1212075847983899 -0.30357596212866123 0 0.1176113560141319 -0.2851589593963586 0 0.095899689397586599 -0.3008291305439913 0 0.095711127176573443 -0.2751242682777974 0 0.1176113560141319 -0.2851589593963586 0 0.095899689397586599 -0.3008291305439913 0 0.095899689397586599 -0.3008291305439913 0 0.1212075847983899 -0.30357596212866123 0 0.1047724191350739 -0.31963875894108951 0 0.1212075847983899 -0.30357596212866123 0 0.1249111379911398 -0.32186001205002218 0 0.1047724191350739 -0.31963875894108951 0 0.1249111379911398 -0.32186001205002218 0 0.1047724191350739 -0.31963875894108951 0 0.11573058637367541 -0.34380091622275832 0 0.094619564876377599 -0.33586527524184762 0 0.1047724191350739 -0.31963875894108951 0 0.11573058637367541 -0.34380091622275832 0 0.094619564876377599 -0.33586527524184762 0 0.1047724191350739 -0.31963875894108951 0 0.086339338786571823 -0.32698567366184278 0 0.095899689397586599 -0.3008291305439913 0 0.1047724191350739 -0.31963875894108951 0 0.086339338786571823 -0.32698567366184278 0 0.1018679158255022 -0.38137383587803358 0 0.12334710111447229 -0.36406834251145731 0 0.1018679158255022 -0.38137383587803358 0 0.12334710111447229 -0.36406834251145731 0 0.10879209213087419 -0.36797725762153549 0 0.12334710111447229 -0.36406834251145731 0 0.11573058637367541 -0.34380091622275832 0 0.10879209213087419 -0.36797725762153549 0 0.11573058637367541 -0.34380091622275832 0 0.097402960874061584 -0.35810732382917831 0 0.10879209213087419 -0.36797725762153549 0 0.094619564876377599 -0.33586527524184762 0 0.11573058637367541 -0.34380091622275832 0 0.097402960874061584 -0.35810732382917831 0 0.094619564876377599 -0.33586527524184762 0 0.097402960874061584 -0.35810732382917831 0 0.1001863568717406 -0.38034937241650962 0 0.097402960874061584 -0.35810732382917831 0 0.1001863568717406 -0.38034937241650962 0 0.097402960874061584 -0.35810732382917831 0 0.10879209213087419 -0.36797725762153549 0 0.1001863568717406 -0.38034937241650962 0 0.097402960874061584 -0.35810732382917831 0 0.078941289569781151 -0.36740614783332631 0 0.1001863568717406 -0.38034937241650962 0 0.078941289569781151 -0.36740614783332631 0 0.094619564876377599 -0.33586527524184762 0 0.097402960874061584 -0.35810732382917831 0 0.084740357312199394 -0.34701535865000288 0 0.078941289569781151 -0.36740614783332631 0 0.084740357312199394 -0.34701535865000288 0 0.072564810466095128 -0.35396504242622201 0 0.097402960874061584 -0.35810732382917831 0 0.078941289569781151 -0.36740614783332631 0 0.084740357312199394 -0.34701535865000288 0 0.078941289569781151 -0.36740614783332631 0 0.072564810466095128 -0.35396504242622201 0 0.057696222267823373 -0.35446292325014028 0 0.084740357312199394 -0.34701535865000288 0 0.072564810466095128 -0.35396504242622201 0 0.073102422775426085 -0.33909783780230318 0 0.064643683218506637 -0.34920539315333932 0 0.072564810466095128 -0.35396504242622201 0 0.073102422775426085 -0.33909783780230318 0 0.064643683218506637 -0.34920539315333932 0 0.072564810466095128 -0.35396504242622201 0 0.057696222267823373 -0.35446292325014028 0 0.078941289569781151 -0.36740614783332631 0 0.057696222267823373 -0.35446292325014028 0 0.076461538166658155 -0.38231907318138902 0 0.078941289569781151 -0.36740614783332631 0 0.061904282875925747 -0.37237526148823941 0 0.078941289569781151 -0.36740614783332631 0 0.061904282875925747 -0.37237526148823941 0 0.057696222267823373 -0.35446292325014028 0 0.095899689397586599 -0.3008291305439913 0 0.086339338786571823 -0.32698567366184278 0 0.074188022781041252 -0.31649930169162399 0 0.094619564876377599 -0.33586527524184762 0 0.084740357312199394 -0.34701535865000288 0 0.086339338786571823 -0.32698567366184278 0 0.084740357312199394 -0.34701535865000288 0 0.086339338786571823 -0.32698567366184278 0 0.073102422775426085 -0.33909783780230318 0 0.073102422775426085 -0.33909783780230318 0 0.074188022781041252 -0.31649930169162399 0 0.052476356164494947 -0.33216947283925541 0 0.064643683218506637 -0.34920539315333932 0 0.073102422775426085 -0.33909783780230318 0 0.060945063747813971 -0.34285112352430303 0 0.074188022781041252 -0.31649930169162399 0 0.052476356164494947 -0.33216947283925541 0 0.086339338786571823 -0.32698567366184278 0 0.073102422775426085 -0.33909783780230318 0 0.074188022781041252 -0.31649930169162399 0 0.052476356164494947 -0.33216947283925541 0 0.058270312985904418 -0.30816514798469019 0 0.052476356164494947 -0.33216947283925541 0 0.044648526871603783 -0.31770081170742831 0 0.058270312985904418 -0.30816514798469019 0 0.074188022781041252 -0.31649930169162399 0 0.052476356164494947 -0.33216947283925541 0 0.058270312985904418 -0.30816514798469019 0 0.052476356164494947 -0.33216947283925541 0 0.047583047975914103 -0.35244241635483559 0 0.073102422775426085 -0.33909783780230318 0 0.060945063747813971 -0.34285112352430303 0 0.052476356164494947 -0.33216947283925541 0 0.060945063747813971 -0.34285112352430303 0 0.052476356164494947 -0.33216947283925541 0 0.054181307711507642 -0.34983992205818981 0 0.052476356164494947 -0.33216947283925541 0 0.04071506683574927 -0.34065806194451792 0 0.047583047975914103 -0.35244241635483559 0 0.052476356164494947 -0.33216947283925541 0 0.04071506683574927 -0.34065806194451792 0 0.044648526871603783 -0.31770081170742831 0 0.04071506683574927 -0.34065806194451792 0 0.03015636661650286 -0.3225410253719756 0 0.04071506683574927 -0.34065806194451792 0 0.03015636661650286 -0.3225410253719756 0 0.02636863849756152 -0.33688388254537838 0 0.052476356164494947 -0.33216947283925541 0 0.04071506683574927 -0.34065806194451792 0 0.04071506683574927 -0.34065806194451792 0 0.044648526871603783 -0.31770081170742831 0 0.03015636661650286 -0.3225410253719756 0 0.044648526871603783 -0.31770081170742831 0 0.03015636661650286 -0.3225410253719756 0 0.034491627806478041 -0.30853974567073322 0 0.061904282875925747 -0.37237526148823941 0 0.053259535722039633 -0.3641180164926533 0 0.057696222267823373 -0.35446292325014028 0 0.051370350477500881 -0.3764161884637201 0 0.053259535722039633 -0.3641180164926533 0 0.043663507306638913 -0.36868104746756258 0 0.051370350477500881 -0.3764161884637201 0 0.061904282875925747 -0.37237526148823941 0 0.053259535722039633 -0.3641180164926533 0 0.053259535722039633 -0.3641180164926533 0 0.048773826387857627 -0.3544856011778737 0 0.043663507306638913 -0.36868104746756258 0 0.052476356164494947 -0.33216947283925541 0 0.047583047975914103 -0.35244241635483559 0 0.054181307711507642 -0.34983992205818981 0 0.053259535722039633 -0.3641180164926533 0 0.053244657324237762 -0.3582642649149802 0 0.048773826387857627 -0.3544856011778737 0 0.053244657324237762 -0.3582642649149802 0 0.048773826387857627 -0.3544856011778737 0 0.054181307711507642 -0.34983992205818981 0 0.048773826387857627 -0.3544856011778737 0 0.047583047975914103 -0.35244241635483559 0 0.054181307711507642 -0.34983992205818981 0 0.048773826387857627 -0.3544856011778737 0 0.047583047975914103 -0.35244241635483559 0 0.053259535722039633 -0.3641180164926533 0 0.053244657324237762 -0.3582642649149802 0 0.057696222267823373 -0.35446292325014028 0 0.053244657324237762 -0.3582642649149802 0 0.057696222267823373 -0.35446292325014028 0 0.054181307711507642 -0.34983992205818981 0 0.064643683218506637 -0.34920539315333932 0 0.057696222267823373 -0.35446292325014028 0 0.054181307711507642 -0.34983992205818981 0 0.064643683218506637 -0.34920539315333932 0 0.060945063747813971 -0.34285112352430303 0 0.054181307711507642 -0.34983992205818981 0 0.048773826387857627 -0.3544856011778737 0 0.047583047975914103 -0.35244241635483559 0 0.043663507306638913 -0.36868104746756258 0 0.04071506683574927 -0.34065806194451792 0 0.047583047975914103 -0.35244241635483559 0 0.04071506683574927 -0.34065806194451792 0 0.047583047975914103 -0.35244241635483559 0 0.03985573710467899 -0.35136837444597901 0 0.04071506683574927 -0.34065806194451792 0 0.03985573710467899 -0.35136837444597901 0 0.03205896378917665 -0.35434441690964041 0 0.04071506683574927 -0.34065806194451792 0 0.03205896378917665 -0.35434441690964041 0 0.025431496553892478 -0.35168882095041942 0 0.04071506683574927 -0.34065806194451792 0 0.025431496553892478 -0.35168882095041942 0 0.03985573710467899 -0.35136837444597901 0 0.03205896378917665 -0.35434441690964041 0 0.039065869817875902 -0.35802860257492208 0 0.047583047975914103 -0.35244241635483559 0 0.03985573710467899 -0.35136837444597901 0 0.039065869817875902 -0.35802860257492208 0 0.02837172461734 -0.38295609391969199 0 0.033371525452051833 -0.36592480980272157 0 0.043663507306638913 -0.36868104746756258 0 0.047583047975914103 -0.35244241635483559 0 0.039065869817875902 -0.35802860257492208 0 0.043663507306638913 -0.36868104746756258 0 0.047583047975914103 -0.35244241635483559 0 0.043663507306638913 -0.36868104746756258 0 0.039065869817875902 -0.35802860257492208 0 0.033371525452051833 -0.36592480980272157 0 0.043663507306638913 -0.36868104746756258 0 0.03205896378917665 -0.35434441690964041 0 0.039065869817875902 -0.35802860257492208 0 0.033371525452051833 -0.36592480980272157 0 0.02837172461734 -0.38295609391969199 0 0.0099352179383349771 -0.36287309999936251 0 0.02837172461734 -0.38295609391969199 0 0.023697561729227701 -0.3656138881417908 0 0.0099352179383349771 -0.36287309999936251 0 0.02837172461734 -0.38295609391969199 0 0.033371525452051833 -0.36592480980272157 0 0.023697561729227701 -0.3656138881417908 0 0.02837172461734 -0.38295609391969199 0 0.0122991559467155 -0.37891225603134221 0 0.0099352179383349771 -0.36287309999936251 0 0.03205896378917665 -0.35434441690964041 0 0.033371525452051833 -0.36592480980272157 0 0.023697561729227701 -0.3656138881417908 0 0.023697561729227701 -0.3656138881417908 0 0.025431496553892478 -0.35168882095041942 0 0.0099352179383349771 -0.36287309999936251 0 0.025431496553892478 -0.35168882095041942 0 0.0075807645751098419 -0.34453611388615663 0 0.025431496553892478 -0.35168882095041942 0 0.0075807645751098419 -0.34453611388615663 0 0.02636863849756152 -0.33688388254537838 0 0.025431496553892478 -0.35168882095041942 0 0.0099352179383349771 -0.36287309999936251 0 0.03205896378917665 -0.35434441690964041 0 0.023697561729227701 -0.3656138881417908 0 0.025431496553892478 -0.35168882095041942 0 0.03205896378917665 -0.35434441690964041 0 0.025431496553892478 -0.35168882095041942 0 -0.0096343958099064687 -0.34155580596031437 0 0.0099352179383349771 -0.36287309999936251 0 -0.0096343958099064687 -0.34155580596031437 0 0.0075807645751098419 -0.34453611388615663 0 0.0099352179383349771 -0.36287309999936251 0 0.025431496553892478 -0.35168882095041942 0 0.0075807645751098419 -0.34453611388615663 0 0.0099352179383349771 -0.36287309999936251 0 -0.002178803782163227 -0.37161627006544062 0 0.0122991559467155 -0.37891225603134221 0 0.0099352179383349771 -0.36287309999936251 0 -0.0070150904897389628 -0.35875101633193152 0 -0.002178803782163227 -0.37161627006544062 0 0.0099352179383349771 -0.36287309999936251 0 -0.002178803782163227 -0.37161627006544062 0 0.0099352179383349771 -0.36287309999936251 0 0.03015636661650286 -0.3225410253719756 0 0.019597666397256509 -0.30442398879943339 0 0.03015636661650286 -0.3225410253719756 0 0.014793392922354411 -0.31628120652474823 0 0.019597666397256509 -0.30442398879943339 0 0.03015636661650286 -0.3225410253719756 0 0.01453256369494863 -0.32953892791496292 0 0.014793392922354411 -0.31628120652474823 0 0.03015636661650286 -0.3225410253719756 0 0.02636863849756152 -0.33688388254537838 0 0.01453256369494863 -0.32953892791496292 0 0.0075807645751098419 -0.34453611388615663 0 0.02636863849756152 -0.33688388254537838 0 0.01453256369494863 -0.32953892791496292 0 0.04071506683574927 -0.34065806194451792 0 0.025431496553892478 -0.35168882095041942 0 0.02636863849756152 -0.33688388254537838 0 0.0075807645751098419 -0.34453611388615663 0 0.01453256369494863 -0.32953892791496292 0 0.0034794820758208261 -0.33361449123698089 0 -0.010269967403673339 -0.33738340682189533 0 0.0075807645751098419 -0.34453611388615663 0 0.0034794820758208261 -0.33361449123698089 0 0.01453256369494863 -0.32953892791496292 0 0.0034794820758208261 -0.33361449123698089 0 0.001904989571353899 -0.32214434476741449 0 0.001904989571353899 -0.32214434476741449 0 0.014793392922354411 -0.31628120652474823 0 0.0019518825097332619 -0.30029273945570772 0 0.01453256369494863 -0.32953892791496292 0 0.001904989571353899 -0.32214434476741449 0 0.014793392922354411 -0.31628120652474823 0 0.0019518825097332619 -0.30029273945570772 0 0.0090389661780101715 -0.28630695222689118 0 0.019597666397256509 -0.30442398879943339 0 0.014793392922354411 -0.31628120652474823 0 0.0019518825097332619 -0.30029273945570772 0 0.019597666397256509 -0.30442398879943339 0 -0.0020851015340006161 -0.28052611142458661 0 0.0019518825097332619 -0.30029273945570772 0 0.0090389661780101715 -0.28630695222689118 0 0.0090389661780101715 -0.28630695222689118 0 0.019597666397256509 -0.30442398879943339 0 0.0090389661780101715 -0.28630695222689118 0 0.019597666397256509 -0.30442398879943339 0 0.033821918158706138 -0.27707393290215671 0 0.03015636661650286 -0.3225410253719756 0 0.019597666397256509 -0.30442398879943339 0 0.034491627806478041 -0.30853974567073322 0 0.019597666397256509 -0.30442398879943339 0 0.034491627806478041 -0.30853974567073322 0 0.043330632548044458 -0.29475484461045087 0 0.044648526871603783 -0.31770081170742831 0 0.034491627806478041 -0.30853974567073322 0 0.043330632548044458 -0.29475484461045087 0 0.019597666397256509 -0.30442398879943339 0 0.043330632548044458 -0.29475484461045087 0 0.033821918158706138 -0.27707393290215671 0 0.043330632548044458 -0.29475484461045087 0 0.062049371387241412 -0.28749956346879602 0 0.033821918158706138 -0.27707393290215671 0 0.064064269807315097 -0.28416082313012542 0 0.058270312985904418 -0.30816514798469019 0 0.062049371387241412 -0.28749956346879602 0 0.033821918158706138 -0.27707393290215671 0 0.064064269807315097 -0.28416082313012542 0 0.062049371387241412 -0.28749956346879602 0 0.058270312985904418 -0.30816514798469019 0 0.043330632548044458 -0.29475484461045087 0 0.062049371387241412 -0.28749956346879602 0 0.058270312985904418 -0.30816514798469019 0 0.044648526871603783 -0.31770081170742831 0 0.043330632548044458 -0.29475484461045087 0 0.058270312985904418 -0.30816514798469019 0 0.069858226628725775 -0.26015649827556059 0 0.051624075113339378 -0.26919050519125598 0 0.046498349670861652 -0.24826912251879649 0 0.064064269807315097 -0.28416082313012542 0 0.069858226628725775 -0.26015649827556059 0 0.051624075113339378 -0.26919050519125598 0 0.062049371387241412 -0.28749956346879602 0 0.051624075113339378 -0.26919050519125598 0 0.033821918158706138 -0.27707393290215671 0 0.064064269807315097 -0.28416082313012542 0 0.062049371387241412 -0.28749956346879602 0 0.051624075113339378 -0.26919050519125598 0 0.051624075113339378 -0.26919050519125598 0 0.033821918158706138 -0.27707393290215671 0 0.034240698289148337 -0.25967273023798509 0 0.051624075113339378 -0.26919050519125598 0 0.034240698289148337 -0.25967273023798509 0 0.046498349670861652 -0.24826912251879649 0 0.034240698289148337 -0.25967273023798509 0 0.02296875629887114 -0.2464092256209898 0 0.046498349670861652 -0.24826912251879649 0 0.034240698289148337 -0.25967273023798509 0 0.0055944649301708496 -0.26664830233551728 0 0.02296875629887114 -0.2464092256209898 0 0.0090389661780101715 -0.28630695222689118 0 0.033821918158706138 -0.27707393290215671 0 0.0055944649301708496 -0.26664830233551728 0 0.033821918158706138 -0.27707393290215671 0 0.034240698289148337 -0.25967273023798509 0 0.0055944649301708496 -0.26664830233551728 0 0.033821918158706138 -0.27707393290215671 0 0.0055944649301708496 -0.26664830233551728 0 -0.0020851015340006161 -0.28052611142458661 0 0.0090389661780101715 -0.28630695222689118 0 0.0055944649301708496 -0.26664830233551728 0 0.0055944649301708496 -0.26664830233551728 0 0.0055632338660241776 -0.24332209518663511 0 0.02296875629887114 -0.2464092256209898 0 -0.0080727856436109482 -0.2481099565327444 0 0.0055944649301708496 -0.26664830233551728 0 0.0055632338660241776 -0.24332209518663511 0 0.0055632338660241776 -0.24332209518663511 0 0.0032521440618358652 -0.23009641691855939 0 0.019268989126464159 -0.2308348024940351 0 -0.0084819670471955304 -0.2367225590632196 0 0.0055632338660241776 -0.24332209518663511 0 0.0032521440618358652 -0.23009641691855939 0 -0.0075276580997289226 -0.21896018305478171 0 0.0032521440618358652 -0.23009641691855939 0 0.012041166441398349 -0.21677938876306921 0 0.0032521440618358652 -0.23009641691855939 0 0.019268989126464159 -0.2308348024940351 0 0.012041166441398349 -0.21677938876306921 0 0.019268989126464159 -0.2308348024940351 0 0.028464877365028059 -0.21915571909051779 0 0.012041166441398349 -0.21677938876306921 0 0.019268989126464159 -0.2308348024940351 0 0.028464877365028059 -0.21915571909051779 0 0.041174919052571327 -0.22964645066930789 0 0.0055632338660241776 -0.24332209518663511 0 0.019268989126464159 -0.2308348024940351 0 0.02296875629887114 -0.2464092256209898 0 0.019268989126464159 -0.2308348024940351 0 0.02296875629887114 -0.2464092256209898 0 0.041174919052571327 -0.22964645066930789 0 -0.0075276580997289226 -0.21896018305478171 0 0.003555539334036632 -0.19934620758084881 0 0.012041166441398349 -0.21677938876306921 0 0.003555539334036632 -0.19934620758084881 0 0.012041166441398349 -0.21677938876306921 0 0.02523310686075431 -0.20228300343967229 0 0.028464877365028059 -0.21915571909051779 0 0.012041166441398349 -0.21677938876306921 0 0.02523310686075431 -0.20228300343967229 0 0.02523310686075431 -0.20228300343967229 0 0.033125333554059701 -0.1865598477748947 0 0.018588522793563201 -0.18166153924030251 0 0.003555539334036632 -0.19934620758084881 0 0.02523310686075431 -0.20228300343967229 0 0.018588522793563201 -0.18166153924030251 0 0.048648578511840943 -0.20623258170594561 0 0.049880579816306267 -0.17970719815632741 0 0.033125333554059701 -0.1865598477748947 0 0.02523310686075431 -0.20228300343967229 0 0.048648578511840943 -0.20623258170594561 0 0.033125333554059701 -0.1865598477748947 0 0.028464877365028059 -0.21915571909051779 0 0.02523310686075431 -0.20228300343967229 0 0.048648578511840943 -0.20623258170594561 0 0.028464877365028059 -0.21915571909051779 0 0.048648578511840943 -0.20623258170594561 0 0.041174919052571327 -0.22964645066930789 0 0.048648578511840943 -0.20623258170594561 0 0.059757914812518881 -0.22869522271940709 0 0.066598585428591164 -0.21133354617687591 0 0.048648578511840943 -0.20623258170594561 0 0.067160325985138131 -0.18691533881804831 0 0.049880579816306267 -0.17970719815632741 0 0.048648578511840943 -0.20623258170594561 0 0.066598585428591164 -0.21133354617687591 0 0.067160325985138131 -0.18691533881804831 0 0.069858226628725775 -0.26015649827556059 0 0.046498349670861652 -0.24826912251879649 0 0.059757914812518881 -0.22869522271940709 0 0.02296875629887114 -0.2464092256209898 0 0.046498349670861652 -0.24826912251879649 0 0.041174919052571327 -0.22964645066930789 0 0.048648578511840943 -0.20623258170594561 0 0.041174919052571327 -0.22964645066930789 0 0.059757914812518881 -0.22869522271940709 0 0.046498349670861652 -0.24826912251879649 0 0.041174919052571327 -0.22964645066930789 0 0.059757914812518881 -0.22869522271940709 0 0.069858226628725775 -0.26015649827556059 0 0.059757914812518881 -0.22869522271940709 0 0.080941623453078815 -0.2334444244951252 0 0.069858226628725775 -0.26015649827556059 0 0.096521476943682558 -0.25181800011133371 0 0.080941623453078815 -0.2334444244951252 0 0.096521476943682558 -0.25181800011133371 0 0.080941623453078815 -0.2334444244951252 0 0.102389076685389 -0.22730157072293841 0 0.080941623453078815 -0.2334444244951252 0 0.084774701335263575 -0.20710845477049339 0 0.102389076685389 -0.22730157072293841 0 0.059757914812518881 -0.22869522271940709 0 0.080941623453078815 -0.2334444244951252 0 0.066598585428591164 -0.21133354617687591 0 0.080941623453078815 -0.2334444244951252 0 0.066598585428591164 -0.21133354617687591 0 0.084774701335263575 -0.20710845477049339 0 0.084774701335263575 -0.20710845477049339 0 0.067160325985138131 -0.18691533881804831 0 0.066598585428591164 -0.21133354617687591 0 0.084774701335263575 -0.20710845477049339 0 0.067160325985138131 -0.18691533881804831 0 0.092537347032927528 -0.18889969997864839 0 0.084774701335263575 -0.20710845477049339 0 0.067160325985138131 -0.18691533881804831 0 0.084774701335263575 -0.20710845477049339 0 0.102389076685389 -0.22730157072293841 0 0.084774701335263575 -0.20710845477049339 0 0.10575093398731179 -0.20517541990618701 0 0.102389076685389 -0.22730157072293841 0 0.092537347032927528 -0.18889969997864839 0 0.10575093398731179 -0.20517541990618701 0 0.11404320040195411 -0.17785048998131209 0 0.092537347032927528 -0.18889969997864839 0 0.084774701335263575 -0.20710845477049339 0 0.10575093398731179 -0.20517541990618701 0 0.10575093398731179 -0.20517541990618701 0 0.11404320040195411 -0.17785048998131209 0 0.12592289232087811 -0.19910656028939411 0 0.10575093398731179 -0.20517541990618701 0 0.1284413173888232 -0.22347585252773641 0 0.12592289232087811 -0.19910656028939411 0 0.10575093398731179 -0.20517541990618701 0 0.102389076685389 -0.22730157072293841 0 0.1284413173888232 -0.22347585252773641 0 0.1200034520355143 -0.24749468667538321 0 0.102389076685389 -0.22730157072293841 0 0.1284413173888232 -0.22347585252773641 0 0.1200034520355143 -0.24749468667538321 0 0.102389076685389 -0.22730157072293841 0 0.096521476943682558 -0.25181800011133371 0 0.1200034520355143 -0.24749468667538321 0 0.102389076685389 -0.22730157072293841 0 0.099885875260422058 -0.15149088269105351 0 0.1161887790728692 -0.1476769396888597 0 0.1105045846919957 -0.16013033574144619 0 0.099885875260422058 -0.15149088269105351 0 0.099597293261818404 -0.1347502866929414 0 0.1161887790728692 -0.1476769396888597 0 0.099597293261818404 -0.1347502866929414 0 0.1161887790728692 -0.1476769396888597 0 0.099597293261818404 -0.1347502866929414 0 0.1047785765018954 -0.13712350701568179 0 0.1161887790728692 -0.1476769396888597 0 0.099597293261818404 -0.1347502866929414 0 0.093527805260815264 -0.13002146576964491 0 0.104312872852085 -0.12243825994362539 0 0.099597293261818404 -0.1347502866929414 0 0.093527805260815264 -0.13002146576964491 0 0.099597293261818404 -0.1347502866929414 0 0.093527805260815264 -0.13002146576964491 0 0.092996203934319052 -0.1329056080468716 0 0.099597293261818404 -0.1347502866929414 0 0.1088944047617572 -0.13480079442927331 0 0.104312872852085 -0.12243825994362539 0 0.099597293261818404 -0.1347502866929414 0 0.1047785765018954 -0.13712350701568179 0 0.1088944047617572 -0.13480079442927331 0 0.099597293261818404 -0.1347502866929414 0 0.1088944047617572 -0.13480079442927331 0 0.1047785765018954 -0.13712350701568179 0 0.1088944047617572 -0.13480079442927331 0 0.1088944047617572 -0.13480079442927331 0 0.1161887790728692 -0.1476769396888597 0 0.13638976604354719 -0.13495016646355951 0 0.1088944047617572 -0.13480079442927331 0 0.12800820934211829 -0.12401417466047961 0 0.13638976604354719 -0.13495016646355951 0 0.1047785765018954 -0.13712350701568179 0 0.1088944047617572 -0.13480079442927331 0 0.1161887790728692 -0.1476769396888597 0 0.1088944047617572 -0.13480079442927331 0 0.104312872852085 -0.12243825994362539 0 0.12800820934211829 -0.12401417466047961 0 0.1088944047617572 -0.13480079442927331 0 0.12800820934211829 -0.12401417466047961 0 0.1088944047617572 -0.13480079442927331 0 0.13638976604354719 -0.13495016646355951 0 0.1161887790728692 -0.1476769396888597 0 0.1105045846919957 -0.16013033574144619 0 0.1305387904294309 -0.15561497697083931 0 0.1105045846919957 -0.16013033574144619 0 0.11404320040195411 -0.17785048998131209 0 0.1305387904294309 -0.15561497697083931 0 0.092537347032927528 -0.18889969997864839 0 0.11404320040195411 -0.17785048998131209 0 0.090957573454969964 -0.1674487964172009 0 0.1105045846919957 -0.16013033574144619 0 0.11404320040195411 -0.17785048998131209 0 0.090957573454969964 -0.1674487964172009 0 0.099885875260422058 -0.15149088269105351 0 0.1105045846919957 -0.16013033574144619 0 0.090957573454969964 -0.1674487964172009 0 0.099885875260422058 -0.15149088269105351 0 0.090957573454969964 -0.1674487964172009 0 0.080257725164813276 -0.1505404030764457 0 0.090957573454969964 -0.1674487964172009 0 0.065342325237630991 -0.1650228072456788 0 0.080257725164813276 -0.1505404030764457 0 0.092537347032927528 -0.18889969997864839 0 0.090957573454969964 -0.1674487964172009 0 0.067160325985138131 -0.18691533881804831 0 0.090957573454969964 -0.1674487964172009 0 0.067160325985138131 -0.18691533881804831 0 0.065342325237630991 -0.1650228072456788 0 0.065342325237630991 -0.1650228072456788 0 0.080257725164813276 -0.1505404030764457 0 0.056224073158944461 -0.14994265306170279 0 0.080257725164813276 -0.1505404030764457 0 0.069539210615093855 -0.1345869923500955 0 0.056224073158944461 -0.14994265306170279 0 0.099885875260422058 -0.15149088269105351 0 0.099597293261818404 -0.1347502866929414 0 0.080257725164813276 -0.1505404030764457 0 0.099597293261818404 -0.1347502866929414 0 0.080257725164813276 -0.1505404030764457 0 0.069539210615093855 -0.1345869923500955 0 0.099597293261818404 -0.1347502866929414 0 0.092996203934319052 -0.1329056080468716 0 0.069539210615093855 -0.1345869923500955 0 0.099597293261818404 -0.1347502866929414 0 0.069539210615093855 -0.1345869923500955 0 0.092996203934319052 -0.1329056080468716 0 0.069539210615093855 -0.1345869923500955 0 0.079322302472514483 -0.11895376470488229 0 0.093527805260815264 -0.13002146576964491 0 0.092996203934319052 -0.1329056080468716 0 0.079322302472514483 -0.11895376470488229 0 0.093527805260815264 -0.13002146576964491 0 0.092996203934319052 -0.1329056080468716 0 0.069539210615093855 -0.1345869923500955 0 0.052298963826290519 -0.1211548808236817 0 0.066569319149528045 -0.1206454253796948 0 0.069539210615093855 -0.1345869923500955 0 0.039481127968369292 -0.1344236980072451 0 0.052298963826290519 -0.1211548808236817 0 0.069539210615093855 -0.1345869923500955 0 0.056224073158944461 -0.14994265306170279 0 0.039481127968369292 -0.1344236980072451 0 0.069539210615093855 -0.1345869923500955 0 0.039481127968369292 -0.1344236980072451 0 0.056224073158944461 -0.14994265306170279 0 0.038811693183881758 -0.15444647348478721 0 0.047368807546727579 -0.16279517251764489 0 0.056224073158944461 -0.14994265306170279 0 0.038811693183881758 -0.15444647348478721 0 0.039481127968369292 -0.1344236980072451 0 0.038811693183881758 -0.15444647348478721 0 0.039481127968369292 -0.1344236980072451 0 0.019056913867763529 -0.155566515408149 0 0.034777770017858589 -0.1343981464191871 0 0.039481127968369292 -0.1344236980072451 0 0.022320289212787989 -0.1422177528203018 0 0.034777770017858589 -0.1343981464191871 0 0.039481127968369292 -0.1344236980072451 0 0.034777770017858589 -0.1343981464191871 0 0.029299678594365521 -0.12697140115214181 0 0.037800108132664212 -0.12348471533883321 0 0.034777770017858589 -0.1343981464191871 0 0.039481127968369292 -0.1344236980072451 0 0.037800108132664212 -0.12348471533883321 0 0.039481127968369292 -0.1344236980072451 0 0.052298963826290519 -0.1211548808236817 0 0.039481127968369292 -0.1344236980072451 0 0.052298963826290519 -0.1211548808236817 0 0.037800108132664212 -0.12348471533883321 0 0.067160325985138131 -0.18691533881804831 0 0.065342325237630991 -0.1650228072456788 0 0.049880579816306267 -0.17970719815632741 0 0.065342325237630991 -0.1650228072456788 0 0.049880579816306267 -0.17970719815632741 0 0.047368807546727579 -0.16279517251764489 0 0.065342325237630991 -0.1650228072456788 0 0.056224073158944461 -0.14994265306170279 0 0.047368807546727579 -0.16279517251764489 0 0.049880579816306267 -0.17970719815632741 0 0.047368807546727579 -0.16279517251764489 0 0.031927543377605602 -0.16950432842919569 0 0.038811693183881758 -0.15444647348478721 0 0.047368807546727579 -0.16279517251764489 0 0.031927543377605602 -0.16950432842919569 0 0.049880579816306267 -0.17970719815632741 0 0.031927543377605602 -0.16950432842919569 0 0.033125333554059701 -0.1865598477748947 0 0.031927543377605602 -0.16950432842919569 0 0.033125333554059701 -0.1865598477748947 0 0.018588522793563201 -0.18166153924030251 0 0.031927543377605602 -0.16950432842919569 0 0.018588522793563201 -0.18166153924030251 0 0.019056913867763529 -0.155566515408149 0 0.038811693183881758 -0.15444647348478721 0 0.031927543377605602 -0.16950432842919569 0 0.019056913867763529 -0.155566515408149 0 -0.0013673002328405961 -0.1767093328090546 0 0.018588522793563201 -0.18166153924030251 0 0.019056913867763529 -0.155566515408149 0 -0.0013673002328405961 -0.1767093328090546 0 0.019056913867763529 -0.155566515408149 0 -0.0013673002328405961 -0.1767093328090546 0 0.019056913867763529 -0.155566515408149 0 0.0027310736070901482 -0.15493719994590471 0 -0.0013673002328405961 -0.1767093328090546 0 0.003555539334036632 -0.19934620758084881 0 0.018588522793563201 -0.18166153924030251 0 0.020222670022858619 -0.12863691797839069 0 0.022320289212787989 -0.1422177528203018 0 0.0088678229424013627 -0.13941235935176011 0 0.020222670022858619 -0.12863691797839069 0 0.02665510196196769 -0.1330560545925053 0 0.022320289212787989 -0.1422177528203018 0 0.034777770017858589 -0.1343981464191871 0 0.029299678594365521 -0.12697140115214181 0 0.02665510196196769 -0.1330560545925053 0 0.020222670022858619 -0.12863691797839069 0 0.029299678594365521 -0.12697140115214181 0 0.02665510196196769 -0.1330560545925053 0 0.034777770017858589 -0.1343981464191871 0 0.02665510196196769 -0.1330560545925053 0 0.022320289212787989 -0.1422177528203018 0 0.039481127968369292 -0.1344236980072451 0 0.019056913867763529 -0.155566515408149 0 0.019056913867763529 -0.155566515408149 0 0.022320289212787989 -0.1422177528203018 0 0.0088678229424013627 -0.13941235935176011 0 0.039481127968369292 -0.1344236980072451 0 0.019056913867763529 -0.155566515408149 0 0.022320289212787989 -0.1422177528203018 0 0.019056913867763529 -0.155566515408149 0 0.0027310736070901482 -0.15493719994590471 0 0.0088678229424013627 -0.13941235935176011 0 0.020222670022858619 -0.12863691797839069 0 0.0088678229424013627 -0.13941235935176011 0 0.0015243557028834459 -0.11711868301268021 0 0.020222670022858619 -0.12863691797839069 0 0.0015243557028834459 -0.11711868301268021 0 0.0144479962461943 -0.1082343501681014 0 0.020222670022858619 -0.12863691797839069 0 0.02728947708542654 -0.1146689930447462 0 0.0144479962461943 -0.1082343501681014 0 0.020222670022858619 -0.12863691797839069 0 0.029299678594365521 -0.12697140115214181 0 0.02728947708542654 -0.1146689930447462 0 0.0144479962461943 -0.1082343501681014 0 0.01674231050701382 -0.093658367309864349 0 0.03170108987002046 -0.10050694789866579 0 0.02728947708542654 -0.1146689930447462 0 0.0144479962461943 -0.1082343501681014 0 0.03170108987002046 -0.10050694789866579 0 0.01674231050701382 -0.093658367309864349 0 0.02745527456064175 -0.089089442263575569 0 0.03170108987002046 -0.10050694789866579 0 0.0144479962461943 -0.1082343501681014 0 0.001856719827670471 -0.098182337095309047 0 0.01674231050701382 -0.093658367309864349 0 0.0015243557028834459 -0.11711868301268021 0 0.0144479962461943 -0.1082343501681014 0 0.001856719827670471 -0.098182337095309047 0 0.001856719827670471 -0.098182337095309047 0 0.0065051428120863272 -0.082127796022149757 0 0.01674231050701382 -0.093658367309864349 0 0.0065051428120863272 -0.082127796022149757 0 0.018539693253586439 -0.071597204448153262 0 0.01731060528333208 -0.084118202510935727 0 0.0065051428120863272 -0.082127796022149757 0 0.01674231050701382 -0.093658367309864349 0 0.01731060528333208 -0.084118202510935727 0 0.0065051428120863272 -0.082127796022149757 0 0.018539693253586439 -0.071597204448153262 0 0.00035237720396625368 -0.061086817302918282 0 0.018539693253586439 -0.071597204448153262 0 0.00035237720396625368 -0.061086817302918282 0 0.029337839486141829 -0.062098975348790997 0 0.018539693253586439 -0.071597204448153262 0 0.036998616429076953 -0.080413518666692163 0 0.029337839486141829 -0.062098975348790997 0 0.018539693253586439 -0.071597204448153262 0 0.039278739387756327 -0.087755278287702396 0 0.018539693253586439 -0.071597204448153262 0 0.02745527456064175 -0.089089442263575569 0 0.039278739387756327 -0.087755278287702396 0 0.018539693253586439 -0.071597204448153262 0 0.01731060528333208 -0.084118202510935727 0 0.02745527456064175 -0.089089442263575569 0 0.01674231050701382 -0.093658367309864349 0 0.01731060528333208 -0.084118202510935727 0 0.02745527456064175 -0.089089442263575569 0 0.018539693253586439 -0.071597204448153262 0 0.036998616429076953 -0.080413518666692163 0 0.039278739387756327 -0.087755278287702396 0 0.02745527456064175 -0.089089442263575569 0 0.039278739387756327 -0.087755278287702396 0 0.036114206476440321 -0.094502097047588079 0 0.036998616429076953 -0.080413518666692163 0 0.039278739387756327 -0.087755278287702396 0 0.050747139898636717 -0.081209848062237813 0 0.058323301768317432 -0.063111133394663815 0 0.029337839486141829 -0.062098975348790997 0 0.036998616429076953 -0.080413518666692163 0 0.058323301768317432 -0.063111133394663815 0 0.029337839486141829 -0.062098975348790997 0 0.036998616429076953 -0.080413518666692163 0 0.058323301768317432 -0.063111133394663815 0 0.058323301768317432 -0.063111133394663815 0 0.050747139898636717 -0.081209848062237813 0 0.060228637404373828 -0.081759239016750626 0 0.036998616429076953 -0.080413518666692163 0 0.058323301768317432 -0.063111133394663815 0 0.050747139898636717 -0.081209848062237813 0 0.039278739387756327 -0.087755278287702396 0 0.050747139898636717 -0.081209848062237813 0 0.060818353003097771 -0.090653503469919336 0 0.050747139898636717 -0.081209848062237813 0 0.060228637404373828 -0.081759239016750626 0 0.060818353003097771 -0.090653503469919336 0 0.060017785521926562 -0.10391335212725129 0 0.042153090511964017 -0.099193769589441219 0 0.043653631303676513 -0.1092911725859987 0 0.060017785521926562 -0.10391335212725129 0 0.043653631303676513 -0.1092911725859987 0 0.039278739387756327 -0.087755278287702396 0 0.060818353003097771 -0.090653503469919336 0 0.060017785521926562 -0.10391335212725129 0 0.060017785521926562 -0.10391335212725129 0 0.053375718786791107 -0.1112883554404277 0 0.043653631303676513 -0.1092911725859987 0 0.039278739387756327 -0.087755278287702396 0 0.060017785521926562 -0.10391335212725129 0 0.039278739387756327 -0.087755278287702396 0 0.060017785521926562 -0.10391335212725129 0 0.042153090511964017 -0.099193769589441219 0 0.060017785521926562 -0.10391335212725129 0 0.053375718786791107 -0.1112883554404277 0 0.065116799684213397 -0.10788606364011991 0 0.052298963826290519 -0.1211548808236817 0 0.066569319149528045 -0.1206454253796948 0 0.065116799684213397 -0.10788606364011991 0 0.052298963826290519 -0.1211548808236817 0 0.065116799684213397 -0.10788606364011991 0 0.052298963826290519 -0.1211548808236817 0 0.053375718786791107 -0.1112883554404277 0 0.065116799684213397 -0.10788606364011991 0 0.052298963826290519 -0.1211548808236817 0 0.053375718786791107 -0.1112883554404277 0 0.043653631303676513 -0.1092911725859987 0 0.02728947708542654 -0.1146689930447462 0 0.037800108132664212 -0.12348471533883321 0 0.043653631303676513 -0.1092911725859987 0 0.02728947708542654 -0.1146689930447462 0 0.043653631303676513 -0.1092911725859987 0 0.052298963826290519 -0.1211548808236817 0 0.037800108132664212 -0.12348471533883321 0 0.043653631303676513 -0.1092911725859987 0 0.029299678594365521 -0.12697140115214181 0 0.02728947708542654 -0.1146689930447462 0 0.037800108132664212 -0.12348471533883321 0 0.02728947708542654 -0.1146689930447462 0 0.03170108987002046 -0.10050694789866579 0 0.043653631303676513 -0.1092911725859987 0 0.036114206476440321 -0.094502097047588079 0 0.03170108987002046 -0.10050694789866579 0 0.042153090511964017 -0.099193769589441219 0 0.02745527456064175 -0.089089442263575569 0 0.036114206476440321 -0.094502097047588079 0 0.03170108987002046 -0.10050694789866579 0 0.039278739387756327 -0.087755278287702396 0 0.036114206476440321 -0.094502097047588079 0 0.042153090511964017 -0.099193769589441219 0 0.03170108987002046 -0.10050694789866579 0 0.042153090511964017 -0.099193769589441219 0 0.043653631303676513 -0.1092911725859987 0 0.025695344612614111 0.0095801541182225364 0 0.02812452509478746 -0.0099579005571815878 0 0.006935528729737548 -0.0054826371559186567 0 0.02812452509478746 -0.0099579005571815878 0 0.006935528729737548 -0.0054826371559186567 0 0.01889941714368459 -0.025130787452367569 0 0.006935528729737548 -0.0054826371559186567 0 0.0027408304473846411 -0.028176541972939319 0 0.01889941714368459 -0.025130787452367569 0 0.02812452509478746 -0.0099579005571815878 0 0.01889941714368459 -0.025130787452367569 0 0.035567370731091272 -0.02454493013615917 0 0.01889941714368459 -0.025130787452367569 0 0.02846567832778216 -0.042756626880165419 0 0.035567370731091272 -0.02454493013615917 0 0.01889941714368459 -0.025130787452367569 0 0.02846567832778216 -0.042756626880165419 0 0.0096258971738255473 -0.043108802377643002 0 0.02846567832778216 -0.042756626880165419 0 0.0096258971738255473 -0.043108802377643002 0 0.016945448047928951 -0.052262805477379423 0 0.01889941714368459 -0.025130787452367569 0 0.0096258971738255473 -0.043108802377643002 0 -0.01026660782967455 -0.041229232136501717 0 0.0027408304473846411 -0.028176541972939319 0 0.0096258971738255473 -0.043108802377643002 0 0.0027408304473846411 -0.028176541972939319 0 0.01889941714368459 -0.025130787452367569 0 0.0096258971738255473 -0.043108802377643002 0 0.0096258971738255473 -0.043108802377643002 0 0.00035237720396625368 -0.061086817302918282 0 0.016945448047928951 -0.052262805477379423 0 0.00035237720396625368 -0.061086817302918282 0 0.016945448047928951 -0.052262805477379423 0 0.029337839486141829 -0.062098975348790997 0 0.0096258971738255473 -0.043108802377643002 0 0.00035237720396625368 -0.061086817302918282 0 0.00035237720396625368 -0.061086817302918282 0 0.029337839486141829 -0.062098975348790997 0 0.02846567832778216 -0.042756626880165419 0 0.016945448047928951 -0.052262805477379423 0 0.029337839486141829 -0.062098975348790997 0 0.02846567832778216 -0.042756626880165419 0 0.029337839486141829 -0.062098975348790997 0 0.044041605111135473 -0.049431168693685697 0 0.058323301768317432 -0.063111133394663815 0 0.029337839486141829 -0.062098975348790997 0 0.044041605111135473 -0.049431168693685697 0 0.058323301768317432 -0.063111133394663815 0 0.044041605111135473 -0.049431168693685697 0 0.059903341899081253 -0.040049795258846832 0 0.059903341899081253 -0.040049795258846832 0 0.045154502468205723 -0.035444412579530127 0 0.052999286202529479 -0.022291816621987929 0 0.044041605111135473 -0.049431168693685697 0 0.059903341899081253 -0.040049795258846832 0 0.045154502468205723 -0.035444412579530127 0 0.02846567832778216 -0.042756626880165419 0 0.044041605111135473 -0.049431168693685697 0 0.045154502468205723 -0.035444412579530127 0 0.02846567832778216 -0.042756626880165419 0 0.045154502468205723 -0.035444412579530127 0 0.035567370731091272 -0.02454493013615917 0 0.045154502468205723 -0.035444412579530127 0 0.035567370731091272 -0.02454493013615917 0 0.052999286202529479 -0.022291816621987929 0 0.035567370731091272 -0.02454493013615917 0 0.052999286202529479 -0.022291816621987929 0 0.04138045704507981 -0.013293391242584921 0 0.02812452509478746 -0.0099579005571815878 0 0.035567370731091272 -0.02454493013615917 0 0.04138045704507981 -0.013293391242584921 0 0.059903341899081253 -0.040049795258846832 0 0.052999286202529479 -0.022291816621987929 0 0.073093181043766914 -0.026775388104941698 0 0.052999286202529479 -0.022291816621987929 0 0.049896637954744763 -0.0073960790217490677 0 0.04138045704507981 -0.013293391242584921 0 0.052999286202529479 -0.022291816621987929 0 0.049896637954744763 -0.0073960790217490677 0 0.066530330394949447 -0.012320269852860621 0 0.049896637954744763 -0.0073960790217490677 0 0.040314465242246092 -0.002276229875846851 0 0.04138045704507981 -0.013293391242584921 0 0.025695344612614111 0.0095801541182225364 0 0.02812452509478746 -0.0099579005571815878 0 0.040314465242246092 -0.002276229875846851 0 0.046640351189982193 0.001482106492276504 0 0.049896637954744763 -0.0073960790217490677 0 0.040314465242246092 -0.002276229875846851 0 0.02812452509478746 -0.0099579005571815878 0 0.040314465242246092 -0.002276229875846851 0 0.04138045704507981 -0.013293391242584921 0 0.075461568133428525 0.0044331687040122013 0 0.081703970602104437 -0.011974759962048749 0 0.098011391193308373 -0.0056982583262641584 0 0.075461568133428525 0.0044331687040122013 0 0.049896637954744763 -0.0073960790217490677 0 0.075461568133428525 0.0044331687040122013 0 0.049896637954744763 -0.0073960790217490677 0 0.066530330394949447 -0.012320269852860621 0 0.075461568133428525 0.0044331687040122013 0 0.081703970602104437 -0.011974759962048749 0 0.066530330394949447 -0.012320269852860621 0 0.081703970602104437 -0.011974759962048749 0 0.066530330394949447 -0.012320269852860621 0 0.073093181043766914 -0.026775388104941698 0 0.052999286202529479 -0.022291816621987929 0 0.066530330394949447 -0.012320269852860621 0 0.073093181043766914 -0.026775388104941698 0 0.081703970602104437 -0.011974759962048749 0 0.097837743661838034 -0.031049975793767819 0 0.098011391193308373 -0.0056982583262641584 0 0.081703970602104437 -0.011974759962048749 0 0.073093181043766914 -0.026775388104941698 0 0.097837743661838034 -0.031049975793767819 0 0.078080522715077566 -0.047080554594215653 0 0.097861902682226248 -0.045151270938537998 0 0.097837743661838034 -0.031049975793767819 0 0.073093181043766914 -0.026775388104941698 0 0.078080522715077566 -0.047080554594215653 0 0.097837743661838034 -0.031049975793767819 0 0.078080522715077566 -0.047080554594215653 0 0.097837743661838034 -0.031049975793767819 0 0.059903341899081253 -0.040049795258846832 0 0.073093181043766914 -0.026775388104941698 0 0.078080522715077566 -0.047080554594215653 0 0.058323301768317432 -0.063111133394663815 0 0.078080522715077566 -0.047080554594215653 0 0.058323301768317432 -0.063111133394663815 0 0.059903341899081253 -0.040049795258846832 0 0.078080522715077566 -0.047080554594215653 0 0.058323301768317432 -0.063111133394663815 0 0.078080522715077566 -0.047080554594215653 0 0.081939961595450139 -0.063935815506958552 0 0.078080522715077566 -0.047080554594215653 0 0.094142039140793971 -0.055881476276546937 0 0.081939961595450139 -0.063935815506958552 0 0.078080522715077566 -0.047080554594215653 0 0.094142039140793971 -0.055881476276546937 0 0.097861902682226248 -0.045151270938537998 0 0.094142039140793971 -0.055881476276546937 0 0.081939961595450139 -0.063935815506958552 0 0.1067368008806147 -0.064801708903802782 0 0.094142039140793971 -0.055881476276546937 0 0.1075629424949773 -0.053875431803618333 0 0.097861902682226248 -0.045151270938537998 0 0.094142039140793971 -0.055881476276546937 0 0.1075629424949773 -0.053875431803618333 0 0.1067368008806147 -0.064801708903802782 0 0.1075629424949773 -0.053875431803618333 0 0.1067368008806147 -0.064801708903802782 0 0.1075629424949773 -0.053875431803618333 0 0.1232921759667842 -0.047663851323270827 0 0.1067368008806147 -0.064801708903802782 0 0.1232921759667842 -0.047663851323270827 0 0.1067368008806147 -0.064801708903802782 0 0.1075629424949773 -0.053875431803618333 0 0.1232921759667842 -0.047663851323270827 0 0.1109518143893137 -0.039435966374661548 0 0.1232921759667842 -0.047663851323270827 0 0.1067368008806147 -0.064801708903802782 0 0.13548767730717889 -0.06580567532731052 0 0.1232921759667842 -0.047663851323270827 0 0.1109518143893137 -0.039435966374661548 0 0.124582941869709 -0.030507807285028901 0 0.1109518143893137 -0.039435966374661548 0 0.097861902682226248 -0.045151270938537998 0 0.097837743661838034 -0.031049975793767819 0 0.1075629424949773 -0.053875431803618333 0 0.1109518143893137 -0.039435966374661548 0 0.097861902682226248 -0.045151270938537998 0 0.097837743661838034 -0.031049975793767819 0 0.1175949646085984 -0.015019396993320021 0 0.097837743661838034 -0.031049975793767819 0 0.1175949646085984 -0.015019396993320021 0 0.098011391193308373 -0.0056982583262641584 0 0.1109518143893137 -0.039435966374661548 0 0.097837743661838034 -0.031049975793767819 0 0.1175949646085984 -0.015019396993320021 0 0.1109518143893137 -0.039435966374661548 0 0.124582941869709 -0.030507807285028901 0 0.1175949646085984 -0.015019396993320021 0 0.124582941869709 -0.030507807285028901 0 0.1175949646085984 -0.015019396993320021 0 0.13165260102391191 -0.019660205177744808 0 0.11882011836095251 0.0065886106746579649 0 0.1175949646085984 -0.015019396993320021 0 0.098011391193308373 -0.0056982583262641584 0 0.11882011836095251 0.0065886106746579649 0 0.13735218555535891 0.001011181807127467 0 0.1175949646085984 -0.015019396993320021 0 0.073111172643960082 -0.099610417542301155 0 0.10058413041743761 -0.090581864498492995 0 0.088608598291174498 -0.101420796185217 0 0.073111172643960082 -0.099610417542301155 0 0.10058413041743761 -0.090581864498492995 0 0.083297568291202648 -0.10670285905343881 0 0.088608598291174498 -0.101420796185217 0 0.073111172643960082 -0.099610417542301155 0 0.083297568291202648 -0.10670285905343881 0 0.088608598291174498 -0.101420796185217 0 0.097441521812097198 -0.10878804364663471 0 0.093527805260815264 -0.13002146576964491 0 0.079322302472514483 -0.11895376470488229 0 0.097441521812097198 -0.10878804364663471 0 0.083297568291202648 -0.10670285905343881 0 0.079322302472514483 -0.11895376470488229 0 0.097441521812097198 -0.10878804364663471 0 0.093527805260815264 -0.13002146576964491 0 0.079322302472514483 -0.11895376470488229 0 0.079322302472514483 -0.11895376470488229 0 0.065116799684213397 -0.10788606364011991 0 0.083297568291202648 -0.10670285905343881 0 0.079322302472514483 -0.11895376470488229 0 0.065116799684213397 -0.10788606364011991 0 0.079322302472514483 -0.11895376470488229 0 0.066569319149528045 -0.1206454253796948 0 0.065116799684213397 -0.10788606364011991 0 0.069539210615093855 -0.1345869923500955 0 0.079322302472514483 -0.11895376470488229 0 0.066569319149528045 -0.1206454253796948 0 0.060017785521926562 -0.10391335212725129 0 0.065116799684213397 -0.10788606364011991 0 0.060017785521926562 -0.10391335212725129 0 0.073111172643960082 -0.099610417542301155 0 0.065116799684213397 -0.10788606364011991 0 0.073111172643960082 -0.099610417542301155 0 0.083297568291202648 -0.10670285905343881 0 0.065116799684213397 -0.10788606364011991 0 0.073111172643960082 -0.099610417542301155 0 0.060017785521926562 -0.10391335212725129 0 0.065116799684213397 -0.10788606364011991 0 0.073111172643960082 -0.099610417542301155 0 0.060818353003097771 -0.090653503469919336 0 0.060017785521926562 -0.10391335212725129 0 0.073111172643960082 -0.099610417542301155 0 0.060818353003097771 -0.090653503469919336 0 0.073111172643960082 -0.099610417542301155 0 0.074211161232423301 -0.082716200610011378 0 0.060228637404373828 -0.081759239016750626 0 0.060818353003097771 -0.090653503469919336 0 0.074211161232423301 -0.082716200610011378 0 0.058323301768317432 -0.063111133394663815 0 0.081939961595450139 -0.063935815506958552 0 0.058323301768317432 -0.063111133394663815 0 0.074211161232423301 -0.082716200610011378 0 0.081939961595450139 -0.063935815506958552 0 0.058323301768317432 -0.063111133394663815 0 0.060228637404373828 -0.081759239016750626 0 0.074211161232423301 -0.082716200610011378 0 0.074211161232423301 -0.082716200610011378 0 0.081939961595450139 -0.063935815506958552 0 0.089190063779311518 -0.082965808471458069 0 0.081939961595450139 -0.063935815506958552 0 0.089190063779311518 -0.082965808471458069 0 0.1052689549146623 -0.0663211994006144 0 0.073111172643960082 -0.099610417542301155 0 0.074211161232423301 -0.082716200610011378 0 0.089190063779311518 -0.082965808471458069 0 0.073111172643960082 -0.099610417542301155 0 0.089190063779311518 -0.082965808471458069 0 0.073111172643960082 -0.099610417542301155 0 0.089190063779311518 -0.082965808471458069 0 0.10058413041743761 -0.090581864498492995 0 0.089190063779311518 -0.082965808471458069 0 0.1017080788123951 -0.087804556385465471 0 0.1052689549146623 -0.0663211994006144 0 0.089190063779311518 -0.082965808471458069 0 0.10058413041743761 -0.090581864498492995 0 0.1017080788123951 -0.087804556385465471 0 0.1017080788123951 -0.087804556385465471 0 0.1084674426683357 -0.077888137089068013 0 0.1052689549146623 -0.0663211994006144 0 0.089190063779311518 -0.082965808471458069 0 0.1052689549146623 -0.0663211994006144 0 0.081939961595450139 -0.063935815506958552 0 0.1067368008806147 -0.064801708903802782 0 0.1052689549146623 -0.0663211994006144 0 0.081939961595450139 -0.063935815506958552 0 0.1067368008806147 -0.064801708903802782 0 0.1017080788123951 -0.087804556385465471 0 0.1052689549146623 -0.0663211994006144 0 0.1084674426683357 -0.077888137089068013 0 0.1067368008806147 -0.064801708903802782 0 0.1052689549146623 -0.0663211994006144 0 0.1067368008806147 -0.064801708903802782 0 0.1052689549146623 -0.0663211994006144 0 0.1067368008806147 -0.064801708903802782 0 0.13548767730717889 -0.06580567532731052 0 0.1084674426683357 -0.077888137089068013 0 0.1067368008806147 -0.064801708903802782 0 0.1232061248222129 -0.075206297362028066 0 0.1067368008806147 -0.064801708903802782 0 0.1232061248222129 -0.075206297362028066 0 0.13548767730717889 -0.06580567532731052 0 0.1017080788123951 -0.087804556385465471 0 0.1084674426683357 -0.077888137089068013 0 0.1272797878356694 -0.088593758706814907 0 0.1017080788123951 -0.087804556385465471 0 0.1272797878356694 -0.088593758706814907 0 0.1084674426683357 -0.077888137089068013 0 0.1232061248222129 -0.075206297362028066 0 0.1272797878356694 -0.088593758706814907 0 0.1017080788123951 -0.087804556385465471 0 0.11567178204704499 -0.10568275569041199 0 0.1272797878356694 -0.088593758706814907 0 0.1017080788123951 -0.087804556385465471 0 0.11567178204704499 -0.10568275569041199 0 0.097441521812097198 -0.10878804364663471 0 0.1017080788123951 -0.087804556385465471 0 0.097441521812097198 -0.10878804364663471 0 0.088608598291174498 -0.101420796185217 0 0.10058413041743761 -0.090581864498492995 0 0.097441521812097198 -0.10878804364663471 0 0.10058413041743761 -0.090581864498492995 0 0.1017080788123951 -0.087804556385465471 0 0.097441521812097198 -0.10878804364663471 0 0.093527805260815264 -0.13002146576964491 0 0.097441521812097198 -0.10878804364663471 0 0.104312872852085 -0.12243825994362539 0 0.093527805260815264 -0.13002146576964491 0 0.097441521812097198 -0.10878804364663471 0 0.11567178204704499 -0.10568275569041199 0 0.097441521812097198 -0.10878804364663471 0 0.104312872852085 -0.12243825994362539 0 0.11567178204704499 -0.10568275569041199 0 0.104312872852085 -0.12243825994362539 0 0.12800820934211829 -0.12401417466047961 0 0.12800820934211829 -0.12401417466047961 0 0.14712201392247631 -0.1132275548916801 0 0.13655559816636781 -0.1031347463460832 0 0.12800820934211829 -0.12401417466047961 0 0.14712201392247631 -0.1132275548916801 0 0.11567178204704499 -0.10568275569041199 0 0.12800820934211829 -0.12401417466047961 0 0.13655559816636781 -0.1031347463460832 0 0.12800820934211829 -0.12401417466047961 0 0.14712201392247631 -0.1132275548916801 0 0.1486045981545247 -0.12747252536747111 0 0.14712201392247631 -0.1132275548916801 0 0.16095359288685571 -0.1184472051676727 0 0.1486045981545247 -0.12747252536747111 0 0.15146120268426411 -0.099532086410862586 0 0.13655559816636781 -0.1031347463460832 0 0.1528514968589437 -0.089382961028164357 0 0.14712201392247631 -0.1132275548916801 0 0.15146120268426411 -0.099532086410862586 0 0.16623581850283431 -0.10244093512288061 0 0.14712201392247631 -0.1132275548916801 0 0.15146120268426411 -0.099532086410862586 0 0.13655559816636781 -0.1031347463460832 0 0.11567178204704499 -0.10568275569041199 0 0.13655559816636781 -0.1031347463460832 0 0.1272797878356694 -0.088593758706814907 0 0.1272797878356694 -0.088593758706814907 0 0.13805891541926751 -0.078942206783145619 0 0.1528514968589437 -0.089382961028164357 0 0.1272797878356694 -0.088593758706814907 0 0.1528514968589437 -0.089382961028164357 0 0.13655559816636781 -0.1031347463460832 0 0.1272797878356694 -0.088593758706814907 0 0.1528514968589437 -0.089382961028164357 0 0.1232061248222129 -0.075206297362028066 0 0.1272797878356694 -0.088593758706814907 0 0.13805891541926751 -0.078942206783145619 0 0.1232061248222129 -0.075206297362028066 0 0.13805891541926751 -0.078942206783145619 0 0.13548767730717889 -0.06580567532731052 0 0.13548767730717889 -0.06580567532731052 0 0.16423855373374319 -0.066809641750814969 0 0.13548767730717889 -0.06580567532731052 0 0.1516507619880918 -0.076739651506421189 0 0.16423855373374319 -0.066809641750814969 0 0.13548767730717889 -0.06580567532731052 0 0.16423855373374319 -0.066809641750814969 0 0.16004124225532049 -0.061841453839887157 0 0.13805891541926751 -0.078942206783145619 0 0.13548767730717889 -0.06580567532731052 0 0.1516507619880918 -0.076739651506421189 0 0.13805891541926751 -0.078942206783145619 0 0.1516507619880918 -0.076739651506421189 0 0.1528514968589437 -0.089382961028164357 0 0.15146120268426411 -0.099532086410862586 0 0.1528514968589437 -0.089382961028164357 0 0.15581646250916109 -0.090151240212135456 0 0.1528514968589437 -0.089382961028164357 0 0.15581646250916109 -0.090151240212135456 0 0.17842320588221819 -0.090172163349513806 0 0.1528514968589437 -0.089382961028164357 0 0.17842320588221819 -0.090172163349513806 0 0.15581646250916109 -0.090151240212135456 0 0.16859491992305889 -0.093070393687126218 0 0.17842320588221819 -0.090172163349513806 0 0.1528514968589437 -0.089382961028164357 0 0.1653897445003264 -0.079862578323319361 0 0.17842320588221819 -0.090172163349513806 0 0.1516507619880918 -0.076739651506421189 0 0.1528514968589437 -0.089382961028164357 0 0.1653897445003264 -0.079862578323319361 0 0.1516507619880918 -0.076739651506421189 0 0.1653897445003264 -0.079862578323319361 0 0.16423855373374319 -0.066809641750814969 0 0.1653897445003264 -0.079862578323319361 0 0.16423855373374319 -0.066809641750814969 0 0.17833356117891219 -0.077628002067558224 0 0.16423855373374319 -0.066809641750814969 0 0.1727598808088672 -0.056322389892066158 0 0.1929894301603077 -0.067813608174319001 0 0.16423855373374319 -0.066809641750814969 0 0.1929894301603077 -0.067813608174319001 0 0.16423855373374319 -0.066809641750814969 0 0.17833356117891219 -0.077628002067558224 0 0.1929894301603077 -0.067813608174319001 0 0.17833356117891219 -0.077628002067558224 0 0.19040307974074269 -0.080139672987034255 0 0.1929894301603077 -0.067813608174319001 0 0.16859491992305889 -0.093070393687126218 0 0.17842320588221819 -0.090172163349513806 0 0.17335524666804841 -0.094081054567607611 0 0.17842320588221819 -0.090172163349513806 0 0.17824607109877541 -0.095663109832525739 0 0.17335524666804841 -0.094081054567607611 0 0.1653897445003264 -0.079862578323319361 0 0.17833356117891219 -0.077628002067558224 0 0.17842320588221819 -0.090172163349513806 0 0.17833356117891219 -0.077628002067558224 0 0.1854866420256687 -0.084161575248007242 0 0.19040307974074269 -0.080139672987034255 0 0.17833356117891219 -0.077628002067558224 0 0.17842320588221819 -0.090172163349513806 0 0.1854866420256687 -0.084161575248007242 0 0.18404025852736719 -0.096743595743047278 0 0.18504385230606449 -0.10434071571553651 0 0.19243594079672521 -0.096163448387799222 0 0.17824607109877541 -0.095663109832525739 0 0.18504385230606449 -0.10434071571553651 0 0.16623581850283431 -0.10244093512288061 0 0.18504385230606449 -0.10434071571553651 0 0.18014950107347269 -0.1188522098678762 0 0.16623581850283431 -0.10244093512288061 0 0.18404025852736719 -0.096743595743047278 0 0.17824607109877541 -0.095663109832525739 0 0.18504385230606449 -0.10434071571553651 0 0.17842320588221819 -0.090172163349513806 0 0.18404025852736719 -0.096743595743047278 0 0.19243594079672521 -0.096163448387799222 0 0.17842320588221819 -0.090172163349513806 0 0.18404025852736719 -0.096743595743047278 0 0.17824607109877541 -0.095663109832525739 0 0.17824607109877541 -0.095663109832525739 0 0.17335524666804841 -0.094081054567607611 0 0.16623581850283431 -0.10244093512288061 0 0.17824607109877541 -0.095663109832525739 0 0.16623581850283431 -0.10244093512288061 0 0.18504385230606449 -0.10434071571553651 0 0.18014950107347269 -0.1188522098678762 0 0.1922879604253335 -0.1099500278873989 0 0.18014950107347269 -0.1188522098678762 0 0.16623581850283431 -0.10244093512288061 0 0.18014950107347269 -0.1188522098678762 0 0.16095359288685571 -0.1184472051676727 0 0.16623581850283431 -0.10244093512288061 0 0.14712201392247631 -0.1132275548916801 0 0.16095359288685571 -0.1184472051676727 0 0.16623581850283431 -0.10244093512288061 0 0.18014950107347269 -0.1188522098678762 0 0.16095359288685571 -0.1184472051676727 0 0.16265603278097029 -0.1302428005884553 0 0.14712201392247631 -0.1132275548916801 0 0.16623581850283431 -0.10244093512288061 0 0.15581646250916109 -0.090151240212135456 0 0.16859491992305889 -0.093070393687126218 0 0.16623581850283431 -0.10244093512288061 0 0.15146120268426411 -0.099532086410862586 0 0.15581646250916109 -0.090151240212135456 0 0.16623581850283431 -0.10244093512288061 0 0.15581646250916109 -0.090151240212135456 0 0.16623581850283431 -0.10244093512288061 0 0.16859491992305889 -0.093070393687126218 0 0.17335524666804841 -0.094081054567607611 0 0.16623581850283431 -0.10244093512288061 0 0.13735218555535891 0.001011181807127467 0 0.1449152044553462 -0.019939696741877431 0 0.14216046477152491 0.0049125148476896544 0 0.15727218843160701 -0.01758578836774349 0 0.15849764294065671 -0.0060544572746906826 0 0.14216046477152491 0.0049125148476896544 0 0.15727218843160701 -0.01758578836774349 0 0.14216046477152491 0.0049125148476896544 0 0.1449152044553462 -0.019939696741877431 0 0.15727218843160701 -0.01758578836774349 0 0.14216046477152491 0.0049125148476896544 0 0.13735218555535891 0.001011181807127467 0 0.1449152044553462 -0.019939696741877431 0 0.13735218555535891 0.001011181807127467 0 0.1175949646085984 -0.015019396993320021 0 0.13735218555535891 0.001011181807127467 0 0.1175949646085984 -0.015019396993320021 0 0.13165260102391191 -0.019660205177744808 0 0.13735218555535891 0.001011181807127467 0 0.13165260102391191 -0.019660205177744808 0 0.1449152044553462 -0.019939696741877431 0 0.13165260102391191 -0.019660205177744808 0 0.13984755105295521 -0.030525993742740402 0 0.1449152044553462 -0.019939696741877431 0 0.124582941869709 -0.030507807285028901 0 0.13165260102391191 -0.019660205177744808 0 0.13984755105295521 -0.030525993742740402 0 0.1449152044553462 -0.019939696741877431 0 0.15247822335533329 -0.040890575290882317 0 0.15727218843160701 -0.01758578836774349 0 0.13984755105295521 -0.030525993742740402 0 0.1449152044553462 -0.019939696741877431 0 0.15247822335533329 -0.040890575290882317 0 0.1449152044553462 -0.019939696741877431 0 0.15247822335533329 -0.040890575290882317 0 0.15247822335533329 -0.040890575290882317 0 0.1379109625223634 -0.045605004272587249 0 0.14629243763992239 -0.054068479542427092 0 0.13984755105295521 -0.030525993742740402 0 0.15247822335533329 -0.040890575290882317 0 0.1379109625223634 -0.045605004272587249 0 0.1232921759667842 -0.047663851323270827 0 0.13984755105295521 -0.030525993742740402 0 0.1379109625223634 -0.045605004272587249 0 0.1232921759667842 -0.047663851323270827 0 0.124582941869709 -0.030507807285028901 0 0.13984755105295521 -0.030525993742740402 0 0.1232921759667842 -0.047663851323270827 0 0.13984755105295521 -0.030525993742740402 0 0.1232921759667842 -0.047663851323270827 0 0.13548767730717889 -0.06580567532731052 0 0.1379109625223634 -0.045605004272587249 0 0.13548767730717889 -0.06580567532731052 0 0.1379109625223634 -0.045605004272587249 0 0.14629243763992239 -0.054068479542427092 0 0.13548767730717889 -0.06580567532731052 0 0.14629243763992239 -0.054068479542427092 0 0.16004124225532049 -0.061841453839887157 0 0.15247822335533329 -0.040890575290882317 0 0.14629243763992239 -0.054068479542427092 0 0.16004124225532049 -0.061841453839887157 0 0.15247822335533329 -0.040890575290882317 0 0.16004124225532049 -0.061841453839887157 0 0.1644158146278025 -0.049784627651503079 0 0.1644158146278025 -0.049784627651503079 0 0.1727598808088672 -0.056322389892066158 0 0.1723839120916891 -0.040084091583176683 0 0.15247822335533329 -0.040890575290882317 0 0.16004124225532049 -0.061841453839887157 0 0.16423855373374319 -0.066809641750814969 0 0.16004124225532049 -0.061841453839887157 0 0.1727598808088672 -0.056322389892066158 0 0.16004124225532049 -0.061841453839887157 0 0.1644158146278025 -0.049784627651503079 0 0.1727598808088672 -0.056322389892066158 0 0.1727598808088672 -0.056322389892066158 0 0.18434240851125541 -0.050289724698312777 0 0.1723839120916891 -0.040084091583176683 0 0.1727598808088672 -0.056322389892066158 0 0.18434240851125541 -0.050289724698312777 0 0.1929894301603077 -0.067813608174319001 0 0.1723839120916891 -0.040084091583176683 0 0.18077822909658589 -0.032018797610549231 0 0.17598651952492231 -0.0227560541305885 0 0.18434240851125541 -0.050289724698312777 0 0.1723839120916891 -0.040084091583176683 0 0.18674227588606429 -0.037749552466939278 0 0.1723839120916891 -0.040084091583176683 0 0.18674227588606429 -0.037749552466939278 0 0.18077822909658589 -0.032018797610549231 0 0.18674227588606429 -0.037749552466939278 0 0.18077822909658589 -0.032018797610549231 0 0.18610830639217099 -0.030062433202775862 0 0.15247822335533329 -0.040890575290882317 0 0.1723839120916891 -0.040084091583176683 0 0.15727218843160701 -0.01758578836774349 0 0.15247822335533329 -0.040890575290882317 0 0.1644158146278025 -0.049784627651503079 0 0.1723839120916891 -0.040084091583176683 0 0.1723839120916891 -0.040084091583176683 0 0.15727218843160701 -0.01758578836774349 0 0.1723839120916891 -0.040084091583176683 0 0.1668946229318731 -0.019675061199070819 0 0.17598651952492231 -0.0227560541305885 0 0.1723839120916891 -0.040084091583176683 0 0.15727218843160701 -0.01758578836774349 0 0.1668946229318731 -0.019675061199070819 0 0.1668946229318731 -0.019675061199070819 0 0.17598651952492231 -0.0227560541305885 0 0.16985348277487761 -0.0099868764823510571 0 0.18077822909658589 -0.032018797610549231 0 0.18438258456793261 -0.021379302004443181 0 0.17598651952492231 -0.0227560541305885 0 0.18077822909658589 -0.032018797610549231 0 0.18610830639217099 -0.030062433202775862 0 0.18438258456793261 -0.021379302004443181 0 0.18438258456793261 -0.021379302004443181 0 0.17598651952492231 -0.0227560541305885 0 0.17878486519392331 -0.011645355321630489 0 0.17598651952492231 -0.0227560541305885 0 0.17878486519392331 -0.011645355321630489 0 0.16985348277487761 -0.0099868764823510571 0 0.17878486519392331 -0.011645355321630489 0 0.17506184651935949 -0.0021247232161890161 0 0.16985348277487761 -0.0099868764823510571 0 0.18438258456793261 -0.021379302004443181 0 0.17878486519392331 -0.011645355321630489 0 0.18863989258252481 -0.001979820774580698 0 0.17878486519392331 -0.011645355321630489 0 0.17506184651935949 -0.0021247232161890161 0 0.18863989258252481 -0.001979820774580698 0 0.1628037813635097 0.0015330777282007481 0 0.17506184651935949 -0.0021247232161890161 0 0.16985348277487761 -0.0099868764823510571 0 0.1668946229318731 -0.019675061199070819 0 0.16985348277487761 -0.0099868764823510571 0 0.15849764294065671 -0.0060544572746906826 0 0.15727218843160701 -0.01758578836774349 0 0.1668946229318731 -0.019675061199070819 0 0.15849764294065671 -0.0060544572746906826 0 0.1628037813635097 0.0015330777282007481 0 0.16985348277487761 -0.0099868764823510571 0 0.15849764294065671 -0.0060544572746906826 0 0.1628037813635097 0.0015330777282007481 0 0.15453230216132671 0.0032055715019124438 0 0.15849764294065671 -0.0060544572746906826 0 0.21174544862736719 0.0096628206364345465 0 0.20589386385567829 -0.0063134785331596111 0 0.2185782736923042 -0.0038367730406402641 0 0.20589386385567829 -0.0063134785331596111 0 0.2185782736923042 -0.0038367730406402641 0 0.2199828155312514 -0.0225516893132638 0 0.20589386385567829 -0.0063134785331596111 0 0.18863989258252481 -0.001979820774580698 0 0.1936475112771239 -0.030998707124919651 0 0.20589386385567829 -0.0063134785331596111 0 0.1936475112771239 -0.030998707124919651 0 0.20001428446098229 -0.034334459813343092 0 0.18863989258252481 -0.001979820774580698 0 0.1936475112771239 -0.030998707124919651 0 0.20589386385567829 -0.0063134785331596111 0 0.20001428446098229 -0.034334459813343092 0 0.18438258456793261 -0.021379302004443181 0 0.18863989258252481 -0.001979820774580698 0 0.1936475112771239 -0.030998707124919651 0 0.18610830639217099 -0.030062433202775862 0 0.18438258456793261 -0.021379302004443181 0 0.1936475112771239 -0.030998707124919651 0 0.20589386385567829 -0.0063134785331596111 0 0.20001428446098229 -0.034334459813343092 0 0.2199828155312514 -0.0225516893132638 0 0.20001428446098229 -0.034334459813343092 0 0.22061008072662569 -0.045125245157715169 0 0.20001428446098229 -0.034334459813343092 0 0.22061008072662569 -0.045125245157715169 0 0.2199828155312514 -0.0225516893132638 0 0.20001428446098229 -0.034334459813343092 0 0.19683654360934791 -0.049478981375062181 0 0.22061008072662569 -0.045125245157715169 0 0.1936475112771239 -0.030998707124919651 0 0.19683654360934791 -0.049478981375062181 0 0.18674227588606429 -0.037749552466939278 0 0.1936475112771239 -0.030998707124919651 0 0.19683654360934791 -0.049478981375062181 0 0.1936475112771239 -0.030998707124919651 0 0.20001428446098229 -0.034334459813343092 0 0.19683654360934791 -0.049478981375062181 0 0.1936475112771239 -0.030998707124919651 0 0.20001428446098229 -0.034334459813343092 0 0.18674227588606429 -0.037749552466939278 0 0.18610830639217099 -0.030062433202775862 0 0.1936475112771239 -0.030998707124919651 0 0.18434240851125541 -0.050289724698312777 0 0.18674227588606429 -0.037749552466939278 0 0.19683654360934791 -0.049478981375062181 0 0.20001428446098229 -0.034334459813343092 0 0.19683654360934791 -0.049478981375062181 0 0.19683654360934791 -0.049478981375062181 0 0.1929894301603077 -0.067813608174319001 0 0.2000429458732931 -0.068059913463883598 0 0.19683654360934791 -0.049478981375062181 0 0.21158346953455981 -0.057932445704329483 0 0.2000429458732931 -0.068059913463883598 0 0.19683654360934791 -0.049478981375062181 0 0.2000429458732931 -0.068059913463883598 0 0.19683654360934791 -0.049478981375062181 0 0.1929894301603077 -0.067813608174319001 0 0.18434240851125541 -0.050289724698312777 0 0.19683654360934791 -0.049478981375062181 0 0.1929894301603077 -0.067813608174319001 0 0.19683654360934791 -0.049478981375062181 0 0.21158346953455981 -0.057932445704329483 0 0.22061008072662569 -0.045125245157715169 0 0.24120587699226881 -0.055916030502087773 0 0.22061008072662569 -0.045125245157715169 0 0.2288443079289719 -0.069065642820655804 0 0.21158346953455981 -0.057932445704329483 0 0.22061008072662569 -0.045125245157715169 0 0.2288443079289719 -0.069065642820655804 0 0.24120587699226881 -0.055916030502087773 0 0.22061008072662569 -0.045125245157715169 0 0.25030159180115191 -0.034143426788088307 0 0.24120587699226881 -0.055916030502087773 0 0.23430517811137791 -0.037629801295311363 0 0.25030159180115191 -0.034143426788088307 0 0.23430517811137791 -0.037629801295311363 0 0.23651070060392609 -0.023431292744830981 0 0.22061008072662569 -0.045125245157715169 0 0.23430517811137791 -0.037629801295311363 0 0.2199828155312514 -0.0225516893132638 0 0.24120587699226881 -0.055916030502087773 0 0.22061008072662569 -0.045125245157715169 0 0.23430517811137791 -0.037629801295311363 0 0.2199828155312514 -0.0225516893132638 0 0.23651070060392609 -0.023431292744830981 0 0.2300866381754704 -0.0072438550720441714 0 0.23430517811137791 -0.037629801295311363 0 0.2199828155312514 -0.0225516893132638 0 0.23651070060392609 -0.023431292744830981 0 0.25030159180115191 -0.034143426788088307 0 0.23651070060392609 -0.023431292744830981 0 0.2464198669495459 -0.012097030270161889 0 0.23790413247208811 0.0091049515404343275 0 0.2464198669495459 -0.012097030270161889 0 0.2300866381754704 -0.0072438550720441714 0 0.23651070060392609 -0.023431292744830981 0 0.2464198669495459 -0.012097030270161889 0 0.2300866381754704 -0.0072438550720441714 0 0.2185782736923042 -0.0038367730406402641 0 0.2199828155312514 -0.0225516893132638 0 0.2300866381754704 -0.0072438550720441714 0 0.22518260227175371 0.0072623370788317187 0 0.2185782736923042 -0.0038367730406402641 0 0.2300866381754704 -0.0072438550720441714 0 0.20666963866093291 -0.1113398018781358 0 0.20399491490549271 -0.090961365670864353 0 0.20666963866093291 -0.1113398018781358 0 0.23081911420975029 -0.091789222750733895 0 0.20666963866093291 -0.1113398018781358 0 0.20399491490549271 -0.090961365670864353 0 0.23081911420975029 -0.091789222750733895 0 0.2184940671700534 -0.12394732724419751 0 0.20666963866093291 -0.1113398018781358 0 0.22056261316880149 -0.1108234873110058 0 0.2184940671700534 -0.12394732724419751 0 0.20975191972323501 -0.12432290509972491 0 0.20666963866093291 -0.1113398018781358 0 0.2184940671700534 -0.12394732724419751 0 0.20666963866093291 -0.1113398018781358 0 0.20975191972323501 -0.12432290509972491 0 0.20666963866093291 -0.1113398018781358 0 0.1971408692894723 -0.1190539635876471 0 0.20975191972323501 -0.12432290509972491 0 0.20666963866093291 -0.1113398018781358 0 0.18014950107347269 -0.1188522098678762 0 0.1971408692894723 -0.1190539635876471 0 0.19406318364410949 -0.13526348461287321 0 0.20666963866093291 -0.1113398018781358 0 0.1971408692894723 -0.1190539635876471 0 0.18014950107347269 -0.1188522098678762 0 0.1971408692894723 -0.1190539635876471 0 0.1922879604253335 -0.1099500278873989 0 0.20666963866093291 -0.1113398018781358 0 0.1971408692894723 -0.1190539635876471 0 0.1922879604253335 -0.1099500278873989 0 0.20666963866093291 -0.1113398018781358 0 0.19243594079672521 -0.096163448387799222 0 0.20399491490549271 -0.090961365670864353 0 0.18504385230606449 -0.10434071571553651 0 0.1922879604253335 -0.1099500278873989 0 0.19243594079672521 -0.096163448387799222 0 0.20666963866093291 -0.1113398018781358 0 0.1922879604253335 -0.1099500278873989 0 0.19243594079672521 -0.096163448387799222 0 0.20666963866093291 -0.1113398018781358 0 0.19243594079672521 -0.096163448387799222 0 0.1854866420256687 -0.084161575248007242 0 0.19040307974074269 -0.080139672987034255 0 0.20399491490549271 -0.090961365670864353 0 0.17842320588221819 -0.090172163349513806 0 0.19243594079672521 -0.096163448387799222 0 0.20399491490549271 -0.090961365670864353 0 0.17842320588221819 -0.090172163349513806 0 0.20399491490549271 -0.090961365670864353 0 0.17842320588221819 -0.090172163349513806 0 0.1854866420256687 -0.084161575248007242 0 0.20399491490549271 -0.090961365670864353 0 0.2000429458732931 -0.068059913463883598 0 0.20399491490549271 -0.090961365670864353 0 0.19040307974074269 -0.080139672987034255 0 0.2000429458732931 -0.068059913463883598 0 0.20399491490549271 -0.090961365670864353 0 0.19040307974074269 -0.080139672987034255 0 0.1929894301603077 -0.067813608174319001 0 0.2000429458732931 -0.068059913463883598 0 0.19040307974074269 -0.080139672987034255 0 0.1929894301603077 -0.067813608174319001 0 0.1929894301603077 -0.067813608174319001 0 0.2000429458732931 -0.068059913463883598 0 0.2000429458732931 -0.068059913463883598 0 0.2288443079289719 -0.069065642820655804 0 0.2000429458732931 -0.068059913463883598 0 0.21771238563745279 -0.081480669998114597 0 0.2288443079289719 -0.069065642820655804 0 0.21158346953455981 -0.057932445704329483 0 0.2000429458732931 -0.068059913463883598 0 0.2288443079289719 -0.069065642820655804 0 0.2000429458732931 -0.068059913463883598 0 0.20399491490549271 -0.090961365670864353 0 0.21771238563745279 -0.081480669998114597 0 0.20399491490549271 -0.090961365670864353 0 0.21771238563745279 -0.081480669998114597 0 0.23081911420975029 -0.091789222750733895 0 0.20399491490549271 -0.090961365670864353 0 0.23081911420975029 -0.091789222750733895 0 0.21771238563745279 -0.081480669998114597 0 0.23081911420975029 -0.091789222750733895 0 0.2288443079289719 -0.069065642820655804 0 0.25764566998465072 -0.070071372177431313 0 0.24120587699226881 -0.055916030502087773 0 0.2288443079289719 -0.069065642820655804 0 0.25764566998465072 -0.070071372177431313 0 0.2288443079289719 -0.069065642820655804 0 0.25764566998465072 -0.070071372177431313 0 0.2288443079289719 -0.069065642820655804 0 0.24423239209720191 -0.080930297464084477 0 0.25666672159796139 -0.092586939936295867 0 0.23081911420975029 -0.091789222750733895 0 0.23081911420975029 -0.091789222750733895 0 0.2288443079289719 -0.069065642820655804 0 0.24423239209720191 -0.080930297464084477 0 0.25666672159796139 -0.092586939936295867 0 0.23081911420975029 -0.091789222750733895 0 0.24423239209720191 -0.080930297464084477 0 0.23081911420975029 -0.091789222750733895 0 0.24423239209720191 -0.080930297464084477 0 0.25666672159796139 -0.092586939936295867 0 0.23081911420975029 -0.091789222750733895 0 0.23839025179526999 -0.1151992729885977 0 0.20666963866093291 -0.1113398018781358 0 0.23081911420975029 -0.091789222750733895 0 0.22056261316880149 -0.1108234873110058 0 0.23081911420975029 -0.091789222750733895 0 0.22056261316880149 -0.1108234873110058 0 0.23839025179526999 -0.1151992729885977 0 0.2184940671700534 -0.12394732724419751 0 0.22056261316880149 -0.1108234873110058 0 0.23839025179526999 -0.1151992729885977 0 0.2184940671700534 -0.12394732724419751 0 0.23839025179526999 -0.1151992729885977 0 0.22928680998153819 -0.13545484142638689 0 0.25915390151091949 -0.11811210275817149 0 0.25133622254172122 -0.13557462765415079 0 0.23839025179526999 -0.1151992729885977 0 0.25133622254172122 -0.13557462765415079 0 0.25208407187516418 -0.1419613505697605 0 0.23274332603383319 -0.13914027229300069 0 0.25133622254172122 -0.13557462765415079 0 0.23839025179526999 -0.1151992729885977 0 0.22928680998153819 -0.13545484142638689 0 0.25133622254172122 -0.13557462765415079 0 0.22928680998153819 -0.13545484142638689 0 0.25133622254172122 -0.13557462765415079 0 0.23274332603383319 -0.13914027229300069 0 0.22928680998153819 -0.13545484142638689 0 0.25208407187516418 -0.1419613505697605 0 0.23274332603383319 -0.13914027229300069 0 0.2530488896403309 -0.16079061319898569 0 0.23274332603383319 -0.13914027229300069 0 0.2530488896403309 -0.16079061319898569 0 0.23274332603383319 -0.13914027229300069 0 0.2334622085995452 -0.15779257262933219 0 0.2530488896403309 -0.16079061319898569 0 0.25208407187516418 -0.1419613505697605 0 0.23274332603383319 -0.13914027229300069 0 0.22694604844669111 -0.15137512496012309 0 0.2202725953444182 -0.1456731206256075 0 0.22100128495381829 -0.16152072110389429 0 0.22694604844669111 -0.15137512496012309 0 0.23274332603383319 -0.13914027229300069 0 0.2334622085995452 -0.15779257262933219 0 0.22694604844669111 -0.15137512496012309 0 0.2202725953444182 -0.1456731206256075 0 0.23274332603383319 -0.13914027229300069 0 0.23274332603383319 -0.13914027229300069 0 0.20959101376118139 -0.13576323162740581 0 0.22928680998153819 -0.13545484142638689 0 0.2116749968128239 -0.1353591630196288 0 0.23274332603383319 -0.13914027229300069 0 0.22928680998153819 -0.13545484142638689 0 0.2116749968128239 -0.1353591630196288 0 0.2184940671700534 -0.12394732724419751 0 0.22928680998153819 -0.13545484142638689 0 0.2116749968128239 -0.1353591630196288 0 0.2202725953444182 -0.1456731206256075 0 0.23274332603383319 -0.13914027229300069 0 0.20959101376118139 -0.13576323162740581 0 0.23274332603383319 -0.13914027229300069 0 0.22928680998153819 -0.13545484142638689 0 0.2184940671700534 -0.12394732724419751 0 0.22928680998153819 -0.13545484142638689 0 0.23274332603383319 -0.13914027229300069 0 0.20959101376118139 -0.13576323162740581 0 0.2116749968128239 -0.1353591630196288 0 0.20975191972323501 -0.12432290509972491 0 0.2116749968128239 -0.1353591630196288 0 0.19406318364410949 -0.13526348461287321 0 0.2184940671700534 -0.12394732724419751 0 0.20975191972323501 -0.12432290509972491 0 0.2116749968128239 -0.1353591630196288 0 0.20959101376118139 -0.13576323162740581 0 0.2116749968128239 -0.1353591630196288 0 0.19406318364410949 -0.13526348461287321 0 0.2202725953444182 -0.1456731206256075 0 0.21077041390333781 -0.15496976615408631 0 0.22100128495381829 -0.16152072110389429 0 0.2202725953444182 -0.1456731206256075 0 0.20959101376118139 -0.13576323162740581 0 0.21077041390333781 -0.15496976615408631 0 0.20959101376118139 -0.13576323162740581 0 0.21077041390333781 -0.15496976615408631 0 0.19406318364410949 -0.13526348461287321 0 0.21077041390333781 -0.15496976615408631 0 0.19019323353294471 -0.15547991582157239 0 0.19406318364410949 -0.13526348461287321 0 0.21077041390333781 -0.15496976615408631 0 0.19406318364410949 -0.13526348461287321 0 0.20975191972323501 -0.12432290509972491 0 0.1971408692894723 -0.1190539635876471 0 0.19406318364410949 -0.13526348461287321 0 0.2116749968128239 -0.1353591630196288 0 0.19406318364410949 -0.13526348461287321 0 0.2064216300685435 -0.1763378775815001 0 0.19333004299069351 -0.19482382871724169 0 0.185888281266576 -0.1738959907954824 0 0.21077041390333781 -0.15496976615408631 0 0.19019323353294471 -0.15547991582157239 0 0.2064216300685435 -0.1763378775815001 0 0.19019323353294471 -0.15547991582157239 0 0.2064216300685435 -0.1763378775815001 0 0.185888281266576 -0.1738959907954824 0 0.21077041390333781 -0.15496976615408631 0 0.2064216300685435 -0.1763378775815001 0 0.22100128495381829 -0.16152072110389429 0 0.2064216300685435 -0.1763378775815001 0 0.22637928715471201 -0.1750627007060517 0 0.22100128495381829 -0.16152072110389429 0 0.2064216300685435 -0.1763378775815001 0 0.22637928715471201 -0.1750627007060517 0 0.2213864998634191 -0.19074186604973761 0 0.22637928715471201 -0.1750627007060517 0 0.2363010186387848 -0.18586727398715949 0 0.2213864998634191 -0.19074186604973761 0 0.22637928715471201 -0.1750627007060517 0 0.22100128495381829 -0.16152072110389429 0 0.2334622085995452 -0.15779257262933219 0 0.22637928715471201 -0.1750627007060517 0 0.2334622085995452 -0.15779257262933219 0 0.24133419147104179 -0.17110858194103351 0 0.22694604844669111 -0.15137512496012309 0 0.22100128495381829 -0.16152072110389429 0 0.2334622085995452 -0.15779257262933219 0 0.2530488896403309 -0.16079061319898569 0 0.2334622085995452 -0.15779257262933219 0 0.24133419147104179 -0.17110858194103351 0 0.2550208565069661 -0.17514012483034949 0 0.2530488896403309 -0.16079061319898569 0 0.24133419147104179 -0.17110858194103351 0 0.22637928715471201 -0.1750627007060517 0 0.24133419147104179 -0.17110858194103351 0 0.2363010186387848 -0.18586727398715949 0 0.25030889548151403 -0.1837077448593728 0 0.2550208565069661 -0.17514012483034949 0 0.24133419147104179 -0.17110858194103351 0 0.25030889548151403 -0.1837077448593728 0 0.24133419147104179 -0.17110858194103351 0 0.2363010186387848 -0.18586727398715949 0 0.25030889548151403 -0.1837077448593728 0 0.2363010186387848 -0.18586727398715949 0 0.24624710011957149 -0.19756578472926509 0 0.2363010186387848 -0.18586727398715949 0 0.24624710011957149 -0.19756578472926509 0 0.23232272155890341 -0.19906227567560569 0 0.24624710011957149 -0.19756578472926509 0 0.2390873575194972 -0.2119906927462733 0 0.23232272155890341 -0.19906227567560569 0 0.25806059678156651 -0.21160485628964759 0 0.24624710011957149 -0.19756578472926509 0 0.2390873575194972 -0.2119906927462733 0 0.25806059678156651 -0.21160485628964759 0 0.2390873575194972 -0.2119906927462733 0 0.2485278721491469 -0.22983386195931649 0 0.22156570902884701 -0.2081716276760221 0 0.2275965143199381 -0.22680811778712909 0 0.21130945108473639 -0.22000441216527869 0 0.2390873575194972 -0.2119906927462733 0 0.22156570902884701 -0.2081716276760221 0 0.23232272155890341 -0.19906227567560569 0 0.2390873575194972 -0.2119906927462733 0 0.22156570902884701 -0.2081716276760221 0 0.2275965143199381 -0.22680811778712909 0 0.22156570902884701 -0.2081716276760221 0 0.2213864998634191 -0.19074186604973761 0 0.23232272155890341 -0.19906227567560569 0 0.2363010186387848 -0.18586727398715949 0 0.2213864998634191 -0.19074186604973761 0 0.23232272155890341 -0.19906227567560569 0 0.2410490216361528 -0.25300372010805161 0 0.2485278721491469 -0.22983386195931649 0 0.2275965143199381 -0.22680811778712909 0 0.25787859859726192 -0.24372773219337371 0 0.2410490216361528 -0.25300372010805161 0 0.2485278721491469 -0.22983386195931649 0 0.2390873575194972 -0.2119906927462733 0 0.2485278721491469 -0.22983386195931649 0 0.2275965143199381 -0.22680811778712909 0 0.2410490216361528 -0.25300372010805161 0 0.2275965143199381 -0.22680811778712909 0 0.2136455624920251 -0.24586339942155419 0 0.2410490216361528 -0.25300372010805161 0 0.2136455624920251 -0.24586339942155419 0 0.2136455624920251 -0.24586339942155419 0 0.1995187067769538 -0.22648505830905971 0 0.1970165427207646 -0.2431475676051908 0 0.2275965143199381 -0.22680811778712909 0 0.2136455624920251 -0.24586339942155419 0 0.21130945108473639 -0.22000441216527869 0 0.2136455624920251 -0.24586339942155419 0 0.21130945108473639 -0.22000441216527869 0 0.1995187067769538 -0.22648505830905971 0 0.1995187067769538 -0.22648505830905971 0 0.1970165427207646 -0.2431475676051908 0 0.1843931124890181 -0.23269732176232691 0 0.21130945108473639 -0.22000441216527869 0 0.1995187067769538 -0.22648505830905971 0 0.19847161958806309 -0.21206345826637629 0 0.2064216300685435 -0.1763378775815001 0 0.2213864998634191 -0.19074186604973761 0 0.20705859430259141 -0.20063481153153051 0 0.22156570902884701 -0.2081716276760221 0 0.2213864998634191 -0.19074186604973761 0 0.20705859430259141 -0.20063481153153051 0 0.22156570902884701 -0.2081716276760221 0 0.21130945108473639 -0.22000441216527869 0 0.20705859430259141 -0.20063481153153051 0 0.21130945108473639 -0.22000441216527869 0 0.20705859430259141 -0.20063481153153051 0 0.19847161958806309 -0.21206345826637629 0 0.19847161958806309 -0.21206345826637629 0 0.19333004299069351 -0.19482382871724169 0 0.184507054165965 -0.21658659277756609 0 0.1995187067769538 -0.22648505830905971 0 0.19847161958806309 -0.21206345826637629 0 0.184507054165965 -0.21658659277756609 0 0.20705859430259141 -0.20063481153153051 0 0.19847161958806309 -0.21206345826637629 0 0.19333004299069351 -0.19482382871724169 0 0.2064216300685435 -0.1763378775815001 0 0.20705859430259141 -0.20063481153153051 0 0.19333004299069351 -0.19482382871724169 0 0.1776330785524223 -0.18942424135099509 0 0.184507054165965 -0.21658659277756609 0 0.16837846483810831 -0.20319749351435479 0 0.19333004299069351 -0.19482382871724169 0 0.1776330785524223 -0.18942424135099509 0 0.184507054165965 -0.21658659277756609 0 0.1776330785524223 -0.18942424135099509 0 0.184507054165965 -0.21658659277756609 0 0.184507054165965 -0.21658659277756609 0 0.1749867686249286 -0.21735889230250449 0 0.16837846483810831 -0.20319749351435479 0 0.1749867686249286 -0.21735889230250449 0 0.16837846483810831 -0.20319749351435479 0 0.15045483047290331 -0.2082327262959493 0 0.1749867686249286 -0.21735889230250449 0 0.15045483047290331 -0.2082327262959493 0 0.1749867686249286 -0.21735889230250449 0 0.16226861639455931 -0.22172210758959859 0 0.15045483047290331 -0.2082327262959493 0 0.16837846483810831 -0.20319749351435479 0 0.15045483047290331 -0.2082327262959493 0 0.15431059237432221 -0.18438501484475869 0 0.1776330785524223 -0.18942424135099509 0 0.16837846483810831 -0.20319749351435479 0 0.15431059237432221 -0.18438501484475869 0 0.1970165427207646 -0.2431475676051908 0 0.18013525364959199 -0.24590787480667409 0 0.1843931124890181 -0.23269732176232691 0 0.18013525364959199 -0.24590787480667409 0 0.1843931124890181 -0.23269732176232691 0 0.17030829067285161 -0.2305872157882054 0 0.1995187067769538 -0.22648505830905971 0 0.1749867686249286 -0.21735889230250449 0 0.1995187067769538 -0.22648505830905971 0 0.1749867686249286 -0.21735889230250449 0 0.1843931124890181 -0.23269732176232691 0 0.1995187067769538 -0.22648505830905971 0 0.184507054165965 -0.21658659277756609 0 0.1749867686249286 -0.21735889230250449 0 0.1749867686249286 -0.21735889230250449 0 0.1843931124890181 -0.23269732176232691 0 0.17030829067285161 -0.2305872157882054 0 0.16226861639455931 -0.22172210758959859 0 0.17030829067285161 -0.2305872157882054 0 0.15332457580755371 -0.23070959597173549 0 0.1749867686249286 -0.21735889230250449 0 0.16226861639455931 -0.22172210758959859 0 0.17030829067285161 -0.2305872157882054 0 0.16103468924722281 -0.25381861710109321 0 0.18013525364959199 -0.24590787480667409 0 0.17030829067285161 -0.2305872157882054 0 0.16103468924722281 -0.25381861710109321 0 0.17030829067285161 -0.2305872157882054 0 0.15332457580755371 -0.23070959597173549 0 0.16103468924722281 -0.25381861710109321 0 0.1412434604122122 -0.24631040783256791 0 0.15332457580755371 -0.23070959597173549 0 0.1412434604122122 -0.24631040783256791 0 0.15332457580755371 -0.23070959597173549 0 0.1284413173888232 -0.22347585252773641 0 0.15332457580755371 -0.23070959597173549 0 0.1284413173888232 -0.22347585252773641 0 0.15045483047290331 -0.2082327262959493 0 0.16226861639455931 -0.22172210758959859 0 0.15332457580755371 -0.23070959597173549 0 0.15045483047290331 -0.2082327262959493 0 0.1200034520355143 -0.24749468667538321 0 0.1412434604122122 -0.24631040783256791 0 0.1284413173888232 -0.22347585252773641 0 0.15045483047290331 -0.2082327262959493 0 0.12592289232087811 -0.19910656028939411 0 0.15431059237432221 -0.18438501484475869 0 0.15045483047290331 -0.2082327262959493 0 0.12592289232087811 -0.19910656028939411 0 0.1284413173888232 -0.22347585252773641 0 0.15045483047290331 -0.2082327262959493 0 0.12592289232087811 -0.19910656028939411 0 0.11404320040195411 -0.17785048998131209 0 0.12592289232087811 -0.19910656028939411 0 0.1362427207560932 -0.1734399905344442 0 0.12592289232087811 -0.19910656028939411 0 0.1362427207560932 -0.1734399905344442 0 0.15431059237432221 -0.18438501484475869 0 0.1362427207560932 -0.1734399905344442 0 0.15431059237432221 -0.18438501484475869 0 0.1498051255961938 -0.157092757972084 0 0.11404320040195411 -0.17785048998131209 0 0.1362427207560932 -0.1734399905344442 0 0.1305387904294309 -0.15561497697083931 0 0.1362427207560932 -0.1734399905344442 0 0.1498051255961938 -0.157092757972084 0 0.1305387904294309 -0.15561497697083931 0 0.1498051255961938 -0.157092757972084 0 0.1305387904294309 -0.15561497697083931 0 0.13638976604354719 -0.13495016646355951 0 0.1161887790728692 -0.1476769396888597 0 0.1305387904294309 -0.15561497697083931 0 0.13638976604354719 -0.13495016646355951 0 0.12800820934211829 -0.12401417466047961 0 0.13638976604354719 -0.13495016646355951 0 0.1486045981545247 -0.12747252536747111 0 0.13638976604354719 -0.13495016646355951 0 0.16388512732533739 -0.13509953849785281 0 0.13638976604354719 -0.13495016646355951 0 0.1486045981545247 -0.12747252536747111 0 0.16388512732533739 -0.13509953849785281 0 0.1498051255961938 -0.157092757972084 0 0.13638976604354719 -0.13495016646355951 0 0.16388512732533739 -0.13509953849785281 0 0.16388512732533739 -0.13509953849785281 0 0.17075910293887969 -0.16226188992442411 0 0.1498051255961938 -0.157092757972084 0 0.16388512732533739 -0.13509953849785281 0 0.17075910293887969 -0.16226188992442411 0 0.18014950107347269 -0.1188522098678762 0 0.16265603278097029 -0.1302428005884553 0 0.16388512732533739 -0.13509953849785281 0 0.16095359288685571 -0.1184472051676727 0 0.1486045981545247 -0.12747252536747111 0 0.16265603278097029 -0.1302428005884553 0 0.1486045981545247 -0.12747252536747111 0 0.16265603278097029 -0.1302428005884553 0 0.16388512732533739 -0.13509953849785281 0 0.16265603278097029 -0.1302428005884553 0 0.16388512732533739 -0.13509953849785281 0 0.19406318364410949 -0.13526348461287321 0 0.16388512732533739 -0.13509953849785281 0 0.18014950107347269 -0.1188522098678762 0 0.19406318364410949 -0.13526348461287321 0 0.18014950107347269 -0.1188522098678762 0 0.19406318364410949 -0.13526348461287321 0 0.16388512732533739 -0.13509953849785281 0 0.19019323353294471 -0.15547991582157239 0 0.16388512732533739 -0.13509953849785281 0 0.17075910293887969 -0.16226188992442411 0 0.19019323353294471 -0.15547991582157239 0 0.19406318364410949 -0.13526348461287321 0 0.16388512732533739 -0.13509953849785281 0 0.19019323353294471 -0.15547991582157239 0 0.185888281266576 -0.1738959907954824 0 0.17075910293887969 -0.16226188992442411 0 0.1776330785524223 -0.18942424135099509 0 0.185888281266576 -0.1738959907954824 0 0.17075910293887969 -0.16226188992442411 0 0.1776330785524223 -0.18942424135099509 0 0.17075910293887969 -0.16226188992442411 0 0.19333004299069351 -0.19482382871724169 0 0.1776330785524223 -0.18942424135099509 0 0.185888281266576 -0.1738959907954824 0 0.1776330785524223 -0.18942424135099509 0 0.15431059237432221 -0.18438501484475869 0 0.17075910293887969 -0.16226188992442411 0 0.15431059237432221 -0.18438501484475869 0 0.1498051255961938 -0.157092757972084 0 0.17075910293887969 -0.16226188992442411 0 
</DataArray>
</Points>
<Cells>
<DataArray type="UInt32" Name="connectivity" format="ascii">
0 1 2 3 4 5 6 7 8 9 10 11 12 13 14 15 16 17 18 19 20 21 22 23 24 25 26 27 28 29 30 31 32 33 34 35 36 37 38 39 40 41 42 43 44 45 46 47 48 49 50 51 52 53 54 55 56 57 58 59 60 61 62 63 64 65 66 67 68 69 70 71 72 73 74 75 76 77 78 79 80 81 82 83 84 85 86 87 88 89 90 91 92 93 94 95 96 97 98 99 100 101 102 103 104 105 106 107 108 109 110 111 112 113 114 115 116 117 118 119 120 121 122 123 124 125 126 127 128 129 130 131 132 133 134 135 136 137 138 139 140 141 142 143 144 145 146 147 148 149 150 151 152 153 154 155 156 157 158 159 160 161 162 163 164 165 166 167 168 169 170 171 172 173 174 175 176 177 178 179 180 181 182 183 184 185 186 187 188 189 190 191 192 193 194 195 196 197 198 199 200 201 202 203 204 205 206 207 208 209 210 211 212 213 214 215 216 217 218 219 220 221 222 223 224 225 226 227 228 229 230 231 232 233 234 235 236 237 238 239 240 241 242 243 244 245 246 247 248 249 250 251 252 253 254 255 256 257 258 259 260 261 262 263 264 265 266 267 268 269 270 271 272 273 274 275 276 277 278 279 280 281 282 283 284 285 286 287 288 289 290 291 292 293 294 295 296 297 298 299 300 301 302 303 304 305 306 307 308 309 310 311 312 313 314 315 316 317 318 319 320 321 322 323 324 325 326 327 328 329 330 331 332 333 334 335 336 337 338 339 340 341 342 343 344 345 346 347 348 349 350 351 352 353 354 355 356 357 358 359 360 361 362 363 364 365 366 367 368 369 370 371 372 373 374 375 376 377 378 379 380 381 382 383 384 385 386 387 388 389 390 391 392 393 394 395 396 397 398 399 400 401 402 403 404 405 406 407 408 409 410 411 412 413 414 415 416 417 418 419 420 421 422 423 424 425 426 427 428 429 430 431 432 433 434 435 436 437 438 439 440 441 442 443 444 445 446 447 448 449 450 451 452 453 454 455 456 457 458 459 460 461 462 463 464 465 466 467 468 469 470 471 472 473 474 475 476 477 478 479 480 481 482 483 484 485 486 487 488 489 490 491 492 493 494 495 496 497 498 499 500 501 502 503 504 505 506 507 508 509 510 511 512 513 514 515 516 517 518 519 520 521 522 523 524 525 526 527 528 529 530 531 532 533 534 535 536 537 538 539 540 541 542 543 544 545 546 547 548 549 550 551 552 553 554 555 556 557 558 559 560 561 562 563 564 565 566 567 568 569 570 571 572 573 574 575 576 577 578 579 580 581 582 583 584 585 586 587 588 589 590 591 592 593 594 595 596 597 598 599 600 601 602 603 604 605 606 607 608 609 610 611 612 613 614 615 616 617 618 619 620 621 622 623 624 625 626 627 628 629 630 631 632 633 634 635 636 637 638 639 640 641 642 643 644 645 646 647 648 649 650 651 652 653 654 655 656 657 658 659 660 661 662 663 664 665 666 667 668 669 670 671 672 673 674 675 676 677 678 679 680 681 682 683 684 685 686 687 688 689 690 691 692 693 694 695 696 697 698 699 700 701 702 703 704 705 706 707 708 709 710 711 712 713 714 715 716 717 718 719 720 721 722 723 724 725 726 727 728 729 730 731 732 733 734 735 736 737 738 739 740 741 742 743 744 745 746 747 748 749 750 751 752 753 754 755 756 757 758 759 760 761 762 763 764 765 766 767 768 769 770 771 772 773 774 775 776 777 778 779 780 781 782 783 784 785 786 787 788 789 790 791 792 793 794 795 796 797 798 799 800 801 802 803 804 805 806 807 808 809 810 811 812 813 814 815 816 817 818 819 820 821 822 823 824 825 826 827 828 829 830 831 832 833 834 835 836 837 838 839 840 841 842 843 844 845 846 847 848 849 850 851 852 853 854 855 856 857 858 859 860 861 862 863 864 865 866 867 868 869 870 871 872 873 874 875 876 877 878 879 880 881 882 883 884 885 886 887 888 889 890 891 892 893 894 895 896 897 898 899 900 901 902 903 904 905 906 907 908 909 910 911 912 913 914 915 916 917 918 919 920 921 922 923 924 925 926 927 928 929 930 931 932 933 934 935 936 937 938 939 940 941 942 943 944 945 946 947 948 949 950 951 952 953 954 955 956 957 958 959 960 961 962 963 964 965 966 967 968 969 970 971 972 973 974 975 976 977 978 979 980 981 982 983 984 985 986 987 988 989 990 991 992 993 994 995 996 997 998 999 1000 1001 1002 1003 1004 1005 1006 1007 1008 1009 1010 1011 1012 1013 1014 1015 1016 1017 1018 1019 1020 1021 1022 1023 1024 1025 1026 1027 1028 1029 1030 1031 1032 1033 1034 1035 1036 1037 1038 1039 1040 1041 1042 1043 1044 1045 1046 1047 1048 1049 1050 1051 1052 1053 1054 1055 1056 1057 1058 1059 1060 1061 1062 1063 1064 1065 1066 1067 1068 1069 1070 1071 1072 1073 1074 1075 1076 1077 1078 1079 1080 1081 1082 1083 1084 1085 1086 1087 1088 1089 1090 1091 1092 1093 1094 1095 1096 1097 1098 1099 1100 1101 1102 1103 1104 1105 1106 1107 1108 1109 1110 1111 1112 1113 1114 1115 1116 1117 1118 1119 1120 1121 1122 1123 1124 1125 1126 1127 1128 1129 1130 1131 1132 1133 1134 1135 1136 1137 1138 1139 1140 1141 1142 1143 1144 1145 1146 1147 1148 1149 1150 1151 1152 1153 1154 1155 1156 1157 1158 1159 1160 1161 1162 1163 1164 1165 1166 1167 1168 1169 1170 1171 1172 1173 1174 1175 1176 1177 1178 1179 1180 1181 1182 1183 1184 1185 1186 1187 1188 1189 1190 1191 1192 1193 1194 1195 1196 1197 1198 1199 1200 1201 1202 1203 1204 1205 1206 1207 1208 1209 1210 1211 1212 1213 1214 1215 1216 1217 1218 1219 1220 1221 1222 1223 1224 1225 1226 1227 1228 1229 1230 1231 1232 1233 1234 1235 1236 1237 1238 1239 1240 1241 1242 1243 1244 1245 1246 1247 1248 1249 1250 1251 1252 1253 1254 1255 1256 1257 1258 1259 1260 1261 1262 1263 1264 1265 1266 1267 1268 1269 1270 1271 1272 1273 1274 1275 1276 1277 1278 1279 1280 1281 1282 1283 1284 1285 1286 1287 1288 1289 1290 1291 1292 1293 1294 1295 1296 1297 1298 1299 1300 1301 1302 1303 1304 1305 1306 1307 1308 1309 1310 1311 1312 1313 1314 1315 1316 1317 1318 1319 1320 1321 1322 1323 1324 1325 1326 1327 1328 1329 1330 1331 1332 1333 1334 1335 1336 1337 1338 1339 1340 1341 1342 1343 1344 1345 1346 1347 1348 1349 1350 1351 1352 1353 1354 1355 1356 1357 1358 1359 1360 1361 1362 1363 1364 1365 1366 1367 1368 1369 1370 1371 1372 1373 1374 1375 1376 1377 1378 1379 1380 1381 1382 1383 1384 1385 1386 1387 1388 1389 1390 1391 1392 1393 1394 1395 1396 1397 1398 1399 1400 1401 1402 1403 1404 1405 1406 1407 1408 1409 1410 1411 1412 1413 1414 1415 1416 1417 1418 1419 1420 1421 1422 1423 1424 1425 1426 1427 1428 1429 1430 1431 1432 1433 1434 1435 1436 1437 1438 1439 1440 1441 1442 1443 1444 1445 1446 1447 1448 1449 1450 1451 1452 1453 1454 1455 1456 1457 1458 1459 1460 1461 1462 1463 1464 1465 1466 1467 1468 1469 1470 1471 1472 1473 1474 1475 1476 1477 1478 1479 1480 1481 1482 1483 1484 1485 1486 1487 1488 1489 1490 1491 1492 1493 1494 1495 1496 1497 1498 1499 1500 1501 1502 1503 1504 1505 1506 1507 1508 1509 1510 1511 1512 1513 1514 1515 1516 1517 1518 1519 1520 1521 1522 1523 1524 1525 1526 1527 1528 1529 1530 1531 1532 1533 1534 1535 1536 1537 1538 1539 1540 1541 1542 1543 1544 1545 1546 1547 1548 1549 1550 1551 1552 1553 1554 1555 1556 1557 1558 1559 1560 1561 1562 1563 1564 1565 1566 1567 1568 1569 1570 1571 1572 1573 1574 1575 1576 1577 1578 1579 1580 1581 1582 1583 1584 1585 1586 1587 1588 1589 1590 1591 1592 1593 1594 1595 1596 1597 1598 1599 1600 1601 1602 1603 1604 1605 1606 1607 1608 1609 1610 1611 1612 1613 1614 1615 1616 1617 1618 1619 1620 1621 1622 1623 1624 1625 1626 1627 1628 1629 1630 1631 1632 1633 1634 1635 1636 1637 1638 1639 1640 1641 1642 1643 1644 1645 1646 1647 1648 1649 1650 1651 1652 1653 1654 1655 1656 1657 1658 1659 1660 1661 1662 1663 1664 1665 1666 1667 1668 1669 1670 1671 1672 1673 1674 1675 1676 1677 1678 1679 1680 1681 1682 1683 1684 1685 1686 1687 1688 1689 1690 1691 1692 1693 1694 1695 1696 1697 1698 1699 1700 1701 1702 1703 1704 1705 1706 1707 1708 1709 1710 1711 1712 1713 1714 1715 1716 1717 1718 1719 1720 1721 1722 1723 1724 1725 1726 1727 1728 1729 1730 1731 1732 1733 1734 1735 1736 1737 1738 1739 1740 1741 1742 1743 1744 1745 1746 1747 1748 1749 1750 1751 1752 1753 1754 1755 1756 1757 1758 1759 1760 1761 1762 1763 1764 1765 1766 1767 1768 1769 1770 1771 1772 1773 1774 1775 1776 1777 1778 1779 1780 1781 1782 1783 1784 1785 1786 1787 1788 1789 1790 1791 1792 1793 1794 1795 1796 1797 1798 1799 1800 1801 1802 1803 1804 1805 1806 1807 1808 1809 1810 1811 1812 1813 1814 1815 1816 1817 1818 1819 1820 1821 1822 1823 1824 1825 1826 1827 1828 1829 1830 1831 1832 1833 1834 1835 1836 1837 1838 1839 1840 1841 1842 1843 1844 1845 1846 1847 1848 1849 1850 1851 1852 1853 1854 1855 1856 1857 1858 1859 1860 1861 1862 1863 1864 1865 1866 1867 1868 1869 1870 1871 1872 1873 1874 1875 1876 1877 1878 1879 1880 1881 1882 1883 1884 1885 1886 1887 1888 1889 1890 1891 1892 1893 1894 1895 1896 1897 1898 1899 1900 1901 1902 1903 1904 1905 1906 1907 1908 1909 1910 1911 1912 1913 1914 1915 1916 1917 1918 1919 1920 1921 1922 1923 1924 1925 1926 1927 1928 1929 1930 1931 1932 1933 1934 1935 1936 1937 1938 1939 1940 1941 1942 1943 1944 1945 1946 1947 1948 1949 1950 1951 1952 1953 1954 1955 1956 1957 1958 1959 1960 1961 1962 1963 1964 1965 1966 1967 1968 1969 1970 1971 1972 1973 1974 1975 1976 1977 1978 1979 1980 1981 1982 1983 1984 1985 1986 1987 1988 1989 1990 1991 1992 1993 1994 1995 1996 1997 1998 1999 2000 2001 2002 2003 2004 2005 2006 2007 2008 2009 2010 2011 2012 2013 2014 2015 2016 2017 2018 2019 2020 2021 2022 2023 2024 2025 2026 2027 2028 2029 2030 2031 2032 2033 2034 2035 2036 2037 2038 2039 2040 2041 2042 2043 2044 2045 2046 2047 2048 2049 2050 2051 2052 2053 2054 2055 2056 2057 2058 2059 2060 2061 2062 2063 2064 2065 2066 2067 2068 2069 2070 2071 2072 2073 2074 2075 2076 2077 2078 2079 2080 2081 2082 2083 2084 2085 2086 2087 2088 2089 2090 2091 2092 2093 2094 2095 2096 2097 2098 2099 2100 2101 2102 2103 2104 2105 2106 2107 2108 2109 2110 2111 2112 2113 2114 2115 2116 2117 2118 2119 2120 2121 2122 2123 2124 2125 2126 2127 2128 2129 2130 2131 2132 2133 2134 2135 2136 2137 2138 2139 2140 2141 2142 2143 2144 2145 2146 2147 2148 2149 2150 2151 2152 2153 2154 2155 2156 2157 2158 2159 2160 2161 2162 2163 2164 2165 2166 2167 2168 2169 2170 2171 2172 2173 2174 2175 2176 2177 2178 2179 2180 2181 2182 2183 2184 2185 2186 2187 2188 2189 2190 2191 2192 2193 2194 2195 2196 2197 2198 2199 2200 2201 2202 2203 2204 2205 2206 2207 2208 2209 2210 2211 2212 2213 2214 2215 2216 2217 2218 2219 2220 2221 2222 2223 2224 2225 2226 2227 2228 2229 2230 2231 2232 2233 2234 2235 2236 2237 2238 2239 2240 2241 2242 2243 2244 2245 2246 2247 2248 2249 2250 2251 2252 2253 2254 2255 2256 2257 2258 2259 2260 2261 2262 2263 2264 2265 2266 2267 2268 2269 2270 2271 2272 2273 2274 2275 2276 2277 2278 2279 2280 2281 2282 2283 2284 2285 2286 2287 2288 2289 2290 2291 2292 2293 2294 2295 2296 2297 2298 2299 2300 2301 2302 2303 2304 2305 2306 2307 2308 2309 2310 2311 2312 2313 2314 2315 2316 2317 2318 2319 2320 2321 2322 2323 2324 2325 2326 2327 2328 2329 2330 2331 2332 2333 2334 2335 2336 2337 2338 2339 2340 2341 2342 2343 2344 2345 2346 2347 2348 2349 2350 2351 2352 2353 2354 2355 2356 2357 2358 2359 2360 2361 2362 2363 2364 2365 2366 2367 2368 2369 2370 2371 2372 2373 2374 2375 2376 2377 2378 2379 2380 2381 2382 2383 2384 2385 2386 2387 2388 2389 2390 2391 2392 2393 2394 2395 2396 2397 2398 2399 2400 2401 2402 2403 2404 2405 2406 2407 2408 2409 2410 2411 2412 2413 2414 2415 2416 2417 2418 2419 2420 2421 2422 2423 2424 2425 2426 2427 2428 2429 2430 2431 2432 2433 2434 2435 2436 2437 2438 2439 2440 2441 2442 2443 2444 2445 2446 2447 2448 2449 2450 2451 2452 2453 2454 2455 2456 2457 2458 2459 2460 2461 2462 2463 2464 2465 2466 2467 2468 2469 2470 2471 2472 2473 2474 2475 2476 2477 2478 2479 2480 2481 2482 2483 2484 2485 2486 2487 2488 2489 2490 2491 2492 2493 2494 2495 2496 2497 2498 2499 2500 2501 2502 2503 2504 2505 2506 2507 2508 2509 2510 2511 2512 2513 2514 2515 2516 2517 2518 2519 2520 2521 2522 2523 2524 2525 2526 2527 2528 2529 2530 2531 2532 2533 2534 2535 2536 2537 2538 2539 2540 2541 2542 2543 2544 2545 2546 2547 2548 2549 2550 2551 2552 2553 2554 2555 2556 2557 2558 2559 2560 2561 2562 2563 2564 2565 2566 2567 2568 2569 2570 2571 2572 2573 2574 2575 2576 2577 2578 2579 2580 2581 2582 2583 2584 2585 2586 2587 2588 2589 2590 2591 2592 2593 2594 2595 2596 2597 2598 2599 2600 2601 2602 2603 2604 2605 2606 2607 2608 2609 2610 2611 2612 2613 2614 2615 2616 2617 2618 2619 2620 2621 2622 2623 2624 2625 2626 2627 2628 2629 2630 2631 2632 2633 2634 2635 2636 2637 2638 2639 2640 2641 2642 2643 2644 2645 2646 2647 2648 2649 2650 2651 2652 2653 2654 2655 2656 2657 2658 2659 2660 2661 2662 2663 2664 2665 2666 2667 2668 2669 2670 2671 2672 2673 2674 2675 2676 2677 2678 2679 2680 2681 2682 2683 2684 2685 2686 2687 2688 2689 2690 2691 2692 2693 2694 2695 2696 2697 2698 2699 2700 2701 2702 2703 2704 2705 2706 2707 2708 2709 2710 2711 2712 2713 2714 2715 2716 2717 2718 2719 2720 2721 2722 2723 2724 2725 2726 2727 2728 2729 2730 2731 2732 2733 2734 2735 2736 2737 2738 2739 2740 2741 2742 2743 2744 2745 2746 2747 2748 2749 2750 2751 2752 2753 2754 2755 2756 2757 2758 2759 2760 2761 2762 2763 2764 2765 2766 2767 2768 2769 2770 2771 2772 2773 2774 2775 2776 2777 2778 2779 2780 2781 2782 2783 2784 2785 2786 2787 2788 2789 2790 2791 2792 2793 2794 2795 2796 2797 2798 2799 2800 2801 2802 2803 2804 2805 2806 2807 2808 2809 2810 2811 2812 2813 2814 2815 2816 2817 2818 2819 2820 2821 2822 2823 2824 2825 2826 2827 2828 2829 2830 2831 2832 2833 2834 2835 2836 2837 2838 2839 2840 2841 2842 2843 2844 2845 2846 2847 2848 2849 2850 2851 2852 2853 2854 2855 2856 2857 2858 2859 2860 2861 2862 2863 2864 2865 2866 2867 2868 2869 2870 2871 2872 2873 2874 2875 2876 2877 2878 2879 2880 2881 2882 2883 2884 2885 2886 2887 2888 2889 2890 2891 2892 2893 2894 2895 2896 2897 2898 2899 2900 2901 2902 2903 2904 2905 2906 2907 2908 2909 2910 2911 2912 2913 2914 2915 2916 2917 2918 2919 2920 2921 2922 2923 2924 2925 2926 2927 2928 2929 2930 2931 2932 2933 2934 2935 2936 2937 2938 2939 2940 2941 2942 2943 2944 2945 2946 2947 2948 2949 2950 2951 2952 2953 2954 2955 2956 2957 2958 2959 2960 2961 2962 2963 2964 2965 2966 2967 2968 2969 2970 2971 2972 2973 2974 2975 2976 2977 2978 2979 2980 2981 2982 2983 2984 2985 2986 2987 2988 2989 2990 2991 2992 2993 2994 2995 2996 2997 2998 2999 3000 3001 3002 3003 3004 3005 3006 3007 3008 3009 3010 3011 3012 3013 3014 3015 3016 3017 3018 3019 3020 3021 3022 3023 3024 3025 3026 3027 3028 3029 3030 3031 3032 3033 3034 3035 3036 3037 3038 3039 3040 3041 3042 3043 3044 3045 3046 3047 3048 3049 3050 3051 3052 3053 3054 3055 3056 3057 3058 3059 3060 3061 3062 3063 3064 3065 3066 3067 3068 3069 3070 3071 3072 3073 3074 3075 3076 3077 3078 3079 3080 3081 3082 3083 3084 3085 3086 3087 3088 3089 3090 3091 3092 3093 3094 3095 3096 3097 3098 3099 3100 3101 3102 3103 3104 3105 3106 3107 3108 3109 3110 3111 3112 3113 3114 3115 3116 3117 3118 3119 3120 3121 3122 3123 3124 3125 3126 3127 3128 3129 3130 3131 3132 3133 3134 3135 3136 3137 3138 3139 3140 3141 3142 3143 3144 3145 3146 3147 3148 3149 3150 3151 3152 3153 3154 3155 3156 3157 3158 3159 3160 3161 3162 3163 3164 3165 3166 3167 3168 3169 3170 3171 3172 3173 3174 3175 3176 3177 3178 3179 3180 3181 3182 3183 3184 3185 3186 3187 3188 3189 3190 3191 3192 3193 3194 3195 3196 3197 3198 3199 3200 3201 3202 3203 3204 3205 3206 3207 3208 3209 3210 3211 3212 3213 3214 3215 3216 3217 3218 3219 3220 3221 3222 3223 3224 3225 3226 3227 3228 3229 3230 3231 3232 3233 3234 3235 3236 3237 3238 3239 3240 3241 3242 3243 3244 3245 3246 3247 3248 3249 3250 3251 3252 3253 3254 3255 3256 3257 3258 3259 3260 3261 3262 3263 3264 3265 3266 3267 3268 3269 3270 3271 3272 3273 3274 3275 3276 3277 3278 3279 3280 3281 3282 3283 3284 3285 3286 3287 3288 3289 3290 3291 3292 3293 3294 3295 3296 3297 3298 3299 3300 3301 3302 3303 3304 3305 3306 3307 3308 3309 3310 3311 3312 3313 3314 3315 3316 3317 3318 3319 3320 3321 3322 3323 3324 3325 3326 3327 3328 3329 3330 3331 3332 3333 3334 3335 3336 3337 3338 3339 3340 3341 3342 3343 3344 3345 3346 3347 3348 3349 3350 3351 3352 3353 3354 3355 3356 3357 3358 3359 3360 3361 3362 3363 3364 3365 3366 3367 3368 3369 3370 3371 3372 3373 3374 3375 3376 3377 3378 3379 3380 3381 3382 3383 3384 3385 3386 3387 3388 3389 3390 3391 3392 3393 3394 3395 3396 3397 3398 3399 3400 3401 3402 3403 3404 3405 3406 3407 3408 3409 3410 3411 3412 3413 3414 3415 3416 3417 3418 3419 3420 3421 3422 3423 3424 3425 3426 3427 3428 3429 3430 3431 3432 3433 3434 3435 3436 3437 3438 3439 3440 3441 3442 3443 3444 3445 3446 3447 3448 3449 3450 3451 3452 3453 3454 3455 3456 3457 3458 3459 3460 3461 3462 3463 3464 3465 3466 3467 3468 3469 3470 3471 3472 3473 3474 3475 3476 3477 3478 3479 3480 3481 3482 3483 3484 3485 3486 3487 3488 3489 3490 3491 3492 3493 3494 3495 3496 3497 3498 3499 3500 3501 3502 3503 3504 3505 3506 3507 3508 3509 3510 3511 3512 3513 3514 3515 3516 3517 3518 3519 3520 3521 3522 3523 3524 3525 3526 3527 3528 3529 3530 3531 3532 3533 3534 3535 3536 3537 3538 3539 3540 3541 3542 3543 3544 3545 3546 3547 3548 3549 3550 3551 3552 3553 3554 3555 3556 3557 3558 3559 3560 3561 3562 3563 3564 3565 3566 3567 3568 3569 3570 3571 3572 3573 3574 3575 3576 3577 3578 3579 3580 3581 3582 3583 3584 3585 3586 3587 3588 3589 3590 3591 3592 3593 3594 3595 3596 3597 3598 3599 3600 3601 3602 3603 3604 3605 3606 3607 3608 3609 3610 3611 3612 3613 3614 3615 3616 3617 3618 3619 3620 3621 3622 3623 3624 3625 3626 3627 3628 3629 3630 3631 3632 3633 3634 3635 3636 3637 3638 3639 3640 3641 3642 3643 3644 3645 3646 3647 3648 3649 3650 3651 3652 3653 3654 3655 3656 3657 3658 3659 3660 3661 3662 3663 3664 3665 3666 3667 3668 3669 3670 3671 3672 3673 3674 3675 3676 3677 3678 3679 3680 3681 3682 3683 3684 3685 3686 3687 3688 3689 3690 3691 3692 3693 3694 3695 3696 3697 3698 3699 3700 3701 3702 3703 3704 3705 3706 3707 3708 3709 3710 3711 3712 3713 3714 3715 3716 3717 3718 3719 3720 3721 3722 3723 3724 3725 3726 3727 3728 3729 3730 3731 3732 3733 3734 3735 3736 3737 3738 3739 3740 3741 3742 3743 3744 3745 3746 3747 3748 3749 3750 3751 3752 3753 3754 3755 3756 3757 3758 3759 3760 3761 3762 3763 3764 3765 3766 3767 3768 3769 3770 3771 3772 3773 3774 3775 3776 3777 3778 3779 3780 3781 3782 3783 3784 3785 3786 3787 3788 3789 3790 3791 3792 3793 3794 3795 3796 3797 3798 3799 3800 3801 3802 3803 3804 3805 3806 3807 3808 3809 3810 3811 3812 3813 3814 3815 3816 3817 3818 3819 3820 3821 3822 3823 3824 3825 3826 3827 3828 3829 3830 3831 3832 3833 3834 3835 3836 3837 3838 3839 3840 3841 3842 3843 3844 3845 3846 3847 3848 3849 3850 3851 3852 3853 3854 3855 3856 3857 3858 3859 3860 3861 3862 3863 3864 3865 3866 3867 3868 3869 3870 3871 3872 3873 3874 3875 3876 3877 3878 3879 3880 3881 3882 3883 3884 3885 3886 3887 3888 3889 3890 3891 3892 3893 3894 3895 3896 3897 3898 3899 3900 3901 3902 3903 3904 3905 3906 3907 3908 3909 3910 3911 3912 3913 3914 3915 3916 3917 3918 3919 3920 3921 3922 3923 3924 3925 3926 3927 3928 3929 3930 3931 3932 3933 3934 3935 3936 3937 3938 3939 3940 3941 3942 3943 3944 3945 3946 3947 3948 3949 3950 3951 3952 3953 3954 3955 3956 3957 3958 3959 3960 3961 3962 3963 3964 3965 3966 3967 3968 3969 3970 3971 3972 3973 3974 3975 3976 3977 3978 3979 3980 3981 3982 3983 3984 3985 3986 3987 3988 3989 3990 3991 3992 3993 3994 3995 3996 3997 3998 3999 4000 4001 4002 4003 4004 4005 4006 4007 4008 4009 4010 4011 4012 4013 4014 4015 4016 4017 4018 4019 4020 4021 4022 4023 4024 4025 4026 4027 4028 4029 4030 4031 4032 4033 4034 4035 4036 4037 4038 4039 4040 4041 4042 4043 4044 4045 4046 4047 4048 4049 4050 4051 4052 4053 4054 4055 4056 4057 4058 4059 4060 4061 4062 4063 4064 4065 4066 4067 4068 4069 4070 4071 4072 4073 4074 4075 4076 4077 4078 4079 4080 4081 4082 4083 4084 4085 4086 4087 4088 4089 4090 4091 4092 4093 4094 4095 4096 4097 4098 4099 4100 4101 4102 4103 4104 4105 4106 4107 4108 4109 4110 4111 4112 4113 4114 4115 4116 4117 4118 4119 4120 4121 4122 4123 4124 4125 4126 4127 4128 4129 4130 4131 4132 4133 4134 4135 4136 4137 4138 4139 4140 4141 4142 4143 4144 4145 4146 4147 4148 4149 4150 4151 4152 4153 4154 4155 4156 4157 4158 4159 4160 4161 4162 4163 4164 4165 4166 4167 4168 4169 4170 4171 4172 4173 4174 4175 4176 4177 4178 4179 4180 4181 4182 4183 4184 4185 4186 4187 4188 4189 4190 4191 4192 4193 4194 4195 4196 4197 4198 4199 4200 4201 4202 4203 4204 4205 4206 4207 4208 4209 4210 4211 4212 4213 4214 4215 4216 4217 4218 4219 4220 4221 4222 4223 4224 4225 4226 4227 4228 4229 4230 4231 4232 4233 4234 4235 4236 4237 4238 4239 4240 4241 4242 4243 4244 4245 4246 4247 4248 4249 4250 4251 4252 4253 4254 4255 4256 4257 4258 4259 4260 4261 4262 4263 4264 4265 4266 4267 4268 4269 4270 4271 4272 4273 4274 4275 4276 4277 4278 4279 4280 4281 4282 4283 4284 4285 4286 4287 4288 4289 4290 4291 4292 4293 4294 4295 4296 4297 4298 4299 4300 4301 4302 4303 4304 4305 4306 4307 4308 4309 4310 4311 4312 4313 4314 4315 4316 4317 4318 4319 4320 4321 4322 4323 4324 4325 4326 4327 4328 4329 4330 4331 4332 4333 4334 4335 4336 4337 4338 4339 4340 4341 4342 4343 4344 4345 4346 4347 4348 4349 4350 4351 4352 4353 4354 4355 4356 4357 4358 4359 4360 4361 4362 4363 4364 4365 4366 4367 4368 4369 4370 4371 4372 4373 4374 4375 4376 4377 4378 4379 4380 4381 4382 4383 4384 4385 4386 4387 4388 4389 4390 4391 4392 4393 4394 4395 4396 4397 4398 4399 4400 4401 4402 4403 4404 4405 4406 4407 4408 4409 4410 4411 4412 4413 4414 4415 4416 4417 4418 4419 4420 4421 4422 4423 4424 4425 4426 4427 4428 4429 4430 4431 4432 4433 4434 4435 4436 4437 4438 4439 4440 4441 4442 4443 4444 4445 4446 4447 4448 4449 4450 4451 4452 4453 4454 4455 4456 4457 4458 4459 4460 4461 4462 4463 4464 4465 4466 4467 4468 4469 4470 4471 4472 4473 4474 4475 4476 4477 4478 4479 4480 4481 4482 4483 4484 4485 4486 4487 4488 4489 4490 4491 4492 4493 4494 4495 4496 4497 4498 4499 4500 4501 4502 4503 4504 4505 4506 4507 4508 4509 4510 4511 4512 4513 4514 4515 4516 4517 4518 4519 4520 4521 4522 4523 4524 4525 4526 4527 4528 4529 4530 4531 4532 4533 4534 4535 4536 4537 4538 4539 4540 4541 4542 4543 4544 4545 4546 4547 4548 4549 4550 4551 4552 4553 4554 4555 4556 4557 4558 4559 4560 4561 4562 4563 4564 4565 4566 4567 4568 4569 4570 4571 4572 4573 4574 4575 4576 4577 4578 4579 4580 4581 4582 4583 4584 4585 4586 4587 4588 4589 4590 4591 4592 4593 4594 4595 4596 4597 4598 4599 4600 4601 4602 4603 4604 4605 4606 4607 4608 4609 4610 4611 4612 4613 4614 4615 4616 4617 4618 4619 4620 4621 4622 4623 4624 4625 4626 4627 4628 4629 4630 4631 4632 4633 4634 4635 4636 4637 4638 4639 4640 4641 4642 4643 4644 4645 4646 4647 4648 4649 4650 4651 4652 4653 4654 4655 4656 4657 4658 4659 4660 4661 4662 4663 4664 4665 4666 4667 4668 4669 4670 4671 4672 4673 4674 4675 4676 4677 4678 4679 4680 4681 4682 4683 4684 4685 4686 4687 4688 4689 4690 4691 4692 4693 4694 4695 4696 4697 4698 4699 4700 4701 4702 4703 4704 4705 4706 4707 4708 4709 4710 4711 4712 4713 4714 4715 4716 4717 4718 4719 4720 4721 4722 4723 4724 4725 4726 4727 4728 4729 4730 4731 4732 4733 4734 4735 4736 4737 4738 4739 4740 4741 4742 4743 4744 4745 4746 4747 4748 4749 4750 4751 4752 4753 4754 4755 4756 4757 4758 4759 4760 4761 4762 4763 4764 4765 4766 4767 4768 4769 4770 4771 4772 4773 4774 4775 4776 4777 4778 4779 4780 4781 4782 4783 4784 4785 4786 4787 4788 4789 4790 4791 4792 4793 4794 4795 4796 4797 4798 4799 4800 4801 4802 4803 4804 4805 4806 4807 4808 4809 4810 4811 4812 4813 4814 4815 4816 4817 4818 4819 4820 4821 4822 4823 4824 4825 4826 4827 4828 4829 4830 4831 4832 4833 4834 4835 4836 4837 4838 4839 4840 4841 4842 4843 4844 4845 4846 4847 4848 4849 4850 4851 4852 4853 4854 4855 4856 4857 4858 4859 4860 4861 4862 4863 4864 4865 4866 4867 4868 4869 4870 4871 4872 4873 4874 4875 4876 4877 4878 4879 4880 4881 4882 4883 4884 4885 4886 4887 4888 4889 4890 4891 4892 4893 4894 4895 4896 4897 4898 4899 4900 4901 4902 4903 4904 4905 4906 4907 4908 4909 4910 4911 4912 4913 4914 4915 4916 4917 4918 4919 4920 4921 4922 4923 4924 4925 4926 4927 4928 4929 4930 4931 4932 4933 4934 4935 4936 4937 4938 4939 4940 4941 4942 4943 4944 4945 4946 4947 4948 4949 4950 4951 4952 4953 4954 4955 4956 4957 4958 4959 4960 4961 4962 4963 4964 4965 4966 4967 4968 4969 4970 4971 4972 4973 4974 4975 4976 4977 4978 4979 4980 4981 4982 4983 4984 4985 4986 4987 4988 4989 4990 4991 4992 4993 4994 4995 4996 4997 4998 4999 5000 5001 5002 5003 5004 5005 5006 5007 5008 5009 5010 5011 5012 5013 5014 5015 5016 5017 5018 5019 5020 5021 5022 5023 5024 5025 5026 5027 5028 5029 5030 5031 5032 5033 5034 5035 5036 5037 5038 5039 5040 5041 5042 5043 5044 5045 5046 5047 5048 5049 5050 5051 5052 5053 5054 5055 5056 5057 5058 5059 5060 5061 5062 5063 5064 5065 5066 5067 5068 5069 5070 5071 5072 5073 5074 5075 5076 5077 5078 5079 5080 5081 5082 5083 5084 5085 5086 5087 5088 5089 5090 5091 5092 5093 5094 5095 5096 5097 5098 5099 5100 5101 5102 5103 5104 5105 5106 5107 5108 5109 5110 5111 5112 5113 5114 5115 5116 5117 5118 5119 5120 5121 5122 5123 5124 5125 5126 5127 5128 5129 5130 5131 5132 5133 5134 5135 5136 5137 5138 5139 5140 5141 5142 5143 5144 5145 5146 5147 5148 5149 5150 5151 5152 5153 5154 5155 5156 5157 5158 5159 5160 5161 5162 5163 5164 5165 5166 5167 5168 5169 5170 5171 5172 5173 5174 5175 5176 5177 5178 5179 5180 5181 5182 5183 5184 5185 5186 5187 5188 5189 5190 5191 5192 5193 5194 5195 5196 5197 5198 5199 5200 5201 5202 5203 5204 5205 5206 5207 5208 5209 5210 5211 5212 5213 5214 5215 5216 5217 5218 5219 5220 5221 5222 5223 5224 5225 5226 5227 5228 5229 5230 5231 5232 5233 5234 5235 5236 5237 5238 5239 5240 5241 5242 5243 5244 5245 5246 5247 5248 5249 5250 5251 5252 5253 5254 5255 5256 5257 5258 5259 5260 5261 5262 5263 5264 5265 5266 5267 5268 5269 5270 5271 5272 5273 5274 5275 5276 5277 5278 5279 5280 5281 5282 5283 5284 5285 5286 5287 5288 5289 5290 5291 5292 5293 5294 5295 5296 5297 5298 5299 5300 5301 5302 5303 5304 5305 5306 5307 5308 5309 5310 5311 5312 5313 5314 5315 5316 5317 5318 5319 5320 5321 5322 5323 5324 5325 5326 5327 5328 5329 5330 5331 5332 5333 5334 5335 5336 5337 5338 5339 5340 5341 5342 5343 5344 5345 5346 5347 5348 5349 5350 5351 5352 5353 5354 5355 5356 5357 5358 5359 5360 5361 5362 5363 5364 5365 5366 5367 5368 5369 5370 5371 5372 5373 5374 5375 5376 5377 5378 5379 5380 5381 5382 5383 5384 5385 5386 5387 5388 5389 5390 5391 5392 5393 5394 5395 5396 5397 5398 5399 5400 5401 5402 5403 5404 5405 5406 5407 5408 5409 5410 5411 5412 5413 5414 5415 5416 5417 5418 5419 5420 5421 5422 5423 5424 5425 5426 5427 5428 5429 5430 5431 5432 5433 5434 5435 5436 5437 5438 5439 5440 5441 5442 5443 5444 5445 5446 5447 5448 5449 5450 5451 5452 5453 5454 5455 5456 5457 5458 5459 5460 5461 5462 5463 5464 5465 5466 5467 5468 5469 5470 5471 5472 5473 5474 5475 5476 5477 5478 5479 5480 5481 5482 5483 5484 5485 5486 5487 5488 5489 5490 5491 5492 5493 5494 5495 5496 5497 5498 5499 5500 5501 5502 5503 5504 5505 5506 5507 5508 5509 5510 5511 5512 5513 5514 5515 5516 5517 5518 5519 5520 5521 5522 5523 5524 5525 5526 5527 5528 5529 5530 5531 5532 5533 5534 5535 5536 5537 5538 5539 5540 5541 5542 5543 5544 5545 5546 5547 5548 5549 5550 5551 5552 5553 5554 5555 5556 5557 5558 5559 5560 5561 5562 5563 5564 5565 5566 5567 5568 5569 5570 5571 5572 5573 5574 5575 5576 5577 5578 5579 5580 5581 5582 5583 5584 5585 5586 5587 5588 5589 5590 5591 5592 5593 5594 5595 5596 5597 5598 5599 5600 5601 5602 5603 5604 5605 5606 5607 5608 5609 5610 5611 5612 5613 5614 5615 5616 5617 5618 5619 5620 5621 5622 5623 5624 5625 5626 5627 5628 5629 5630 5631 5632 5633 5634 5635 5636 5637 5638 5639 5640 5641 5642 5643 5644 5645 5646 5647 5648 5649 5650 5651 5652 5653 5654 5655 5656 5657 5658 5659 5660 5661 5662 5663 5664 5665 5666 5667 5668 5669 5670 5671 5672 5673 5674 5675 5676 5677 5678 5679 5680 5681 5682 5683 5684 5685 5686 5687 5688 5689 5690 5691 5692 5693 5694 5695 5696 5697 5698 5699 5700 5701 5702 5703 5704 5705 5706 5707 5708 5709 5710 5711 5712 5713 5714 5715 5716 5717 5718 5719 5720 5721 5722 5723 5724 5725 5726 5727 5728 5729 5730 5731 5732 5733 5734 5735 5736 5737 5738 5739 5740 5741 5742 5743 5744 5745 5746 5747 5748 5749 5750 5751 5752 5753 5754 5755 5756 5757 5758 5759 5760 5761 5762 5763 5764 5765 5766 5767 5768 5769 5770 5771 5772 5773 5774 5775 5776 5777 5778 5779 5780 5781 5782 5783 5784 5785 5786 5787 5788 5789 5790 5791 5792 5793 5794 5795 5796 5797 5798 5799 5800 5801 5802 5803 5804 5805 5806 5807 5808 5809 5810 5811 5812 5813 5814 5815 5816 5817 5818 5819 5820 5821 5822 5823 5824 5825 5826 5827 5828 5829 5830 5831 5832 5833 5834 5835 5836 5837 5838 5839 5840 5841 5842 5843 5844 5845 5846 5847 5848 5849 5850 5851 5852 5853 5854 5855 5856 5857 5858 5859 5860 5861 5862 5863 5864 5865 5866 5867 5868 5869 5870 5871 5872 5873 5874 5875 5876 5877 5878 5879 5880 5881 5882 5883 5884 5885 5886 5887 5888 5889 5890 5891 5892 5893 5894 5895 5896 5897 5898 5899 5900 5901 5902 5903 5904 5905 5906 5907 5908 5909 5910 5911 5912 5913 5914 5915 5916 5917 5918 5919 5920 5921 5922 5923 5924 5925 5926 5927 5928 5929 5930 5931 5932 5933 5934 5935 5936 5937 5938 5939 5940 5941 5942 5943 5944 5945 5946 5947 5948 5949 5950 5951 5952 5953 5954 5955 5956 5957 5958 5959 5960 5961 5962 5963 5964 5965 5966 5967 5968 5969 5970 5971 5972 5973 5974 5975 5976 5977 5978 5979 5980 5981 5982 5983 5984 5985 5986 5987 5988 5989 5990 5991 5992 5993 5994 5995 5996 5997 5998 5999 6000 6001 6002 6003 6004 6005 6006 6007 6008 6009 6010 6011 6012 6013 6014 6015 6016 6017 6018 6019 6020 6021 6022 6023 6024 6025 6026 6027 6028 6029 6030 6031 6032 6033 6034 6035 6036 6037 6038 6039 6040 6041 6042 6043 6044 6045 6046 6047 6048 6049 6050 6051 6052 6053 6054 6055 6056 6057 6058 6059 6060 6061 6062 6063 6064 6065 6066 6067 6068 6069 6070 6071 6072 6073 6074 6075 6076 6077 6078 6079 6080 6081 6082 6083 6084 6085 6086 6087 6088 6089 6090 6091 6092 6093 6094 6095 6096 6097 6098 6099 6100 6101 6102 6103 6104 6105 6106 6107 6108 6109 6110 6111 6112 6113 6114 6115 6116 6117 6118 6119 6120 6121 6122 6123 6124 6125 6126 6127 6128 6129 6130 6131 6132 6133 6134 6135 6136 6137 6138 6139 6140 6141 6142 6143 6144 6145 6146 6147 6148 6149 6150 6151 6152 6153 6154 6155 6156 6157 6158 6159 6160 6161 6162 6163 6164 6165 6166 6167 6168 6169 6170 6171 6172 6173 6174 6175 6176 6177 6178 6179 6180 6181 6182 6183 6184 6185 6186 6187 6188 6189 6190 6191 6192 6193 6194 6195 6196 6197 6198 6199 6200 6201 6202 6203 6204 6205 6206 6207 6208 6209 6210 6211 6212 6213 6214 6215 6216 6217 6218 6219 6220 6221 6222 6223 6224 6225 6226 6227 6228 6229 6230 6231 6232 6233 6234 6235 6236 6237 6238 6239 6240 6241 6242 6243 6244 6245 6246 6247 6248 6249 6250 6251 6252 6253 6254 6255 6256 6257 6258 6259 6260 6261 6262 6263 6264 6265 6266 6267 6268 6269 6270 6271 6272 6273 6274 6275 6276 6277 6278 6279 6280 6281 6282 6283 6284 6285 6286 6287 6288 6289 6290 6291 6292 6293 6294 6295 6296 6297 6298 6299 6300 6301 6302 6303 6304 6305 6306 6307 6308 6309 6310 6311 6312 6313 6314 6315 6316 6317 6318 6319 6320 6321 6322 6323 6324 6325 6326 6327 6328 6329 6330 6331 6332 6333 6334 6335 6336 6337 6338 6339 6340 6341 6342 6343 6344 6345 6346 6347 6348 6349 6350 6351 6352 6353 6354 6355 6356 6357 6358 6359 6360 6361 6362 6363 6364 6365 6366 6367 6368 6369 6370 6371 6372 6373 6374 6375 6376 6377 6378 6379 6380 6381 6382 6383 6384 6385 6386 6387 6388 6389 6390 6391 6392 6393 6394 6395 6396 6397 6398 6399 6400 6401 6402 6403 6404 6405 6406 6407 6408 6409 6410 6411 6412 6413 6414 6415 6416 6417 6418 6419 6420 6421 6422 6423 6424 6425 6426 6427 6428 6429 6430 6431 6432 6433 6434 6435 6436 6437 6438 6439 6440 6441 6442 6443 6444 6445 6446 6447 6448 6449 6450 6451 6452 6453 6454 6455 6456 6457 6458 6459 6460 6461 6462 6463 6464 6465 6466 6467 6468 6469 6470 6471 6472 6473 6474 6475 6476 6477 6478 6479 6480 6481 6482 6483 6484 6485 6486 6487 6488 6489 6490 6491 6492 6493 6494 6495 6496 6497 6498 6499 6500 6501 6502 6503 6504 6505 6506 6507 6508 6509 6510 6511 6512 6513 6514 6515 6516 6517 6518 6519 6520 6521 6522 6523 6524 6525 6526 6527 6528 6529 6530 6531 6532 6533 6534 6535 6536 6537 6538 6539 6540 6541 6542 6543 6544 6545 6546 6547 6548 6549 6550 6551 6552 6553 6554 6555 6556 6557 6558 6559 6560 6561 6562 6563 6564 6565 6566 6567 6568 6569 6570 6571 6572 6573 6574 6575 6576 6577 6578 6579 6580 6581 6582 6583 6584 6585 6586 6587 6588 6589 6590 6591 6592 6593 6594 6595 6596 6597 6598 6599 6600 6601 6602 6603 6604 6605 6606 6607 6608 6609 6610 6611 6612 6613 6614 6615 6616 6617 6618 6619 6620 6621 6622 6623 6624 6625 6626 6627 6628 6629 6630 6631 6632 6633 6634 6635 6636 6637 6638 6639 6640 6641 6642 6643 6644 6645 6646 6647 6648 6649 6650 6651 6652 6653 6654 6655 6656 6657 6658 6659 6660 6661 6662 6663 6664 6665 6666 6667 6668 6669 6670 6671 6672 6673 6674 6675 6676 6677 6678 6679 6680 6681 6682 6683 6684 6685 6686 6687 6688 6689 6690 6691 6692 6693 6694 6695 6696 6697 6698 6699 6700 6701 6702 6703 6704 6705 6706 6707 6708 6709 6710 6711 6712 6713 6714 6715 6716 6717 6718 6719 6720 6721 6722 6723 6724 6725 6726 6727 6728 6729 6730 6731 6732 6733 6734 6735 6736 6737 6738 6739 6740 6741 6742 6743 6744 6745 6746 6747 6748 6749 6750 6751 6752 6753 6754 6755 6756 6757 6758 6759 6760 6761 6762 6763 6764 6765 6766 6767 6768 6769 6770 6771 6772 6773 6774 6775 6776 6777 6778 6779 6780 6781 6782 6783 6784 6785 6786 6787 6788 6789 6790 6791 6792 6793 6794 6795 6796 6797 6798 6799 6800 6801 6802 6803 6804 6805 6806 6807 6808 6809 6810 6811 6812 6813 6814 6815 6816 6817 6818 6819 6820 6821 6822 6823 6824 6825 6826 6827 6828 6829 6830 6831 6832 6833 6834 6835 6836 6837 6838 6839 6840 6841 6842 6843 6844 6845 6846 6847 6848 6849 6850 6851 6852 6853 6854 6855 6856 6857 6858 6859 6860 6861 6862 6863 6864 6865 6866 6867 6868 6869 6870 6871 6872 6873 6874 6875 6876 6877 6878 6879 6880 6881 6882 6883 6884 6885 6886 6887 6888 6889 6890 6891 6892 6893 6894 6895 6896 6897 6898 6899 6900 6901 6902 6903 6904 6905 6906 6907 6908 6909 6910 6911 6912 6913 6914 6915 6916 6917 6918 6919 6920 6921 6922 6923 6924 6925 6926 6927 6928 6929 6930 6931 6932 6933 6934 6935 6936 6937 6938 6939 6940 6941 6942 6943 6944 6945 6946 6947 6948 6949 6950 6951 6952 6953 6954 6955 6956 6957 6958 6959 6960 6961 6962 6963 6964 6965 6966 6967 6968 6969 6970 6971 6972 6973 6974 6975 6976 6977 6978 6979 6980 6981 6982 6983 6984 6985 6986 6987 6988 6989 6990 6991 6992 6993 6994 6995 6996 6997 6998 6999 7000 7001 7002 7003 7004 7005 7006 7007 7008 7009 7010 7011 7012 7013 7014 7015 7016 7017 7018 7019 7020 7021 7022 7023 7024 7025 7026 7027 7028 7029 7030 7031 7032 7033 7034 7035 7036 7037 7038 7039 7040 7041 7042 7043 7044 7045 7046 7047 7048 7049 7050 7051 7052 7053 7054 7055 7056 7057 7058 7059 7060 7061 7062 7063 7064 7065 7066 7067 7068 7069 7070 7071 7072 7073 7074 7075 7076 7077 7078 7079 7080 7081 7082 7083 7084 7085 7086 7087 7088 7089 7090 7091 7092 7093 7094 7095 7096 7097 7098 7099 7100 7101 7102 7103 7104 7105 7106 7107 7108 7109 7110 7111 7112 7113 7114 7115 7116 7117 7118 7119 7120 7121 7122 7123 7124 7125 7126 7127 7128 7129 7130 7131 7132 7133 7134 7135 7136 7137 7138 7139 7140 7141 7142 7143 7144 7145 7146 7147 7148 7149 7150 7151 7152 7153 7154 7155 7156 7157 7158 7159 7160 7161 7162 7163 7164 7165 7166 7167 7168 7169 7170 7171 7172 7173 7174 7175 7176 7177 7178 7179 7180 7181 7182 7183 7184 7185 7186 7187 7188 7189 7190 7191 7192 7193 7194 7195 7196 7197 7198 7199 7200 7201 7202 7203 7204 7205 7206 7207 7208 7209 7210 7211 7212 7213 7214 7215 7216 7217 7218 7219 7220 7221 7222 7223 7224 7225 7226 7227 7228 7229 7230 7231 7232 7233 7234 7235 7236 7237 7238 7239 7240 7241 7242 7243 7244 7245 7246 7247 7248 7249 7250 7251 7252 7253 7254 7255 7256 7257 7258 7259 7260 7261 7262 7263 7264 7265 7266 7267 7268 7269 7270 7271 7272 7273 7274 7275 7276 7277 7278 7279 7280 7281 7282 7283 7284 7285 7286 7287 7288 7289 7290 7291 7292 7293 7294 7295 7296 7297 7298 7299 7300 7301 7302 7303 7304 7305 7306 7307 7308 7309 7310 7311 7312 7313 7314 7315 7316 7317 7318 7319 7320 7321 7322 7323 7324 7325 7326 7327 7328 7329 7330 7331 7332 7333 7334 7335 7336 7337 7338 7339 7340 7341 7342 7343 7344 7345 7346 7347 7348 7349 7350 7351 7352 7353 7354 7355 7356 7357 7358 7359 7360 7361 7362 7363 7364 7365 7366 7367 7368 7369 7370 7371 7372 7373 7374 7375 7376 7377 7378 7379 7380 7381 7382 7383 7384 7385 7386 7387 7388 7389 7390 7391 7392 7393 7394 7395 7396 7397 7398 7399 7400 7401 7402 7403 7404 7405 7406 7407 7408 7409 7410 7411 7412 7413 7414 7415 7416 7417 7418 7419 7420 7421 7422 7423 7424 7425 7426 7427 7428 7429 7430 7431 7432 7433 7434 7435 7436 7437 7438 7439 7440 7441 7442 7443 7444 7445 7446 7447 7448 7449 7450 7451 7452 7453 7454 7455 7456 7457 7458 7459 7460 7461 7462 7463 7464 7465 7466 7467 7468 7469 7470 7471 7472 7473 7474 7475 7476 7477 7478 7479 7480 7481 7482 7483 7484 7485 7486 7487 7488 7489 7490 7491 7492 7493 7494 7495 7496 7497 7498 7499 7500 7501 7502 7503 7504 7505 7506 7507 7508 7509 7510 7511 7512 7513 7514 7515 7516 7517 7518 7519 7520 7521 7522 7523 7524 7525 7526 7527 7528 7529 7530 7531 7532 7533 7534 7535 7536 7537 7538 7539 7540 7541 7542 7543 7544 7545 7546 7547 7548 7549 7550 7551 7552 7553 7554 7555 7556 7557 7558 7559 7560 7561 7562 7563 7564 7565 7566 7567 7568 7569 7570 7571 7572 7573 7574 7575 7576 7577 7578 7579 7580 7581 7582 7583 7584 7585 7586 7587 7588 7589 7590 7591 7592 7593 7594 7595 7596 7597 7598 7599 7600 7601 7602 7603 7604 7605 7606 7607 7608 7609 7610 7611 7612 7613 7614 7615 7616 7617 7618 7619 7620 7621 7622 7623 7624 7625 7626 7627 7628 7629 7630 7631 7632 7633 7634 7635 7636 7637 7638 7639 7640 7641 7642 7643 7644 7645 7646 7647 7648 7649 7650 7651 7652 7653 7654 7655 7656 7657 7658 7659 7660 7661 7662 7663 7664 7665 7666 7667 7668 7669 7670 7671 7672 7673 7674 7675 7676 7677 7678 7679 7680 7681 7682 7683 7684 7685 7686 7687 7688 7689 7690 7691 7692 7693 7694 7695 7696 7697 7698 7699 7700 7701 7702 7703 7704 7705 7706 7707 7708 7709 7710 7711 7712 7713 7714 7715 7716 7717 7718 7719 7720 7721 7722 7723 7724 7725 7726 7727 7728 7729 7730 7731 7732 7733 7734 7735 7736 7737 7738 7739 7740 7741 7742 7743 7744 7745 7746 7747 7748 7749 7750 7751 7752 7753 7754 7755 7756 7757 7758 7759 7760 7761 7762 7763 7764 7765 7766 7767 7768 7769 7770 7771 7772 7773 7774 7775 7776 7777 7778 7779 7780 7781 7782 7783 7784 7785 7786 7787 7788 7789 7790 7791 7792 7793 7794 7795 7796 7797 7798 7799 7800 7801 7802 7803 7804 7805 7806 7807 7808 7809 7810 7811 7812 7813 7814 7815 7816 7817 7818 7819 7820 7821 7822 7823 7824 7825 7826 7827 7828 7829 7830 7831 7832 7833 7834 7835 7836 7837 7838 7839 7840 7841 7842 7843 7844 7845 7846 7847 7848 7849 7850 7851 7852 7853 7854 7855 7856 7857 7858 7859 7860 7861 7862 7863 7864 7865 7866 7867 7868 7869 7870 7871 7872 7873 7874 7875 7876 7877 7878 7879 7880 7881 7882 7883 7884 7885 7886 7887 7888 7889 7890 7891 7892 7893 7894 7895 7896 7897 7898 7899 7900 7901 7902 7903 7904 7905 7906 7907 7908 7909 7910 7911 7912 7913 7914 7915 7916 7917 7918 7919 7920 7921 7922 7923 7924 7925 7926 7927 7928 7929 7930 7931 7932 7933 7934 7935 7936 7937 7938 7939 7940 7941 7942 7943 7944 7945 7946 7947 7948 7949 7950 7951 7952 7953 7954 7955 7956 7957 7958 7959 7960 7961 7962 7963 7964 7965 7966 7967 7968 7969 7970 7971 7972 7973 7974 7975 7976 7977 7978 7979 7980 7981 7982 7983 7984 7985 7986 7987 7988 7989 7990 7991 7992 7993 7994 7995 7996 7997 7998 7999 8000 8001 8002 8003 8004 8005 8006 8007 8008 8009 8010 8011 8012 8013 8014 8015 8016 8017 8018 8019 8020 8021 8022 8023 8024 8025 8026 8027 8028 8029 8030 8031 8032 8033 8034 8035 8036 8037 8038 8039 8040 8041 8042 8043 8044 8045 8046 8047 8048 8049 8050 8051 8052 8053 8054 8055 8056 8057 8058 8059 8060 8061 8062 8063 8064 8065 8066 8067 8068 8069 8070 8071 8072 8073 8074 8075 8076 8077 8078 8079 8080 8081 8082 8083 8084 8085 8086 8087 8088 8089 8090 8091 8092 8093 8094 8095 8096 8097 8098 8099 8100 8101 8102 8103 8104 8105 8106 8107 8108 8109 8110 8111 8112 8113 8114 8115 8116 8117 8118 8119 8120 8121 8122 8123 8124 8125 8126 8127 8128 8129 8130 8131 8132 8133 8134 8135 8136 8137 8138 8139 8140 8141 8142 8143 8144 8145 8146 8147 8148 8149 8150 8151 8152 8153 8154 8155 8156 8157 8158 8159 8160 8161 8162 8163 8164 8165 8166 8167 8168 8169 8170 8171 8172 8173 8174 8175 8176 8177 8178 8179 8180 8181 8182 8183 8184 8185 8186 8187 8188 8189 8190 8191 8192 8193 8194 8195 8196 8197 8198 8199 8200 8201 8202 8203 8204 8205 8206 8207 8208 8209 8210 8211 8212 8213 8214 8215 8216 8217 8218 8219 8220 8221 8222 8223 8224 8225 8226 8227 8228 8229 8230 8231 8232 8233 8234 8235 8236 8237 8238 8239 8240 8241 8242 8243 8244 8245 8246 8247 8248 8249 8250 8251 8252 8253 8254 8255 8256 8257 8258 8259 8260 8261 8262 8263 8264 8265 8266 8267 8268 8269 8270 8271 8272 8273 8274 8275 8276 8277 8278 8279 8280 8281 8282 8283 8284 8285 8286 8287 8288 8289 8290 8291 8292 8293 8294 8295 8296 8297 8298 8299 8300 8301 8302 8303 8304 8305 8306 8307 8308 8309 8310 8311 8312 8313 8314 8315 8316 8317 8318 8319 8320 8321 8322 8323 8324 8325 8326 8327 8328 8329 8330 8331 8332 8333 8334 8335 8336 8337 8338 8339 8340 8341 8342 8343 8344 8345 8346 8347 8348 8349 8350 8351 8352 8353 8354 8355 8356 8357 8358 8359 8360 8361 8362 8363 8364 8365 8366 8367 8368 8369 8370 8371 8372 8373 8374 8375 8376 8377 8378 8379 8380 8381 8382 8383 8384 8385 8386 8387 8388 8389 8390 8391 8392 8393 8394 8395 8396 8397 8398 8399 8400 8401 8402 8403 8404 8405 8406 8407 8408 8409 8410 8411 8412 8413 8414 8415 8416 8417 8418 8419 8420 8421 8422 8423 8424 8425 8426 8427 8428 8429 8430 8431 8432 8433 8434 8435 8436 8437 8438 8439 8440 8441 8442 8443 8444 8445 8446 8447 8448 8449 8450 8451 8452 8453 8454 8455 8456 8457 8458 8459 8460 8461 8462 8463 8464 8465 8466 8467 8468 8469 8470 8471 8472 8473 8474 8475 8476 8477 8478 8479 8480 8481 8482 8483 8484 8485 8486 8487 8488 8489 8490 8491 8492 8493 8494 8495 8496 8497 8498 8499 8500 8501 8502 8503 8504 8505 8506 8507 8508 8509 8510 8511 8512 8513 8514 8515 8516 8517 8518 8519 8520 8521 8522 8523 8524 8525 8526 8527 8528 8529 8530 8531 8532 8533 8534 8535 8536 8537 8538 8539 8540 8541 8542 8543 8544 8545 8546 8547 8548 8549 8550 8551 8552 8553 8554 8555 8556 8557 8558 8559 8560 8561 8562 8563 8564 8565 8566 8567 8568 8569 8570 8571 8572 8573 8574 8575 8576 8577 8578 8579 8580 8581 8582 8583 8584 8585 8586 8587 8588 8589 8590 8591 8592 8593 8594 8595 8596 8597 8598 8599 8600 8601 8602 8603 8604 8605 8606 8607 8608 8609 8610 8611 8612 8613 8614 8615 8616 8617 8618 8619 8620 8621 8622 8623 8624 8625 8626 8627 8628 8629 8630 8631 8632 8633 8634 8635 8636 8637 8638 8639 8640 8641 8642 8643 8644 8645 8646 8647 8648 8649 8650 8651 8652 8653 8654 8655 8656 8657 8658 8659 8660 8661 8662 8663 8664 8665 8666 8667 8668 8669 8670 8671 8672 8673 8674 8675 8676 8677 8678 8679 8680 8681 8682 8683 8684 8685 8686 8687 8688 8689 8690 8691 8692 8693 8694 8695 8696 8697 8698 8699 8700 8701 8702 8703 8704 8705 8706 8707 8708 8709 8710 8711 8712 8713 8714 8715 8716 8717 8718 8719 8720 8721 8722 8723 8724 8725 8726 8727 8728 8729 8730 8731 8732 8733 8734 8735 8736 8737 8738 8739 8740 8741 8742 8743 8744 8745 8746 8747 8748 8749 8750 8751 8752 8753 8754 8755 8756 8757 8758 8759 8760 8761 8762 8763 8764 8765 8766 8767 8768 8769 8770 8771 8772 8773 8774 8775 8776 8777 8778 8779 8780 8781 8782 8783 8784 8785 8786 8787 8788 8789 8790 8791 8792 8793 8794 8795 8796 8797 8798 8799 8800 8801 8802 8803 8804 8805 8806 8807 8808 8809 8810 8811 8812 8813 8814 8815 8816 8817 8818 8819 8820 8821 8822 8823 8824 8825 8826 8827 8828 8829 8830 8831 8832 8833 8834 8835 8836 8837 8838 8839 8840 8841 8842 8843 8844 8845 8846 8847 8848 8849 8850 8851 8852 8853 8854 8855 8856 8857 8858 8859 8860 8861 8862 8863 8864 8865 8866 8867 8868 8869 8870 8871 8872 8873 8874 8875 8876 8877 8878 8879 8880 8881 8882 8883 8884 8885 8886 8887 8888 8889 8890 8891 8892 8893 8894 8895 8896 8897 8898 8899 8900 8901 8902 8903 8904 8905 8906 8907 8908 8909 8910 8911 8912 8913 8914 8915 8916 8917 8918 8919 8920 8921 8922 8923 8924 8925 8926 8927 8928 8929 8930 8931 8932 8933 8934 8935 8936 8937 8938 8939 8940 8941 8942 8943 8944 8945 8946 8947 8948 8949 8950 8951 8952 8953 8954 8955 8956 8957 8958 8959 8960 8961 8962 8963 8964 8965 8966 8967 8968 8969 8970 8971 8972 8973 8974 8975 8976 8977 8978 8979 8980 8981 8982 8983 8984 8985 8986 8987 8988 8989 8990 8991 8992 8993 8994 8995 8996 8997 8998 8999 9000 9001 9002 9003 9004 9005 9006 9007 9008 9009 9010 9011 9012 9013 9014 9015 9016 9017 9018 9019 9020 9021 9022 9023 9024 9025 9026 9027 9028 9029 9030 9031 9032 9033 9034 9035 9036 9037 9038 9039 9040 9041 9042 9043 9044 9045 9046 9047 9048 9049 9050 9051 9052 9053 9054 9055 9056 9057 9058 9059 9060 9061 9062 9063 9064 9065 9066 9067 9068 9069 9070 9071 9072 9073 9074 9075 9076 9077 9078 9079 9080 9081 9082 9083 9084 9085 9086 9087 9088 9089 9090 9091 9092 9093 9094 9095 9096 9097 9098 9099 9100 9101 9102 9103 9104 9105 9106 9107 9108 9109 9110 9111 9112 9113 9114 9115 9116 9117 9118 9119 9120 9121 9122 9123 9124 9125 9126 9127 9128 9129 9130 9131 9132 9133 9134 9135 9136 9137 9138 9139 9140 9141 9142 9143 9144 9145 9146 9147 9148 9149 9150 9151 9152 9153 9154 9155 9156 9157 9158 9159 9160 9161 9162 9163 9164 9165 9166 9167 9168 9169 9170 9171 9172 9173 9174 9175 9176 9177 9178 9179 9180 9181 9182 9183 9184 9185 9186 9187 9188 9189 9190 9191 9192 9193 9194 9195 9196 9197 9198 9199 9200 9201 9202 9203 9204 9205 9206 9207 9208 9209 9210 9211 9212 9213 9214 9215 9216 9217 9218 9219 9220 9221 9222 9223 9224 9225 9226 9227 9228 9229 9230 9231 9232 9233 9234 9235 9236 9237 9238 9239 9240 9241 9242 9243 9244 9245 9246 9247 9248 9249 9250 9251 9252 9253 9254 9255 9256 9257 9258 9259 9260 9261 9262 9263 9264 9265 9266 9267 9268 9269 9270 9271 9272 9273 9274 9275 9276 9277 9278 9279 9280 9281 9282 9283 9284 9285 9286 9287 9288 9289 9290 9291 9292 9293 9294 9295 9296 9297 9298 9299 9300 9301 9302 9303 9304 9305 9306 9307 9308 9309 9310 9311 9312 9313 9314 9315 9316 9317 9318 9319 9320 9321 9322 9323 9324 9325 9326 9327 9328 9329 9330 9331 9332 9333 9334 9335 9336 9337 9338 9339 9340 9341 9342 9343 9344 9345 9346 9347 9348 9349 9350 9351 9352 9353 9354 9355 9356 9357 9358 9359 9360 9361 9362 9363 9364 9365 9366 9367 9368 9369 9370 9371 9372 9373 9374 9375 9376 9377 9378 9379 9380 9381 9382 9383 9384 9385 9386 9387 9388 9389 9390 9391 9392 9393 9394 9395 9396 9397 9398 9399 9400 9401 9402 9403 9404 9405 9406 9407 9408 9409 9410 9411 9412 9413 9414 9415 9416 9417 9418 9419 9420 9421 9422 9423 9424 9425 9426 9427 9428 9429 9430 9431 9432 9433 9434 9435 9436 9437 9438 9439 9440 9441 9442 9443 9444 9445 9446 9447 9448 9449 9450 9451 9452 9453 9454 9455 9456 9457 9458 9459 9460 9461 9462 9463 9464 9465 9466 9467 9468 9469 9470 9471 9472 9473 9474 9475 9476 9477 9478 9479 9480 9481 9482 9483 9484 9485 9486 9487 9488 9489 9490 9491 9492 9493 9494 9495 9496 9497 9498 9499 9500 9501 9502 9503 9504 9505 9506 9507 9508 9509 9510 9511 9512 9513 9514 9515 9516 9517 9518 9519 9520 9521 9522 9523 9524 9525 9526 9527 9528 9529 9530 9531 9532 9533 9534 9535 9536 9537 9538 9539 9540 9541 9542 9543 9544 9545 9546 9547 9548 9549 9550 9551 9552 9553 9554 9555 9556 9557 9558 9559 9560 9561 9562 9563 9564 9565 9566 9567 9568 9569 9570 9571 9572 9573 9574 9575 9576 9577 9578 9579 9580 9581 9582 9583 9584 9585 9586 9587 9588 9589 9590 9591 9592 9593 9594 9595 9596 9597 9598 9599 9600 9601 9602 9603 9604 9605 9606 9607 9608 9609 9610 9611 9612 9613 9614 9615 9616 9617 9618 9619 9620 9621 9622 9623 9624 9625 9626 9627 9628 9629 9630 9631 9632 9633 9634 9635 9636 9637 9638 9639 9640 9641 9642 9643 9644 9645 9646 9647 9648 9649 9650 9651 9652 9653 9654 9655 9656 9657 9658 9659 9660 9661 9662 9663 9664 9665 9666 9667 9668 9669 9670 9671 9672 9673 9674 9675 9676 9677 9678 9679 9680 9681 9682 9683 9684 9685 9686 9687 9688 9689 9690 9691 9692 9693 9694 9695 9696 9697 9698 9699 9700 9701 9702 9703 9704 9705 9706 9707 9708 9709 9710 9711 9712 9713 9714 9715 9716 9717 9718 9719 9720 9721 9722 9723 9724 9725 9726 9727 9728 9729 9730 9731 9732 9733 9734 9735 9736 9737 9738 9739 9740 9741 9742 9743 9744 9745 9746 9747 9748 9749 9750 9751 9752 9753 9754 9755 9756 9757 9758 9759 9760 9761 9762 9763 9764 9765 9766 9767 9768 9769 9770 9771 9772 9773 9774 9775 9776 9777 9778 9779 9780 9781 9782 9783 9784 9785 9786 9787 9788 9789 9790 9791 9792 9793 9794 9795 9796 9797 9798 9799 9800 9801 9802 9803 9804 9805 9806 9807 9808 9809 9810 9811 9812 9813 9814 9815 9816 9817 9818 9819 9820 9821 9822 9823 9824 9825 9826 9827 9828 9829 9830 9831 9832 9833 9834 9835 9836 9837 9838 9839 9840 9841 9842 9843 9844 9845 9846 9847 9848 9849 9850 9851 9852 9853 9854 9855 9856 9857 9858 9859 9860 9861 9862 9863 9864 9865 9866 9867 9868 9869 9870 9871 9872 9873 9874 9875 9876 9877 9878 9879 9880 9881 9882 9883 9884 9885 9886 9887 9888 9889 9890 9891 9892 9893 9894 9895 9896 9897 9898 9899 9900 9901 9902 9903 9904 9905 9906 9907 9908 9909 9910 9911 9912 9913 9914 9915 9916 9917 9918 9919 9920 9921 9922 9923 9924 9925 9926 9927 9928 9929 9930 9931 9932 9933 9934 9935 9936 9937 9938 9939 9940 9941 9942 9943 9944 9945 9946 9947 9948 9949 9950 9951 9952 9953 9954 9955 9956 9957 9958 9959 9960 9961 9962 9963 9964 9965 9966 9967 9968 9969 9970 9971 9972 9973 9974 9975 9976 9977 9978 9979 9980 9981 9982 9983 9984 9985 9986 9987 9988 9989 9990 9991 9992 9993 9994 9995 9996 9997 9998 9999 10000 10001 10002 10003 10004 10005 10006 10007 10008 10009 10010 10011 10012 10013 10014 10015 10016 10017 10018 10019 10020 10021 10022 10023 10024 10025 10026 10027 10028 10029 10030 10031 10032 10033 10034 10035 10036 10037 10038 10039 10040 10041 10042 10043 10044 10045 10046 10047 10048 10049 10050 10051 10052 10053 10054 10055 10056 10057 10058 10059 10060 10061 10062 10063 10064 10065 10066 10067 10068 10069 10070 10071 10072 10073 10074 10075 10076 10077 10078 10079 10080 10081 10082 10083 10084 10085 10086 10087 10088 10089 10090 10091 10092 10093 10094 10095 10096 10097 10098 10099 10100 10101 10102 10103 10104 10105 10106 10107 10108 10109 10110 10111 10112 10113 10114 10115 10116 10117 10118 10119 10120 10121 10122 10123 10124 10125 10126 10127 10128 10129 10130 10131 10132 10133 10134 10135 10136 10137 10138 10139 10140 10141 10142 10143 10144 10145 10146 10147 10148 10149 10150 10151 10152 10153 10154 10155 10156 10157 10158 10159 10160 10161 10162 10163 10164 10165 10166 10167 10168 10169 10170 10171 10172 10173 10174 10175 10176 10177 10178 10179 10180 10181 10182 10183 10184 10185 10186 10187 10188 10189 10190 10191 10192 10193 10194 10195 10196 10197 10198 10199 10200 10201 10202 10203 10204 10205 10206 10207 10208 10209 10210 10211 10212 10213 10214 10215 10216 10217 10218 10219 10220 10221 10222 10223 10224 10225 10226 10227 10228 10229 10230 10231 10232 10233 10234 10235 10236 10237 10238 10239 10240 10241 10242 10243 10244 10245 10246 10247 10248 10249 10250 10251 10252 10253 10254 10255 10256 10257 10258 10259 10260 10261 10262 10263 10264 10265 10266 10267 10268 10269 10270 10271 10272 10273 10274 10275 10276 10277 10278 10279 10280 10281 10282 10283 10284 10285 10286 10287 10288 10289 10290 10291 10292 10293 10294 10295 10296 10297 10298 10299 10300 10301 10302 10303 10304 10305 10306 10307 10308 10309 10310 10311 10312 10313 10314 10315 10316 10317 10318 10319 10320 10321 10322 10323 10324 10325 10326 10327 10328 10329 10330 10331 10332 10333 10334 10335 10336 10337 10338 10339 10340 10341 10342 10343 10344 10345 10346 10347 10348 10349 10350 10351 10352 10353 10354 10355 10356 10357 10358 10359 10360 10361 10362 10363 10364 10365 10366 10367 10368 10369 10370 10371 10372 10373 10374 10375 10376 10377 10378 10379 10380 10381 10382 10383 10384 10385 10386 10387 10388 10389 10390 10391 10392 10393 10394 10395 10396 10397 10398 10399 10400 10401 10402 10403 10404 10405 10406 10407 10408 10409 10410 10411 10412 10413 10414 10415 10416 10417 10418 10419 10420 10421 10422 10423 10424 10425 10426 10427 10428 10429 10430 10431 10432 10433 10434 10435 10436 10437 10438 10439 10440 10441 10442 10443 10444 10445 10446 10447 10448 10449 10450 10451 10452 10453 10454 10455 10456 10457 10458 10459 10460 10461 10462 10463 10464 10465 10466 10467 10468 10469 10470 10471 10472 10473 10474 10475 10476 10477 10478 10479 10480 10481 10482 10483 10484 10485 10486 10487 10488 10489 10490 10491 10492 10493 10494 10495 10496 10497 10498 10499 10500 10501 10502 10503 10504 10505 10506 10507 10508 10509 10510 10511 10512 10513 10514 10515 10516 10517 10518 10519 10520 10521 10522 10523 10524 10525 10526 10527 10528 10529 10530 10531 10532 10533 10534 10535 10536 10537 10538 10539 10540 10541 10542 10543 10544 10545 10546 10547 10548 10549 10550 10551 10552 10553 10554 10555 10556 10557 10558 10559 10560 10561 10562 10563 10564 10565 10566 10567 10568 10569 10570 10571 10572 10573 10574 10575 10576 10577 10578 10579 10580 10581 10582 10583 10584 10585 10586 10587 10588 10589 10590 10591 10592 10593 10594 10595 10596 10597 10598 10599 10600 10601 10602 10603 10604 10605 10606 10607 10608 10609 10610 10611 10612 10613 10614 10615 10616 10617 10618 10619 10620 10621 10622 10623 10624 10625 10626 10627 10628 10629 10630 10631 10632 10633 10634 10635 10636 10637 10638 10639 10640 10641 10642 10643 10644 10645 10646 10647 10648 10649 10650 10651 10652 10653 10654 10655 10656 10657 10658 10659 10660 10661 10662 10663 10664 10665 10666 10667 10668 10669 10670 10671 10672 10673 10674 10675 10676 10677 10678 10679 10680 10681 10682 10683 10684 10685 10686 10687 10688 10689 10690 10691 10692 10693 10694 10695 10696 10697 10698 10699 10700 10701 10702 10703 10704 10705 10706 10707 10708 10709 10710 10711 10712 10713 10714 10715 10716 10717 10718 10719 10720 10721 10722 10723 10724 10725 10726 10727 10728 10729 10730 10731 10732 10733 10734 10735 10736 10737 10738 10739 10740 10741 10742 10743 10744 10745 10746 10747 10748 10749 10750 10751 10752 10753 10754 10755 10756 10757 10758 10759 10760 10761 10762 10763 10764 10765 10766 10767 10768 10769 10770 10771 10772 10773 10774 10775 10776 10777 10778 10779 10780 10781 10782 10783 10784 10785 10786 10787 10788 10789 10790 10791 10792 10793 10794 10795 10796 10797 10798 10799 10800 10801 10802 10803 10804 10805 10806 10807 10808 10809 10810 10811 10812 10813 10814 10815 10816 10817 10818 10819 10820 10821 10822 10823 10824 10825 10826 10827 10828 10829 10830 10831 10832 10833 10834 10835 10836 10837 10838 10839 10840 10841 10842 10843 10844 10845 10846 10847 10848 10849 10850 10851 10852 10853 10854 10855 10856 10857 10858 10859 10860 10861 10862 10863 10864 10865 10866 10867 10868 10869 10870 10871 10872 10873 10874 10875 10876 10877 10878 10879 10880 10881 10882 10883 10884 10885 10886 10887 10888 10889 10890 10891 10892 10893 10894 10895 10896 10897 10898 10899 10900 10901 10902 10903 10904 10905 10906 10907 10908 10909 10910 10911 10912 10913 10914 10915 10916 10917 10918 10919 10920 10921 10922 10923 10924 10925 10926 10927 10928 10929 10930 10931 10932 10933 10934 10935 10936 10937 10938 10939 10940 10941 10942 10943 10944 10945 10946 10947 10948 10949 10950 10951 10952 10953 10954 10955 10956 10957 10958 10959 10960 10961 10962 10963 10964 10965 10966 10967 10968 10969 10970 10971 10972 10973 10974 10975 10976 10977 10978 10979 10980 10981 10982 10983 10984 10985 10986 10987 10988 10989 10990 10991 10992 10993 10994 10995 10996 10997 10998 10999 11000 11001 11002 11003 11004 11005 11006 11007 11008 11009 11010 11011 11012 11013 11014 11015 11016 11017 11018 11019 11020 11021 11022 11023 11024 11025 11026 11027 11028 11029 11030 11031 11032 11033 11034 11035 11036 11037 11038 11039 11040 11041 11042 11043 11044 11045 11046 11047 11048 11049 11050 11051 11052 11053 11054 11055 11056 11057 11058 11059 11060 11061 11062 11063 11064 11065 11066 11067 11068 11069 11070 11071 11072 11073 11074 11075 11076 11077 11078 11079 11080 11081 11082 11083 11084 11085 11086 11087 11088 11089 11090 11091 11092 11093 11094 11095 11096 11097 11098 11099 11100 11101 11102 11103 11104 11105 11106 11107 11108 11109 11110 11111 11112 11113 11114 11115 11116 11117 11118 11119 11120 11121 11122 11123 11124 11125 11126 11127 11128 11129 11130 11131 11132 11133 11134 11135 11136 11137 11138 11139 11140 11141 11142 11143 11144 11145 11146 11147 11148 11149 11150 11151 11152 11153 11154 11155 11156 11157 11158 11159 11160 11161 11162 11163 11164 11165 11166 11167 11168 11169 11170 11171 11172 11173 11174 11175 11176 11177 11178 11179 11180 11181 11182 11183 11184 11185 11186 11187 11188 11189 11190 11191 11192 11193 11194 11195 11196 11197 11198 11199 11200 11201 11202 11203 11204 11205 11206 11207 11208 11209 11210 11211 11212 11213 11214 11215 11216 11217 11218 11219 11220 11221 11222 11223 11224 11225 11226 11227 11228 11229 11230 11231 11232 11233 11234 11235 11236 11237 11238 11239 11240 11241 11242 11243 11244 11245 11246 11247 11248 11249 11250 11251 11252 11253 11254 11255 11256 11257 11258 11259 11260 11261 11262 11263 11264 11265 11266 11267 11268 11269 11270 11271 11272 11273 11274 11275 11276 11277 11278 11279 11280 11281 11282 11283 11284 11285 11286 11287 11288 11289 11290 11291 11292 11293 11294 11295 11296 11297 11298 11299 11300 11301 11302 11303 11304 11305 11306 11307 11308 11309 11310 11311 11312 11313 11314 11315 11316 11317 11318 11319 11320 11321 11322 11323 11324 11325 11326 11327 11328 11329 11330 11331 11332 11333 11334 11335 11336 11337 11338 11339 11340 11341 11342 11343 11344 11345 11346 11347 11348 11349 11350 11351 11352 11353 11354 11355 11356 11357 11358 11359 11360 11361 11362 11363 11364 11365 11366 11367 11368 11369 11370 11371 11372 11373 11374 11375 11376 11377 11378 11379 11380 11381 11382 11383 11384 11385 11386 11387 11388 11389 11390 11391 11392 11393 11394 11395 11396 11397 11398 11399 11400 11401 11402 11403 11404 11405 11406 11407 11408 11409 11410 11411 11412 11413 11414 11415 11416 11417 11418 11419 11420 11421 11422 11423 11424 11425 11426 11427 11428 11429 11430 11431 11432 11433 11434 11435 11436 11437 11438 11439 11440 11441 11442 11443 11444 11445 11446 11447 11448 11449 11450 11451 11452 11453 11454 11455 11456 11457 11458 11459 11460 11461 11462 11463 11464 11465 11466 11467 11468 11469 11470 11471 11472 11473 11474 11475 11476 11477 11478 11479 11480 11481 11482 11483 11484 11485 11486 11487 11488 11489 11490 11491 11492 11493 11494 11495 11496 11497 11498 11499 11500 11501 11502 11503 11504 11505 11506 11507 11508 11509 11510 11511 11512 11513 11514 11515 11516 11517 11518 11519 11520 11521 11522 11523 11524 11525 11526 11527 11528 11529 11530 11531 11532 11533 11534 11535 11536 11537 11538 11539 11540 11541 11542 11543 11544 11545 11546 11547 11548 11549 11550 11551 11552 11553 11554 11555 11556 11557 11558 11559 11560 11561 11562 11563 11564 11565 11566 11567 11568 11569 11570 11571 11572 11573 11574 11575 11576 11577 11578 11579 11580 11581 11582 11583 11584 11585 11586 11587 11588 11589 11590 11591 11592 11593 11594 11595 11596 11597 11598 11599 11600 11601 11602 11603 11604 11605 11606 11607 11608 11609 11610 11611 11612 11613 11614 11615 11616 11617 11618 11619 11620 11621 11622 11623 11624 11625 11626 11627 11628 11629 11630 11631 11632 11633 11634 11635 11636 11637 11638 11639 11640 11641 11642 11643 11644 11645 11646 11647 11648 11649 11650 11651 11652 11653 11654 11655 11656 11657 11658 11659 11660 11661 11662 11663 11664 11665 11666 11667 11668 11669 11670 11671 11672 11673 11674 11675 11676 11677 11678 11679 11680 11681 11682 11683 11684 11685 11686 11687 11688 11689 11690 11691 11692 11693 11694 11695 11696 11697 11698 11699 11700 11701 11702 11703 11704 11705 11706 11707 11708 11709 11710 11711 11712 11713 11714 11715 11716 11717 11718 11719 11720 11721 11722 11723 11724 11725 11726 11727 11728 11729 11730 11731 11732 11733 11734 11735 11736 11737 11738 11739 11740 11741 11742 11743 11744 11745 11746 11747 11748 11749 11750 11751 11752 11753 11754 11755 11756 11757 11758 11759 11760 11761 11762 11763 11764 11765 11766 11767 11768 11769 11770 11771 11772 11773 11774 11775 11776 11777 11778 11779 11780 11781 11782 11783 11784 11785 11786 11787 11788 11789 11790 11791 11792 11793 11794 11795 11796 11797 11798 11799 11800 11801 11802 11803 11804 11805 11806 11807 11808 11809 11810 11811 11812 11813 11814 11815 11816 11817 11818 11819 11820 11821 11822 11823 11824 11825 11826 11827 11828 11829 11830 11831 11832 11833 11834 11835 11836 11837 11838 11839 11840 11841 11842 11843 11844 11845 11846 11847 11848 11849 11850 11851 11852 11853 11854 11855 11856 11857 11858 11859 11860 11861 11862 11863 11864 11865 11866 11867 11868 11869 11870 11871 11872 11873 11874 11875 11876 11877 11878 11879 11880 11881 11882 11883 11884 11885 11886 11887 11888 11889 11890 11891 11892 11893 11894 11895 11896 11897 11898 11899 11900 11901 11902 11903 11904 11905 11906 11907 11908 11909 11910 11911 11912 11913 11914 11915 11916 11917 11918 11919 11920 11921 11922 11923 11924 11925 11926 11927 11928 11929 11930 11931 11932 11933 11934 11935 11936 11937 11938 11939 11940 11941 11942 11943 11944 11945 11946 11947 11948 11949 11950 11951 11952 11953 11954 11955 11956 11957 11958 11959 11960 11961 11962 11963 11964 11965 11966 11967 11968 11969 11970 11971 11972 11973 11974 11975 11976 11977 11978 11979 11980 11981 11982 11983 11984 11985 11986 11987 11988 11989 11990 11991 11992 11993 11994 11995 11996 11997 11998 11999 12000 12001 12002 12003 12004 12005 12006 12007 12008 12009 12010 12011 12012 12013 12014 12015 12016 12017 12018 12019 12020 12021 12022 12023 12024 12025 12026 12027 12028 12029 12030 12031 12032 12033 12034 12035 12036 12037 12038 12039 12040 12041 12042 12043 12044 12045 12046 12047 12048 12049 12050 12051 12052 12053 12054 12055 12056 12057 12058 12059 12060 12061 12062 12063 12064 12065 12066 12067 12068 12069 12070 12071 12072 12073 12074 12075 12076 12077 12078 12079 12080 12081 12082 12083 12084 12085 12086 12087 12088 12089 12090 12091 12092 12093 12094 12095 12096 12097 12098 12099 12100 12101 12102 12103 12104 12105 12106 12107 12108 12109 12110 12111 12112 12113 12114 12115 12116 12117 12118 12119 12120 12121 12122 12123 12124 12125 12126 12127 12128 12129 12130 12131 12132 12133 12134 12135 12136 12137 12138 12139 12140 12141 12142 12143 12144 12145 12146 12147 12148 12149 12150 12151 12152 12153 12154 12155 12156 12157 12158 12159 12160 12161 12162 12163 12164 12165 12166 12167 12168 12169 12170 12171 12172 12173 12174 12175 12176 12177 12178 12179 12180 12181 12182 12183 12184 12185 12186 12187 12188 12189 12190 12191 12192 12193 12194 12195 12196 12197 12198 12199 12200 12201 12202 12203 12204 12205 12206 12207 12208 12209 12210 12211 12212 12213 12214 12215 12216 12217 12218 12219 12220 12221 12222 12223 12224 12225 12226 12227 12228 12229 12230 12231 12232 12233 12234 12235 12236 12237 12238 12239 12240 12241 12242 12243 12244 12245 12246 12247 12248 12249 12250 12251 12252 12253 12254 12255 12256 12257 12258 12259 12260 12261 12262 12263 12264 12265 12266 12267 12268 12269 12270 12271 12272 12273 12274 12275 12276 12277 12278 12279 12280 12281 12282 12283 12284 12285 12286 12287 12288 12289 12290 12291 12292 12293 12294 12295 12296 12297 12298 12299 12300 12301 12302 12303 12304 12305 12306 12307 12308 12309 12310 12311 12312 12313 12314 12315 12316 12317 12318 12319 12320 12321 12322 12323 12324 12325 12326 12327 12328 12329 12330 12331 12332 12333 12334 12335 12336 12337 12338 12339 12340 12341 12342 12343 12344 12345 12346 12347 12348 12349 12350 12351 12352 12353 12354 12355 12356 12357 12358 12359 12360 12361 12362 12363 12364 12365 12366 12367 12368 12369 12370 12371 12372 12373 12374 12375 12376 12377 12378 12379 12380 12381 12382 12383 12384 12385 12386 12387 12388 12389 12390 12391 12392 12393 12394 12395 12396 12397 12398 12399 12400 12401 12402 12403 12404 12405 12406 12407 12408 12409 12410 12411 12412 12413 12414 12415 12416 12417 12418 12419 12420 12421 12422 12423 12424 12425 12426 12427 12428 12429 12430 12431 12432 12433 12434 12435 12436 12437 12438 12439 12440 12441 12442 12443 12444 12445 12446 12447 12448 12449 12450 12451 12452 12453 12454 12455 12456 12457 12458 12459 12460 12461 12462 12463 12464 12465 12466 12467 12468 12469 12470 12471 12472 12473 12474 12475 12476 12477 12478 12479 12480 12481 12482 12483 12484 12485 12486 12487 12488 12489 12490 12491 12492 12493 12494 12495 12496 12497 12498 12499 12500 12501 12502 12503 12504 12505 12506 12507 12508 12509 12510 12511 12512 12513 12514 12515 12516 12517 12518 12519 12520 12521 12522 12523 12524 12525 12526 12527 12528 12529 12530 12531 12532 12533 12534 12535 12536 12537 12538 12539 12540 12541 12542 12543 12544 12545 12546 12547 12548 12549 12550 12551 12552 12553 12554 12555 12556 12557 12558 12559 12560 12561 12562 12563 12564 12565 12566 12567 12568 12569 12570 12571 12572 12573 12574 12575 12576 12577 12578 12579 12580 12581 12582 12583 12584 12585 12586 12587 12588 12589 12590 12591 12592 12593 12594 12595 12596 12597 12598 12599 12600 12601 12602 12603 12604 12605 12606 12607 12608 12609 12610 12611 12612 12613 12614 12615 12616 12617 12618 12619 12620 12621 12622 12623 12624 12625 12626 12627 12628 12629 12630 12631 12632 12633 12634 12635 12636 12637 12638 12639 12640 12641 12642 12643 12644 12645 12646 12647 12648 12649 12650 12651 12652 12653 12654 12655 12656 12657 12658 12659 12660 12661 12662 12663 12664 12665 12666 12667 12668 12669 12670 12671 12672 12673 12674 12675 12676 12677 12678 12679 12680 12681 12682 12683 12684 12685 12686 12687 12688 12689 12690 12691 12692 12693 12694 12695 12696 12697 12698 12699 12700 12701 12702 12703 12704 12705 12706 12707 12708 12709 12710 12711 12712 12713 12714 12715 12716 12717 12718 12719 12720 12721 12722 12723 12724 12725 12726 12727 12728 12729 12730 12731 12732 12733 12734 12735 12736 12737 12738 12739 12740 12741 12742 12743 12744 12745 12746 12747 12748 12749 12750 12751 12752 12753 12754 12755 12756 12757 12758 12759 12760 12761 12762 12763 12764 12765 12766 12767 12768 12769 12770 12771 12772 12773 12774 12775 12776 12777 12778 12779 12780 12781 12782 12783 12784 12785 12786 12787 12788 12789 12790 12791 12792 12793 12794 12795 12796 12797 12798 12799 12800 12801 12802 12803 12804 12805 12806 12807 12808 12809 12810 12811 12812 12813 12814 12815 12816 12817 12818 12819 12820 12821 12822 12823 12824 12825 12826 12827 12828 12829 12830 12831 12832 12833 12834 12835 12836 12837 12838 12839 12840 12841 12842 12843 12844 12845 12846 12847 12848 12849 12850 12851 12852 12853 12854 12855 12856 12857 12858 12859 12860 12861 12862 12863 12864 12865 12866 12867 12868 12869 12870 12871 12872 12873 12874 12875 12876 12877 12878 12879 12880 12881 12882 12883 12884 12885 12886 12887 12888 12889 12890 12891 12892 12893 12894 12895 12896 12897 12898 12899 12900 12901 12902 12903 12904 12905 12906 12907 12908 12909 12910 12911 12912 12913 12914 12915 12916 12917 12918 12919 12920 12921 12922 12923 12924 12925 12926 12927 12928 12929 12930 12931 12932 12933 12934 12935 12936 12937 12938 12939 12940 12941 12942 12943 12944 12945 12946 12947 12948 12949 12950 12951 12952 12953 12954 12955 12956 12957 12958 12959 12960 12961 12962 12963 12964 12965 12966 12967 12968 12969 12970 12971 12972 12973 12974 12975 12976 12977 12978 12979 12980 12981 12982 12983 12984 12985 12986 12987 12988 12989 12990 12991 12992 12993 12994 12995 12996 12997 12998 12999 13000 13001 13002 13003 13004 13005 13006 13007 13008 13009 13010 13011 13012 13013 13014 13015 13016 13017 13018 13019 13020 13021 13022 13023 13024 13025 13026 13027 13028 13029 13030 13031 13032 13033 13034 13035 13036 13037 13038 13039 13040 13041 13042 13043 13044 13045 13046 13047 13048 13049 13050 13051 13052 13053 13054 13055 13056 13057 13058 13059 13060 13061 13062 13063 13064 13065 13066 13067 13068 13069 13070 13071 13072 13073 13074 13075 13076 13077 13078 13079 13080 13081 13082 13083 13084 13085 13086 13087 13088 13089 13090 13091 13092 13093 13094 13095 13096 13097 13098 13099 13100 13101 13102 13103 13104 13105 13106 13107 13108 13109 13110 13111 13112 13113 13114 13115 13116 13117 13118 13119 13120 13121 13122 13123 13124 13125 13126 13127 13128 13129 13130 13131 13132 13133 13134 13135 13136 13137 13138 13139 13140 13141 13142 13143 13144 13145 13146 13147 13148 13149 13150 13151 13152 13153 13154 13155 13156 13157 13158 13159 13160 13161 13162 13163 13164 13165 13166 13167 13168 13169 13170 13171 13172 13173 13174 13175 13176 13177 13178 13179 13180 13181 13182 13183 13184 13185 13186 13187 13188 13189 13190 13191 13192 13193 13194 13195 13196 13197 13198 13199 13200 13201 13202 13203 13204 13205 13206 13207 13208 13209 13210 13211 13212 13213 13214 13215 13216 13217 13218 13219 13220 13221 13222 13223 13224 13225 13226 13227 13228 13229 13230 13231 13232 13233 13234 13235 13236 13237 13238 13239 13240 13241 13242 13243 13244 13245 13246 13247 13248 13249 13250 13251 13252 13253 13254 13255 13256 13257 13258 13259 13260 13261 13262 13263 13264 13265 13266 13267 13268 13269 13270 13271 13272 13273 13274 13275 13276 13277 13278 13279 13280 13281 13282 13283 13284 13285 13286 13287 13288 13289 13290 13291 13292 13293 13294 13295 13296 13297 13298 13299 13300 13301 13302 13303 13304 13305 13306 13307 13308 13309 13310 13311 13312 13313 13314 13315 13316 13317 13318 13319 13320 13321 13322 13323 13324 13325 13326 13327 13328 13329 13330 13331 13332 13333 13334 13335 13336 13337 13338 13339 13340 13341 13342 13343 13344 13345 13346 13347 13348 13349 13350 13351 13352 13353 13354 13355 13356 13357 13358 13359 13360 13361 13362 13363 13364 13365 13366 13367 13368 13369 13370 13371 13372 13373 13374 13375 13376 13377 13378 13379 13380 13381 13382 13383 13384 13385 13386 13387 13388 13389 13390 13391 13392 13393 13394 13395 13396 13397 13398 13399 13400 13401 13402 13403 13404 13405 13406 13407 13408 13409 13410 13411 13412 13413 13414 13415 13416 13417 13418 13419 13420 13421 13422 13423 13424 13425 13426 13427 13428 13429 13430 13431 13432 13433 13434 13435 13436 13437 13438 13439 13440 13441 13442 13443 13444 13445 13446 13447 13448 13449 13450 13451 13452 13453 13454 13455 13456 13457 13458 13459 13460 13461 13462 13463 13464 13465 13466 13467 13468 13469 13470 13471 13472 13473 13474 13475 13476 13477 13478 13479 13480 13481 13482 13483 13484 13485 13486 13487 13488 13489 13490 13491 13492 13493 13494 13495 13496 13497 13498 13499 13500 13501 13502 13503 13504 13505 13506 13507 13508 13509 13510 13511 13512 13513 13514 13515 13516 13517 13518 13519 13520 13521 13522 13523 13524 13525 13526 13527 13528 13529 13530 13531 13532 13533 13534 13535 13536 13537 13538 13539 13540 13541 13542 13543 13544 13545 13546 13547 13548 13549 13550 13551 13552 13553 13554 13555 13556 13557 13558 13559 13560 13561 13562 13563 13564 13565 13566 13567 13568 13569 13570 13571 13572 13573 13574 13575 13576 13577 13578 13579 13580 13581 13582 13583 13584 13585 13586 13587 13588 13589 13590 13591 13592 13593 13594 13595 13596 13597 13598 13599 13600 13601 13602 13603 13604 13605 13606 13607 13608 13609 13610 13611 13612 13613 13614 13615 13616 13617 13618 13619 13620 13621 13622 13623 13624 13625 13626 13627 13628 13629 13630 13631 13632 13633 13634 13635 13636 13637 13638 13639 13640 13641 13642 13643 13644 13645 13646 13647 13648 13649 13650 13651 13652 13653 13654 13655 13656 13657 13658 13659 13660 13661 13662 13663 13664 13665 13666 13667 13668 13669 13670 13671 13672 13673 13674 13675 13676 13677 13678 13679 13680 13681 13682 13683 13684 13685 13686 13687 13688 13689 13690 13691 13692 13693 13694 13695 13696 13697 13698 13699 13700 13701 13702 13703 13704 13705 13706 13707 13708 13709 13710 13711 13712 13713 13714 13715 13716 13717 13718 13719 13720 13721 13722 13723 13724 13725 13726 13727 13728 13729 13730 13731 13732 13733 13734 13735 13736 13737 13738 13739 13740 13741 13742 13743 13744 13745 13746 13747 13748 13749 13750 13751 13752 13753 13754 13755 13756 13757 13758 13759 13760 13761 13762 13763 13764 13765 13766 13767 13768 13769 13770 13771 13772 13773 13774 13775 13776 13777 13778 13779 13780 13781 13782 13783 13784 13785 13786 13787 13788 13789 13790 13791 13792 13793 13794 13795 13796 13797 13798 13799 13800 13801 13802 13803 13804 13805 13806 13807 13808 13809 13810 13811 13812 13813 13814 13815 13816 13817 13818 13819 13820 13821 13822 13823 13824 13825 13826 13827 13828 13829 13830 13831 13832 13833 13834 13835 13836 13837 13838 13839 13840 13841 13842 13843 13844 13845 13846 13847 13848 13849 13850 13851 13852 13853 13854 13855 13856 13857 13858 13859 13860 13861 13862 13863 13864 13865 13866 13867 13868 13869 13870 13871 13872 13873 13874 13875 13876 13877 13878 13879 13880 13881 13882 13883 13884 13885 13886 13887 13888 13889 13890 13891 13892 13893 13894 13895 13896 13897 13898 13899 13900 13901 13902 13903 13904 13905 13906 13907 13908 13909 13910 13911 13912 13913 13914 13915 13916 13917 13918 13919 13920 13921 13922 13923 13924 13925 13926 13927 13928 13929 13930 13931 13932 13933 13934 13935 13936 13937 13938 13939 13940 13941 13942 13943 13944 13945 13946 13947 13948 13949 13950 13951 13952 13953 13954 13955 13956 13957 13958 13959 13960 13961 13962 13963 13964 13965 13966 13967 13968 13969 13970 13971 13972 13973 13974 13975 13976 13977 13978 13979 13980 13981 13982 13983 13984 13985 13986 13987 13988 13989 13990 13991 13992 13993 13994 13995 13996 13997 13998 13999 14000 14001 14002 14003 14004 14005 14006 14007 14008 14009 14010 14011 14012 14013 14014 14015 14016 14017 14018 14019 14020 14021 14022 14023 14024 14025 14026 14027 14028 14029 14030 14031 14032 14033 14034 14035 14036 14037 14038 14039 14040 14041 14042 14043 14044 14045 14046 14047 14048 14049 14050 14051 14052 14053 14054 14055 14056 14057 14058 14059 14060 14061 14062 14063 14064 14065 14066 14067 14068 14069 14070 14071 14072 14073 14074 14075 14076 14077 14078 14079 14080 14081 14082 14083 14084 14085 14086 14087 14088 14089 14090 14091 14092 14093 14094 14095 14096 14097 14098 14099 14100 14101 14102 14103 14104 14105 14106 14107 14108 14109 14110 14111 14112 14113 14114 14115 14116 14117 14118 14119 14120 14121 14122 14123 14124 14125 14126 14127 14128 14129 14130 14131 14132 14133 14134 14135 14136 14137 14138 14139 14140 14141 14142 14143 14144 14145 14146 14147 14148 14149 14150 14151 14152 14153 14154 14155 14156 14157 14158 14159 14160 14161 14162 14163 14164 14165 14166 14167 14168 14169 14170 14171 14172 14173 14174 14175 14176 14177 14178 14179 14180 14181 14182 14183 14184 14185 14186 14187 14188 14189 14190 14191 14192 14193 14194 14195 14196 14197 14198 14199 14200 14201 14202 14203 14204 14205 14206 14207 14208 14209 14210 14211 14212 14213 14214 14215 14216 14217 14218 14219 14220 14221 14222 14223 14224 14225 14226 14227 14228 14229 14230 14231 14232 14233 14234 14235 14236 14237 14238 14239 14240 14241 14242 14243 14244 14245 14246 14247 14248 14249 14250 14251 14252 14253 14254 14255 14256 14257 14258 14259 14260 14261 14262 14263 14264 14265 14266 14267 14268 14269 14270 14271 14272 14273 14274 14275 14276 14277 14278 14279 14280 14281 14282 14283 14284 14285 14286 14287 14288 14289 14290 14291 14292 14293 14294 14295 14296 14297 14298 14299 14300 14301 14302 14303 14304 14305 14306 14307 14308 14309 14310 14311 14312 14313 14314 14315 14316 14317 14318 14319 14320 14321 14322 14323 14324 14325 14326 14327 14328 14329 14330 14331 14332 14333 14334 14335 14336 14337 14338 14339 14340 14341 14342 14343 14344 14345 14346 14347 14348 14349 14350 14351 14352 14353 14354 14355 14356 14357 14358 14359 14360 14361 14362 14363 14364 14365 14366 14367 14368 14369 14370 14371 14372 14373 14374 14375 14376 14377 14378 14379 14380 14381 14382 14383 14384 14385 14386 14387 14388 14389 14390 14391 14392 14393 14394 14395 14396 14397 14398 14399 14400 14401 14402 14403 14404 14405 14406 14407 14408 14409 14410 14411 14412 14413 14414 14415 14416 14417 14418 14419 14420 14421 14422 14423 14424 14425 14426 14427 14428 14429 14430 14431 14432 14433 14434 14435 14436 14437 14438 14439 14440 14441 14442 14443 14444 14445 14446 14447 14448 14449 14450 14451 14452 14453 14454 14455 14456 14457 14458 14459 14460 14461 14462 14463 14464 14465 14466 14467 14468 14469 14470 14471 14472 14473 14474 14475 14476 14477 14478 14479 14480 14481 14482 14483 14484 14485 14486 14487 14488 14489 14490 14491 14492 14493 14494 14495 14496 14497 14498 14499 14500 14501 14502 14503 14504 14505 14506 14507 14508 14509 14510 14511 14512 14513 14514 14515 14516 14517 14518 14519 14520 14521 14522 14523 14524 14525 14526 14527 14528 14529 14530 14531 14532 14533 14534 14535 14536 14537 14538 14539 14540 14541 14542 14543 14544 14545 14546 14547 14548 14549 14550 14551 14552 14553 14554 14555 14556 14557 14558 14559 14560 14561 14562 14563 14564 14565 14566 14567 14568 14569 14570 14571 14572 14573 14574 14575 14576 14577 14578 14579 14580 14581 14582 14583 14584 14585 14586 14587 14588 14589 14590 14591 14592 14593 14594 14595 14596 14597 14598 14599 14600 14601 14602 14603 14604 14605 14606 14607 14608 14609 14610 14611 14612 14613 14614 14615 14616 14617 14618 14619 14620 14621 14622 14623 14624 14625 14626 14627 14628 14629 14630 14631 14632 14633 14634 14635 14636 14637 14638 14639 14640 14641 14642 14643 14644 14645 14646 14647 14648 14649 14650 14651 14652 14653 14654 14655 14656 14657 14658 14659 14660 14661 14662 14663 14664 14665 14666 14667 14668 14669 14670 14671 14672 14673 14674 14675 14676 14677 14678 14679 14680 14681 14682 14683 14684 14685 14686 14687 14688 14689 14690 14691 14692 14693 14694 14695 14696 14697 14698 14699 14700 14701 14702 14703 14704 14705 14706 14707 14708 14709 14710 14711 14712 14713 14714 14715 14716 14717 14718 14719 14720 14721 14722 14723 14724 14725 14726 14727 14728 14729 14730 14731 14732 14733 14734 14735 14736 14737 14738 14739 14740 14741 14742 14743 14744 14745 14746 14747 14748 14749 14750 14751 14752 14753 14754 14755 14756 14757 14758 14759 14760 14761 14762 14763 14764 14765 14766 14767 14768 14769 14770 14771 14772 14773 14774 14775 14776 14777 14778 14779 14780 14781 14782 14783 14784 14785 14786 14787 14788 14789 14790 14791 14792 14793 14794 14795 14796 14797 14798 14799 14800 14801 14802 14803 14804 14805 14806 14807 14808 14809 14810 14811 14812 14813 14814 14815 14816 14817 14818 14819 14820 14821 14822 14823 14824 14825 14826 14827 14828 14829 14830 14831 14832 14833 14834 14835 14836 14837 14838 14839 14840 14841 14842 14843 14844 14845 14846 14847 14848 14849 14850 14851 14852 14853 14854 14855 14856 14857 14858 14859 14860 14861 14862 14863 14864 14865 14866 14867 14868 14869 14870 14871 14872 14873 14874 14875 14876 14877 14878 14879 14880 14881 14882 14883 14884 14885 14886 14887 14888 14889 14890 14891 14892 14893 14894 14895 14896 14897 14898 14899 14900 14901 14902 14903 14904 14905 14906 14907 14908 14909 14910 14911 14912 14913 14914 14915 14916 14917 14918 14919 14920 14921 14922 14923 14924 14925 14926 14927 14928 14929 14930 14931 14932 14933 14934 14935 14936 14937 14938 14939 14940 14941 14942 14943 14944 14945 14946 14947 14948 14949 14950 14951 14952 14953 14954 14955 14956 14957 14958 14959 14960 14961 14962 14963 14964 14965 14966 14967 14968 14969 14970 14971 14972 14973 14974 14975 14976 14977 14978 14979 14980 14981 14982 14983 14984 14985 14986 14987 14988 14989 14990 14991 14992 14993 14994 14995 14996 14997 14998 14999 15000 15001 15002 15003 15004 15005 15006 15007 15008 15009 15010 15011 15012 15013 15014 15015 15016 15017 15018 15019 15020 15021 15022 15023 15024 15025 15026 15027 15028 15029 15030 15031 15032 15033 15034 15035 15036 15037 15038 15039 15040 15041 15042 15043 15044 15045 15046 15047 15048 15049 15050 15051 15052 15053 15054 15055 15056 15057 15058 15059 15060 15061 15062 15063 15064 15065 15066 15067 15068 15069 15070 15071 15072 15073 15074 15075 15076 15077 15078 15079 15080 15081 15082 15083 15084 15085 15086 15087 15088 15089 15090 15091 15092 15093 15094 15095 15096 15097 15098 15099 15100 15101 15102 15103 15104 15105 15106 15107 15108 15109 15110 15111 15112 15113 15114 15115 15116 15117 15118 15119 15120 15121 15122 15123 15124 15125 15126 15127 15128 15129 15130 15131 15132 15133 15134 15135 15136 15137 15138 15139 15140 15141 15142 15143 15144 15145 15146 15147 15148 15149 15150 15151 15152 15153 15154 15155 15156 15157 15158 15159 15160 15161 15162 15163 15164 15165 15166 15167 15168 15169 15170 15171 15172 15173 15174 15175 15176 15177 15178 15179 15180 15181 15182 15183 15184 15185 15186 15187 15188 15189 15190 15191 15192 15193 15194 15195 15196 15197 15198 15199 15200 15201 15202 15203 15204 15205 15206 15207 15208 15209 15210 15211 15212 15213 15214 15215 15216 15217 15218 15219 15220 15221 15222 15223 15224 15225 15226 15227 15228 15229 15230 15231 15232 15233 15234 15235 15236 15237 15238 15239 15240 15241 15242 15243 15244 15245 15246 15247 15248 15249 15250 15251 15252 15253 15254 15255 15256 15257 15258 15259 15260 15261 15262 15263 15264 15265 15266 15267 15268 15269 15270 15271 15272 15273 15274 15275 15276 15277 15278 15279 15280 15281 15282 15283 15284 15285 15286 15287 15288 15289 15290 15291 15292 15293 15294 15295 15296 15297 15298 15299 15300 15301 15302 15303 15304 15305 15306 15307 15308 15309 15310 15311 15312 15313 15314 15315 15316 15317 15318 15319 15320 15321 15322 15323 15324 15325 15326 15327 15328 15329 15330 15331 15332 15333 15334 15335 15336 15337 15338 15339 15340 15341 15342 15343 15344 15345 15346 15347 15348 15349 15350 15351 15352 15353 15354 15355 15356 15357 15358 15359 15360 15361 15362 15363 15364 15365 15366 15367 15368 15369 15370 15371 15372 15373 15374 15375 15376 15377 15378 15379 15380 15381 15382 15383 15384 15385 15386 15387 15388 15389 15390 15391 15392 15393 15394 15395 15396 15397 15398 15399 15400 15401 15402 15403 15404 15405 15406 15407 15408 15409 15410 15411 15412 15413 15414 15415 15416 15417 15418 15419 15420 15421 15422 15423 15424 15425 15426 15427 15428 15429 15430 15431 15432 15433 15434 15435 15436 15437 15438 15439 15440 15441 15442 15443 15444 15445 15446 15447 15448 15449 15450 15451 15452 15453 15454 15455 15456 15457 15458 15459 15460 15461 15462 15463 15464 15465 15466 15467 15468 15469 15470 15471 15472 15473 15474 15475 15476 15477 15478 15479 15480 15481 15482 15483 15484 15485 15486 15487 15488 15489 15490 15491 15492 15493 15494 15495 15496 15497 15498 15499 15500 15501 15502 15503 15504 15505 15506 15507 15508 15509 15510 15511 15512 15513 15514 15515 15516 15517 15518 15519 15520 15521 15522 15523 15524 15525 15526 15527 15528 15529 15530 15531 15532 15533 15534 15535 15536 15537 15538 15539 15540 15541 15542 15543 15544 15545 15546 15547 15548 15549 15550 15551 15552 15553 15554 15555 15556 15557 15558 15559 15560 15561 15562 15563 15564 15565 15566 15567 15568 15569 15570 15571 15572 15573 15574 15575 15576 15577 15578 15579 15580 15581 15582 15583 15584 15585 15586 15587 15588 15589 15590 15591 15592 15593 15594 15595 15596 15597 15598 15599 15600 15601 15602 15603 15604 15605 15606 15607 15608 15609 15610 15611 15612 15613 15614 15615 15616 15617 15618 15619 15620 15621 15622 15623 15624 15625 15626 15627 15628 15629 15630 15631 15632 15633 15634 15635 15636 15637 15638 15639 15640 15641 15642 15643 15644 15645 15646 15647 15648 15649 15650 15651 15652 15653 15654 15655 15656 15657 15658 15659 15660 15661 15662 15663 15664 15665 15666 15667 15668 15669 15670 15671 15672 15673 15674 15675 15676 15677 15678 15679 15680 15681 15682 15683 15684 15685 15686 15687 15688 15689 15690 15691 15692 15693 15694 15695 15696 15697 15698 15699 15700 15701 15702 15703 15704 15705 15706 15707 15708 15709 15710 15711 15712 15713 15714 15715 15716 15717 15718 15719 15720 15721 15722 15723 15724 15725 15726 15727 15728 15729 15730 15731 15732 15733 15734 15735 15736 15737 15738 15739 15740 15741 15742 15743 15744 15745 15746 15747 15748 15749 15750 15751 15752 15753 15754 15755 15756 15757 15758 15759 15760 15761 15762 15763 15764 15765 15766 15767 15768 15769 15770 15771 15772 15773 15774 15775 15776 15777 15778 15779 15780 15781 15782 15783 15784 15785 15786 15787 15788 15789 15790 15791 15792 15793 15794 15795 15796 15797 15798 15799 15800 15801 15802 15803 15804 15805 15806 15807 15808 15809 15810 15811 15812 15813 15814 15815 15816 15817 15818 15819 15820 15821 15822 15823 15824 15825 15826 15827 15828 15829 15830 15831 15832 15833 15834 15835 15836 15837 15838 15839 15840 15841 15842 15843 15844 15845 15846 15847 15848 15849 15850 15851 15852 15853 15854 15855 15856 15857 15858 15859 15860 15861 15862 15863 15864 15865 15866 15867 15868 15869 15870 15871 15872 15873 15874 15875 15876 15877 15878 15879 15880 15881 15882 15883 15884 15885 15886 15887 15888 15889 15890 15891 15892 15893 15894 15895 15896 15897 15898 15899 15900 15901 15902 15903 15904 15905 15906 15907 15908 15909 15910 15911 15912 15913 15914 15915 15916 15917 15918 15919 15920 15921 15922 15923 15924 15925 15926 15927 15928 15929 15930 15931 15932 15933 15934 15935 15936 15937 15938 15939 15940 15941 15942 15943 15944 15945 15946 15947 15948 15949 15950 15951 15952 15953 15954 15955 15956 15957 15958 15959 15960 15961 15962 15963 15964 15965 15966 15967 15968 15969 15970 15971 15972 15973 15974 15975 15976 15977 15978 15979 15980 15981 15982 15983 15984 15985 15986 15987 15988 15989 15990 15991 15992 15993 15994 15995 15996 15997 15998 15999 16000 16001 16002 16003 16004 16005 16006 16007 16008 16009 16010 16011 16012 16013 16014 16015 16016 16017 16018 16019 16020 16021 16022 16023 16024 16025 16026 16027 16028 16029 16030 16031 16032 16033 16034 16035 16036 16037 16038 16039 16040 16041 16042 16043 16044 16045 16046 16047 16048 16049 16050 16051 16052 16053 16054 16055 16056 16057 16058 16059 16060 16061 16062 16063 16064 16065 16066 16067 16068 16069 16070 16071 16072 16073 16074 16075 16076 16077 16078 16079 16080 16081 16082 16083 16084 16085 16086 16087 16088 16089 16090 16091 16092 16093 16094 16095 16096 16097 16098 16099 16100 16101 16102 16103 16104 16105 16106 16107 16108 16109 16110 16111 16112 16113 16114 16115 16116 16117 16118 16119 16120 16121 16122 16123 16124 16125 16126 16127 16128 16129 16130 16131 16132 16133 16134 16135 16136 16137 16138 16139 16140 16141 16142 16143 16144 16145 16146 16147 16148 16149 16150 16151 16152 16153 16154 16155 16156 16157 16158 16159 16160 16161 16162 16163 16164 16165 16166 16167 16168 16169 16170 16171 16172 16173 16174 16175 16176 16177 16178 16179 16180 16181 16182 16183 16184 16185 16186 16187 16188 16189 16190 16191 16192 16193 16194 16195 16196 16197 16198 16199 16200 16201 16202 16203 16204 16205 16206 16207 16208 16209 16210 16211 16212 16213 16214 16215 16216 16217 16218 16219 16220 16221 16222 16223 16224 16225 16226 16227 16228 16229 16230 16231 16232 16233 16234 16235 16236 16237 16238 16239 16240 16241 16242 16243 16244 16245 16246 16247 16248 16249 16250 16251 16252 16253 16254 16255 16256 16257 16258 16259 16260 16261 16262 16263 16264 16265 16266 16267 16268 16269 16270 16271 16272 16273 16274 16275 16276 16277 16278 16279 16280 16281 16282 16283 16284 16285 16286 16287 16288 16289 16290 16291 16292 16293 16294 16295 16296 16297 16298 16299 16300 16301 16302 16303 16304 16305 16306 16307 16308 16309 16310 16311 16312 16313 16314 16315 16316 16317 16318 16319 16320 16321 16322 16323 16324 16325 16326 16327 16328 16329 16330 16331 16332 16333 16334 16335 16336 16337 16338 16339 16340 16341 16342 16343 16344 16345 16346 16347 16348 16349 16350 16351 16352 16353 16354 16355 16356 16357 16358 16359 16360 16361 16362 16363 16364 16365 16366 16367 16368 16369 16370 16371 16372 16373 16374 16375 16376 16377 16378 16379 16380 16381 16382 16383 16384 16385 16386 16387 16388 16389 16390 16391 16392 16393 16394 16395 16396 16397 16398 16399 16400 16401 16402 16403 16404 16405 16406 16407 16408 16409 16410 16411 16412 16413 16414 16415 16416 16417 16418 16419 16420 16421 16422 16423 16424 16425 16426 16427 16428 16429 16430 16431 16432 16433 16434 16435 16436 16437 16438 16439 16440 16441 16442 16443 16444 16445 16446 16447 16448 16449 16450 16451 16452 16453 16454 16455 16456 16457 16458 16459 16460 16461 16462 16463 16464 16465 16466 16467 16468 16469 16470 16471 16472 16473 16474 16475 16476 16477 16478 16479 16480 16481 16482 16483 16484 16485 16486 16487 16488 16489 16490 16491 16492 16493 16494 16495 16496 16497 16498 16499 16500 16501 16502 16503 16504 16505 16506 16507 16508 16509 16510 16511 16512 16513 16514 16515 16516 16517 16518 16519 16520 16521 16522 16523 16524 16525 16526 16527 16528 16529 16530 16531 16532 16533 16534 16535 16536 16537 16538 16539 16540 16541 16542 16543 16544 16545 16546 16547 16548 16549 16550 16551 16552 16553 16554 16555 16556 16557 16558 16559 16560 16561 16562 16563 16564 16565 16566 16567 16568 16569 16570 16571 16572 16573 16574 16575 16576 16577 16578 16579 16580 16581 16582 16583 16584 16585 16586 16587 16588 16589 16590 16591 16592 16593 16594 16595 16596 16597 16598 16599 16600 16601 16602 16603 16604 16605 16606 16607 16608 16609 16610 16611 16612 16613 16614 16615 16616 16617 16618 16619 16620 16621 16622 16623 16624 16625 16626 16627 16628 16629 16630 16631 16632 16633 16634 16635 16636 16637 16638 16639 16640 16641 16642 16643 16644 16645 16646 16647 16648 16649 16650 16651 16652 16653 16654 16655 16656 16657 16658 16659 16660 16661 16662 16663 16664 16665 16666 16667 16668 16669 16670 16671 16672 16673 16674 16675 16676 16677 16678 16679 16680 16681 16682 16683 16684 16685 16686 16687 16688 16689 16690 16691 16692 16693 16694 16695 16696 16697 16698 16699 16700 16701 16702 16703 16704 16705 16706 16707 16708 16709 16710 16711 16712 16713 16714 16715 16716 16717 16718 16719 16720 16721 16722 16723 16724 16725 16726 16727 16728 16729 16730 16731 16732 16733 16734 16735 16736 16737 16738 16739 16740 16741 16742 16743 16744 16745 16746 16747 16748 16749 16750 16751 16752 16753 16754 16755 16756 16757 16758 16759 16760 16761 16762 16763 16764 16765 16766 16767 16768 16769 16770 16771 16772 16773 16774 16775 16776 16777 16778 16779 16780 16781 16782 16783 16784 16785 16786 16787 16788 16789 16790 16791 16792 16793 16794 16795 16796 16797 16798 16799 16800 16801 16802 16803 16804 16805 16806 16807 16808 16809 16810 16811 16812 16813 16814 16815 16816 16817 16818 16819 16820 16821 16822 16823 16824 16825 16826 16827 16828 16829 16830 16831 16832 16833 16834 16835 16836 16837 16838 16839 16840 16841 16842 16843 16844 16845 16846 16847 16848 16849 16850 16851 16852 16853 16854 16855 16856 16857 16858 16859 16860 16861 16862 16863 16864 16865 16866 16867 16868 16869 16870 16871 16872 16873 16874 16875 16876 16877 16878 16879 16880 16881 16882 16883 16884 16885 16886 16887 16888 16889 16890 16891 16892 16893 16894 16895 16896 16897 16898 16899 16900 16901 16902 16903 16904 16905 16906 16907 16908 16909 16910 16911 16912 16913 16914 16915 16916 16917 16918 16919 16920 16921 16922 16923 16924 16925 16926 16927 16928 16929 16930 16931 16932 16933 16934 16935 16936 16937 16938 16939 16940 16941 16942 16943 16944 16945 16946 16947 16948 16949 16950 16951 16952 16953 16954 16955 16956 16957 16958 16959 16960 16961 16962 16963 16964 16965 16966 16967 16968 16969 16970 16971 16972 16973 16974 16975 16976 16977 16978 16979 16980 16981 16982 16983 16984 16985 16986 16987 16988 16989 16990 16991 16992 16993 16994 16995 16996 16997 16998 16999 17000 17001 17002 17003 17004 17005 17006 17007 17008 17009 17010 17011 17012 17013 17014 17015 17016 17017 17018 17019 17020 17021 17022 17023 17024 17025 17026 17027 17028 17029 17030 17031 17032 17033 17034 17035 17036 17037 17038 17039 17040 17041 17042 17043 17044 17045 17046 17047 17048 17049 17050 17051 17052 17053 17054 17055 17056 17057 17058 17059 17060 17061 17062 17063 17064 17065 17066 17067 17068 17069 17070 17071 17072 17073 17074 17075 17076 17077 17078 17079 17080 17081 17082 17083 17084 17085 17086 17087 17088 17089 17090 17091 17092 17093 17094 17095 17096 17097 17098 17099 17100 17101 17102 17103 17104 17105 17106 17107 17108 17109 17110 17111 17112 17113 17114 17115 17116 17117 17118 17119 17120 17121 17122 17123 17124 17125 17126 17127 17128 17129 17130 17131 17132 17133 17134 17135 17136 17137 17138 17139 17140 17141 17142 17143 17144 17145 17146 17147 17148 17149 17150 17151 17152 17153 17154 17155 17156 17157 17158 17159 17160 17161 17162 17163 17164 17165 17166 17167 17168 17169 17170 17171 17172 17173 17174 17175 17176 17177 17178 17179 17180 17181 17182 17183 17184 17185 17186 17187 17188 17189 17190 17191 17192 17193 17194 17195 17196 17197 17198 17199 17200 17201 17202 17203 17204 17205 17206 17207 17208 17209 17210 17211 17212 17213 17214 17215 17216 17217 17218 17219 17220 17221 17222 17223 17224 17225 17226 17227 17228 17229 17230 17231 17232 17233 17234 17235 17236 17237 17238 17239 17240 17241 17242 17243 17244 17245 17246 17247 17248 17249 17250 17251 17252 17253 17254 17255 17256 17257 17258 17259 17260 17261 17262 17263 17264 17265 17266 17267 17268 17269 17270 17271 17272 17273 17274 17275 17276 17277 17278 17279 17280 17281 17282 17283 17284 17285 17286 17287 17288 17289 17290 17291 17292 17293 17294 17295 17296 17297 17298 17299 17300 17301 17302 17303 17304 17305 17306 17307 17308 17309 17310 17311 17312 17313 17314 17315 17316 17317 17318 17319 17320 17321 17322 17323 17324 17325 17326 17327 17328 17329 17330 17331 17332 17333 17334 17335 17336 17337 17338 17339 17340 17341 17342 17343 17344 17345 17346 17347 17348 17349 17350 17351 17352 17353 17354 17355 17356 17357 17358 17359 17360 17361 17362 17363 17364 17365 17366 17367 17368 17369 17370 17371 17372 17373 17374 17375 17376 17377 17378 17379 17380 17381 17382 17383 17384 17385 17386 17387 17388 17389 17390 17391 17392 17393 17394 17395 17396 17397 17398 17399 17400 17401 17402 17403 17404 17405 17406 17407 17408 17409 17410 17411 17412 17413 17414 17415 17416 17417 17418 17419 17420 17421 17422 17423 17424 17425 17426 17427 17428 17429 17430 17431 17432 17433 17434 17435 17436 17437 17438 17439 17440 17441 17442 17443 17444 17445 17446 17447 17448 17449 17450 17451 17452 17453 17454 17455 17456 17457 17458 17459 17460 17461 17462 17463 17464 17465 17466 17467 17468 17469 17470 17471 17472 17473 17474 17475 17476 17477 17478 17479 17480 17481 17482 17483 17484 17485 17486 17487 17488 17489 17490 17491 17492 17493 17494 17495 17496 17497 17498 17499 17500 17501 17502 17503 17504 17505 17506 17507 17508 17509 17510 17511 17512 17513 17514 17515 17516 17517 17518 17519 17520 17521 17522 17523 17524 17525 17526 17527 17528 17529 17530 17531 17532 17533 17534 17535 17536 17537 17538 17539 17540 17541 17542 17543 17544 17545 17546 17547 17548 17549 17550 17551 17552 17553 17554 17555 17556 17557 17558 17559 17560 17561 17562 17563 17564 17565 17566 17567 17568 17569 17570 17571 17572 17573 17574 17575 17576 17577 17578 17579 17580 17581 17582 17583 17584 17585 17586 17587 17588 17589 17590 17591 17592 17593 17594 17595 17596 17597 17598 17599 17600 17601 17602 17603 17604 17605 17606 17607 17608 17609 17610 17611 17612 17613 17614 17615 17616 17617 17618 17619 17620 17621 17622 17623 17624 17625 17626 17627 17628 17629 17630 17631 17632 17633 17634 17635 17636 17637 17638 17639 17640 17641 17642 17643 17644 17645 17646 17647 17648 17649 17650 17651 17652 17653 17654 17655 17656 17657 17658 17659 17660 17661 17662 17663 17664 17665 17666 17667 17668 17669 17670 17671 17672 17673 17674 17675 17676 17677 17678 17679 17680 17681 17682 17683 17684 17685 17686 17687 17688 17689 17690 17691 17692 17693 17694 17695 17696 17697 17698 17699 17700 17701 17702 17703 17704 17705 17706 17707 17708 17709 17710 17711 17712 17713 17714 17715 17716 17717 17718 17719 17720 17721 17722 17723 17724 17725 17726 17727 17728 17729 17730 17731 17732 17733 17734 17735 17736 17737 17738 17739 17740 17741 17742 17743 17744 17745 17746 17747 17748 17749 17750 17751 17752 17753 17754 17755 17756 17757 17758 17759 17760 17761 17762 17763 17764 17765 17766 17767 17768 17769 17770 17771 17772 17773 17774 17775 17776 17777 17778 17779 17780 17781 17782 17783 17784 17785 17786 17787 17788 17789 17790 17791 17792 17793 17794 17795 17796 17797 17798 17799 17800 17801 17802 17803 17804 17805 17806 17807 17808 17809 17810 17811 17812 17813 17814 17815 17816 17817 17818 17819 17820 17821 17822 17823 17824 17825 17826 17827 17828 17829 17830 17831 17832 17833 17834 17835 17836 17837 17838 17839 17840 17841 17842 17843 17844 17845 17846 17847 17848 17849 17850 17851 17852 17853 17854 17855 17856 17857 17858 17859 17860 17861 17862 17863 17864 17865 17866 17867 17868 17869 17870 17871 17872 17873 17874 17875 17876 17877 17878 17879 17880 17881 17882 17883 17884 17885 17886 17887 17888 17889 17890 17891 17892 17893 17894 17895 17896 17897 17898 17899 17900 17901 17902 17903 17904 17905 17906 17907 17908 17909 17910 17911 17912 17913 17914 17915 17916 17917 17918 17919 17920 17921 17922 17923 17924 17925 17926 17927 17928 17929 17930 17931 17932 17933 17934 17935 17936 17937 17938 17939 17940 17941 17942 17943 17944 17945 17946 17947 17948 17949 17950 17951 17952 17953 17954 17955 17956 17957 17958 17959 17960 17961 17962 17963 17964 17965 17966 17967 17968 17969 17970 17971 17972 17973 17974 17975 17976 17977 17978 17979 17980 17981 17982 17983 17984 17985 17986 17987 17988 17989 17990 17991 17992 17993 17994 17995 17996 17997 17998 17999 18000 18001 18002 18003 18004 18005 18006 18007 18008 18009 18010 18011 18012 18013 18014 18015 18016 18017 18018 18019 18020 18021 18022 18023 18024 18025 18026 18027 18028 18029 18030 18031 18032 18033 18034 18035 18036 18037 18038 18039 18040 18041 18042 18043 18044 18045 18046 18047 18048 18049 18050 18051 18052 18053 18054 18055 18056 18057 18058 18059 18060 18061 18062 18063 18064 18065 18066 18067 18068 18069 18070 18071 18072 18073 18074 18075 18076 18077 18078 18079 18080 18081 18082 18083 18084 18085 18086 18087 18088 18089 18090 18091 18092 18093 18094 18095 18096 18097 18098 18099 18100 18101 18102 18103 18104 18105 18106 18107 18108 18109 18110 18111 18112 18113 18114 18115 18116 18117 18118 18119 18120 18121 18122 18123 18124 18125 18126 18127 18128 18129 18130 18131 18132 18133 18134 18135 18136 18137 18138 18139 18140 18141 18142 18143 18144 18145 18146 18147 18148 18149 18150 18151 18152 18153 18154 18155 18156 18157 18158 18159 18160 18161 18162 18163 18164 18165 18166 18167 18168 18169 18170 18171 18172 18173 18174 18175 18176 18177 18178 18179 18180 18181 18182 18183 18184 18185 18186 18187 18188 18189 18190 18191 18192 18193 18194 18195 18196 18197 18198 18199 18200 18201 18202 18203 18204 18205 18206 18207 18208 18209 18210 18211 18212 18213 18214 18215 18216 18217 18218 18219 18220 18221 18222 18223 18224 18225 18226 18227 18228 18229 18230 18231 18232 18233 18234 18235 18236 18237 18238 18239 18240 18241 18242 18243 18244 18245 18246 18247 18248 18249 18250 18251 18252 18253 18254 18255 18256 18257 18258 18259 18260 18261 18262 18263 18264 18265 18266 18267 18268 18269 18270 18271 18272 18273 18274 18275 18276 18277 18278 18279 18280 18281 18282 18283 18284 18285 18286 18287 18288 18289 18290 18291 18292 18293 18294 18295 18296 18297 18298 18299 18300 18301 18302 18303 18304 18305 18306 18307 18308 18309 18310 18311 18312 18313 18314 18315 18316 18317 18318 18319 18320 18321 18322 18323 18324 18325 18326 18327 18328 18329 18330 18331 18332 18333 18334 18335 18336 18337 18338 18339 18340 18341 18342 18343 18344 18345 18346 18347 18348 18349 18350 18351 18352 18353 18354 18355 18356 18357 18358 18359 18360 18361 18362 18363 18364 18365 18366 18367 18368 18369 18370 18371 18372 18373 18374 18375 18376 18377 18378 18379 18380 18381 18382 18383 18384 18385 18386 18387 18388 18389 18390 18391 18392 18393 18394 18395 18396 18397 18398 18399 18400 18401 18402 18403 18404 18405 18406 18407 18408 18409 18410 18411 18412 18413 18414 18415 18416 18417 18418 18419 18420 18421 18422 18423 18424 18425 18426 18427 18428 18429 18430 18431 18432 18433 18434 18435 18436 18437 18438 18439 18440 18441 18442 18443 18444 18445 18446 18447 18448 18449 18450 18451 18452 18453 18454 18455 18456 18457 18458 18459 18460 18461 18462 18463 18464 18465 18466 18467 18468 18469 18470 18471 18472 18473 18474 18475 18476 18477 18478 18479 18480 18481 18482 18483 18484 18485 18486 18487 18488 18489 18490 18491 18492 18493 18494 18495 18496 18497 18498 18499 18500 18501 18502 18503 18504 18505 18506 18507 18508 18509 18510 18511 18512 18513 18514 18515 18516 18517 18518 18519 18520 18521 18522 18523 18524 18525 18526 18527 18528 18529 18530 18531 18532 18533 18534 18535 18536 18537 18538 18539 18540 18541 18542 18543 18544 18545 18546 18547 18548 18549 18550 18551 18552 18553 18554 18555 18556 18557 18558 18559 18560 18561 18562 18563 18564 18565 18566 18567 18568 18569 18570 18571 18572 18573 18574 18575 18576 18577 18578 18579 18580 18581 18582 18583 18584 18585 18586 18587 18588 18589 18590 18591 18592 18593 18594 18595 18596 18597 18598 18599 18600 18601 18602 18603 18604 18605 18606 18607 18608 18609 18610 18611 18612 18613 18614 18615 18616 18617 18618 18619 18620 18621 18622 18623 18624 18625 18626 18627 18628 18629 18630 18631 18632 18633 18634 18635 18636 18637 18638 18639 18640 18641 18642 18643 18644 18645 18646 18647 18648 18649 18650 18651 18652 18653 18654 18655 18656 18657 18658 18659 18660 18661 18662 18663 18664 18665 18666 18667 18668 18669 18670 18671 18672 18673 18674 18675 18676 18677 18678 18679 18680 18681 18682 18683 18684 18685 18686 18687 18688 18689 18690 18691 18692 18693 18694 18695 18696 18697 18698 18699 18700 18701 18702 18703 18704 18705 18706 18707 18708 18709 18710 18711 18712 18713 18714 18715 18716 18717 18718 18719 18720 18721 18722 18723 18724 18725 18726 18727 18728 18729 18730 18731 18732 18733 18734 18735 18736 18737 18738 18739 18740 18741 18742 18743 18744 18745 18746 18747 18748 18749 18750 18751 18752 18753 18754 18755 18756 18757 18758 18759 18760 18761 18762 18763 18764 18765 18766 18767 18768 18769 18770 18771 18772 18773 18774 18775 18776 18777 18778 18779 18780 18781 18782 18783 18784 18785 18786 18787 18788 18789 18790 18791 18792 18793 18794 18795 18796 18797 18798 18799 18800 18801 18802 18803 18804 18805 18806 18807 18808 18809 18810 18811 18812 18813 18814 18815 18816 18817 18818 18819 18820 18821 18822 18823 18824 18825 18826 18827 18828 18829 18830 18831 18832 18833 18834 18835 18836 18837 18838 18839 18840 18841 18842 18843 18844 18845 18846 18847 18848 18849 18850 18851 18852 18853 18854 18855 18856 18857 18858 18859 18860 18861 18862 18863 18864 18865 18866 18867 18868 18869 18870 18871 18872 18873 18874 18875 18876 18877 18878 18879 18880 18881 18882 18883 18884 18885 18886 18887 18888 18889 18890 18891 18892 18893 18894 18895 18896 18897 18898 18899 18900 18901 18902 18903 18904 18905 18906 18907 18908 18909 18910 18911 18912 18913 18914 18915 18916 18917 18918 18919 18920 18921 18922 18923 18924 18925 18926 18927 18928 18929 18930 18931 18932 18933 18934 18935 18936 18937 18938 18939 18940 18941 18942 18943 18944 18945 18946 18947 18948 18949 18950 18951 18952 18953 18954 18955 18956 18957 18958 18959 18960 18961 18962 18963 18964 18965 18966 18967 18968 18969 18970 18971 18972 18973 18974 18975 18976 18977 18978 18979 18980 18981 18982 18983 18984 18985 18986 18987 18988 18989 18990 18991 18992 18993 18994 18995 18996 18997 18998 18999 19000 19001 19002 19003 19004 19005 19006 19007 19008 19009 19010 19011 19012 19013 19014 19015 19016 19017 19018 19019 19020 19021 19022 19023 19024 19025 19026 19027 19028 19029 19030 19031 19032 19033 19034 19035 19036 19037 19038 19039 19040 19041 19042 19043 19044 19045 19046 19047 19048 19049 19050 19051 19052 19053 19054 19055 19056 19057 19058 19059 19060 19061 19062 19063 19064 19065 19066 19067 19068 19069 19070 19071 19072 19073 19074 19075 19076 19077 19078 19079 19080 19081 19082 19083 19084 19085 19086 19087 19088 19089 19090 19091 19092 19093 19094 19095 19096 19097 19098 19099 19100 19101 19102 19103 19104 19105 19106 19107 19108 19109 19110 19111 19112 19113 19114 19115 19116 19117 19118 19119 19120 19121 19122 19123 19124 19125 19126 19127 19128 19129 19130 19131 19132 19133 19134 19135 19136 19137 19138 19139 19140 19141 19142 19143 19144 19145 19146 19147 19148 19149 19150 19151 19152 19153 19154 19155 19156 19157 19158 19159 19160 19161 19162 19163 19164 19165 19166 19167 19168 19169 19170 19171 19172 19173 19174 19175 19176 19177 19178 19179 19180 19181 19182 19183 19184 19185 19186 19187 19188 19189 19190 19191 19192 19193 19194 19195 19196 19197 19198 19199 19200 19201 19202 19203 19204 19205 19206 19207 19208 19209 19210 19211 19212 19213 19214 19215 19216 19217 19218 19219 19220 19221 19222 19223 19224 19225 19226 19227 19228 19229 19230 19231 19232 19233 19234 19235 19236 19237 19238 19239 19240 19241 19242 19243 19244 19245 19246 19247 19248 19249 19250 19251 19252 19253 19254 19255 19256 19257 19258 19259 19260 19261 19262 19263 19264 19265 19266 19267 19268 19269 19270 19271 19272 19273 19274 19275 19276 19277 19278 19279 19280 19281 19282 19283 19284 19285 19286 19287 19288 19289 19290 19291 19292 19293 19294 19295 19296 19297 19298 19299 19300 19301 19302 19303 19304 19305 19306 19307 19308 19309 19310 19311 19312 19313 19314 19315 19316 19317 19318 19319 19320 19321 19322 19323 19324 19325 19326 19327 19328 19329 19330 19331 19332 19333 19334 19335 19336 19337 19338 19339 19340 19341 19342 19343 19344 19345 19346 19347 19348 19349 19350 19351 19352 19353 19354 19355 19356 19357 19358 19359 19360 19361 19362 19363 19364 19365 19366 19367 19368 19369 19370 19371 19372 19373 19374 19375 19376 19377 19378 19379 19380 19381 19382 19383 19384 19385 19386 19387 19388 19389 19390 19391 19392 19393 19394 19395 19396 19397 19398 19399 19400 19401 19402 19403 19404 19405 19406 19407 19408 19409 19410 19411 19412 19413 19414 19415 19416 19417 19418 19419 19420 19421 19422 19423 19424 19425 19426 19427 19428 19429 19430 19431 19432 19433 19434 19435 19436 19437 19438 19439 19440 19441 19442 19443 19444 19445 19446 19447 19448 19449 19450 19451 19452 19453 19454 19455 19456 19457 19458 19459 19460 19461 19462 19463 19464 19465 19466 19467 19468 19469 19470 19471 19472 19473 19474 19475 19476 19477 19478 19479 19480 19481 19482 19483 19484 19485 19486 19487 19488 19489 19490 19491 19492 19493 19494 19495 19496 19497 19498 19499 19500 19501 19502 19503 19504 19505 19506 19507 19508 19509 19510 19511 19512 19513 19514 19515 19516 19517 19518 19519 19520 19521 19522 19523 19524 19525 19526 19527 19528 19529 19530 19531 19532 19533 19534 19535 19536 19537 19538 19539 19540 19541 19542 19543 19544 19545 19546 19547 19548 19549 19550 19551 19552 19553 19554 19555 19556 19557 19558 19559 19560 19561 19562 19563 19564 19565 19566 19567 19568 19569 19570 19571 19572 19573 19574 19575 19576 19577 19578 19579 19580 19581 19582 19583 19584 19585 19586 19587 19588 19589 19590 19591 19592 19593 19594 19595 19596 19597 19598 19599 19600 19601 19602 19603 19604 19605 19606 19607 19608 19609 19610 19611 19612 19613 19614 19615 19616 19617 19618 19619 19620 19621 19622 19623 19624 19625 19626 19627 19628 19629 19630 19631 19632 19633 19634 19635 19636 19637 19638 19639 19640 19641 19642 19643 19644 19645 19646 19647 19648 19649 19650 19651 19652 19653 19654 19655 19656 19657 19658 19659 19660 19661 19662 19663 19664 19665 19666 19667 19668 19669 19670 19671 19672 19673 19674 19675 19676 19677 19678 19679 19680 19681 19682 19683 19684 19685 19686 19687 19688 19689 19690 19691 19692 19693 19694 19695 19696 19697 19698 19699 19700 19701 19702 19703 19704 19705 19706 19707 19708 19709 19710 19711 19712 19713 19714 19715 19716 19717 19718 19719 19720 19721 19722 19723 19724 19725 19726 19727 19728 19729 19730 19731 19732 19733 19734 19735 19736 19737 19738 19739 19740 19741 19742 19743 19744 19745 19746 19747 19748 19749 19750 19751 19752 19753 19754 19755 19756 19757 19758 19759 19760 19761 19762 19763 19764 19765 19766 19767 19768 19769 19770 19771 19772 19773 19774 19775 19776 19777 19778 19779 19780 19781 19782 19783 19784 19785 19786 19787 19788 19789 19790 19791 19792 19793 19794 19795 19796 19797 19798 19799 19800 19801 19802 19803 19804 19805 19806 19807 19808 19809 19810 19811 19812 19813 19814 19815 19816 19817 19818 19819 19820 19821 19822 19823 19824 19825 19826 19827 19828 19829 19830 19831 19832 19833 19834 19835 19836 19837 19838 19839 19840 19841 19842 19843 19844 19845 19846 19847 19848 19849 19850 19851 19852 19853 19854 19855 19856 19857 19858 19859 19860 19861 19862 19863 19864 19865 19866 19867 19868 19869 19870 19871 19872 19873 19874 19875 19876 19877 19878 19879 19880 19881 19882 19883 19884 19885 19886 19887 19888 19889 19890 19891 19892 19893 19894 19895 19896 19897 19898 19899 19900 19901 19902 19903 19904 19905 19906 19907 19908 19909 19910 19911 19912 19913 19914 19915 19916 19917 19918 19919 19920 19921 19922 19923 19924 19925 19926 19927 19928 19929 19930 19931 19932 19933 19934 19935 19936 19937 19938 19939 19940 19941 19942 19943 19944 19945 19946 19947 19948 19949 19950 19951 19952 19953 19954 19955 19956 19957 19958 19959 19960 19961 19962 19963 19964 19965 19966 19967 19968 19969 19970 19971 19972 19973 19974 19975 19976 19977 19978 19979 19980 19981 19982 19983 19984 19985 19986 19987 19988 19989 19990 19991 19992 19993 19994 19995 19996 19997 19998 19999 20000 20001 20002 20003 20004 20005 20006 20007 20008 20009 20010 20011 20012 20013 20014 20015 20016 20017 20018 20019 20020 20021 20022 20023 20024 20025 20026 20027 20028 20029 20030 20031 20032 20033 20034 20035 20036 20037 20038 20039 20040 20041 20042 20043 20044 20045 20046 20047 20048 20049 20050 20051 20052 20053 20054 20055 20056 20057 20058 20059 20060 20061 20062 20063 20064 20065 20066 20067 20068 20069 20070 20071 20072 20073 20074 20075 20076 20077 20078 20079 20080 20081 20082 20083 20084 20085 20086 20087 20088 20089 20090 20091 20092 20093 20094 20095 20096 20097 20098 20099 20100 20101 20102 20103 20104 20105 20106 20107 20108 20109 20110 20111 20112 20113 20114 20115 20116 20117 20118 20119 20120 20121 20122 20123 20124 20125 20126 20127 20128 20129 20130 20131 20132 20133 20134 20135 20136 20137 20138 20139 20140 20141 20142 20143 20144 20145 20146 20147 20148 20149 20150 20151 20152 20153 20154 20155 20156 20157 20158 20159 20160 20161 20162 20163 20164 20165 20166 20167 20168 20169 20170 20171 20172 20173 20174 20175 20176 20177 20178 20179 20180 20181 20182 20183 20184 20185 20186 20187 20188 20189 20190 20191 20192 20193 20194 20195 20196 20197 20198 20199 20200 20201 20202 20203 20204 20205 20206 20207 20208 20209 20210 20211 20212 20213 20214 20215 20216 20217 20218 20219 20220 20221 20222 20223 20224 20225 20226 20227 20228 20229 20230 20231 20232 20233 20234 20235 20236 20237 20238 20239 20240 20241 20242 20243 20244 20245 20246 20247 20248 20249 20250 20251 20252 20253 20254 20255 20256 20257 20258 20259 20260 20261 20262 20263 20264 20265 20266 20267 20268 20269 20270 20271 20272 20273 20274 20275 20276 20277 20278 20279 20280 20281 20282 20283 20284 20285 20286 20287 20288 20289 20290 20291 20292 20293 20294 20295 20296 20297 20298 20299 20300 20301 20302 20303 20304 20305 20306 20307 20308 20309 20310 20311 20312 20313 20314 20315 20316 20317 20318 20319 20320 20321 20322 20323 20324 20325 20326 20327 20328 20329 20330 20331 20332 20333 20334 20335 20336 20337 20338 20339 20340 20341 20342 20343 20344 20345 20346 20347 20348 20349 20350 20351 20352 20353 20354 20355 20356 20357 20358 20359 20360 20361 20362 20363 20364 20365 20366 20367 20368 20369 20370 20371 20372 20373 20374 20375 20376 20377 20378 20379 20380 20381 20382 20383 20384 20385 20386 20387 20388 20389 20390 20391 20392 20393 20394 20395 20396 20397 20398 20399 20400 20401 20402 20403 20404 20405 20406 20407 20408 20409 20410 20411 20412 20413 20414 20415 20416 20417 20418 20419 20420 20421 20422 20423 20424 20425 20426 20427 20428 20429 20430 20431 20432 20433 20434 20435 20436 20437 20438 20439 20440 20441 20442 20443 20444 20445 20446 20447 20448 20449 20450 20451 20452 20453 20454 20455 20456 20457 20458 20459 20460 20461 20462 20463 20464 20465 20466 20467 20468 20469 20470 20471 20472 20473 20474 20475 20476 20477 20478 20479 20480 20481 20482 20483 20484 20485 20486 20487 20488 20489 20490 20491 20492 20493 20494 20495 20496 20497 20498 20499 20500 20501 20502 20503 20504 20505 20506 20507 20508 20509 20510 20511 20512 20513 20514 20515 20516 20517 20518 20519 20520 20521 20522 20523 20524 20525 20526 20527 20528 20529 20530 20531 20532 20533 20534 20535 20536 20537 20538 20539 20540 20541 20542 20543 20544 20545 20546 20547 20548 20549 20550 20551 20552 20553 20554 20555 20556 20557 20558 20559 20560 20561 20562 20563 20564 20565 20566 20567 20568 20569 20570 20571 20572 20573 20574 20575 20576 20577 20578 20579 20580 20581 20582 20583 20584 20585 20586 20587 20588 20589 20590 20591 20592 20593 20594 20595 20596 20597 20598 20599 20600 20601 20602 20603 20604 20605 20606 20607 20608 20609 20610 20611 20612 20613 20614 20615 20616 20617 20618 20619 20620 20621 20622 20623 20624 20625 20626 20627 20628 20629 20630 20631 20632 20633 20634 20635 20636 20637 20638 20639 20640 20641 20642 20643 20644 20645 20646 20647 20648 20649 20650 20651 20652 20653 20654 20655 20656 20657 20658 20659 20660 20661 20662 20663 20664 20665 20666 20667 20668 20669 20670 20671 20672 20673 20674 20675 20676 20677 20678 20679 20680 20681 20682 20683 20684 20685 20686 20687 20688 20689 20690 20691 20692 20693 20694 20695 20696 20697 20698 20699 20700 20701 20702 20703 20704 20705 20706 20707 20708 20709 20710 20711 20712 20713 20714 20715 20716 20717 20718 20719 20720 20721 20722 20723 20724 20725 20726 20727 20728 20729 20730 20731 20732 20733 20734 20735 20736 20737 20738 20739 20740 20741 20742 20743 20744 20745 20746 20747 20748 20749 20750 20751 20752 20753 20754 20755 20756 20757 20758 20759 20760 20761 20762 20763 20764 20765 20766 20767 20768 20769 20770 20771 20772 20773 20774 20775 20776 20777 20778 20779 20780 20781 20782 20783 20784 20785 20786 20787 20788 20789 20790 20791 20792 20793 20794 20795 20796 20797 20798 20799 20800 20801 20802 20803 20804 20805 20806 20807 20808 20809 20810 20811 20812 20813 20814 20815 20816 20817 20818 20819 20820 20821 20822 20823 20824 20825 20826 20827 20828 20829 20830 20831 20832 20833 20834 20835 20836 20837 20838 20839 20840 20841 20842 20843 20844 20845 20846 20847 20848 20849 20850 20851 20852 20853 20854 20855 20856 20857 20858 20859 20860 20861 20862 20863 20864 20865 20866 20867 20868 20869 20870 20871 20872 20873 20874 20875 20876 20877 20878 20879 20880 20881 20882 20883 20884 20885 20886 20887 20888 20889 20890 20891 20892 20893 20894 20895 20896 20897 20898 20899 20900 20901 20902 20903 20904 20905 20906 20907 20908 20909 20910 20911 20912 20913 20914 20915 20916 20917 20918 20919 20920 20921 20922 20923 20924 20925 20926 20927 20928 20929 20930 20931 20932 20933 20934 20935 20936 20937 20938 20939 20940 20941 20942 20943 20944 20945 20946 20947 20948 20949 20950 20951 20952 20953 20954 20955 20956 20957 20958 20959 20960 20961 20962 20963 20964 20965 20966 20967 20968 20969 20970 20971 20972 20973 20974 20975 20976 20977 20978 20979 20980 20981 20982 20983 20984 20985 20986 20987 20988 20989 20990 20991 20992 20993 20994 20995 20996 20997 20998 20999 21000 21001 21002 21003 21004 21005 21006 21007 21008 21009 21010 21011 21012 21013 21014 21015 21016 21017 21018 21019 21020 21021 21022 21023 21024 21025 21026 21027 21028 21029 21030 21031 21032 21033 21034 21035 21036 21037 21038 21039 21040 21041 21042 21043 21044 21045 21046 21047 21048 21049 21050 21051 21052 21053 21054 21055 21056 21057 21058 21059 21060 21061 21062 21063 21064 21065 21066 21067 21068 21069 21070 21071 21072 21073 21074 21075 21076 21077 21078 21079 21080 21081 21082 21083 21084 21085 21086 21087 21088 21089 21090 21091 21092 21093 21094 21095 21096 21097 21098 21099 21100 21101 21102 21103 21104 21105 21106 21107 21108 21109 21110 21111 21112 21113 21114 21115 21116 21117 21118 21119 21120 21121 21122 21123 21124 21125 21126 21127 21128 21129 21130 21131 21132 21133 21134 21135 21136 21137 21138 21139 21140 21141 21142 21143 21144 21145 21146 21147 21148 21149 21150 21151 21152 21153 21154 21155 21156 21157 21158 21159 21160 21161 21162 21163 21164 21165 21166 21167 21168 21169 21170 21171 21172 21173 21174 21175 21176 21177 21178 21179 21180 21181 21182 21183 21184 21185 21186 21187 21188 21189 21190 21191 21192 21193 21194 21195 21196 21197 21198 21199 21200 21201 21202 21203 21204 21205 21206 21207 21208 21209 21210 21211 21212 21213 21214 21215 21216 21217 21218 21219 21220 21221 21222 21223 21224 21225 21226 21227 21228 21229 21230 21231 21232 21233 21234 21235 21236 21237 21238 21239 21240 21241 21242 21243 21244 21245 21246 21247 21248 21249 21250 21251 21252 21253 21254 21255 21256 21257 21258 21259 21260 21261 21262 21263 21264 21265 21266 21267 21268 21269 21270 21271 21272 21273 21274 21275 21276 21277 21278 21279 21280 21281 21282 21283 21284 21285 21286 21287 21288 21289 21290 21291 21292 21293 21294 21295 21296 21297 21298 21299 21300 21301 21302 21303 21304 21305 21306 21307 21308 21309 21310 21311 21312 21313 21314 21315 21316 21317 21318 21319 21320 21321 21322 21323 21324 21325 21326 21327 21328 21329 21330 21331 21332 21333 21334 21335 21336 21337 21338 21339 21340 21341 21342 21343 21344 21345 21346 21347 21348 21349 21350 21351 21352 21353 21354 21355 21356 21357 21358 21359 21360 21361 21362 21363 21364 21365 21366 21367 21368 21369 21370 21371 21372 21373 21374 21375 21376 21377 21378 21379 21380 21381 21382 21383 21384 21385 21386 21387 21388 21389 21390 21391 21392 21393 21394 21395 21396 21397 21398 21399 21400 21401 21402 21403 21404 21405 21406 21407 21408 21409 21410 21411 21412 21413 21414 21415 21416 21417 21418 21419 21420 21421 21422 21423 21424 21425 21426 21427 21428 21429 21430 21431 21432 21433 21434 21435 21436 21437 21438 21439 21440 21441 21442 21443 21444 21445 21446 21447 21448 21449 21450 21451 21452 21453 21454 21455 21456 21457 21458 21459 21460 21461 21462 21463 21464 21465 21466 21467 21468 21469 21470 21471 21472 21473 21474 21475 21476 21477 21478 21479 21480 21481 21482 21483 21484 21485 21486 21487 21488 21489 21490 21491 21492 21493 21494 21495 21496 21497 21498 21499 21500 21501 21502 21503 21504 21505 21506 21507 21508 21509 21510 21511 21512 21513 21514 21515 21516 21517 21518 21519 21520 21521 21522 21523 21524 21525 21526 21527 21528 21529 21530 21531 21532 21533 21534 21535 21536 21537 21538 21539 21540 21541 21542 21543 21544 21545 21546 21547 21548 21549 21550 21551 21552 21553 21554 21555 21556 21557 21558 21559 21560 21561 21562 21563 21564 21565 21566 21567 21568 21569 21570 21571 21572 21573 21574 21575 21576 21577 21578 21579 21580 21581 21582 21583 21584 21585 21586 21587 21588 21589 21590 21591 21592 21593 21594 21595 21596 21597 21598 21599 21600 21601 21602 21603 21604 21605 21606 21607 21608 21609 21610 21611 21612 21613 21614 21615 21616 21617 21618 21619 21620 21621 21622 21623 21624 21625 21626 21627 21628 21629 21630 21631 21632 21633 21634 21635 21636 21637 21638 21639 21640 21641 21642 21643 21644 21645 21646 21647 21648 21649 21650 21651 21652 21653 21654 21655 21656 21657 21658 21659 21660 21661 21662 21663 21664 21665 21666 21667 21668 21669 21670 21671 21672 21673 21674 21675 21676 21677 21678 21679 21680 21681 21682 21683 21684 21685 21686 21687 21688 21689 21690 21691 21692 21693 21694 21695 21696 21697 21698 21699 21700 21701 21702 21703 21704 21705 21706 21707 21708 21709 21710 21711 21712 21713 21714 21715 21716 21717 21718 21719 21720 21721 21722 21723 21724 21725 21726 21727 21728 21729 21730 21731 21732 21733 21734 21735 21736 21737 21738 21739 21740 21741 21742 21743 21744 21745 21746 21747 21748 21749 21750 21751 21752 21753 21754 21755 21756 21757 21758 21759 21760 21761 21762 21763 21764 21765 21766 21767 21768 21769 21770 21771 21772 21773 21774 21775 21776 21777 21778 21779 21780 21781 21782 21783 21784 21785 21786 21787 21788 21789 21790 21791 21792 21793 21794 21795 21796 21797 21798 21799 21800 21801 21802 21803 21804 21805 21806 21807 21808 21809 21810 21811 21812 21813 21814 21815 21816 21817 21818 21819 21820 21821 21822 21823 21824 21825 21826 21827 21828 21829 21830 21831 21832 21833 21834 21835 21836 21837 21838 21839 21840 21841 21842 21843 21844 21845 21846 21847 21848 21849 21850 21851 21852 21853 21854 21855 21856 21857 21858 21859 21860 21861 21862 21863 21864 21865 21866 21867 21868 21869 21870 21871 21872 21873 21874 21875 21876 21877 21878 21879 21880 21881 21882 21883 21884 21885 21886 21887 21888 21889 21890 21891 21892 21893 21894 21895 21896 21897 21898 21899 21900 21901 21902 21903 21904 21905 21906 21907 21908 21909 21910 21911 21912 21913 21914 21915 21916 21917 21918 21919 21920 21921 21922 21923 21924 21925 21926 21927 21928 21929 21930 21931 21932 21933 21934 21935 21936 21937 21938 21939 21940 21941 21942 21943 21944 21945 21946 21947 21948 21949 21950 21951 21952 21953 21954 21955 21956 21957 21958 21959 21960 21961 21962 21963 21964 21965 21966 21967 21968 21969 21970 21971 21972 21973 21974 21975 21976 21977 21978 21979 21980 21981 21982 21983 21984 21985 21986 21987 21988 21989 21990 21991 21992 21993 21994 21995 21996 21997 21998 21999 22000 22001 22002 22003 22004 22005 22006 22007 22008 22009 22010 22011 22012 22013 22014 22015 22016 22017 22018 22019 22020 22021 22022 22023 22024 22025 22026 22027 22028 22029 22030 22031 22032 22033 22034 22035 22036 22037 22038 22039 22040 22041 22042 22043 22044 22045 22046 22047 22048 22049 22050 22051 22052 22053 22054 22055 22056 22057 22058 22059 22060 22061 22062 22063 22064 22065 22066 22067 22068 22069 22070 22071 22072 22073 22074 22075 22076 22077 22078 22079 22080 22081 22082 22083 22084 22085 22086 22087 22088 22089 22090 22091 22092 22093 22094 22095 22096 22097 22098 22099 22100 22101 22102 22103 22104 22105 22106 22107 22108 22109 22110 22111 22112 22113 22114 22115 22116 22117 22118 22119 22120 22121 22122 22123 22124 22125 22126 22127 22128 22129 22130 22131 22132 22133 22134 22135 22136 22137 22138 22139 22140 22141 22142 22143 22144 22145 22146 22147 22148 22149 22150 22151 22152 22153 22154 22155 22156 22157 22158 22159 22160 22161 22162 22163 22164 22165 22166 22167 22168 22169 22170 22171 22172 22173 22174 22175 22176 22177 22178 22179 22180 22181 22182 22183 22184 22185 22186 22187 22188 22189 22190 22191 22192 22193 22194 22195 22196 22197 22198 22199 22200 22201 22202 22203 22204 22205 22206 22207 22208 22209 22210 22211 22212 22213 22214 22215 22216 22217 22218 22219 22220 22221 22222 22223 22224 22225 22226 22227 22228 22229 22230 22231 22232 22233 22234 22235 22236 22237 22238 22239 22240 22241 22242 22243 22244 22245 22246 22247 22248 22249 22250 22251 22252 22253 22254 22255 22256 22257 22258 22259 22260 22261 22262 22263 22264 22265 22266 22267 22268 22269 22270 22271 22272 22273 22274 22275 22276 22277 22278 22279 22280 22281 22282 22283 22284 22285 22286 22287 22288 22289 22290 22291 22292 22293 22294 22295 22296 22297 22298 22299 22300 22301 22302 22303 22304 22305 22306 22307 22308 22309 22310 22311 22312 22313 22314 22315 22316 22317 22318 22319 22320 22321 22322 22323 22324 22325 22326 22327 22328 22329 22330 22331 22332 22333 22334 22335 22336 22337 22338 22339 22340 22341 22342 22343 22344 22345 22346 22347 22348 22349 22350 22351 22352 22353 22354 22355 22356 22357 22358 22359 22360 22361 22362 22363 22364 22365 22366 22367 22368 22369 22370 22371 22372 22373 22374 22375 22376 22377 22378 22379 22380 22381 22382 22383 22384 22385 22386 22387 22388 22389 22390 22391 22392 22393 22394 22395 22396 22397 22398 22399 22400 22401 22402 22403 22404 22405 22406 22407 22408 22409 22410 22411 22412 22413 22414 22415 22416 22417 22418 22419 22420 22421 22422 22423 22424 22425 22426 22427 22428 22429 22430 22431 22432 22433 22434 22435 22436 22437 22438 22439 22440 22441 22442 22443 22444 22445 22446 22447 22448 22449 22450 22451 22452 22453 22454 22455 22456 22457 22458 22459 22460 22461 22462 22463 22464 22465 22466 22467 22468 22469 22470 22471 22472 22473 22474 22475 22476 22477 22478 22479 22480 22481 22482 22483 22484 22485 22486 22487 22488 22489 22490 22491 22492 22493 22494 22495 22496 22497 22498 22499 22500 22501 22502 22503 22504 22505 22506 22507 22508 22509 22510 22511 22512 22513 22514 22515 22516 22517 22518 22519 22520 22521 22522 22523 22524 22525 22526 22527 22528 22529 22530 22531 22532 22533 22534 22535 22536 22537 22538 22539 22540 22541 22542 22543 22544 22545 22546 22547 22548 22549 22550 22551 22552 22553 22554 22555 22556 22557 22558 22559 22560 22561 22562 22563 22564 22565 22566 22567 22568 22569 22570 22571 22572 22573 22574 22575 22576 22577 22578 22579 22580 22581 22582 22583 22584 22585 22586 22587 22588 22589 22590 22591 22592 22593 22594 22595 22596 22597 22598 22599 22600 22601 22602 22603 22604 22605 22606 22607 22608 22609 22610 22611 22612 22613 22614 22615 22616 22617 22618 22619 22620 22621 22622 22623 22624 22625 22626 22627 22628 22629 22630 22631 22632 22633 22634 22635 22636 22637 22638 22639 22640 22641 22642 22643 22644 22645 22646 22647 22648 22649 22650 22651 22652 22653 22654 22655 22656 22657 22658 22659 22660 22661 22662 22663 22664 22665 22666 22667 22668 22669 22670 22671 22672 22673 22674 22675 22676 22677 22678 22679 22680 22681 22682 22683 22684 22685 22686 22687 22688 22689 22690 22691 22692 22693 22694 22695 22696 22697 22698 22699 22700 22701 22702 22703 22704 22705 22706 22707 22708 22709 22710 22711 22712 22713 22714 22715 22716 22717 22718 22719 22720 22721 22722 22723 22724 22725 22726 22727 22728 22729 22730 22731 22732 22733 22734 22735 22736 22737 22738 22739 22740 22741 22742 22743 22744 22745 22746 22747 22748 22749 22750 22751 22752 22753 22754 22755 22756 22757 22758 22759 22760 22761 22762 22763 22764 22765 22766 22767 22768 22769 22770 22771 22772 22773 22774 22775 22776 22777 22778 22779 22780 22781 22782 22783 22784 22785 22786 22787 22788 22789 22790 22791 22792 22793 22794 22795 22796 22797 22798 22799 22800 22801 22802 22803 22804 22805 22806 22807 22808 22809 22810 22811 22812 22813 22814 22815 22816 22817 22818 22819 22820 22821 22822 22823 22824 22825 22826 22827 22828 22829 22830 22831 22832 22833 22834 22835 22836 22837 22838 22839 22840 22841 22842 22843 22844 22845 22846 22847 22848 22849 22850 22851 22852 22853 22854 22855 22856 22857 22858 22859 22860 22861 22862 22863 22864 22865 22866 22867 22868 22869 22870 22871 22872 22873 22874 22875 22876 22877 22878 22879 22880 22881 22882 22883 22884 22885 22886 22887 22888 22889 22890 22891 22892 22893 22894 22895 22896 22897 22898 22899 22900 22901 22902 22903 22904 22905 22906 22907 22908 22909 22910 22911 22912 22913 22914 22915 22916 22917 22918 22919 22920 22921 22922 22923 22924 22925 22926 22927 22928 22929 22930 22931 22932 22933 22934 22935 22936 22937 22938 22939 22940 22941 22942 22943 22944 22945 22946 22947 22948 22949 22950 22951 22952 22953 22954 22955 22956 22957 22958 22959 22960 22961 22962 22963 22964 22965 22966 22967 22968 22969 22970 22971 22972 22973 22974 22975 22976 22977 22978 22979 22980 22981 22982 22983 22984 22985 22986 22987 22988 22989 22990 22991 22992 22993 22994 22995 22996 22997 22998 22999 23000 23001 23002 23003 23004 23005 23006 23007 23008 23009 23010 23011 23012 23013 23014 23015 23016 23017 23018 23019 23020 23021 23022 23023 23024 23025 23026 23027 23028 23029 23030 23031 23032 23033 23034 23035 23036 23037 23038 23039 23040 23041 23042 23043 23044 23045 23046 23047 23048 23049 23050 23051 23052 23053 23054 23055 23056 23057 23058 23059 23060 23061 23062 23063 23064 23065 23066 23067 23068 23069 23070 23071 23072 23073 23074 23075 23076 23077 23078 23079 23080 23081 23082 23083 23084 23085 23086 23087 23088 23089 23090 23091 23092 23093 23094 23095 23096 23097 23098 23099 23100 23101 23102 23103 23104 23105 23106 23107 23108 23109 23110 23111 23112 23113 23114 23115 23116 23117 23118 23119 23120 23121 23122 23123 23124 23125 23126 23127 23128 23129 23130 23131 23132 23133 23134 23135 23136 23137 23138 23139 23140 23141 23142 23143 23144 23145 23146 23147 23148 23149 23150 23151 23152 23153 23154 23155 23156 23157 23158 23159 23160 23161 23162 23163 23164 23165 23166 23167 23168 23169 23170 23171 23172 23173 23174 23175 23176 23177 23178 23179 23180 23181 23182 23183 23184 23185 23186 23187 23188 23189 23190 23191 23192 23193 23194 23195 23196 23197 23198 23199 23200 23201 23202 23203 23204 23205 23206 23207 23208 23209 23210 23211 23212 23213 23214 23215 23216 23217 23218 23219 23220 23221 23222 23223 23224 23225 23226 23227 23228 23229 23230 23231 23232 23233 23234 23235 23236 23237 23238 23239 23240 23241 23242 23243 23244 23245 23246 23247 23248 23249 23250 23251 23252 23253 23254 23255 23256 23257 23258 23259 23260 23261 23262 23263 23264 23265 23266 23267 23268 23269 23270 23271 23272 23273 23274 23275 23276 23277 23278 23279 23280 23281 23282 23283 23284 23285 23286 23287 23288 23289 23290 23291 23292 23293 23294 23295 23296 23297 23298 23299 23300 23301 23302 23303 23304 23305 23306 23307 23308 23309 23310 23311 23312 23313 23314 23315 23316 23317 23318 23319 23320 23321 23322 23323 23324 23325 23326 23327 23328 23329 23330 23331 23332 23333 23334 23335 23336 23337 23338 23339 23340 23341 23342 23343 23344 23345 23346 23347 23348 23349 23350 23351 23352 23353 23354 23355 23356 23357 23358 23359 23360 23361 23362 23363 23364 23365 23366 23367 23368 23369 23370 23371 23372 23373 23374 23375 23376 23377 23378 23379 23380 23381 23382 23383 23384 23385 23386 23387 23388 23389 23390 23391 23392 23393 23394 23395 23396 23397 23398 23399 23400 23401 23402 23403 23404 23405 23406 23407 23408 23409 23410 23411 23412 23413 23414 23415 23416 23417 23418 23419 23420 23421 23422 23423 23424 23425 23426 23427 23428 23429 23430 23431 23432 23433 23434 23435 23436 23437 23438 23439 23440 23441 23442 23443 23444 23445 23446 23447 23448 23449 23450 23451 23452 23453 23454 23455 23456 23457 23458 23459 23460 23461 23462 23463 23464 23465 23466 23467 23468 23469 23470 23471 23472 23473 23474 23475 23476 23477 23478 23479 23480 23481 23482 23483 23484 23485 23486 23487 23488 23489 23490 23491 23492 23493 23494 23495 23496 23497 23498 23499 23500 23501 23502 23503 23504 23505 23506 23507 23508 23509 23510 23511 23512 23513 23514 23515 23516 23517 23518 23519 23520 23521 23522 23523 23524 23525 23526 23527 23528 23529 23530 23531 23532 23533 23534 23535 23536 23537 23538 23539 23540 23541 23542 23543 23544 23545 23546 23547 23548 23549 23550 23551 23552 23553 23554 23555 23556 23557 23558 23559 23560 23561 23562 23563 23564 23565 23566 23567 23568 23569 23570 23571 23572 23573 23574 23575 23576 23577 23578 23579 23580 23581 23582 23583 23584 23585 23586 23587 23588 23589 23590 23591 23592 23593 23594 23595 23596 23597 23598 23599 23600 23601 23602 23603 23604 23605 23606 23607 23608 23609 23610 23611 23612 23613 23614 23615 23616 23617 23618 23619 23620 23621 23622 23623 23624 23625 23626 23627 23628 23629 23630 23631 23632 23633 23634 23635 23636 23637 23638 23639 23640 23641 23642 23643 23644 23645 23646 23647 23648 23649 23650 23651 23652 23653 23654 23655 23656 23657 23658 23659 23660 23661 23662 23663 23664 23665 23666 23667 23668 23669 23670 23671 23672 23673 23674 23675 23676 23677 23678 23679 23680 23681 23682 23683 23684 23685 23686 23687 23688 23689 23690 23691 23692 23693 23694 23695 23696 23697 23698 23699 23700 23701 23702 23703 23704 23705 23706 23707 23708 23709 23710 23711 23712 23713 23714 23715 23716 23717 23718 23719 23720 23721 23722 23723 23724 23725 23726 23727 23728 23729 23730 23731 23732 23733 23734 23735 23736 23737 23738 23739 23740 23741 23742 23743 23744 23745 23746 23747 23748 23749 23750 23751 23752 23753 23754 23755 23756 23757 23758 23759 23760 23761 23762 23763 23764 23765 23766 23767 23768 23769 23770 23771 23772 23773 23774 23775 23776 23777 23778 23779 23780 23781 23782 23783 23784 23785 23786 23787 23788 23789 23790 23791 23792 23793 23794 23795 23796 23797 23798 23799 23800 23801 23802 23803 23804 23805 23806 23807 23808 23809 23810 23811 23812 23813 23814 23815 23816 23817 23818 23819 23820 23821 23822 23823 23824 23825 23826 23827 23828 23829 23830 23831 23832 23833 23834 23835 23836 23837 23838 23839 23840 23841 23842 23843 23844 23845 23846 23847 23848 23849 23850 23851 23852 23853 23854 23855 23856 23857 23858 23859 23860 23861 23862 23863 23864 23865 23866 23867 23868 23869 23870 23871 23872 23873 23874 23875 23876 23877 23878 23879 23880 23881 23882 23883 23884 23885 23886 23887 23888 23889 23890 23891 23892 23893 23894 23895 23896 23897 23898 23899 23900 23901 23902 23903 23904 23905 23906 23907 23908 23909 23910 23911 23912 23913 23914 23915 23916 23917 23918 23919 23920 23921 23922 23923 23924 23925 23926 23927 23928 23929 23930 23931 23932 23933 23934 23935 23936 23937 23938 23939 23940 23941 23942 23943 23944 23945 23946 23947 23948 23949 23950 23951 23952 23953 23954 23955 23956 23957 23958 23959 23960 23961 23962 23963 23964 23965 23966 23967 23968 23969 23970 23971 23972 23973 23974 23975 23976 23977 23978 23979 23980 23981 23982 23983 23984 23985 23986 23987 23988 23989 23990 23991 23992 23993 23994 23995 23996 23997 23998 23999 24000 24001 24002 24003 24004 24005 24006 24007 24008 24009 24010 24011 24012 24013 24014 24015 24016 24017 24018 24019 24020 24021 24022 24023 24024 24025 24026 24027 24028 24029 24030 24031 24032 24033 24034 24035 24036 24037 24038 24039 24040 24041 24042 24043 24044 24045 24046 24047 24048 24049 24050 24051 24052 24053 24054 24055 24056 24057 24058 24059 24060 24061 24062 24063 24064 24065 24066 24067 24068 24069 24070 24071 24072 24073 24074 24075 24076 24077 24078 24079 24080 24081 24082 24083 24084 24085 24086 24087 24088 24089 24090 24091 24092 24093 24094 24095 24096 24097 24098 24099 24100 24101 24102 24103 24104 24105 24106 24107 24108 24109 24110 24111 24112 24113 24114 24115 24116 24117 24118 24119 24120 24121 24122 24123 24124 24125 24126 24127 24128 24129 24130 24131 24132 24133 24134 24135 24136 24137 24138 24139 24140 24141 24142 24143 24144 24145 24146 24147 24148 24149 24150 24151 24152 24153 24154 24155 24156 24157 24158 24159 24160 24161 24162 24163 24164 24165 24166 24167 24168 24169 24170 24171 24172 24173 24174 24175 24176 24177 24178 24179 24180 24181 24182 24183 24184 24185 24186 24187 24188 24189 24190 24191 24192 24193 24194 24195 24196 24197 24198 24199 24200 24201 24202 24203 24204 24205 24206 24207 24208 24209 24210 24211 24212 24213 24214 24215 24216 24217 24218 24219 24220 24221 24222 24223 24224 24225 24226 24227 24228 24229 24230 24231 24232 24233 24234 24235 24236 24237 24238 24239 24240 24241 24242 24243 24244 24245 24246 24247 24248 24249 24250 24251 24252 24253 24254 24255 24256 24257 24258 24259 24260 24261 24262 24263 24264 24265 24266 24267 24268 24269 24270 24271 24272 24273 24274 24275 24276 24277 24278 24279 24280 24281 24282 24283 24284 24285 24286 24287 24288 24289 24290 24291 24292 24293 24294 24295 24296 24297 24298 24299 24300 24301 24302 24303 24304 24305 24306 24307 24308 24309 24310 24311 24312 24313 24314 24315 24316 24317 24318 24319 24320 24321 24322 24323 24324 24325 24326 24327 24328 24329 24330 24331 24332 24333 24334 24335 24336 24337 24338 24339 24340 24341 24342 24343 24344 24345 24346 24347 24348 24349 24350 24351 24352 24353 24354 24355 24356 24357 24358 24359 24360 24361 24362 24363 24364 24365 24366 24367 24368 24369 24370 24371 24372 24373 24374 24375 24376 24377 24378 24379 24380 24381 24382 24383 24384 24385 24386 24387 24388 24389 24390 24391 24392 24393 24394 24395 24396 24397 24398 24399 24400 24401 24402 24403 24404 24405 24406 24407 24408 24409 24410 24411 24412 24413 24414 24415 24416 24417 24418 24419 24420 24421 24422 24423 24424 24425 24426 24427 24428 24429 24430 24431 24432 24433 24434 24435 24436 24437 24438 24439 24440 24441 24442 24443 24444 24445 24446 24447 24448 24449 24450 24451 24452 24453 24454 24455 24456 24457 24458 24459 24460 24461 24462 24463 24464 24465 24466 24467 24468 24469 24470 24471 24472 24473 24474 24475 24476 24477 24478 24479 24480 24481 24482 24483 24484 24485 24486 24487 24488 24489 24490 24491 24492 24493 24494 24495 24496 24497 24498 24499 24500 24501 24502 24503 24504 24505 24506 24507 24508 24509 24510 24511 24512 24513 24514 24515 24516 24517 24518 24519 24520 24521 24522 24523 24524 24525 24526 24527 24528 24529 24530 24531 24532 24533 24534 24535 24536 24537 24538 24539 24540 24541 24542 24543 24544 24545 24546 24547 24548 24549 24550 24551 24552 24553 24554 24555 24556 24557 24558 24559 24560 24561 24562 24563 24564 24565 24566 24567 24568 24569 24570 24571 24572 24573 24574 24575 24576 24577 24578 24579 24580 24581 24582 24583 24584 24585 24586 24587 24588 24589 24590 24591 24592 24593 24594 24595 24596 24597 24598 24599 24600 24601 24602 24603 24604 24605 24606 24607 24608 24609 24610 24611 24612 24613 24614 24615 24616 24617 24618 24619 24620 24621 24622 24623 24624 24625 24626 24627 24628 24629 24630 24631 24632 24633 24634 24635 24636 24637 24638 24639 24640 24641 24642 24643 24644 24645 24646 24647 24648 24649 24650 24651 24652 24653 24654 24655 24656 24657 24658 24659 24660 24661 24662 24663 24664 24665 24666 24667 24668 24669 24670 24671 24672 24673 24674 24675 24676 24677 24678 24679 24680 24681 24682 24683 24684 24685 24686 24687 24688 24689 24690 24691 24692 24693 24694 24695 24696 24697 24698 24699 24700 24701 24702 24703 24704 24705 24706 24707 24708 24709 24710 24711 24712 24713 24714 24715 24716 24717 24718 24719 24720 24721 24722 24723 24724 24725 24726 24727 24728 24729 24730 24731 24732 24733 24734 24735 24736 24737 24738 24739 24740 24741 24742 24743 24744 24745 24746 24747 24748 24749 24750 24751 24752 24753 24754 24755 24756 24757 24758 24759 24760 24761 24762 24763 24764 24765 24766 24767 24768 24769 24770 24771 24772 24773 24774 24775 24776 24777 24778 24779 24780 24781 24782 24783 24784 24785 24786 24787 24788 24789 24790 24791 24792 24793 24794 24795 24796 24797 24798 24799 24800 24801 24802 24803 24804 24805 24806 24807 24808 24809 24810 24811 24812 24813 24814 24815 24816 24817 24818 24819 24820 24821 24822 24823 24824 24825 24826 24827 24828 24829 24830 24831 24832 24833 24834 24835 24836 24837 24838 24839 24840 24841 24842 24843 24844 24845 24846 24847 24848 24849 24850 24851 24852 24853 24854 24855 24856 24857 24858 24859 24860 24861 24862 24863 24864 24865 24866 24867 24868 24869 24870 24871 24872 24873 24874 24875 24876 24877 24878 24879 24880 24881 24882 24883 24884 24885 24886 24887 24888 24889 24890 24891 24892 24893 24894 24895 24896 24897 24898 24899 24900 24901 24902 24903 24904 24905 24906 24907 24908 24909 24910 24911 24912 24913 24914 24915 24916 24917 24918 24919 24920 24921 24922 24923 24924 24925 24926 24927 24928 24929 24930 24931 24932 24933 24934 24935 24936 24937 24938 24939 24940 24941 24942 24943 24944 24945 24946 24947 24948 24949 24950 24951 24952 24953 24954 24955 24956 24957 24958 24959 24960 24961 24962 24963 24964 24965 24966 24967 24968 24969 24970 24971 24972 24973 24974 24975 24976 24977 24978 24979 24980 24981 24982 24983 24984 24985 24986 24987 24988 24989 24990 24991 24992 24993 24994 24995 24996 24997 24998 24999 25000 25001 25002 25003 25004 25005 25006 25007 25008 25009 25010 25011 25012 25013 25014 25015 25016 25017 25018 25019 25020 25021 25022 25023 25024 25025 25026 25027 25028 25029 25030 25031 25032 25033 25034 25035 25036 25037 25038 25039 25040 25041 25042 25043 25044 25045 25046 25047 25048 25049 25050 25051 25052 25053 25054 25055 25056 25057 25058 25059 25060 25061 25062 25063 25064 25065 25066 25067 25068 25069 25070 25071 25072 25073 25074 25075 25076 25077 25078 25079 25080 25081 25082 25083 25084 25085 25086 25087 25088 25089 25090 25091 25092 25093 25094 25095 25096 25097 25098 25099 25100 25101 25102 25103 25104 25105 25106 25107 25108 25109 25110 25111 25112 25113 25114 25115 25116 25117 25118 25119 25120 25121 25122 25123 25124 25125 25126 25127 25128 25129 25130 25131 25132 25133 25134 25135 25136 25137 25138 25139 25140 25141 25142 25143 25144 25145 25146 25147 25148 25149 25150 25151 25152 25153 25154 25155 25156 25157 25158 25159 25160 25161 25162 25163 25164 25165 25166 25167 25168 25169 25170 25171 25172 25173 25174 25175 25176 25177 25178 25179 25180 25181 25182 25183 25184 25185 25186 25187 25188 25189 25190 25191 25192 25193 25194 25195 25196 25197 25198 25199 25200 25201 25202 25203 25204 25205 25206 25207 25208 25209 25210 25211 25212 25213 25214 25215 25216 25217 25218 25219 25220 25221 25222 25223 25224 25225 25226 25227 25228 25229 25230 25231 25232 25233 25234 25235 25236 25237 25238 25239 25240 25241 25242 25243 25244 25245 25246 25247 25248 25249 25250 25251 25252 25253 25254 25255 25256 25257 25258 25259 25260 25261 25262 25263 25264 25265 25266 25267 25268 25269 25270 25271 25272 25273 25274 25275 25276 25277 25278 25279 25280 25281 25282 25283 25284 25285 25286 25287 25288 25289 25290 25291 25292 25293 25294 25295 25296 25297 25298 25299 25300 25301 25302 25303 25304 25305 25306 25307 25308 25309 25310 25311 25312 25313 25314 25315 25316 25317 25318 25319 25320 25321 25322 25323 25324 25325 25326 25327 25328 25329 25330 25331 25332 25333 25334 25335 25336 25337 25338 25339 25340 25341 25342 25343 25344 25345 25346 25347 25348 25349 25350 25351 25352 25353 25354 25355 25356 25357 25358 25359 25360 25361 25362 25363 25364 25365 25366 25367 25368 25369 25370 25371 25372 25373 25374 25375 25376 25377 25378 25379 25380 25381 25382 25383 25384 25385 25386 25387 25388 25389 25390 25391 25392 25393 25394 25395 25396 25397 25398 25399 25400 25401 25402 25403 25404 25405 25406 25407 25408 25409 25410 25411 25412 25413 25414 25415 25416 25417 25418 25419 25420 25421 25422 25423 25424 25425 25426 25427 25428 25429 25430 25431 25432 25433 25434 25435 25436 25437 25438 25439 25440 25441 25442 25443 25444 25445 25446 25447 25448 25449 25450 25451 25452 25453 25454 25455 25456 25457 25458 25459 25460 25461 25462 25463 25464 25465 25466 25467 25468 25469 25470 25471 25472 25473 25474 25475 25476 25477 25478 25479 25480 25481 25482 25483 25484 25485 25486 25487 25488 25489 25490 25491 25492 25493 25494 25495 25496 25497 25498 25499 25500 25501 25502 25503 25504 25505 25506 25507 25508 25509 25510 25511 25512 25513 25514 25515 25516 25517 25518 25519 25520 25521 25522 25523 25524 25525 25526 25527 25528 25529 25530 25531 25532 25533 25534 25535 25536 25537 25538 25539 25540 25541 25542 25543 25544 25545 25546 25547 25548 25549 25550 25551 25552 25553 25554 25555 25556 25557 25558 25559 25560 25561 25562 25563 25564 25565 25566 25567 25568 25569 25570 25571 25572 25573 25574 25575 25576 25577 25578 25579 25580 25581 25582 25583 25584 25585 25586 25587 25588 25589 25590 25591 25592 25593 25594 25595 25596 25597 25598 25599 25600 25601 25602 25603 25604 25605 25606 25607 25608 25609 25610 25611 25612 25613 25614 25615 25616 25617 25618 25619 25620 25621 25622 25623 25624 25625 25626 25627 25628 25629 25630 25631 25632 25633 25634 25635 25636 25637 25638 25639 25640 25641 25642 25643 25644 25645 25646 25647 25648 25649 25650 25651 25652 25653 25654 25655 25656 25657 25658 25659 25660 25661 25662 25663 25664 25665 25666 25667 25668 25669 25670 25671 25672 25673 25674 25675 25676 25677 25678 25679 25680 25681 25682 25683 25684 25685 25686 25687 25688 25689 25690 25691 25692 25693 25694 25695 25696 25697 25698 25699 25700 25701 25702 25703 25704 25705 25706 25707 25708 25709 25710 25711 25712 25713 25714 25715 25716 25717 25718 25719 25720 25721 25722 25723 25724 25725 25726 25727 25728 25729 25730 25731 25732 25733 25734 25735 25736 25737 25738 25739 25740 25741 25742 25743 25744 25745 25746 25747 25748 25749 25750 25751 25752 25753 25754 25755 25756 25757 25758 25759 25760 25761 25762 25763 25764 25765 25766 25767 25768 25769 25770 25771 25772 25773 25774 25775 25776 25777 25778 25779 25780 25781 25782 25783 25784 25785 25786 25787 25788 25789 25790 25791 25792 25793 25794 25795 25796 25797 25798 25799 25800 25801 25802 25803 25804 25805 25806 25807 25808 25809 25810 25811 25812 25813 25814 25815 25816 25817 25818 25819 25820 25821 25822 25823 25824 25825 25826 25827 25828 25829 25830 25831 25832 25833 25834 25835 25836 25837 25838 25839 25840 25841 25842 25843 25844 25845 25846 25847 25848 25849 25850 25851 25852 25853 25854 25855 25856 25857 25858 25859 25860 25861 25862 25863 25864 25865 25866 25867 25868 25869 25870 25871 25872 25873 25874 25875 25876 25877 25878 25879 25880 25881 25882 25883 25884 25885 25886 25887 25888 25889 25890 25891 25892 25893 25894 25895 25896 25897 25898 25899 25900 25901 25902 25903 25904 25905 25906 25907 25908 25909 25910 25911 25912 25913 25914 25915 25916 25917 25918 25919 25920 25921 25922 25923 25924 25925 25926 25927 25928 25929 25930 25931 25932 25933 25934 25935 25936 25937 25938 25939 25940 25941 25942 25943 25944 25945 25946 25947 25948 25949 25950 25951 25952 25953 25954 25955 25956 25957 25958 25959 25960 25961 25962 25963 25964 25965 25966 25967 25968 25969 25970 25971 25972 25973 25974 25975 25976 25977 25978 25979 25980 25981 25982 25983 25984 25985 25986 25987 25988 25989 25990 25991 25992 25993 25994 25995 25996 25997 25998 25999 26000 26001 26002 26003 26004 26005 26006 26007 26008 26009 26010 26011 26012 26013 26014 26015 26016 26017 26018 26019 26020 26021 26022 26023 26024 26025 26026 26027 26028 26029 26030 26031 26032 26033 26034 26035 26036 26037 26038 26039 26040 26041 26042 26043 26044 26045 26046 26047 26048 26049 26050 26051 26052 26053 26054 26055 26056 26057 26058 26059 26060 26061 26062 26063 26064 26065 26066 26067 26068 26069 26070 26071 26072 26073 26074 26075 26076 26077 26078 26079 26080 26081 26082 26083 26084 26085 26086 26087 26088 26089 26090 26091 26092 26093 26094 26095 26096 26097 26098 26099 26100 26101 26102 26103 26104 26105 26106 26107 26108 26109 26110 26111 26112 26113 26114 26115 26116 26117 26118 26119 26120 26121 26122 26123 26124 26125 26126 26127 26128 26129 26130 26131 26132 26133 26134 26135 26136 26137 26138 26139 26140 26141 26142 26143 26144 26145 26146 26147 26148 26149 26150 26151 26152 26153 26154 26155 26156 26157 26158 26159 26160 26161 26162 26163 26164 26165 26166 26167 26168 26169 26170 26171 26172 26173 26174 26175 26176 26177 26178 26179 26180 26181 26182 26183 26184 26185 26186 26187 26188 26189 26190 26191 26192 26193 26194 26195 26196 26197 26198 26199 26200 26201 26202 26203 26204 26205 26206 26207 26208 26209 26210 26211 26212 26213 26214 26215 26216 26217 26218 26219 26220 26221 26222 26223 26224 26225 26226 26227 26228 26229 26230 26231 26232 26233 26234 26235 26236 26237 26238 26239 26240 26241 26242 26243 26244 26245 26246 26247 26248 26249 26250 26251 26252 26253 26254 26255 26256 26257 26258 26259 26260 26261 26262 26263 26264 26265 26266 26267 26268 26269 26270 26271 26272 26273 26274 26275 26276 26277 26278 26279 26280 26281 26282 26283 26284 26285 26286 26287 26288 26289 26290 26291 26292 26293 26294 26295 26296 26297 26298 26299 26300 26301 26302 26303 26304 26305 26306 26307 26308 26309 26310 26311 26312 26313 26314 26315 26316 26317 26318 26319 26320 26321 26322 26323 26324 26325 26326 26327 26328 26329 26330 26331 26332 26333 26334 26335 26336 26337 26338 26339 26340 26341 26342 26343 26344 26345 26346 26347 26348 26349 26350 26351 26352 26353 26354 26355 26356 26357 26358 26359 26360 26361 26362 26363 26364 26365 26366 26367 26368 26369 26370 26371 26372 26373 26374 26375 26376 26377 26378 26379 26380 26381 26382 26383 26384 26385 26386 26387 26388 26389 26390 26391 26392 26393 26394 26395 26396 26397 26398 26399 26400 26401 26402 26403 26404 26405 26406 26407 26408 26409 26410 26411 26412 26413 26414 26415 26416 26417 26418 26419 26420 26421 26422 26423 26424 26425 26426 26427 26428 26429 26430 26431 26432 26433 26434 26435 26436 26437 26438 26439 26440 26441 26442 26443 26444 26445 26446 26447 26448 26449 26450 26451 26452 26453 26454 26455 26456 26457 26458 26459 26460 26461 26462 26463 26464 26465 26466 26467 26468 26469 26470 26471 26472 26473 26474 26475 26476 26477 26478 26479 26480 26481 26482 26483 26484 26485 26486 26487 26488 26489 26490 26491 26492 26493 26494 26495 26496 26497 26498 26499 26500 26501 26502 26503 26504 26505 26506 26507 26508 26509 26510 26511 26512 26513 26514 26515 26516 26517 26518 26519 26520 26521 26522 26523 26524 26525 26526 26527 26528 26529 26530 26531 26532 26533 26534 26535 26536 26537 26538 26539 26540 26541 26542 26543 26544 26545 26546 26547 26548 26549 26550 26551 26552 26553 26554 26555 26556 26557 26558 26559 26560 26561 26562 26563 26564 26565 26566 26567 26568 26569 26570 26571 26572 26573 26574 26575 26576 26577 26578 26579 26580 26581 26582 26583 26584 26585 26586 26587 26588 26589 26590 26591 26592 26593 26594 26595 26596 26597 26598 26599 26600 26601 26602 26603 26604 26605 26606 26607 26608 26609 26610 26611 26612 26613 26614 26615 26616 26617 26618 26619 26620 26621 26622 26623 26624 26625 26626 26627 26628 26629 26630 26631 26632 26633 26634 26635 26636 26637 26638 26639 26640 26641 26642 26643 26644 26645 26646 26647 26648 26649 26650 26651 26652 26653 26654 26655 26656 26657 26658 26659 26660 26661 26662 26663 26664 26665 26666 26667 26668 26669 26670 26671 26672 26673 26674 26675 26676 26677 26678 26679 26680 26681 26682 26683 26684 26685 26686 26687 26688 26689 26690 26691 26692 26693 26694 26695 26696 26697 26698 26699 26700 26701 26702 26703 26704 26705 26706 26707 26708 26709 26710 26711 26712 26713 26714 26715 26716 26717 26718 26719 26720 26721 26722 26723 26724 26725 26726 26727 26728 26729 26730 26731 26732 26733 26734 26735 26736 26737 26738 26739 26740 26741 26742 26743 26744 26745 26746 26747 26748 26749 26750 26751 26752 26753 26754 26755 26756 26757 26758 26759 26760 26761 26762 26763 26764 26765 26766 26767 26768 26769 26770 26771 26772 26773 26774 26775 26776 26777 26778 26779 26780 26781 26782 26783 26784 26785 26786 26787 26788 26789 26790 26791 26792 26793 26794 26795 26796 26797 26798 26799 26800 26801 26802 26803 26804 26805 26806 26807 26808 26809 26810 26811 26812 26813 26814 26815 26816 26817 26818 26819 26820 26821 26822 26823 26824 26825 26826 26827 26828 26829 26830 26831 26832 26833 26834 26835 26836 26837 26838 26839 26840 26841 26842 26843 26844 26845 26846 26847 26848 26849 26850 26851 26852 26853 26854 26855 26856 26857 26858 26859 26860 26861 26862 26863 26864 26865 26866 26867 26868 26869 26870 26871 26872 26873 26874 26875 26876 26877 26878 26879 26880 26881 26882 26883 26884 26885 26886 26887 26888 26889 26890 26891 26892 26893 26894 26895 26896 26897 26898 26899 26900 26901 26902 26903 26904 26905 26906 26907 26908 26909 26910 26911 26912 26913 26914 26915 26916 26917 26918 26919 26920 26921 26922 26923 26924 26925 26926 26927 26928 26929 26930 26931 26932 26933 26934 26935 26936 26937 26938 26939 26940 26941 26942 26943 26944 26945 26946 26947 26948 26949 26950 26951 26952 26953 26954 26955 26956 26957 26958 26959 26960 26961 26962 26963 26964 26965 26966 26967 26968 26969 26970 26971 26972 26973 26974 26975 26976 26977 26978 26979 26980 26981 26982 26983 26984 26985 26986 26987 26988 26989 26990 26991 26992 26993 26994 26995 26996 26997 26998 26999 27000 27001 27002 27003 27004 27005 27006 27007 27008 27009 27010 27011 27012 27013 27014 27015 27016 27017 27018 27019 27020 27021 27022 27023 27024 27025 27026 27027 27028 27029 27030 27031 27032 27033 27034 27035 27036 27037 27038 27039 27040 27041 27042 27043 27044 27045 27046 27047 27048 27049 27050 27051 27052 27053 27054 27055 27056 27057 27058 27059 27060 27061 27062 27063 27064 27065 27066 27067 27068 27069 27070 27071 27072 27073 27074 27075 27076 27077 27078 27079 27080 27081 27082 27083 27084 27085 27086 27087 27088 27089 27090 27091 27092 27093 27094 27095 27096 27097 27098 27099 27100 27101 27102 27103 27104 27105 27106 27107 27108 27109 27110 27111 27112 27113 27114 27115 27116 27117 27118 27119 27120 27121 27122 27123 27124 27125 27126 27127 27128 27129 27130 27131 27132 27133 27134 27135 27136 27137 27138 27139 27140 27141 27142 27143 27144 27145 27146 27147 27148 27149 27150 27151 27152 27153 27154 27155 27156 27157 27158 27159 27160 27161 27162 27163 27164 27165 27166 27167 27168 27169 27170 27171 27172 27173 27174 27175 27176 27177 27178 27179 27180 27181 27182 27183 27184 27185 27186 27187 27188 27189 27190 27191 27192 27193 27194 27195 27196 27197 27198 27199 27200 27201 27202 27203 27204 27205 27206 27207 27208 27209 27210 27211 27212 27213 27214 27215 27216 27217 27218 27219 27220 27221 27222 27223 27224 27225 27226 27227 27228 27229 27230 27231 27232 27233 27234 27235 27236 27237 27238 27239 27240 27241 27242 27243 27244 27245 27246 27247 27248 27249 27250 27251 27252 27253 27254 27255 27256 27257 27258 27259 27260 27261 27262 27263 27264 27265 27266 27267 27268 27269 27270 27271 27272 27273 27274 27275 27276 27277 27278 27279 27280 27281 27282 27283 27284 27285 27286 27287 27288 27289 27290 27291 27292 27293 27294 27295 27296 27297 27298 27299 27300 27301 27302 27303 27304 27305 27306 27307 27308 27309 27310 27311 27312 27313 27314 27315 27316 27317 27318 27319 27320 27321 27322 27323 27324 27325 27326 27327 27328 27329 27330 27331 27332 27333 27334 27335 27336 27337 27338 27339 27340 27341 27342 27343 27344 27345 27346 27347 27348 27349 27350 27351 27352 27353 27354 27355 27356 27357 27358 27359 27360 27361 27362 27363 27364 27365 27366 27367 27368 27369 27370 27371 27372 27373 27374 27375 27376 27377 27378 27379 27380 27381 27382 27383 27384 27385 27386 27387 27388 27389 27390 27391 27392 27393 27394 27395 27396 27397 27398 27399 27400 27401 27402 27403 27404 27405 27406 27407 27408 27409 27410 27411 27412 27413 27414 27415 27416 27417 27418 27419 27420 27421 27422 27423 27424 27425 27426 27427 27428 27429 27430 27431 27432 27433 27434 27435 27436 27437 27438 27439 27440 27441 27442 27443 27444 27445 27446 27447 27448 27449 27450 27451 27452 27453 27454 27455 27456 27457 27458 27459 27460 27461 27462 27463 27464 27465 27466 27467 27468 27469 27470 27471 27472 27473 27474 27475 27476 27477 27478 27479 27480 27481 27482 27483 27484 27485 27486 27487 27488 27489 27490 27491 27492 27493 27494 27495 27496 27497 27498 27499 27500 27501 27502 27503 27504 27505 27506 27507 27508 27509 27510 27511 27512 27513 27514 27515 27516 27517 27518 27519 27520 27521 27522 27523 27524 27525 27526 27527 27528 27529 27530 27531 27532 27533 27534 27535 27536 27537 27538 27539 27540 27541 27542 27543 27544 27545 27546 27547 27548 27549 27550 27551 27552 27553 27554 27555 27556 27557 27558 27559 27560 27561 27562 27563 27564 27565 27566 27567 27568 27569 27570 27571 27572 27573 27574 27575 27576 27577 27578 27579 27580 27581 27582 27583 27584 27585 27586 27587 27588 27589 27590 27591 27592 27593 27594 27595 27596 27597 27598 27599 27600 27601 27602 27603 27604 27605 27606 27607 27608 27609 27610 27611 27612 27613 27614 27615 27616 27617 27618 27619 27620 27621 27622 27623 27624 27625 27626 27627 27628 27629 27630 27631 27632 27633 27634 27635 27636 27637 27638 27639 27640 27641 27642 27643 27644 27645 27646 27647 27648 27649 27650 27651 27652 27653 27654 27655 27656 27657 27658 27659 27660 27661 27662 27663 27664 27665 27666 27667 27668 27669 27670 27671 27672 27673 27674 27675 27676 27677 27678 27679 27680 27681 27682 27683 27684 27685 27686 27687 27688 27689 27690 27691 27692 27693 27694 27695 27696 27697 27698 27699 27700 27701 27702 27703 27704 27705 27706 27707 27708 27709 27710 27711 27712 27713 27714 27715 27716 27717 27718 27719 27720 27721 27722 27723 27724 27725 27726 27727 27728 27729 27730 27731 27732 27733 27734 27735 27736 27737 27738 27739 27740 27741 27742 27743 27744 27745 27746 27747 27748 27749 27750 27751 27752 27753 27754 27755 27756 27757 27758 27759 27760 27761 27762 27763 27764 27765 27766 27767 27768 27769 27770 27771 27772 27773 27774 27775 27776 27777 27778 27779 27780 27781 27782 27783 27784 27785 27786 27787 27788 27789 27790 27791 27792 27793 27794 27795 27796 27797 27798 27799 27800 27801 27802 27803 27804 27805 27806 27807 27808 27809 27810 27811 27812 27813 27814 27815 27816 27817 27818 27819 27820 27821 27822 27823 27824 27825 27826 27827 27828 27829 27830 27831 27832 27833 27834 27835 27836 27837 27838 27839 27840 27841 27842 27843 27844 27845 27846 27847 27848 27849 27850 27851 27852 27853 27854 27855 27856 27857 27858 27859 27860 27861 27862 27863 27864 27865 27866 27867 27868 27869 27870 27871 27872 27873 27874 27875 27876 27877 27878 27879 27880 27881 27882 27883 27884 27885 27886 27887 27888 27889 27890 27891 27892 27893 27894 27895 27896 27897 27898 27899 27900 27901 27902 27903 27904 27905 27906 27907 27908 27909 27910 27911 27912 27913 27914 27915 27916 27917 27918 27919 27920 27921 27922 27923 27924 27925 27926 27927 27928 27929 27930 27931 27932 27933 27934 27935 27936 27937 27938 27939 27940 27941 27942 27943 27944 27945 27946 27947 27948 27949 27950 27951 27952 27953 27954 27955 27956 27957 27958 27959 27960 27961 27962 27963 27964 27965 27966 27967 27968 27969 27970 27971 27972 27973 27974 27975 27976 27977 27978 27979 27980 27981 27982 27983 27984 27985 27986 27987 27988 27989 27990 27991 27992 27993 27994 27995 27996 27997 27998 27999 28000 28001 28002 28003 28004 28005 28006 28007 28008 28009 28010 28011 28012 28013 28014 28015 28016 28017 28018 28019 28020 28021 28022 28023 28024 28025 28026 28027 28028 28029 28030 28031 28032 28033 28034 28035 28036 28037 28038 28039 28040 28041 28042 28043 28044 28045 28046 28047 28048 28049 28050 28051 28052 28053 28054 28055 28056 28057 28058 28059 28060 28061 28062 28063 28064 28065 28066 28067 28068 28069 28070 28071 28072 28073 28074 28075 28076 28077 28078 28079 28080 28081 28082 28083 28084 28085 28086 28087 28088 28089 28090 28091 28092 28093 28094 28095 28096 28097 28098 28099 28100 28101 28102 28103 28104 28105 28106 28107 28108 28109 28110 28111 28112 28113 28114 28115 28116 28117 28118 28119 28120 28121 28122 28123 28124 28125 28126 28127 28128 28129 28130 28131 28132 28133 28134 28135 28136 28137 28138 28139 28140 28141 28142 28143 28144 28145 28146 28147 28148 28149 28150 28151 28152 28153 28154 28155 28156 28157 28158 28159 28160 28161 28162 28163 28164 28165 28166 28167 28168 28169 28170 28171 28172 28173 28174 28175 28176 28177 28178 28179 28180 28181 28182 28183 28184 28185 28186 28187 28188 28189 28190 28191 28192 28193 28194 28195 28196 28197 28198 28199 28200 28201 28202 28203 28204 28205 28206 28207 28208 28209 28210 28211 28212 28213 28214 28215 28216 28217 28218 28219 28220 28221 28222 28223 28224 28225 28226 28227 28228 28229 28230 28231 28232 28233 28234 28235 28236 28237 28238 28239 28240 28241 28242 28243 28244 28245 28246 28247 28248 28249 28250 28251 28252 28253 28254 28255 28256 28257 28258 28259 28260 28261 28262 28263 28264 28265 28266 28267 28268 28269 28270 28271 28272 28273 28274 28275 28276 28277 28278 28279 28280 28281 28282 28283 28284 28285 28286 28287 28288 28289 28290 28291 28292 28293 28294 28295 28296 28297 28298 28299 28300 28301 28302 28303 28304 28305 28306 28307 28308 28309 28310 28311 28312 28313 28314 28315 28316 28317 28318 28319 28320 28321 28322 28323 28324 28325 28326 28327 28328 28329 28330 28331 28332 28333 28334 28335 28336 28337 28338 28339 28340 28341 28342 28343 28344 28345 28346 28347 28348 28349 28350 28351 28352 28353 28354 28355 28356 28357 28358 28359 28360 28361 28362 28363 28364 28365 28366 28367 28368 28369 28370 28371 28372 28373 28374 28375 28376 28377 28378 28379 28380 28381 28382 28383 28384 28385 28386 28387 28388 28389 28390 28391 28392 28393 28394 28395 28396 28397 28398 28399 28400 28401 28402 28403 28404 28405 28406 28407 28408 28409 28410 28411 28412 28413 28414 28415 28416 28417 28418 28419 28420 28421 28422 28423 28424 28425 28426 28427 28428 28429 28430 28431 28432 28433 28434 28435 28436 28437 28438 28439 28440 28441 28442 28443 28444 28445 28446 28447 28448 28449 28450 28451 28452 28453 28454 28455 28456 28457 28458 28459 28460 28461 28462 28463 28464 28465 28466 28467 28468 28469 28470 28471 28472 28473 28474 28475 28476 28477 28478 28479 28480 28481 28482 28483 28484 28485 28486 28487 28488 28489 28490 28491 28492 28493 28494 28495 28496 28497 28498 28499 28500 28501 28502 28503 28504 28505 28506 28507 28508 28509 28510 28511 28512 28513 28514 28515 28516 28517 28518 28519 28520 28521 28522 28523 28524 28525 28526 28527 28528 28529 28530 28531 28532 28533 28534 28535 28536 28537 28538 28539 28540 28541 28542 28543 28544 28545 28546 28547 28548 28549 28550 28551 28552 28553 28554 28555 28556 28557 28558 28559 28560 28561 28562 28563 28564 28565 28566 28567 28568 28569 28570 28571 28572 28573 28574 28575 28576 28577 28578 28579 28580 28581 28582 28583 28584 28585 28586 28587 28588 28589 28590 28591 28592 28593 28594 28595 28596 28597 28598 28599 28600 28601 28602 28603 28604 28605 28606 28607 28608 28609 28610 28611 28612 28613 28614 28615 28616 28617 28618 28619 28620 28621 28622 28623 28624 28625 28626 28627 28628 28629 28630 28631 28632 28633 28634 28635 28636 28637 28638 28639 28640 28641 28642 28643 28644 28645 28646 28647 28648 28649 28650 28651 28652 28653 28654 28655 28656 28657 28658 28659 28660 28661 28662 28663 28664 28665 28666 28667 28668 28669 28670 28671 28672 28673 28674 28675 28676 28677 28678 28679 28680 28681 28682 28683 28684 28685 28686 28687 28688 28689 28690 28691 28692 28693 28694 28695 28696 28697 28698 28699 28700 28701 28702 28703 28704 28705 28706 28707 28708 28709 28710 28711 28712 28713 28714 28715 28716 28717 28718 28719 28720 28721 28722 28723 28724 28725 28726 28727 28728 28729 28730 28731 28732 28733 28734 28735 28736 28737 28738 28739 28740 28741 28742 28743 28744 28745 28746 28747 28748 28749 28750 28751 28752 28753 28754 28755 28756 28757 28758 28759 28760 28761 28762 28763 28764 28765 28766 28767 28768 28769 28770 28771 28772 28773 28774 28775 28776 28777 28778 28779 28780 28781 28782 28783 28784 28785 28786 28787 28788 28789 28790 28791 28792 28793 28794 28795 28796 28797 28798 28799 28800 28801 28802 28803 28804 28805 28806 28807 28808 28809 28810 28811 28812 28813 28814 28815 28816 28817 28818 28819 28820 28821 28822 28823 28824 28825 28826 28827 28828 28829 28830 28831 28832 28833 28834 28835 28836 28837 28838 28839 28840 28841 28842 28843 28844 28845 28846 28847 28848 28849 28850 28851 28852 28853 28854 28855 28856 28857 28858 28859 28860 28861 28862 28863 28864 28865 28866 28867 28868 28869 28870 28871 28872 28873 28874 28875 28876 28877 28878 28879 28880 28881 28882 28883 28884 28885 28886 28887 28888 28889 28890 28891 28892 28893 28894 28895 28896 28897 28898 28899 28900 28901 28902 28903 28904 28905 28906 28907 28908 28909 28910 28911 28912 28913 28914 28915 28916 28917 28918 28919 28920 28921 28922 28923 28924 28925 28926 28927 28928 28929 28930 28931 28932 28933 28934 28935 28936 28937 28938 28939 28940 28941 28942 28943 28944 28945 28946 28947 28948 28949 28950 28951 28952 28953 28954 28955 28956 28957 28958 28959 28960 28961 28962 28963 28964 28965 28966 28967 28968 28969 28970 28971 28972 28973 28974 28975 28976 28977 28978 28979 28980 28981 28982 28983 28984 28985 28986 28987 28988 28989 28990 28991 28992 28993 28994 28995 28996 28997 28998 28999 29000 29001 29002 29003 29004 29005 29006 29007 29008 29009 29010 29011 29012 29013 29014 29015 29016 29017 29018 29019 29020 29021 29022 29023 29024 29025 29026 29027 29028 29029 29030 29031 29032 29033 29034 29035 29036 29037 29038 29039 29040 29041 29042 29043 29044 29045 29046 29047 29048 29049 29050 29051 29052 29053 29054 29055 29056 29057 29058 29059 29060 29061 29062 29063 29064 29065 29066 29067 29068 29069 29070 29071 29072 29073 29074 29075 29076 29077 29078 29079 29080 29081 29082 29083 29084 29085 29086 29087 29088 29089 29090 29091 29092 29093 29094 29095 29096 29097 29098 29099 29100 29101 29102 29103 29104 29105 29106 29107 29108 29109 29110 29111 29112 29113 29114 29115 29116 29117 29118 29119 29120 29121 29122 29123 29124 29125 29126 29127 29128 29129 29130 29131 29132 29133 29134 29135 29136 29137 29138 29139 29140 29141 29142 29143 29144 29145 29146 29147 29148 29149 29150 29151 29152 29153 29154 29155 29156 29157 29158 29159 29160 29161 29162 29163 29164 29165 29166 29167 29168 29169 29170 29171 29172 29173 29174 29175 29176 29177 29178 29179 29180 29181 29182 29183 29184 29185 29186 29187 29188 29189 29190 29191 29192 29193 29194 29195 29196 29197 29198 29199 29200 29201 29202 29203 29204 29205 29206 29207 29208 29209 29210 29211 29212 29213 29214 29215 29216 29217 29218 29219 29220 29221 29222 29223 29224 29225 29226 29227 29228 29229 29230 29231 29232 29233 29234 29235 29236 29237 29238 29239 29240 29241 29242 29243 29244 29245 29246 29247 29248 29249 29250 29251 29252 29253 29254 29255 29256 29257 29258 29259 29260 29261 29262 29263 29264 29265 29266 29267 29268 29269 29270 29271 29272 29273 29274 29275 29276 29277 29278 29279 29280 29281 29282 29283 29284 29285 29286 29287 29288 29289 29290 29291 29292 29293 29294 29295 29296 29297 29298 29299 29300 29301 29302 29303 29304 29305 29306 29307 29308 29309 29310 29311 29312 29313 29314 29315 29316 29317 29318 29319 29320 29321 29322 29323 29324 29325 29326 29327 29328 29329 29330 29331 29332 29333 29334 29335 29336 29337 29338 29339 29340 29341 29342 29343 29344 29345 29346 29347 29348 29349 29350 29351 29352 29353 29354 29355 29356 29357 29358 29359 29360 29361 29362 29363 29364 29365 29366 29367 29368 29369 29370 29371 29372 29373 29374 29375 29376 29377 29378 29379 29380 29381 29382 29383 29384 29385 29386 29387 29388 29389 29390 29391 29392 29393 29394 29395 29396 29397 29398 29399 29400 29401 29402 29403 29404 29405 29406 29407 29408 29409 29410 29411 29412 29413 29414 29415 29416 29417 29418 29419 29420 29421 29422 29423 29424 29425 29426 29427 29428 29429 29430 29431 29432 29433 29434 29435 29436 29437 29438 29439 29440 29441 29442 29443 29444 29445 29446 29447 29448 29449 29450 29451 29452 29453 29454 29455 29456 29457 29458 29459 29460 29461 29462 29463 29464 29465 29466 29467 29468 29469 29470 29471 29472 29473 29474 29475 29476 29477 29478 29479 29480 29481 29482 29483 29484 29485 29486 29487 29488 29489 29490 29491 29492 29493 29494 29495 29496 29497 29498 29499 29500 29501 29502 29503 29504 29505 29506 29507 29508 29509 29510 29511 29512 29513 29514 29515 29516 29517 29518 29519 29520 29521 29522 29523 29524 29525 29526 29527 29528 29529 29530 29531 29532 29533 29534 29535 29536 29537 29538 29539 29540 29541 29542 29543 29544 29545 29546 29547 29548 29549 29550 29551 29552 29553 29554 29555 29556 29557 29558 29559 29560 29561 29562 29563 29564 29565 29566 29567 29568 29569 29570 29571 29572 29573 29574 29575 29576 29577 29578 29579 29580 29581 29582 29583 29584 29585 29586 29587 29588 29589 29590 29591 29592 29593 29594 29595 29596 29597 29598 29599 29600 29601 29602 29603 29604 29605 29606 29607 29608 29609 29610 29611 29612 29613 29614 29615 29616 29617 29618 29619 29620 29621 29622 29623 29624 29625 29626 29627 29628 29629 29630 29631 29632 29633 29634 29635 29636 29637 29638 29639 29640 29641 29642 29643 29644 29645 29646 29647 29648 29649 29650 29651 29652 29653 29654 29655 29656 29657 29658 29659 29660 29661 29662 29663 29664 29665 29666 29667 29668 29669 29670 29671 29672 29673 29674 29675 29676 29677 29678 29679 29680 29681 29682 29683 29684 29685 29686 29687 29688 29689 29690 29691 29692 29693 29694 29695 29696 29697 29698 29699 29700 29701 29702 29703 29704 29705 29706 29707 29708 29709 29710 29711 29712 29713 29714 29715 29716 29717 29718 29719 29720 29721 29722 29723 29724 29725 29726 29727 29728 29729 29730 29731 29732 29733 29734 29735 29736 29737 29738 29739 29740 29741 29742 29743 29744 29745 29746 29747 29748 29749 29750 29751 29752 29753 29754 29755 29756 29757 29758 29759 29760 29761 29762 29763 29764 29765 29766 29767 29768 29769 29770 29771 29772 29773 29774 29775 29776 29777 29778 29779 29780 29781 29782 29783 29784 29785 29786 29787 29788 29789 29790 29791 29792 29793 29794 29795 29796 29797 29798 29799 29800 29801 29802 29803 29804 29805 29806 29807 29808 29809 29810 29811 29812 29813 29814 29815 29816 29817 29818 29819 29820 29821 29822 29823 29824 29825 29826 29827 29828 29829 29830 29831 29832 29833 29834 29835 29836 29837 29838 29839 29840 29841 29842 29843 29844 29845 29846 29847 29848 29849 29850 29851 29852 29853 29854 29855 29856 29857 29858 29859 29860 29861 29862 29863 29864 29865 29866 29867 29868 29869 29870 29871 29872 29873 29874 29875 29876 29877 29878 29879 29880 29881 29882 29883 29884 29885 29886 29887 29888 29889 29890 29891 29892 29893 29894 29895 29896 29897 29898 29899 29900 29901 29902 29903 29904 29905 29906 29907 29908 29909 29910 29911 29912 29913 29914 29915 29916 29917 29918 29919 29920 29921 29922 29923 29924 29925 29926 29927 29928 29929 29930 29931 29932 29933 29934 29935 29936 29937 29938 29939 29940 29941 29942 29943 29944 29945 29946 29947 29948 29949 29950 29951 29952 29953 29954 29955 29956 29957 29958 29959 29960 29961 29962 29963 29964 29965 29966 29967 29968 29969 29970 29971 29972 29973 29974 29975 29976 29977 29978 29979 29980 29981 29982 29983 29984 29985 29986 29987 29988 29989 29990 29991 29992 29993 29994 29995 29996 29997 29998 29999 30000 30001 30002 30003 30004 30005 30006 30007 30008 30009 30010 30011 30012 30013 30014 30015 30016 30017 30018 30019 30020 30021 30022 30023 30024 30025 30026 30027 30028 30029 30030 30031 30032 30033 30034 30035 30036 30037 30038 30039 30040 30041 30042 30043 30044 30045 30046 30047 30048 30049 30050 30051 30052 30053 30054 30055 30056 30057 30058 30059 30060 30061 30062 30063 30064 30065 30066 30067 30068 30069 30070 30071 30072 30073 30074 30075 30076 30077 30078 30079 30080 30081 30082 30083 30084 30085 30086 30087 30088 30089 30090 30091 30092 30093 30094 30095 30096 30097 30098 30099 30100 30101 30102 30103 30104 30105 30106 30107 30108 30109 30110 30111 30112 30113 30114 30115 30116 30117 30118 30119 30120 30121 30122 30123 30124 30125 30126 30127 30128 30129 30130 30131 30132 30133 30134 30135 30136 30137 30138 30139 30140 30141 30142 30143 30144 30145 30146 30147 30148 30149 30150 30151 30152 30153 30154 30155 30156 30157 30158 30159 30160 30161 30162 30163 30164 30165 30166 30167 30168 30169 30170 30171 30172 30173 30174 30175 30176 30177 30178 30179 30180 30181 30182 30183 30184 30185 30186 30187 30188 30189 30190 30191 30192 30193 30194 30195 30196 30197 30198 30199 30200 30201 30202 30203 30204 30205 30206 30207 30208 30209 30210 30211 30212 30213 30214 30215 30216 30217 30218 30219 30220 30221 30222 30223 30224 30225 30226 30227 30228 30229 30230 30231 30232 30233 30234 30235 30236 30237 30238 30239 30240 30241 30242 30243 30244 30245 30246 30247 30248 30249 30250 30251 30252 30253 30254 30255 30256 30257 30258 30259 30260 30261 30262 30263 30264 30265 30266 30267 30268 30269 30270 30271 30272 30273 30274 30275 30276 30277 30278 30279 30280 30281 30282 30283 30284 30285 30286 30287 30288 30289 30290 30291 30292 30293 30294 30295 30296 30297 30298 30299 30300 30301 30302 30303 30304 30305 30306 30307 30308 30309 30310 30311 30312 30313 30314 30315 30316 30317 30318 30319 30320 30321 30322 30323 30324 30325 30326 30327 30328 30329 30330 30331 30332 30333 30334 30335 30336 30337 30338 30339 30340 30341 30342 30343 30344 30345 30346 30347 30348 30349 30350 30351 30352 30353 30354 30355 30356 30357 30358 30359 30360 30361 30362 30363 30364 30365 30366 30367 30368 30369 30370 30371 30372 30373 30374 30375 30376 30377 30378 30379 30380 30381 30382 30383 30384 30385 30386 30387 30388 30389 30390 30391 30392 30393 30394 30395 30396 30397 30398 30399 30400 30401 30402 30403 30404 30405 30406 30407 30408 30409 30410 30411 30412 30413 30414 30415 30416 30417 30418 30419 30420 30421 30422 30423 30424 30425 30426 30427 30428 30429 30430 30431 30432 30433 30434 30435 30436 30437 30438 30439 30440 30441 30442 30443 30444 30445 30446 30447 30448 30449 30450 30451 30452 30453 30454 30455 30456 30457 30458 30459 30460 30461 30462 30463 30464 30465 30466 30467 30468 30469 30470 30471 30472 30473 30474 30475 30476 30477 30478 30479 30480 30481 30482 30483 30484 30485 30486 30487 30488 30489 30490 30491 30492 30493 30494 30495 30496 30497 30498 30499 30500 30501 30502 30503 30504 30505 30506 30507 30508 30509 30510 30511 30512 30513 30514 30515 30516 30517 30518 30519 30520 30521 30522 30523 30524 30525 30526 30527 30528 30529 30530 30531 30532 30533 30534 30535 30536 30537 30538 30539 30540 30541 30542 30543 30544 30545 30546 30547 30548 30549 30550 30551 30552 30553 30554 30555 30556 30557 30558 30559 30560 30561 30562 30563 30564 30565 30566 30567 30568 30569 30570 30571 30572 30573 30574 30575 30576 30577 30578 30579 30580 30581 30582 30583 30584 30585 30586 30587 30588 30589 30590 30591 30592 30593 30594 30595 30596 30597 30598 30599 30600 30601 30602 30603 30604 30605 30606 30607 30608 30609 30610 30611 30612 30613 30614 30615 30616 30617 30618 30619 30620 30621 30622 30623 30624 30625 30626 30627 30628 30629 30630 30631 30632 30633 30634 30635 30636 30637 30638 30639 30640 30641 30642 30643 30644 30645 30646 30647 30648 30649 30650 30651 30652 30653 30654 30655 30656 30657 30658 30659 30660 30661 30662 30663 30664 30665 30666 30667 30668 30669 30670 30671 30672 30673 30674 30675 30676 30677 30678 30679 30680 30681 30682 30683 30684 30685 30686 30687 30688 30689 30690 30691 30692 30693 30694 30695 30696 30697 30698 30699 30700 30701 30702 30703 30704 30705 30706 30707 30708 30709 30710 30711 30712 30713 30714 30715 30716 30717 30718 30719 30720 30721 30722 30723 30724 30725 30726 30727 30728 30729 30730 30731 30732 30733 30734 30735 30736 30737 30738 30739 30740 30741 30742 30743 30744 30745 30746 30747 30748 30749 30750 30751 30752 30753 30754 30755 30756 30757 30758 30759 30760 30761 30762 30763 30764 30765 30766 30767 30768 30769 30770 30771 30772 30773 30774 30775 30776 30777 30778 30779 30780 30781 30782 30783 30784 30785 30786 30787 30788 30789 30790 30791 30792 30793 30794 30795 30796 30797 30798 30799 30800 30801 30802 30803 30804 30805 30806 30807 30808 30809 30810 30811 30812 30813 30814 30815 30816 30817 30818 30819 30820 30821 30822 30823 30824 30825 30826 30827 30828 30829 30830 30831 30832 30833 30834 30835 30836 30837 30838 30839 30840 30841 30842 30843 30844 30845 30846 30847 30848 30849 30850 30851 30852 30853 30854 30855 30856 30857 30858 30859 30860 30861 30862 30863 30864 30865 30866 30867 30868 30869 30870 30871 30872 30873 30874 30875 30876 30877 30878 30879 30880 
</DataArray>
<DataArray type="UInt32" Name="offsets" format="ascii">
3 6 8 11 14 17 20 22 25 28 31 34 37 40 43 46 49 52 55 58 60 63 66 69 72 74 77 80 83 86 89 92 95 97 100 103 106 109 112 115 118 121 123 126 129 132 135 138 141 144 147 150 153 156 158 160 163 166 169 172 175 178 181 184 186 189 192 195 198 201 204 207 210 213 216 219 222 225 228 231 234 237 240 243 246 249 252 254 257 260 263 266 269 272 275 278 281 284 287 289 292 295 298 300 303 306 309 312 315 318 321 324 327 330 333 336 339 342 345 348 351 354 357 360 363 366 369 372 375 378 381 384 387 390 393 396 399 402 405 408 411 414 417 420 423 426 429 432 435 437 440 442 445 448 451 454 457 460 463 466 469 472 475 478 481 484 487 490 493 496 499 502 505 508 511 514 517 520 522 525 528 530 533 535 538 541 544 547 550 553 556 559 562 565 568 571 574 577 579 582 584 587 590 593 596 599 602 605 607 610 612 615 618 621 624 627 630 632 635 638 640 643 646 649 652 655 658 660 662 665 668 670 673 675 678 680 682 685 688 691 693 696 699 702 705 708 711 714 717 720 723 726 729 732 734 737 740 743 746 749 752 755 757 760 763 766 769 772 775 778 780 783 786 789 792 794 797 800 803 806 809 812 814 817 820 823 825 828 831 834 837 840 843 846 848 851 854 857 860 863 866 868 871 874 877 880 883 886 888 891 894 897 900 903 906 909 911 914 917 920 923 926 929 932 935 938 941 944 947 950 953 956 959 962 965 968 971 974 976 978 981 984 987 990 993 995 998 1001 1004 1007 1010 1013 1016 1018 1021 1023 1026 1029 1032 1034 1037 1040 1043 1045 1048 1050 1053 1056 1059 1062 1065 1068 1071 1073 1076 1079 1082 1085 1088 1091 1094 1096 1099 1102 1105 1107 1110 1113 1116 1119 1122 1125 1128 1131 1134 1137 1140 1143 1146 1149 1152 1155 1158 1161 1164 1167 1170 1173 1176 1179 1182 1185 1188 1191 1194 1197 1200 1203 1205 1208 1211 1214 1217 1220 1223 1226 1229 1232 1235 1238 1241 1244 1247 1250 1253 1256 1259 1262 1265 1268 1271 1274 1277 1280 1283 1286 1289 1292 1295 1298 1301 1303 1306 1309 1312 1315 1318 1321 1324 1327 1330 1333 1336 1339 1342 1345 1348 1351 1354 1357 1360 1363 1365 1368 1371 1374 1377 1380 1383 1386 1388 1391 1394 1397 1400 1403 1405 1408 1411 1413 1416 1418 1421 1424 1427 1430 1432 1435 1438 1440 1443 1446 1449 1452 1455 1458 1460 1463 1466 1469 1472 1475 1478 1481 1484 1487 1490 1493 1496 1499 1502 1505 1508 1511 1514 1517 1519 1522 1525 1528 1531 1534 1537 1540 1543 1546 1549 1552 1554 1556 1559 1562 1565 1568 1571 1574 1577 1580 1583 1586 1589 1592 1595 1598 1601 1604 1607 1610 1613 1616 1619 1621 1624 1626 1628 1631 1634 1636 1639 1642 1645 1648 1651 1654 1657 1660 1663 1666 1669 1672 1675 1677 1680 1683 1686 1689 1692 1695 1698 1700 1702 1705 1708 1711 1714 1717 1720 1723 1726 1728 1730 1733 1736 1739 1741 1744 1747 1750 1753 1756 1759 1762 1765 1768 1771 1774 1777 1780 1783 1786 1789 1792 1795 1798 1801 1804 1807 1810 1813 1816 1819 1822 1825 1828 1831 1834 1837 1840 1843 1846 1848 1851 1854 1856 1859 1862 1865 1868 1870 1873 1876 1879 1881 1884 1887 1890 1892 1895 1898 1900 1903 1906 1909 1912 1915 1918 1921 1924 1927 1930 1933 1936 1939 1942 1945 1948 1951 1954 1957 1960 1963 1965 1968 1971 1974 1976 1979 1982 1985 1988 1991 1993 1996 1999 2002 2005 2008 2011 2013 2016 2019 2022 2025 2028 2031 2034 2037 2040 2043 2046 2049 2052 2055 2058 2061 2064 2067 2069 2072 2075 2078 2081 2084 2087 2090 2093 2096 2099 2102 2105 2108 2111 2114 2117 2120 2123 2126 2129 2132 2134 2137 2140 2143 2146 2149 2152 2155 2158 2161 2164 2167 2170 2173 2176 2179 2181 2184 2187 2190 2193 2196 2199 2202 2205 2208 2211 2214 2217 2220 2223 2226 2229 2232 2235 2237 2240 2243 2246 2249 2252 2255 2258 2260 2263 2266 2269 2272 2275 2278 2281 2284 2287 2290 2293 2296 2299 2302 2305 2308 2311 2314 2317 2320 2323 2325 2328 2331 2334 2337 2340 2343 2346 2349 2352 2354 2357 2360 2363 2366 2369 2372 2375 2378 2380 2383 2386 2389 2392 2395 2398 2401 2404 2407 2410 2413 2416 2419 2422 2425 2428 2431 2434 2437 2439 2442 2445 2448 2451 2454 2456 2459 2462 2465 2467 2470 2473 2476 2479 2482 2485 2487 2490 2493 2496 2499 2502 2505 2508 2511 2514 2517 2519 2522 2525 2528 2531 2534 2537 2540 2543 2546 2549 2552 2555 2557 2560 2562 2565 2568 2571 2574 2577 2580 2583 2585 2588 2590 2593 2596 2599 2602 2605 2608 2611 2614 2617 2620 2623 2626 2629 2632 2635 2638 2641 2644 2647 2650 2653 2656 2659 2662 2665 2668 2671 2674 2677 2680 2683 2686 2689 2692 2695 2698 2701 2704 2707 2710 2713 2716 2719 2722 2725 2727 2729 2732 2735 2737 2740 2743 2746 2749 2752 2755 2758 2761 2764 2767 2770 2773 2776 2779 2782 2785 2787 2790 2793 2796 2799 2801 2804 2807 2809 2812 2815 2818 2821 2824 2827 2829 2832 2834 2837 2840 2842 2845 2848 2851 2854 2857 2860 2863 2866 2869 2872 2874 2877 2880 2883 2886 2889 2891 2893 2896 2899 2902 2905 2907 2910 2913 2915 2918 2920 2923 2926 2929 2932 2935 2937 2940 2943 2945 2948 2951 2954 2957 2960 2963 2966 2969 2972 2975 2978 2981 2983 2986 2989 2992 2995 2998 3001 3004 3007 3010 3013 3016 3019 3022 3025 3028 3030 3033 3035 3038 3040 3042 3045 3047 3050 3053 3055 3058 3061 3064 3067 3070 3073 3075 3078 3080 3083 3086 3088 3091 3094 3097 3099 3102 3105 3107 3110 3113 3116 3119 3122 3124 3127 3130 3132 3135 3138 3141 3144 3147 3149 3152 3154 3157 3160 3162 3165 3168 3170 3173 3176 3179 3182 3185 3188 3191 3194 3196 3199 3202 3205 3208 3211 3214 3217 3220 3223 3226 3228 3231 3234 3237 3240 3242 3245 3248 3250 3253 3256 3259 3262 3265 3267 3270 3273 3276 3279 3282 3284 3287 3289 3292 3295 3298 3301 3304 3307 3309 3312 3315 3318 3321 3324 3327 3330 3333 3335 3337 3339 3342 3345 3348 3351 3353 3356 3358 3361 3364 3367 3369 3371 3374 3377 3380 3382 3385 3388 3391 3393 3396 3398 3401 3403 3405 3408 3410 3413 3416 3419 3422 3424 3427 3430 3433 3435 3438 3440 3443 3445 3448 3451 3454 3457 3460 3463 3466 3468 3471 3474 3477 3480 3482 3485 3488 3491 3494 3497 3500 3503 3506 3508 3511 3513 3515 3518 3521 3524 3526 3529 3532 3535 3538 3540 3542 3545 3548 3550 3552 3555 3558 3561 3564 3567 3569 3572 3575 3578 3581 3584 3587 3590 3593 3595 3598 3600 3603 3606 3609 3612 3615 3618 3621 3624 3627 3630 3633 3636 3639 3642 3645 3648 3651 3653 3656 3659 3662 3665 3668 3671 3674 3677 3680 3683 3686 3689 3692 3695 3698 3701 3704 3707 3710 3713 3716 3719 3722 3725 3728 3730 3733 3735 3738 3741 3744 3747 3750 3752 3754 3757 3760 3763 3766 3768 3770 3773 3775 3778 3781 3783 3786 3789 3791 3794 3797 3800 3803 3805 3807 3810 3813 3816 3819 3822 3825 3828 3831 3833 3836 3839 3841 3844 3847 3850 3852 3855 3858 3860 3863 3866 3869 3872 3875 3878 3880 3883 3886 3889 3892 3895 3898 3900 3903 3906 3909 3912 3915 3917 3920 3923 3925 3927 3930 3933 3935 3938 3941 3943 3946 3949 3952 3955 3958 3961 3964 3967 3970 3973 3976 3979 3981 3984 3986 3989 3992 3994 3997 4000 4003 4006 4009 4012 4014 4017 4020 4023 4025 4027 4029 4032 4035 4038 4040 4042 4045 4047 4049 4052 4055 4057 4060 4063 4065 4068 4070 4073 4075 4078 4081 4084 4086 4088 4091 4094 4096 4098 4100 4102 4105 4108 4111 4113 4115 4118 4121 4123 4125 4127 4130 4132 4134 4137 4140 4142 4145 4147 4149 4152 4154 4157 4160 4162 4165 4167 4169 4172 4175 4178 4181 4183 4185 4188 4191 4193 4196 4199 4202 4204 4207 4210 4213 4216 4219 4222 4225 4228 4231 4234 4237 4240 4243 4246 4249 4252 4255 4258 4261 4264 4267 4270 4273 4276 4279 4282 4285 4288 4291 4294 4297 4300 4303 4306 4309 4312 4315 4318 4321 4324 4327 4330 4333 4336 4339 4342 4345 4348 4351 4354 4357 4360 4363 4366 4369 4372 4375 4378 4380 4383 4385 4388 4391 4394 4397 4400 4403 4406 4409 4412 4415 4418 4421 4424 4427 4429 4432 4435 4438 4441 4444 4447 4450 4453 4456 4459 4461 4464 4467 4470 4473 4476 4479 4482 4485 4488 4491 4494 4497 4500 4503 4506 4509 4512 4515 4518 4521 4524 4527 4530 4533 4536 4539 4542 4545 4548 4551 4554 4557 4560 4563 4566 4569 4572 4575 4578 4581 4584 4587 4590 4593 4596 4599 4601 4604 4607 4610 4612 4615 4617 4620 4623 4626 4629 4632 4634 4637 4639 4642 4645 4648 4651 4654 4657 4660 4663 4666 4669 4672 4675 4678 4681 4684 4687 4690 4693 4696 4699 4702 4705 4708 4711 4714 4716 4719 4722 4725 4728 4731 4734 4736 4739 4741 4744 4747 4750 4752 4755 4758 4760 4763 4766 4769 4772 4775 4778 4781 4784 4787 4790 4793 4796 4799 4802 4805 4808 4811 4814 4817 4820 4823 4826 4829 4832 4835 4838 4841 4844 4847 4850 4853 4856 4859 4862 4865 4868 4871 4873 4876 4878 4881 4884 4887 4890 4893 4896 4899 4902 4905 4908 4910 4913 4916 4919 4922 4925 4928 4931 4934 4937 4940 4943 4946 4949 4952 4955 4958 4961 4963 4966 4969 4972 4974 4976 4979 4981 4984 4987 4990 4993 4996 4999 5002 5005 5007 5010 5013 5016 5019 5021 5024 5027 5030 5033 5036 5039 5042 5044 5047 5050 5052 5055 5057 5060 5063 5065 5068 5071 5073 5075 5078 5081 5084 5087 5090 5093 5096 5099 5102 5105 5108 5111 5114 5117 5120 5122 5125 5127 5130 5133 5136 5138 5141 5143 5146 5149 5152 5155 5158 5161 5164 5167 5170 5173 5176 5179 5181 5184 5186 5189 5192 5195 5198 5201 5204 5207 5210 5212 5215 5218 5220 5223 5226 5229 5231 5233 5236 5239 5242 5245 5248 5251 5254 5257 5260 5263 5266 5269 5272 5275 5278 5281 5284 5287 5290 5293 5296 5298 5301 5304 5307 5310 5313 5315 5318 5320 5323 5326 5329 5332 5334 5337 5340 5342 5345 5348 5351 5354 5357 5359 5362 5365 5368 5371 5373 5376 5379 5382 5385 5388 5391 5394 5396 5399 5402 5405 5407 5410 5413 5416 5419 5422 5425 5428 5431 5434 5437 5440 5442 5445 5448 5451 5454 5457 5460 5463 5466 5468 5471 5474 5477 5480 5483 5486 5488 5491 5494 5497 5500 5503 5506 5508 5511 5514 5517 5520 5523 5526 5529 5532 5535 5538 5541 5543 5546 5549 5552 5554 5557 5560 5563 5565 5568 5570 5573 5576 5579 5582 5585 5588 5590 5593 5596 5599 5602 5605 5608 5611 5614 5617 5620 5623 5626 5629 5632 5635 5637 5640 5643 5646 5649 5652 5654 5657 5660 5663 5666 5669 5672 5675 5678 5680 5683 5686 5689 5692 5695 5698 5701 5704 5707 5710 5713 5716 5719 5722 5725 5728 5730 5733 5736 5739 5742 5744 5747 5750 5753 5756 5759 5762 5765 5768 5771 5774 5777 5780 5783 5786 5789 5792 5795 5798 5801 5804 5807 5810 5813 5816 5819 5822 5824 5827 5830 5833 5835 5838 5840 5843 5846 5849 5852 5854 5857 5859 5862 5865 5868 5871 5874 5876 5879 5882 5885 5888 5891 5894 5897 5900 5903 5905 5908 5911 5914 5917 5920 5923 5926 5929 5932 5935 5938 5941 5944 5947 5950 5953 5956 5959 5962 5965 5968 5971 5974 5977 5979 5981 5984 5987 5990 5993 5996 5998 6001 6004 6007 6009 6012 6015 6018 6020 6023 6026 6028 6031 6033 6036 6039 6042 6045 6047 6050 6053 6056 6059 6061 6063 6066 6069 6072 6075 6078 6081 6084 6087 6090 6093 6096 6099 6101 6104 6107 6110 6113 6115 6118 6121 6124 6127 6130 6132 6135 6138 6140 6143 6146 6149 6152 6155 6158 6161 6164 6167 6170 6173 6176 6179 6182 6185 6188 6190 6193 6196 6198 6201 6204 6207 6209 6212 6215 6218 6221 6224 6227 6230 6233 6236 6239 6242 6244 6247 6250 6253 6256 6259 6262 6265 6268 6271 6274 6277 6280 6283 6286 6289 6292 6294 6297 6300 6302 6305 6307 6310 6313 6315 6318 6320 6323 6325 6328 6331 6334 6337 6340 6343 6346 6349 6352 6355 6358 6361 6364 6366 6369 6371 6373 6376 6379 6381 6383 6386 6389 6391 6393 6396 6399 6402 6404 6407 6409 6412 6415 6417 6420 6423 6426 6429 6431 6433 6436 6438 6441 6444 6446 6448 6451 6454 6456 6459 6462 6465 6467 6470 6473 6476 6478 6480 6482 6485 6488 6490 6493 6495 6497 6500 6503 6506 6509 6512 6515 6518 6521 6524 6527 6530 6532 6534 6537 6539 6542 6544 6547 6549 6552 6555 6558 6560 6563 6566 6569 6572 6575 6577 6580 6583 6586 6589 6592 6595 6598 6601 6604 6607 6610 6613 6616 6619 6622 6625 6628 6631 6634 6637 6640 6643 6646 6649 6651 6654 6657 6660 6663 6666 6669 6672 6675 6678 6681 6684 6687 6690 6693 6696 6699 6702 6705 6707 6710 6713 6716 6719 6722 6725 6728 6731 6734 6737 6740 6742 6745 6748 6751 6754 6757 6759 6762 6765 6768 6771 6774 6777 6780 6783 6786 6789 6792 6795 6798 6801 6803 6806 6809 6812 6815 6818 6821 6824 6827 6830 6833 6836 6839 6842 6845 6847 6850 6852 6855 6858 6861 6864 6866 6869 6872 6875 6878 6881 6884 6887 6890 6893 6896 6899 6902 6904 6907 6909 6912 6915 6918 6921 6923 6926 6929 6932 6935 6938 6941 6944 6946 6949 6952 6955 6958 6961 6964 6967 6969 6972 6975 6978 6980 6983 6985 6988 6991 6994 6997 7000 7003 7006 7009 7012 7014 7017 7020 7023 7026 7029 7032 7035 7038 7041 7044 7047 7050 7053 7056 7059 7062 7065 7068 7071 7074 7077 7080 7083 7086 7089 7092 7095 7098 7101 7104 7107 7110 7113 7116 7119 7122 7125 7128 7131 7134 7137 7140 7143 7145 7148 7151 7153 7156 7159 7162 7165 7168 7171 7174 7177 7180 7183 7185 7188 7191 7194 7197 7200 7202 7205 7208 7210 7213 7216 7219 7222 7225 7228 7230 7233 7236 7239 7242 7244 7247 7250 7252 7255 7257 7260 7263 7266 7269 7272 7275 7278 7281 7284 7287 7290 7292 7295 7297 7300 7303 7306 7309 7311 7314 7317 7320 7323 7326 7329 7332 7335 7338 7341 7344 7347 7350 7353 7356 7359 7362 7365 7368 7371 7374 7376 7379 7382 7385 7388 7390 7393 7396 7399 7402 7405 7408 7411 7413 7416 7419 7422 7425 7428 7430 7433 7436 7439 7441 7444 7447 7450 7452 7455 7458 7460 7463 7466 7469 7471 7474 7477 7479 7482 7485 7488 7491 7494 7497 7500 7503 7506 7509 7512 7515 7518 7521 7524 7527 7530 7533 7536 7539 7542 7545 7548 7551 7554 7557 7560 7563 7566 7569 7572 7574 7577 7580 7583 7586 7589 7592 7595 7598 7601 7604 7607 7609 7612 7615 7618 7621 7624 7627 7630 7633 7636 7639 7642 7645 7648 7651 7654 7656 7658 7661 7664 7667 7669 7672 7675 7678 7681 7683 7686 7689 7691 7694 7697 7700 7703 7706 7709 7712 7715 7718 7721 7724 7727 7730 7732 7734 7737 7740 7743 7746 7749 7752 7755 7758 7761 7764 7767 7769 7772 7775 7777 7780 7783 7786 7789 7792 7795 7798 7801 7804 7807 7810 7813 7816 7819 7822 7825 7828 7831 7834 7836 7839 7842 7845 7847 7850 7853 7856 7859 7862 7864 7867 7870 7873 7876 7879 7882 7885 7888 7891 7894 7897 7900 7903 7906 7909 7912 7915 7918 7921 7924 7926 7929 7932 7934 7937 7940 7943 7946 7949 7952 7955 7958 7961 7964 7967 7970 7973 7976 7979 7982 7985 7988 7991 7993 7996 7999 8002 8005 8008 8011 8014 8017 8020 8023 8026 8029 8032 8035 8038 8041 8044 8047 8050 8053 8056 8059 8062 8065 8068 8071 8074 8077 8080 8083 8086 8089 8091 8094 8097 8100 8103 8106 8109 8111 8114 8117 8120 8123 8126 8128 8131 8134 8137 8140 8142 8145 8148 8151 8154 8157 8160 8163 8166 8169 8172 8175 8178 8181 8184 8187 8190 8193 8196 8199 8202 8205 8208 8210 8213 8216 8219 8222 8225 8228 8231 8233 8236 8239 8241 8244 8247 8249 8252 8255 8258 8261 8264 8267 8269 8272 8275 8278 8281 8284 8287 8290 8293 8296 8299 8301 8304 8306 8309 8312 8315 8318 8321 8324 8327 8330 8332 8335 8338 8340 8343 8346 8349 8351 8354 8357 8360 8362 8365 8368 8371 8373 8375 8378 8381 8383 8386 8389 8391 8394 8397 8399 8402 8405 8408 8411 8414 8417 8420 8423 8426 8428 8431 8434 8437 8439 8442 8445 8448 8450 8453 8456 8459 8461 8464 8466 8469 8472 8474 8477 8480 8483 8486 8489 8492 8495 8498 8500 8503 8506 8508 8511 8514 8517 8520 8523 8526 8529 8532 8535 8538 8541 8544 8547 8549 8552 8554 8557 8560 8563 8565 8567 8570 8572 8575 8578 8581 8584 8586 8589 8591 8594 8597 8600 8603 8606 8609 8612 8615 8618 8620 8623 8626 8629 8632 8635 8638 8641 8644 8647 8650 8653 8656 8659 8662 8665 8668 8671 8674 8677 8680 8683 8686 8689 8692 8695 8698 8701 8704 8706 8709 8712 8715 8718 8721 8724 8726 8729 8732 8735 8738 8741 8744 8746 8749 8752 8755 8758 8761 8764 8766 8769 8772 8775 8777 8780 8783 8786 8788 8791 8794 8796 8799 8802 8805 8808 8811 8814 8816 8819 8822 8825 8827 8829 8832 8835 8838 8841 8844 8847 8850 8853 8856 8859 8862 8865 8868 8871 8874 8877 8880 8882 8885 8888 8891 8894 8897 8900 8903 8905 8908 8911 8914 8917 8920 8922 8925 8928 8931 8934 8937 8939 8942 8945 8947 8950 8953 8956 8959 8961 8964 8967 8970 8973 8976 8979 8981 8984 8986 8989 8991 8993 8996 8998 9001 9004 9007 9009 9012 9015 9018 9021 9024 9026 9029 9032 9035 9037 9040 9043 9046 9049 9051 9053 9055 9058 9061 9064 9067 9069 9071 9074 9076 9079 9082 9085 9088 9091 9094 9096 9099 9101 9104 9107 9109 9112 9115 9118 9120 9123 9126 9128 9131 9134 9137 9140 9143 9146 9149 9152 9155 9158 9161 9164 9166 9169 9172 9175 9178 9180 9183 9186 9189 9192 9194 9197 9200 9203 9206 9209 9212 9215 9218 9221 9223 9225 9227 9230 9233 9236 9238 9240 9243 9246 9248 9251 9253 9256 9259 9262 9265 9268 9271 9274 9276 9279 9282 9285 9288 9291 9294 9297 9300 9303 9306 9309 9312 9315 9318 9321 9324 9326 9329 9332 9335 9338 9341 9344 9347 9350 9353 9355 9358 9361 9363 9366 9368 9371 9373 9376 9379 9381 9384 9387 9390 9392 9394 9397 9400 9402 9405 9408 9411 9413 9416 9419 9422 9425 9427 9430 9433 9436 9439 9442 9445 9448 9451 9454 9457 9460 9462 9464 9467 9470 9473 9476 9479 9482 9485 9488 9491 9494 9497 9500 9503 9506 9509 9512 9515 9518 9521 9524 9527 9530 9533 9536 9539 9542 9545 9548 9551 9554 9557 9560 9562 9565 9568 9571 9574 9577 9580 9583 9586 9589 9592 9595 9598 9601 9604 9607 9610 9613 9616 9619 9621 9624 9627 9630 9633 9636 9639 9641 9643 9646 9649 9651 9653 9656 9659 9662 9664 9667 9670 9673 9676 9679 9682 9685 9688 9691 9694 9697 9700 9703 9706 9709 9712 9715 9718 9721 9724 9727 9730 9733 9735 9738 9740 9743 9745 9748 9751 9754 9757 9760 9763 9765 9768 9770 9772 9775 9778 9780 9783 9786 9789 9792 9795 9798 9800 9802 9805 9808 9810 9812 9815 9818 9820 9822 9825 9828 9831 9834 9837 9840 9843 9846 9848 9851 9854 9857 9860 9863 9865 9868 9871 9873 9876 9879 9882 9884 9887 9890 9893 9896 9899 9902 9905 9908 9911 9914 9917 9920 9923 9926 9929 9932 9935 9938 9941 9944 9947 9950 9953 9956 9959 9962 9965 9968 9971 9974 9977 9980 9983 9986 9988 9991 9994 9996 9999 10001 10003 10006 10009 10012 10015 10018 10021 10024 10027 10030 10032 10035 10038 10041 10044 10047 10049 10052 10055 10058 10061 10064 10067 10070 10072 10075 10078 10081 10084 10087 10090 10093 10096 10098 10101 10104 10107 10110 10113 10115 10118 10121 10124 10127 10130 10133 10136 10139 10142 10145 10148 10151 10154 10157 10160 10163 10166 10169 10172 10175 10178 10181 10184 10187 10190 10193 10196 10199 10202 10205 10207 10209 10212 10215 10218 10221 10224 10227 10230 10232 10235 10238 10241 10243 10246 10248 10251 10254 10257 10260 10263 10266 10269 10272 10275 10278 10281 10284 10287 10290 10293 10296 10299 10302 10305 10308 10311 10313 10316 10319 10322 10325 10328 10331 10333 10336 10339 10342 10345 10348 10351 10354 10356 10359 10362 10364 10367 10370 10373 10376 10379 10382 10384 10387 10390 10393 10395 10398 10401 10403 10405 10408 10411 10414 10417 10420 10423 10426 10429 10432 10435 10438 10441 10444 10447 10450 10453 10456 10459 10462 10465 10468 10471 10474 10477 10480 10483 10486 10489 10491 10494 10497 10500 10503 10506 10509 10512 10515 10518 10521 10524 10527 10530 10533 10536 10539 10542 10545 10548 10550 10553 10556 10559 10561 10563 10566 10569 10572 10575 10578 10580 10583 10586 10589 10591 10594 10597 10600 10603 10606 10608 10611 10614 10617 10620 10623 10626 10629 10632 10635 10638 10641 10644 10647 10650 10653 10656 10659 10662 10665 10668 10671 10673 10676 10679 10682 10685 10688 10691 10693 10696 10699 10702 10705 10708 10711 10714 10717 10720 10723 10726 10729 10731 10734 10737 10740 10743 10745 10748 10750 10753 10756 10759 10762 10765 10768 10771 10774 10777 10780 10783 10786 10789 10791 10794 10797 10800 10803 10806 10808 10811 10814 10817 10820 10823 10826 10828 10831 10834 10837 10840 10843 10846 10849 10852 10855 10858 10861 10864 10866 10869 10872 10874 10877 10880 10882 10885 10888 10890 10893 10896 10899 10902 10905 10908 10911 10914 10917 10920 10922 10925 10928 10931 10934 10937 10940 10943 10946 10948 10951 10954 10957 10959 10962 10965 10968 10970 10973 10976 10978 10981 10984 10987 10989 10992 10995 10998 11001 11004 11006 11009 11011 11014 11017 11020 11023 11025 11027 11030 11033 11036 11038 11041 11044 11047 11050 11052 11055 11058 11061 11064 11067 11070 11073 11076 11079 11082 11085 11088 11091 11094 11097 11099 11102 11105 11107 11109 11112 11115 11118 11121 11123 11126 11129 11132 11135 11138 11141 11143 11146 11149 11152 11155 11158 11161 11163 11166 11169 11172 11175 11178 11181 11184 11187 11189 11192 11195 11198 11201 11204 11207 11210 11213 11216 11219 11221 11224 11227 11229 11232 11235 11237 11240 11243 11246 11249 11252 11254 11256 11259 11262 11264 11266 11269 11271 11274 11276 11279 11281 11283 11286 11289 11291 11294 11296 11299 11301 11304 11306 11309 11311 11314 11317 11319 11322 11324 11327 11329 11332 11335 11338 11341 11344 11347 11349 11352 11355 11358 11360 11363 11366 11369 11372 11375 11378 11381 11384 11387 11389 11392 11395 11397 11400 11402 11405 11407 11410 11413 11416 11418 11420 11423 11426 11429 11432 11435 11438 11441 11444 11447 11450 11453 11455 11458 11461 11464 11467 11470 11472 11475 11478 11481 11484 11487 11490 11493 11496 11499 11502 11505 11508 11511 11514 11517 11520 11523 11525 11528 11531 11534 11537 11540 11543 11545 11548 11551 11554 11556 11559 11562 11564 11567 11570 11573 11575 11578 11580 11582 11585 11588 11591 11594 11597 11600 11603 11606 11609 11611 11614 11617 11620 11623 11626 11629 11632 11634 11637 11639 11642 11644 11647 11650 11653 11656 11659 11662 11665 11668 11671 11674 11677 11680 11683 11686 11689 11692 11695 11698 11701 11704 11707 11710 11713 11716 11719 11722 11725 11728 11731 11734 11737 11740 11743 11746 11749 11752 11755 11757 11760 11763 11765 11767 11770 11773 11776 11779 11781 11784 11787 11790 11793 11796 11798 11801 11804 11806 11808 11811 11814 11817 11820 11823 11826 11828 11831 11833 11836 11839 11841 11843 11846 11848 11851 11854 11857 11859 11862 11865 11868 11871 11873 11876 11879 11882 11884 11887 11890 11892 11894 11897 11900 11903 11905 11908 11911 11914 11917 11919 11922 11925 11927 11930 11933 11936 11938 11941 11944 11946 11949 11952 11955 11957 11960 11962 11965 11968 11970 11973 11976 11978 11980 11983 11986 11988 11991 11993 11995 11998 12001 12004 12007 12009 12012 12015 12018 12021 12023 12026 12029 12032 12035 12038 12041 12044 12047 12050 12053 12056 12059 12061 12064 12067 12070 12073 12075 12078 12080 12083 12086 12089 12092 12095 12097 12099 12101 12104 12107 12110 12113 12116 12119 12122 12125 12127 12130 12133 12136 12139 12142 12145 12147 12150 12153 12156 12159 12161 12164 12167 12170 12173 12176 12179 12182 12185 12188 12191 12194 12197 12200 12203 12206 12209 12212 12215 12217 12220 12222 12225 12228 12230 12232 12235 12237 12240 12243 12245 12248 12250 12253 12255 12258 12260 12263 12266 12269 12272 12274 12277 12280 12283 12285 12288 12291 12294 12297 12300 12303 12306 12309 12312 12315 12318 12321 12324 12327 12330 12333 12336 12339 12342 12345 12348 12351 12354 12357 12360 12362 12365 12368 12371 12374 12377 12379 12382 12385 12388 12391 12394 12397 12400 12403 12406 12409 12412 12414 12417 12420 12423 12426 12429 12431 12434 12437 12439 12441 12444 12447 12450 12452 12455 12458 12460 12462 12465 12467 12470 12473 12476 12479 12482 12485 12488 12491 12494 12497 12500 12503 12506 12509 12512 12515 12517 12520 12523 12526 12529 12531 12534 12537 12540 12543 12546 12549 12552 12555 12557 12559 12562 12565 12567 12570 12573 12576 12579 12582 12585 12588 12591 12594 12596 12598 12601 12604 12606 12609 12612 12615 12617 12620 12623 12626 12629 12632 12635 12638 12641 12644 12647 12650 12653 12656 12659 12662 12665 12668 12671 12674 12677 12680 12683 12686 12689 12692 12695 12697 12700 12703 12706 12709 12712 12715 12718 12721 12724 12727 12730 12733 12736 12739 12742 12745 12748 12751 12754 12757 12759 12762 12765 12768 12770 12772 12775 12778 12781 12783 12786 12789 12791 12794 12797 12800 12803 12806 12808 12811 12813 12816 12819 12822 12825 12828 12831 12834 12837 12839 12842 12845 12848 12850 12853 12856 12858 12861 12863 12866 12869 12872 12874 12877 12880 12883 12885 12888 12891 12894 12897 12900 12903 12906 12909 12912 12915 12918 12921 12924 12927 12930 12933 12936 12938 12941 12944 12947 12950 12953 12956 12959 12962 12965 12967 12970 12973 12976 12979 12982 12985 12988 12991 12993 12996 12999 13002 13005 13008 13011 13014 13017 13020 13023 13026 13029 13032 13034 13037 13040 13043 13045 13048 13051 13054 13057 13060 13063 13066 13069 13072 13075 13078 13081 13084 13087 13090 13093 13096 13099 13102 13104 13107 13110 13113 13115 13118 13120 13123 13126 13129 13131 13134 13137 13140 13142 13144 13147 13150 13153 13156 13159 13162 13165 13168 13171 13174 13177 13180 13183 13186 13189 13192 13195 13198 13201 13204 13207 13210 13212 13215 13218 13221 13224 13226 13229 13232 13235 13238 13240 13243 13246 13249 13252 13255 13258 13261 13263 13266 13269 13272 13275 13277 13280 13283 13286 13289 13292 13295 13297 13300 13303 13306 13309 13312 13315 13317 13320 13323 13326 13328 13331 13334 13337 13340 13343 13346 13349 13352 13355 13357 13360 13363 13366 13369 13372 13375 13377 13380 13383 13386 13389 13392 13395 13398 13401 13404 13407 13410 13412 13415 13418 13420 13423 13426 13429 13432 13435 13437 13440 13443 13445 13448 13451 13454 13457 13460 13463 13466 13468 13470 13473 13476 13479 13482 13484 13487 13490 13493 13496 13499 13502 13504 13507 13510 13513 13516 13519 13522 13525 13528 13531 13534 13536 13539 13542 13545 13548 13551 13554 13557 13560 13563 13566 13569 13572 13574 13577 13579 13582 13585 13588 13590 13593 13596 13598 13601 13604 13607 13610 13612 13615 13618 13621 13624 13627 13629 13632 13635 13638 13641 13644 13647 13650 13653 13655 13658 13661 13664 13667 13669 13672 13675 13678 13681 13684 13687 13690 13692 13695 13698 13701 13704 13707 13710 13713 13716 13719 13722 13724 13727 13730 13733 13735 13738 13740 13743 13746 13749 13752 13755 13758 13760 13763 13765 13768 13770 13773 13776 13779 13782 13784 13787 13790 13793 13796 13799 13802 13805 13808 13811 13814 13817 13820 13823 13826 13828 13831 13833 13836 13839 13842 13845 13848 13851 13854 13856 13859 13862 13865 13868 13871 13874 13877 13880 13883 13886 13889 13892 13895 13897 13900 13903 13906 13909 13911 13914 13917 13920 13923 13926 13929 13932 13935 13938 13941 13944 13947 13950 13953 13956 13959 13962 13965 13968 13971 13974 13977 13980 13983 13985 13988 13991 13994 13997 13999 14002 14005 14008 14010 14013 14016 14018 14021 14024 14026 14029 14032 14035 14038 14041 14044 14047 14050 14053 14056 14059 14062 14065 14068 14071 14073 14076 14079 14081 14084 14087 14090 14093 14096 14099 14102 14104 14107 14110 14113 14116 14119 14121 14124 14127 14130 14132 14135 14138 14141 14143 14146 14149 14152 14155 14158 14161 14164 14166 14169 14172 14175 14177 14180 14182 14184 14187 14190 14193 14196 14199 14201 14204 14207 14210 14213 14216 14219 14222 14225 14228 14231 14233 14236 14239 14242 14245 14248 14251 14254 14257 14260 14263 14266 14269 14272 14275 14278 14281 14284 14287 14290 14293 14296 14299 14302 14305 14308 14311 14314 14317 14320 14323 14326 14329 14332 14335 14338 14341 14344 14346 14349 14352 14355 14358 14361 14364 14367 14370 14373 14376 14379 14382 14385 14388 14391 14394 14396 14399 14402 14405 14408 14411 14414 14417 14420 14423 14425 14428 14431 14434 14437 14440 14443 14446 14448 14451 14454 14457 14460 14463 14466 14469 14472 14475 14478 14481 14484 14487 14490 14493 14496 14499 14502 14505 14508 14511 14513 14516 14519 14522 14525 14528 14531 14534 14537 14540 14543 14546 14549 14552 14555 14558 14561 14564 14566 14569 14572 14575 14578 14581 14584 14587 14590 14593 14596 14599 14602 14605 14608 14611 14614 14617 14620 14623 14626 14629 14632 14635 14638 14641 14644 14647 14650 14653 14656 14659 14662 14665 14668 14671 14674 14677 14680 14683 14686 14689 14692 14695 14698 14701 14704 14706 14709 14712 14715 14718 14721 14724 14727 14730 14733 14736 14739 14742 14745 14747 14750 14752 14755 14758 14761 14764 14767 14769 14772 14775 14778 14781 14784 14786 14788 14791 14794 14797 14800 14803 14806 14809 14812 14815 14818 14821 14824 14827 14830 14833 14836 14839 14841 14843 14846 14849 14852 14855 14858 14861 14863 14866 14868 14871 14874 14877 14880 14883 14886 14889 14892 14895 14897 14900 14903 14906 14909 14912 14915 14918 14921 14924 14927 14930 14933 14936 14939 14942 14945 14948 14951 14954 14956 14959 14962 14965 14968 14971 14973 14976 14978 14981 14984 14987 14990 14993 14996 14999 15001 15004 15007 15010 15012 15015 15018 15021 15023 15026 15029 15031 15034 15037 15040 15042 15045 15048 15050 15053 15055 15058 15060 15063 15066 15068 15071 15074 15077 15080 15083 15086 15089 15092 15095 15098 15101 15104 15107 15110 15113 15116 15119 15122 15125 15128 15131 15133 15136 15138 15141 15144 15147 15150 15153 15156 15159 15161 15164 15167 15170 15173 15176 15179 15182 15185 15188 15191 15194 15197 15200 15203 15206 15209 15212 15215 15218 15220 15223 15226 15229 15231 15234 15237 15240 15243 15246 15249 15252 15255 15258 15261 15263 15266 15269 15272 15275 15277 15280 15283 15285 15288 15291 15294 15297 15300 15302 15305 15308 15311 15314 15316 15319 15321 15324 15327 15329 15332 15335 15338 15341 15344 15347 15350 15352 15355 15358 15360 15363 15365 15368 15371 15374 15377 15380 15383 15386 15389 15392 15395 15398 15401 15404 15407 15410 15413 15416 15419 15421 15424 15427 15430 15433 15436 15439 15442 15444 15447 15450 15453 15456 15458 15461 15464 15467 15470 15473 15476 15479 15482 15485 15487 15490 15493 15496 15499 15501 15504 15507 15510 15513 15516 15519 15522 15525 15528 15531 15534 15537 15539 15542 15545 15548 15551 15554 15557 15560 15563 15566 15568 15571 15574 15577 15580 15583 15586 15589 15592 15595 15598 15601 15604 15606 15609 15612 15614 15617 15620 15623 15626 15629 15632 15635 15638 15641 15643 15645 15647 15650 15653 15656 15658 15661 15664 15667 15670 15673 15676 15678 15681 15684 15687 15689 15691 15694 15697 15700 15703 15706 15709 15712 15715 15718 15721 15724 15727 15729 15732 15735 15738 15740 15742 15745 15748 15751 15754 15757 15759 15762 15765 15768 15771 15773 15776 15779 15782 15785 15787 15790 15793 15796 15799 15802 15804 15806 15808 15811 15814 15817 15819 15821 15824 15827 15830 15833 15836 15839 15842 15845 15848 15850 15852 15855 15858 15861 15863 15865 15868 15871 15874 15877 15880 15883 15886 15889 15892 15895 15898 15901 15904 15907 15910 15913 15916 15918 15921 15923 15926 15929 15932 15935 15937 15940 15943 15946 15949 15952 15955 15958 15960 15963 15966 15969 15972 15975 15978 15981 15983 15986 15989 15991 15994 15996 15998 16001 16004 16007 16009 16011 16014 16017 16020 16022 16024 16027 16030 16033 16036 16039 16042 16045 16048 16051 16054 16056 16059 16062 16065 16068 16071 16074 16077 16079 16082 16085 16088 16091 16093 16096 16099 16102 16105 16108 16111 16113 16116 16119 16122 16125 16127 16130 16132 16135 16138 16141 16144 16147 16150 16153 16156 16159 16162 16165 16168 16171 16174 16176 16179 16182 16185 16188 16191 16194 16197 16199 16202 16205 16208 16211 16213 16216 16219 16222 16224 16227 16230 16233 16236 16239 16242 16245 16248 16251 16254 16257 16260 16263 16266 16269 16272 16275 16278 16281 16284 16287 16290 16292 16295 16297 16300 16303 16305 16308 16311 16314 16316 16319 16322 16324 16327 16330 16333 16336 16339 16342 16345 16348 16351 16354 16357 16360 16363 16366 16369 16372 16375 16378 16381 16384 16386 16388 16390 16393 16396 16399 16402 16405 16408 16411 16414 16417 16420 16423 16426 16429 16431 16434 16437 16440 16442 16445 16448 16450 16453 16456 16459 16462 16464 16467 16470 16472 16474 16477 16480 16483 16486 16488 16491 16494 16496 16499 16501 16504 16507 16510 16513 16516 16519 16522 16525 16528 16531 16534 16537 16539 16542 16545 16548 16551 16554 16557 16560 16562 16565 16567 16570 16573 16576 16579 16581 16584 16587 16590 16593 16596 16599 16602 16605 16608 16611 16614 16617 16620 16623 16626 16629 16632 16635 16638 16641 16644 16647 16650 16652 16655 16658 16661 16663 16666 16668 16671 16674 16677 16679 16682 16685 16688 16691 16694 16696 16699 16702 16704 16707 16710 16713 16716 16719 16722 16725 16728 16730 16733 16736 16739 16742 16745 16747 16750 16753 16756 16759 16762 16765 16768 16771 16774 16777 16780 16783 16786 16789 16791 16794 16797 16800 16803 16805 16808 16811 16814 16817 16820 16823 16826 16829 16832 16835 16838 16841 16843 16846 16849 16852 16855 16857 16860 16863 16866 16869 16872 16875 16878 16881 16884 16887 16890 16893 16896 16898 16901 16904 16906 16909 16912 16915 16917 16920 16923 16926 16929 16932 16935 16938 16941 16944 16947 16950 16953 16956 16958 16960 16963 16965 16967 16970 16973 16976 16978 16980 16983 16985 16988 16990 16993 16995 16998 17001 17004 17006 17009 17011 17014 17017 17020 17023 17025 17028 17031 17034 17037 17040 17043 17045 17048 17051 17054 17057 17060 17062 17065 17068 17070 17073 17076 17078 17081 17084 17086 17089 17092 17095 17098 17101 17103 17106 17108 17111 17114 17117 17120 17123 17126 17129 17132 17135 17138 17141 17144 17147 17149 17152 17155 17157 17160 17163 17166 17169 17172 17175 17178 17181 17184 17186 17189 17192 17195 17198 17201 17204 17207 17210 17213 17215 17218 17221 17223 17226 17228 17231 17234 17237 17240 17243 17246 17249 17251 17254 17257 17260 17263 17266 17269 17272 17274 17277 17279 17282 17285 17287 17290 17293 17296 17298 17301 17304 17307 17310 17312 17315 17318 17321 17324 17327 17329 17332 17335 17338 17341 17344 17347 17350 17353 17356 17359 17362 17365 17368 17371 17374 17377 17380 17383 17386 17389 17392 17394 17397 17400 17402 17405 17408 17411 17413 17416 17419 17422 17425 17427 17430 17433 17436 17439 17442 17445 17448 17451 17454 17457 17460 17463 17466 17469 17472 17475 17478 17481 17484 17487 17490 17493 17496 17498 17501 17504 17507 17510 17513 17516 17518 17521 17524 17527 17530 17533 17536 17539 17542 17545 17548 17551 17554 17557 17559 17562 17564 17567 17570 17572 17575 17578 17581 17584 17586 17588 17591 17593 17596 17598 17601 17604 17607 17610 17613 17615 17618 17621 17623 17625 17628 17631 17634 17637 17640 17642 17645 17648 17650 17653 17656 17659 17662 17665 17668 17671 17674 17676 17678 17681 17684 17687 17689 17692 17694 17697 17700 17703 17706 17709 17711 17714 17716 17719 17722 17725 17728 17731 17733 17735 17738 17741 17744 17747 17749 17752 17755 17758 17761 17763 17766 17769 17772 17775 17778 17781 17784 17787 17790 17793 17796 17799 17802 17805 17808 17811 17814 17816 17819 17822 17824 17827 17830 17833 17835 17838 17841 17844 17847 17850 17853 17856 17859 17862 17865 17868 17871 17874 17877 17880 17883 17886 17889 17892 17894 17897 17900 17903 17906 17909 17912 17915 17918 17921 17924 17927 17930 17933 17936 17938 17940 17943 17946 17949 17951 17954 17957 17960 17963 17966 17968 17971 17974 17977 17980 17983 17986 17989 17992 17995 17998 18001 18003 18006 18009 18011 18014 18017 18020 18023 18026 18029 18032 18035 18038 18041 18043 18046 18049 18052 18054 18057 18059 18062 18064 18067 18070 18073 18075 18077 18080 18082 18085 18088 18090 18093 18096 18098 18100 18103 18106 18109 18111 18114 18117 18119 18122 18124 18127 18130 18133 18135 18138 18141 18143 18145 18148 18150 18153 18156 18158 18161 18163 18166 18169 18172 18175 18178 18181 18184 18187 18190 18192 18195 18198 18201 18204 18207 18209 18212 18215 18218 18221 18224 18227 18230 18233 18236 18239 18241 18244 18247 18250 18253 18255 18257 18260 18263 18265 18268 18270 18273 18276 18279 18282 18285 18287 18290 18293 18295 18298 18300 18303 18306 18309 18312 18315 18318 18321 18323 18326 18329 18332 18335 18338 18341 18344 18347 18350 18352 18355 18357 18360 18362 18365 18367 18370 18373 18376 18379 18381 18384 18387 18390 18393 18396 18398 18400 18403 18406 18409 18412 18415 18418 18420 18423 18426 18429 18432 18435 18437 18440 18443 18446 18449 18451 18454 18457 18459 18462 18464 18467 18470 18473 18475 18478 18480 18483 18486 18488 18490 18492 18495 18498 18501 18504 18507 18510 18512 18514 18516 18519 18522 18525 18528 18530 18533 18535 18538 18540 18543 18546 18549 18552 18555 18558 18560 18563 18566 18569 18572 18575 18578 18581 18584 18587 18590 18593 18596 18599 18602 18605 18608 18611 18614 18617 18620 18623 18626 18629 18632 18635 18638 18641 18644 18647 18650 18653 18656 18659 18662 18665 18668 18671 18674 18677 18680 18683 18686 18689 18692 18695 18698 18701 18704 18707 18709 18712 18715 18718 18720 18722 18725 18728 18731 18734 18737 18740 18743 18746 18749 18752 18755 18758 18761 18764 18767 18770 18773 18776 18779 18781 18784 18787 18790 18793 18796 18799 18802 18804 18807 18810 18812 18815 18818 18820 18823 18826 18828 18831 18833 18836 18839 18841 18844 18847 18850 18852 18855 18857 18860 18862 18864 18867 18870 18873 18875 18877 18880 18883 18885 18888 18891 18893 18896 18899 18902 18905 18908 18911 18914 18917 18920 18923 18926 18929 18931 18934 18937 18940 18943 18945 18948 18951 18954 18957 18959 18962 18965 18968 18971 18974 18977 18980 18983 18986 18988 18991 18993 18996 18999 19002 19005 19007 19010 19013 19016 19018 19021 19024 19027 19030 19033 19036 19038 19041 19044 19046 19049 19052 19055 19057 19060 19063 19066 19069 19072 19075 19078 19080 19083 19086 19089 19092 19095 19097 19100 19103 19106 19109 19112 19115 19118 19121 19124 19127 19130 19133 19136 19139 19142 19144 19147 19150 19153 19156 19159 19161 19164 19167 19169 19172 19174 19177 19180 19183 19186 19188 19190 19193 19196 19198 19201 19204 19207 19210 19213 19216 19219 19222 19225 19228 19231 19233 19236 19238 19241 19244 19247 19250 19253 19255 19258 19261 19264 19266 19269 19272 19275 19277 19280 19283 19286 19289 19292 19295 19298 19301 19304 19307 19310 19313 19316 19318 19321 19324 19327 19330 19333 19336 19339 19341 19344 19346 19349 19352 19355 19358 19361 19364 19367 19369 19371 19374 19377 19380 19383 19386 19389 19392 19395 19398 19400 19403 19406 19409 19412 19415 19418 19420 19422 19424 19427 19429 19432 19435 19438 19441 19444 19447 19449 19452 19454 19457 19459 19462 19464 19467 19470 19473 19476 19479 19482 19484 19487 19490 19492 19495 19498 19501 19504 19506 19509 19512 19515 19518 19521 19524 19527 19530 19533 19536 19539 19542 19545 19548 19551 19554 19557 19560 19563 19566 19569 19571 19574 19576 19579 19582 19585 19588 19591 19594 19597 19600 19603 19606 19609 19612 19615 19618 19621 19624 19627 19630 19633 19636 19639 19642 19645 19648 19651 19654 19657 19660 19663 19666 19669 19672 19675 19678 19681 19684 19687 19690 19693 19696 19699 19702 19705 19708 19711 19714 19717 19720 19723 19726 19729 19732 19735 19738 19741 19744 19747 19750 19752 19755 19758 19761 19764 19767 19770 19773 19776 19779 19782 19785 19788 19791 19794 19797 19800 19803 19806 19809 19812 19815 19818 19821 19823 19826 19829 19832 19834 19837 19839 19842 19845 19848 19851 19854 19857 19860 19863 19866 19869 19872 19875 19878 19881 19884 19887 19890 19893 19896 19899 19902 19905 19908 19911 19914 19917 19920 19923 19926 19929 19932 19935 19938 19941 19944 19947 19950 19953 19956 19958 19961 19963 19966 19969 19972 19975 19978 19981 19984 19987 19990 19993 19996 19999 20002 20005 20008 20011 20014 20017 20020 20023 20026 20029 20032 20035 20038 20040 20043 20046 20049 20052 20055 20058 20061 20064 20067 20070 20073 20076 20079 20082 20085 20088 20091 20094 20097 20100 20103 20106 20109 20112 20115 20118 20121 20124 20127 20130 20133 20136 20139 20142 20145 20148 20151 20154 20157 20160 20163 20166 20169 20172 20175 20178 20181 20184 20187 20190 20193 20196 20199 20202 20205 20208 20211 20214 20217 20220 20223 20226 20229 20232 20235 20238 20241 20244 20247 20249 20252 20255 20258 20261 20264 20267 20270 20272 20275 20278 20280 20283 20286 20289 20292 20295 20298 20301 20304 20307 20310 20313 20316 20319 20322 20325 20328 20331 20334 20337 20340 20342 20345 20348 20351 20354 20357 20360 20363 20366 20369 20372 20375 20378 20381 20384 20387 20390 20393 20396 20399 20402 20405 20408 20411 20414 20417 20420 20423 20426 20429 20432 20435 20438 20440 20443 20446 20449 20452 20454 20457 20459 20462 20465 20468 20471 20474 20477 20479 20482 20485 20487 20490 20493 20495 20497 20500 20502 20505 20508 20511 20513 20516 20519 20522 20525 20528 20531 20534 20537 20540 20543 20546 20549 20552 20555 20558 20560 20563 20566 20569 20572 20575 20578 20581 20584 20586 20589 20592 20595 20598 20601 20604 20607 20610 20613 20616 20619 20622 20625 20628 20631 20634 20637 20640 20643 20646 20649 20652 20655 20658 20661 20664 20667 20670 20673 20676 20679 20682 20685 20688 20691 20694 20696 20699 20702 20705 20708 20711 20714 20717 20719 20722 20725 20727 20730 20732 20735 20738 20741 20744 20747 20750 20753 20756 20759 20762 20765 20767 20769 20772 20775 20777 20780 20783 20785 20787 20790 20793 20796 20799 20801 20804 20806 20809 20812 20814 20817 20819 20821 20824 20826 20829 20831 20834 20837 20840 20843 20846 20849 20852 20854 20857 20859 20862 20865 20868 20871 20874 20876 20879 20882 20885 20887 20890 20893 20895 20898 20900 20903 20905 20907 20910 20913 20915 20918 20921 20924 20927 20930 20933 20935 20938 20941 20944 20947 20950 20953 20956 20959 20961 20963 20966 20969 20972 20974 20977 20980 20983 20986 20988 20990 20993 20995 20998 21001 21004 21006 21009 21012 21015 21018 21021 21024 21027 21030 21033 21036 21039 21042 21045 21048 21051 21054 21056 21059 21062 21065 21068 21071 21074 21076 21079 21081 21084 21087 21090 21092 21094 21097 21100 21102 21105 21107 21110 21113 21116 21119 21122 21125 21128 21131 21134 21137 21140 21143 21145 21147 21150 21153 21156 21159 21162 21164 21167 21170 21173 21176 21179 21182 21185 21187 21190 21193 21196 21198 21201 21203 21206 21209 21211 21214 21217 21220 21223 21226 21229 21232 21235 21238 21240 21243 21246 21248 21251 21254 21257 21260 21263 21266 21269 21272 21275 21278 21281 21283 21286 21289 21292 21295 21298 21301 21304 21307 21310 21313 21316 21319 21322 21325 21328 21331 21334 21337 21340 21343 21346 21349 21351 21354 21357 21360 21363 21366 21369 21372 21375 21378 21381 21384 21386 21389 21392 21395 21398 21400 21403 21406 21409 21412 21415 21418 21421 21424 21427 21430 21433 21435 21438 21441 21444 21447 21450 21452 21455 21457 21460 21463 21466 21469 21472 21475 21478 21481 21484 21486 21489 21492 21494 21497 21500 21502 21505 21508 21511 21514 21516 21519 21522 21525 21528 21531 21534 21537 21540 21543 21546 21549 21552 21555 21558 21561 21564 21567 21570 21573 21576 21579 21581 21584 21587 21589 21592 21594 21597 21600 21603 21606 21609 21612 21615 21618 21621 21623 21626 21629 21631 21633 21635 21638 21641 21644 21646 21649 21652 21655 21658 21661 21664 21666 21668 21671 21673 21676 21679 21681 21684 21687 21689 21692 21695 21698 21701 21703 21706 21709 21712 21715 21717 21720 21723 21726 21729 21732 21735 21738 21741 21744 21747 21750 21752 21755 21758 21760 21763 21765 21767 21770 21773 21775 21777 21779 21782 21785 21788 21791 21794 21797 21800 21803 21806 21809 21811 21814 21817 21820 21823 21826 21829 21832 21835 21838 21840 21843 21846 21849 21852 21855 21857 21860 21863 21866 21869 21872 21875 21878 21881 21884 21887 21889 21892 21895 21898 21901 21904 21907 21910 21913 21916 21919 21922 21925 21928 21931 21934 21937 21940 21943 21946 21949 21952 21955 21958 21961 21963 21965 21968 21971 21974 21977 21980 21983 21986 21989 21991 21994 21997 22000 22003 22006 22009 22012 22015 22018 22021 22024 22027 22030 22033 22036 22039 22041 22044 22047 22050 22053 22055 22058 22061 22064 22066 22068 22071 22074 22077 22080 22083 22086 22088 22091 22093 22096 22099 22102 22104 22107 22110 22113 22116 22119 22122 22125 22128 22130 22133 22135 22137 22140 22143 22146 22149 22152 22155 22158 22161 22164 22167 22170 22173 22175 22178 22181 22183 22186 22188 22191 22194 22197 22200 22203 22206 22209 22212 22215 22218 22221 22224 22227 22230 22233 22236 22239 22242 22245 22248 22251 22254 22257 22259 22262 22265 22268 22271 22274 22276 22279 22282 22285 22288 22291 22294 22297 22300 22303 22306 22308 22311 22314 22317 22319 22322 22325 22328 22331 22334 22337 22340 22343 22346 22349 22352 22354 22356 22359 22362 22365 22368 22371 22373 22376 22379 22382 22384 22387 22390 22393 22396 22399 22402 22405 22408 22411 22414 22416 22419 22422 22425 22428 22431 22434 22437 22439 22441 22444 22446 22449 22452 22455 22458 22460 22463 22466 22469 22472 22475 22477 22480 22483 22486 22489 22492 22495 22498 22501 22504 22507 22509 22512 22515 22518 22521 22524 22527 22530 22533 22536 22539 22541 22544 22547 22550 22553 22556 22559 22562 22564 22567 22570 22573 22576 22579 22582 22585 22588 22591 22594 22597 22600 22603 22606 22609 22612 22615 22618 22621 22624 22626 22629 22632 22635 22637 22640 22643 22646 22649 22652 22655 22658 22661 22664 22667 22670 22673 22676 22678 22681 22683 22685 22688 22690 22692 22695 22698 22701 22704 22707 22709 22712 22715 22718 22721 22724 22727 22730 22732 22735 22738 22740 22743 22746 22748 22751 22754 22756 22759 22762 22764 22766 22768 22770 22773 22776 22778 22780 22783 22786 22788 22791 22794 22796 22799 22802 22805 22808 22810 22812 22814 22816 22819 22822 22825 22827 22830 22832 22835 22837 22840 22842 22844 22847 22850 22853 22856 22859 22862 22865 22867 22870 22873 22875 22878 22880 22883 22886 22888 22890 22893 22896 22899 22902 22905 22908 22911 22914 22917 22920 22923 22926 22929 22932 22935 22938 22941 22943 22946 22949 22952 22955 22958 22961 22964 22967 22970 22973 22976 22979 22982 22985 22988 22991 22994 22996 22999 23002 23005 23008 23011 23014 23017 23020 23023 23026 23029 23032 23035 23038 23040 23042 23045 23048 23051 23054 23056 23059 23061 23064 23067 23070 23072 23074 23077 23079 23082 23085 23088 23091 23094 23097 23100 23103 23106 23109 23112 23115 23118 23121 23124 23127 23130 23133 23136 23138 23141 23143 23146 23149 23152 23155 23157 23160 23163 23166 23169 23172 23175 23178 23181 23184 23187 23190 23193 23196 23199 23202 23205 23208 23211 23214 23217 23219 23222 23225 23228 23231 23234 23237 23240 23243 23246 23249 23252 23255 23258 23261 23263 23266 23269 23272 23275 23278 23281 23284 23287 23290 23293 23296 23299 23302 23305 23308 23311 23314 23317 23320 23323 23326 23329 23332 23335 23338 23341 23344 23347 23350 23353 23356 23359 23362 23365 23368 23371 23374 23377 23380 23383 23386 23389 23392 23395 23398 23401 23404 23407 23410 23413 23416 23419 23422 23425 23428 23431 23434 23437 23440 23443 23446 23449 23451 23454 23457 23460 23462 23465 23468 23470 23473 23476 23479 23482 23485 23488 23491 23494 23497 23500 23503 23505 23508 23511 23514 23517 23519 23522 23525 23528 23531 23534 23537 23540 23543 23546 23549 23552 23555 23558 23561 23564 23567 23570 23573 23576 23579 23582 23585 23588 23591 23594 23597 23600 23603 23606 23608 23611 23614 23617 23620 23622 23625 23628 23631 23634 23637 23640 23643 23646 23649 23652 23654 23657 23660 23662 23665 23668 23671 23674 23677 23680 23683 23686 23689 23692 23695 23698 23700 23703 23706 23709 23712 23715 23718 23721 23724 23726 23729 23732 23735 23738 23741 23744 23747 23750 23753 23756 23758 23761 23763 23766 23769 23772 23774 23777 23780 23783 23785 23788 23790 23793 23795 23797 23800 23803 23806 23809 23812 23814 23817 23820 23823 23826 23829 23832 23835 23838 23841 23844 23847 23850 23853 23856 23859 23862 23865 23868 23871 23874 23877 23880 23883 23885 23888 23891 23893 23896 23899 23902 23904 23907 23909 23912 23915 23918 23921 23924 23927 23930 23933 23936 23939 23942 23945 23947 23950 23953 23956 23959 23962 23965 23968 23971 23974 23977 23980 23983 23986 23989 23992 23995 23998 24001 24004 24006 24009 24012 24015 24018 24021 24024 24027 24030 24033 24036 24039 24042 24045 24048 24051 24054 24057 24060 24063 24066 24069 24072 24075 24078 24081 24084 24087 24089 24092 24095 24098 24101 24104 24107 24110 24113 24116 24119 24122 24125 24128 24131 24134 24137 24140 24143 24145 24148 24151 24154 24156 24159 24162 24165 24167 24169 24172 24175 24178 24181 24184 24186 24189 24192 24195 24198 24201 24204 24207 24209 24211 24214 24217 24220 24222 24225 24227 24230 24233 24236 24239 24242 24245 24247 24249 24252 24255 24257 24259 24262 24265 24268 24271 24274 24277 24280 24283 24286 24289 24291 24294 24297 24300 24303 24306 24309 24311 24314 24317 24320 24323 24326 24329 24332 24335 24338 24341 24344 24347 24350 24353 24356 24359 24362 24364 24367 24370 24373 24376 24378 24381 24384 24386 24389 24392 24395 24398 24401 24404 24407 24410 24413 24416 24419 24421 24424 24426 24429 24431 24434 24437 24440 24443 24446 24449 24452 24455 24458 24461 24464 24467 24470 24473 24476 24479 24482 24485 24488 24490 24493 24496 24498 24501 24504 24507 24509 24512 24515 24517 24520 24523 24526 24529 24531 24534 24537 24540 24543 24546 24549 24552 24554 24557 24560 24563 24566 24569 24572 24575 24578 24581 24584 24587 24590 24593 24596 24599 24602 24605 24608 24611 24614 24617 24620 24623 24626 24629 24632 24635 24638 24641 24643 24646 24649 24652 24655 24658 24661 24664 24667 24670 24673 24676 24679 24682 24685 24688 24691 24694 24697 24700 24703 24706 24709 24712 24715 24718 24721 24724 24727 24730 24733 24736 24739 24742 24745 24748 24751 24754 24756 24758 24760 24763 24766 24768 24771 24774 24777 24779 24782 24784 24787 24790 24793 24796 24799 24801 24804 24807 24810 24813 24816 24819 24822 24824 24827 24830 24833 24836 24839 24842 24845 24848 24851 24854 24857 24860 24863 24866 24868 24871 24874 24877 24879 24882 24884 24887 24890 24893 24896 24899 24902 24905 24908 24910 24913 24916 24919 24922 24925 24928 24931 24933 24936 24938 24941 24943 24946 24949 24952 24955 24958 24961 24964 24967 24969 24972 24975 24977 24979 24981 24984 24986 24989 24991 24994 24997 25000 25003 25006 25009 25012 25015 25018 25021 25024 25027 25030 25033 25036 25039 25042 25045 25048 25051 25054 25056 25059 25062 25064 25066 25069 25072 25075 25077 25080 25083 25086 25089 25092 25095 25098 25100 25103 25105 25108 25111 25114 25117 25119 25122 25125 25127 25130 25133 25136 25139 25142 25145 25148 25150 25153 25156 25158 25161 25164 25167 25169 25172 25175 25178 25181 25184 25187 25190 25193 25196 25198 25201 25204 25207 25210 25213 25216 25218 25221 25224 25226 25229 25232 25235 25238 25240 25243 25246 25249 25252 25255 25258 25260 25262 25264 25267 25270 25273 25275 25278 25280 25283 25285 25288 25291 25294 25297 25300 25303 25305 25308 25311 25314 25316 25319 25322 25325 25327 25330 25333 25336 25339 25342 25345 25348 25351 25354 25357 25360 25363 25365 25368 25371 25374 25376 25379 25382 25385 25388 25391 25393 25395 25398 25401 25403 25406 25408 25410 25412 25415 25418 25421 25423 25426 25429 25432 25435 25438 25440 25443 25446 25449 25452 25455 25458 25461 25464 25467 25470 25473 25476 25478 25481 25484 25487 25490 25493 25496 25498 25501 25504 25506 25509 25512 25514 25517 25520 25523 25526 25529 25531 25534 25537 25539 25542 25544 25547 25549 25552 25555 25558 25561 25564 25567 25569 25572 25575 25578 25581 25583 25586 25589 25592 25595 25598 25601 25604 25607 25610 25613 25615 25618 25621 25624 25627 25630 25632 25635 25638 25641 25644 25647 25650 25653 25656 25659 25662 25665 25668 25671 25674 25677 25679 25682 25685 25688 25691 25694 25696 25699 25701 25704 25707 25710 25713 25716 25718 25721 25724 25727 25730 25733 25735 25738 25741 25744 25747 25750 25752 25755 25758 25761 25764 25767 25770 25773 25776 25779 25782 25784 25787 25789 25792 25794 25797 25800 25802 25805 25808 25811 25814 25817 25820 25823 25826 25828 25831 25833 25836 25839 25842 25845 25848 25851 25854 25857 25860 25863 25865 25868 25871 25874 25877 25880 25883 25886 25889 25892 25895 25897 25900 25903 25906 25908 25911 25913 25915 25918 25921 25924 25926 25929 25932 25935 25937 25939 25942 25945 25948 25951 25954 25957 25960 25963 25966 25969 25971 25973 25976 25979 25982 25985 25988 25990 25993 25996 25999 26002 26005 26008 26011 26014 26017 26020 26022 26025 26027 26029 26031 26034 26037 26040 26043 26046 26049 26052 26055 26057 26060 26063 26066 26069 26072 26075 26078 26081 26084 26087 26090 26093 26096 26099 26102 26105 26108 26111 26114 26117 26120 26123 26126 26129 26132 26135 26138 26141 26144 26146 26149 26152 26155 26158 26160 26163 26166 26169 26172 26175 26178 26181 26184 26186 26189 26192 26195 26198 26201 26204 26207 26210 26212 26215 26218 26221 26224 26227 26230 26233 26236 26239 26242 26245 26248 26251 26254 26257 26260 26263 26266 26269 26272 26275 26278 26281 26284 26287 26290 26292 26295 26298 26301 26304 26307 26310 26312 26315 26317 26320 26323 26325 26328 26331 26334 26336 26339 26341 26344 26347 26350 26352 26355 26358 26361 26363 26366 26369 26372 26375 26378 26381 26383 26386 26389 26392 26395 26398 26401 26404 26407 26410 26413 26416 26419 26422 26425 26428 26431 26434 26437 26440 26443 26446 26449 26452 26455 26458 26461 26464 26466 26469 26471 26474 26477 26480 26483 26485 26488 26491 26494 26497 26500 26503 26506 26509 26512 26515 26518 26521 26524 26526 26529 26532 26534 26537 26540 26542 26545 26548 26551 26554 26557 26559 26562 26565 26568 26571 26574 26577 26580 26583 26585 26588 26590 26593 26596 26599 26602 26605 26607 26609 26612 26615 26617 26620 26623 26626 26628 26631 26634 26637 26640 26643 26646 26649 26651 26654 26657 26660 26663 26666 26669 26672 26675 26678 26681 26684 26687 26690 26693 26696 26699 26701 26704 26707 26710 26713 26716 26718 26721 26723 26726 26729 26732 26735 26738 26741 26744 26747 26750 26753 26756 26759 26761 26764 26766 26769 26772 26775 26778 26781 26784 26786 26788 26791 26794 26797 26800 26803 26806 26809 26812 26815 26818 26821 26824 26827 26830 26833 26836 26839 26842 26845 26848 26851 26853 26856 26859 26861 26864 26867 26870 26873 26876 26878 26881 26884 26887 26890 26893 26896 26898 26901 26904 26907 26910 26913 26916 26919 26922 26925 26928 26931 26934 26937 26940 26943 26946 26948 26951 26954 26956 26959 26962 26965 26968 26970 26973 26976 26979 26982 26985 26988 26991 26994 26997 27000 27003 27005 27008 27011 27014 27017 27020 27023 27026 27029 27032 27035 27038 27041 27044 27047 27050 27053 27056 27059 27062 27064 27067 27070 27073 27076 27079 27082 27085 27088 27091 27094 27097 27100 27102 27105 27108 27111 27114 27117 27120 27123 27126 27129 27132 27135 27138 27141 27143 27145 27148 27151 27154 27157 27160 27163 27165 27168 27171 27174 27177 27180 27183 27186 27189 27192 27195 27198 27201 27204 27207 27210 27213 27216 27219 27222 27225 27228 27231 27234 27237 27240 27243 27246 27249 27252 27255 27258 27261 27264 27267 27270 27272 27275 27278 27281 27284 27287 27290 27293 27296 27298 27301 27304 27307 27310 27313 27316 27319 27322 27325 27328 27331 27334 27336 27339 27342 27345 27348 27350 27353 27355 27358 27361 27364 27367 27370 27373 27376 27379 27381 27384 27387 27390 27393 27396 27399 27402 27405 27408 27411 27413 27416 27419 27422 27424 27427 27430 27432 27435 27438 27441 27444 27446 27449 27452 27454 27457 27460 27463 27466 27469 27472 27475 27478 27480 27483 27486 27489 27491 27494 27497 27500 27503 27506 27509 27512 27514 27517 27519 27522 27524 27527 27529 27531 27534 27537 27540 27542 27544 27546 27549 27552 27554 27557 27560 27563 27565 27568 27571 27574 27577 27579 27582 27585 27588 27591 27594 27597 27600 27603 27606 27609 27612 27615 27618 27621 27624 27627 27630 27633 27636 27639 27642 27645 27648 27651 27654 27657 27660 27663 27666 27669 27672 27675 27678 27681 27684 27687 27690 27693 27695 27698 27701 27704 27707 27710 27713 27716 27719 27721 27724 27727 27730 27733 27735 27738 27741 27743 27746 27749 27751 27754 27757 27760 27763 27765 27768 27771 27774 27777 27780 27782 27785 27788 27791 27794 27797 27800 27803 27806 27809 27812 27815 27818 27821 27823 27825 27828 27831 27834 27836 27839 27842 27845 27848 27851 27854 27857 27860 27863 27866 27869 27872 27875 27878 27880 27883 27886 27889 27892 27895 27898 27900 27903 27906 27908 27911 27914 27917 27920 27923 27926 27929 27932 27935 27938 27940 27943 27946 27949 27952 27955 27957 27960 27963 27966 27969 27972 27975 27978 27981 27984 27987 27989 27992 27995 27998 28001 28004 28007 28010 28013 28016 28019 28022 28025 28028 28031 28034 28036 28039 28042 28045 28048 28051 28054 28057 28060 28063 28066 28069 28072 28075 28078 28081 28084 28087 28090 28093 28096 28099 28102 28105 28107 28110 28112 28115 28118 28121 28123 28126 28129 28132 28135 28138 28141 28144 28147 28150 28152 28155 28158 28161 28163 28166 28169 28172 28175 28178 28181 28184 28187 28190 28193 28196 28199 28202 28205 28208 28211 28213 28216 28219 28222 28225 28228 28230 28233 28236 28239 28241 28244 28246 28249 28252 28255 28258 28261 28264 28266 28269 28272 28275 28278 28281 28284 28287 28290 28293 28296 28299 28302 28305 28308 28311 28314 28317 28320 28323 28326 28329 28332 28335 28338 28341 28344 28347 28349 28352 28355 28357 28360 28363 28366 28369 28372 28375 28378 28380 28383 28386 28389 28392 28394 28397 28400 28402 28405 28408 28411 28414 28417 28420 28422 28425 28428 28431 28433 28436 28439 28442 28444 28447 28450 28453 28456 28459 28461 28464 28467 28470 28473 28476 28478 28481 28484 28487 28490 28493 28496 28499 28502 28504 28507 28510 28512 28515 28518 28521 28524 28526 28529 28532 28535 28538 28540 28543 28546 28549 28552 28554 28557 28560 28563 28565 28568 28570 28573 28576 28579 28582 28585 28588 28591 28594 28597 28600 28602 28605 28608 28611 28614 28617 28620 28623 28625 28627 28630 28633 28636 28639 28642 28644 28647 28650 28653 28656 28659 28661 28664 28667 28670 28672 28675 28678 28680 28683 28686 28688 28691 28694 28697 28699 28702 28705 28708 28711 28714 28717 28719 28722 28725 28728 28731 28734 28736 28739 28742 28745 28748 28751 28753 28756 28759 28762 28765 28768 28771 28773 28776 28779 28782 28785 28787 28790 28793 28796 28799 28802 28804 28807 28810 28813 28816 28819 28822 28825 28828 28831 28834 28836 28839 28842 28845 28848 28851 28854 28857 28859 28862 28865 28868 28871 28873 28875 28878 28881 28883 28886 28889 28892 28895 28898 28901 28904 28906 28909 28912 28915 28918 28921 28924 28927 28929 28932 28934 28937 28940 28942 28945 28948 28951 28954 28956 28959 28961 28964 28967 28970 28973 28976 28979 28982 28985 28988 28991 28993 28996 28999 29002 29005 29008 29010 29013 29016 29019 29021 29024 29027 29030 29033 29035 29038 29041 29043 29046 29049 29052 29055 29058 29060 29063 29065 29068 29070 29072 29075 29078 29081 29084 29086 29088 29091 29094 29097 29100 29103 29106 29109 29112 29115 29118 29121 29124 29127 29129 29132 29135 29138 29141 29144 29147 29149 29151 29154 29157 29160 29163 29166 29169 29172 29175 29178 29181 29184 29187 29190 29192 29195 29198 29201 29204 29207 29210 29213 29216 29219 29222 29225 29228 29231 29234 29237 29240 29243 29246 29249 29252 29255 29258 29261 29264 29267 29270 29273 29276 29279 29282 29285 29288 29291 29293 29296 29299 29301 29304 29307 29310 29313 29316 29319 29322 29324 29327 29330 29333 29335 29338 29341 29343 29346 29349 29352 29354 29356 29359 29362 29365 29368 29370 29372 29375 29378 29381 29384 29387 29390 29393 29396 29399 29402 29405 29408 29411 29414 29416 29419 29422 29424 29427 29430 29433 29435 29438 29441 29444 29447 29449 29452 29455 29457 29460 29463 29466 29469 29472 29475 29478 29481 29484 29487 29490 29492 29495 29498 29501 29504 29507 29510 29513 29515 29518 29521 29524 29527 29530 29533 29536 29539 29542 29545 29548 29551 29554 29557 29560 29563 29566 29569 29571 29574 29577 29580 29583 29586 29589 29591 29594 29596 29599 29602 29605 29608 29611 29613 29616 29619 29621 29624 29627 29630 29632 29635 29638 29641 29643 29646 29649 29652 29655 29658 29661 29664 29667 29670 29673 29676 29679 29682 29685 29687 29690 29693 29696 29699 29701 29703 29706 29709 29712 29715 29718 29721 29724 29727 29730 29733 29736 29739 29742 29745 29748 29751 29754 29757 29760 29762 29765 29768 29771 29774 29777 29780 29783 29786 29788 29791 29793 29796 29799 29802 29805 29808 29811 29814 29816 29819 29821 29824 29827 29830 29833 29836 29838 29841 29844 29847 29850 29853 29856 29858 29861 29864 29867 29870 29873 29875 29877 29880 29883 29886 29888 29890 29892 29895 29898 29901 29904 29907 29909 29912 29915 29918 29921 29924 29926 29929 29932 29935 29938 29940 29943 29945 29947 29950 29952 29954 29957 29960 29963 29965 29968 29971 29974 29976 29979 29982 29985 29987 29990 29993 29996 29998 30001 30004 30007 30010 30013 30016 30019 30022 30024 30027 30030 30033 30035 30038 30041 30044 30047 30050 30053 30055 30058 30061 30064 30067 30070 30073 30075 30078 30081 30084 30087 30090 30093 30096 30099 30102 30105 30108 30111 30114 30117 30119 30122 30124 30127 30130 30133 30135 30138 30141 30143 30146 30148 30151 30153 30156 30159 30161 30164 30167 30170 30173 30176 30179 30181 30184 30187 30190 30193 30195 30198 30201 30204 30207 30210 30213 30215 30218 30221 30224 30227 30230 30233 30236 30239 30242 30245 30247 30250 30253 30256 30259 30262 30265 30268 30271 30274 30277 30280 30283 30286 30289 30292 30295 30298 30301 30304 30306 30308 30311 30314 30317 30319 30322 30325 30327 30330 30333 30335 30338 30341 30343 30346 30349 30351 30353 30356 30359 30362 30365 30367 30370 30373 30376 30379 30382 30385 30388 30391 30394 30397 30400 30402 30404 30407 30410 30413 30415 30418 30420 30423 30425 30428 30431 30434 30437 30440 30442 30445 30448 30450 30453 30455 30458 30461 30463 30465 30467 30470 30473 30476 30479 30481 30484 30487 30489 30492 30494 30497 30500 30502 30505 30508 30511 30514 30517 30520 30523 30526 30528 30531 30533 30535 30538 30541 30544 30547 30550 30552 30554 30557 30560 30563 30565 30567 30570 30573 30576 30579 30582 30585 30588 30591 30593 30596 30598 30601 30604 30607 30610 30613 30616 30619 30622 30625 30628 30631 30634 30637 30640 30643 30646 30649 30652 30655 30658 30661 30664 30667 30670 30673 30676 30679 30682 30685 30687 30690 30693 30696 30699 30702 30705 30708 30711 30714 30717 30720 30723 30726 30729 30732 30734 30737 30740 30742 30745 30748 30751 30754 30757 30759 30762 30765 30768 30771 30774 30777 30780 30783 30786 30789 30792 30795 30798 30800 30803 30806 30809 30812 30815 30818 30821 30824 30827 30829 30832 30835 30837 30840 30843 30846 30849 30851 30853 30855 30858 30861 30864 30867 30870 30872 30875 30878 30881 
</DataArray>
<DataArray type="UInt32" Name="types" format="ascii">
5 5 3 5 5 5 5 3 5 5 5 5 5 5 5 5 5 5 5 5 3 5 5 5 5 3 5 5 5 5 5 5 5 3 5 5 5 5 5 5 5 5 3 5 5 5 5 5 5 5 5 5 5 5 3 3 5 5 5 5 5 5 5 5 3 5 5 5 5 5 5 5 5 5 5 5 5 5 5 5 5 5 5 5 5 5 5 3 5 5 5 5 5 5 5 5 5 5 5 3 5 5 5 3 5 5 5 5 5 5 5 5 5 5 5 5 5 5 5 5 5 5 5 5 5 5 5 5 5 5 5 5 5 5 5 5 5 5 5 5 5 5 5 5 5 5 5 5 5 3 5 3 5 5 5 5 5 5 5 5 5 5 5 5 5 5 5 5 5 5 5 5 5 5 5 5 5 5 3 5 5 3 5 3 5 5 5 5 5 5 5 5 5 5 5 5 5 5 3 5 3 5 5 5 5 5 5 5 3 5 3 5 5 5 5 5 5 3 5 5 3 5 5 5 5 5 5 3 3 5 5 3 5 3 5 3 3 5 5 5 3 5 5 5 5 5 5 5 5 5 5 5 5 5 3 5 5 5 5 5 5 5 3 5 5 5 5 5 5 5 3 5 5 5 5 3 5 5 5 5 5 5 3 5 5 5 3 5 5 5 5 5 5 5 3 5 5 5 5 5 5 3 5 5 5 5 5 5 3 5 5 5 5 5 5 5 3 5 5 5 5 5 5 5 5 5 5 5 5 5 5 5 5 5 5 5 5 5 3 3 5 5 5 5 5 3 5 5 5 5 5 5 5 3 5 3 5 5 5 3 5 5 5 3 5 3 5 5 5 5 5 5 5 3 5 5 5 5 5 5 5 3 5 5 5 3 5 5 5 5 5 5 5 5 5 5 5 5 5 5 5 5 5 5 5 5 5 5 5 5 5 5 5 5 5 5 5 5 3 5 5 5 5 5 5 5 5 5 5 5 5 5 5 5 5 5 5 5 5 5 5 5 5 5 5 5 5 5 5 5 5 3 5 5 5 5 5 5 5 5 5 5 5 5 5 5 5 5 5 5 5 5 3 5 5 5 5 5 5 5 3 5 5 5 5 5 3 5 5 3 5 3 5 5 5 5 3 5 5 3 5 5 5 5 5 5 3 5 5 5 5 5 5 5 5 5 5 5 5 5 5 5 5 5 5 5 3 5 5 5 5 5 5 5 5 5 5 5 3 3 5 5 5 5 5 5 5 5 5 5 5 5 5 5 5 5 5 5 5 5 5 3 5 3 3 5 5 3 5 5 5 5 5 5 5 5 5 5 5 5 5 3 5 5 5 5 5 5 5 3 3 5 5 5 5 5 5 5 5 3 3 5 5 5 3 5 5 5 5 5 5 5 5 5 5 5 5 5 5 5 5 5 5 5 5 5 5 5 5 5 5 5 5 5 5 5 5 5 5 5 3 5 5 3 5 5 5 5 3 5 5 5 3 5 5 5 3 5 5 3 5 5 5 5 5 5 5 5 5 5 5 5 5 5 5 5 5 5 5 5 5 3 5 5 5 3 5 5 5 5 5 3 5 5 5 5 5 5 3 5 5 5 5 5 5 5 5 5 5 5 5 5 5 5 5 5 5 3 5 5 5 5 5 5 5 5 5 5 5 5 5 5 5 5 5 5 5 5 5 3 5 5 5 5 5 5 5 5 5 5 5 5 5 5 5 3 5 5 5 5 5 5 5 5 5 5 5 5 5 5 5 5 5 5 3 5 5 5 5 5 5 5 3 5 5 5 5 5 5 5 5 5 5 5 5 5 5 5 5 5 5 5 5 5 3 5 5 5 5 5 5 5 5 5 3 5 5 5 5 5 5 5 5 3 5 5 5 5 5 5 5 5 5 5 5 5 5 5 5 5 5 5 5 3 5 5 5 5 5 3 5 5 5 3 5 5 5 5 5 5 3 5 5 5 5 5 5 5 5 5 5 3 5 5 5 5 5 5 5 5 5 5 5 5 3 5 3 5 5 5 5 5 5 5 3 5 3 5 5 5 5 5 5 5 5 5 5 5 5 5 5 5 5 5 5 5 5 5 5 5 5 5 5 5 5 5 5 5 5 5 5 5 5 5 5 5 5 5 5 5 5 5 3 3 5 5 3 5 5 5 5 5 5 5 5 5 5 5 5 5 5 5 5 3 5 5 5 5 3 5 5 3 5 5 5 5 5 5 3 5 3 5 5 3 5 5 5 5 5 5 5 5 5 5 3 5 5 5 5 5 3 3 5 5 5 5 3 5 5 3 5 3 5 5 5 5 5 3 5 5 3 5 5 5 5 5 5 5 5 5 5 5 5 3 5 5 5 5 5 5 5 5 5 5 5 5 5 5 5 3 5 3 5 3 3 5 3 5 5 3 5 5 5 5 5 5 3 5 3 5 5 3 5 5 5 3 5 5 3 5 5 5 5 5 3 5 5 3 5 5 5 5 5 3 5 3 5 5 3 5 5 3 5 5 5 5 5 5 5 5 3 5 5 5 5 5 5 5 5 5 5 3 5 5 5 5 3 5 5 3 5 5 5 5 5 3 5 5 5 5 5 3 5 3 5 5 5 5 5 5 3 5 5 5 5 5 5 5 5 3 3 3 5 5 5 5 3 5 3 5 5 5 3 3 5 5 5 3 5 5 5 3 5 3 5 3 3 5 3 5 5 5 5 3 5 5 5 3 5 3 5 3 5 5 5 5 5 5 5 3 5 5 5 5 3 5 5 5 5 5 5 5 5 3 5 3 3 5 5 5 3 5 5 5 5 3 3 5 5 3 3 5 5 5 5 5 3 5 5 5 5 5 5 5 5 3 5 3 5 5 5 5 5 5 5 5 5 5 5 5 5 5 5 5 5 3 5 5 5 5 5 5 5 5 5 5 5 5 5 5 5 5 5 5 5 5 5 5 5 5 5 3 5 3 5 5 5 5 5 3 3 5 5 5 5 3 3 5 3 5 5 3 5 5 3 5 5 5 5 3 3 5 5 5 5 5 5 5 5 3 5 5 3 5 5 5 3 5 5 3 5 5 5 5 5 5 3 5 5 5 5 5 5 3 5 5 5 5 5 3 5 5 3 3 5 5 3 5 5 3 5 5 5 5 5 5 5 5 5 5 5 5 3 5 3 5 5 3 5 5 5 5 5 5 3 5 5 5 3 3 3 5 5 5 3 3 5 3 3 5 5 3 5 5 3 5 3 5 3 5 5 5 3 3 5 5 3 3 3 3 5 5 5 3 3 5 5 3 3 3 5 3 3 5 5 3 5 3 3 5 3 5 5 3 5 3 3 5 5 5 5 3 3 5 5 3 5 5 5 3 5 5 5 5 5 5 5 5 5 5 5 5 5 5 5 5 5 5 5 5 5 5 5 5 5 5 5 5 5 5 5 5 5 5 5 5 5 5 5 5 5 5 5 5 5 5 5 5 5 5 5 5 5 5 5 5 5 5 3 5 3 5 5 5 5 5 5 5 5 5 5 5 5 5 5 3 5 5 5 5 5 5 5 5 5 5 3 5 5 5 5 5 5 5 5 5 5 5 5 5 5 5 5 5 5 5 5 5 5 5 5 5 5 5 5 5 5 5 5 5 5 5 5 5 5 5 5 5 5 5 5 5 5 3 5 5 5 3 5 3 5 5 5 5 5 3 5 3 5 5 5 5 5 5 5 5 5 5 5 5 5 5 5 5 5 5 5 5 5 5 5 5 5 3 5 5 5 5 5 5 3 5 3 5 5 5 3 5 5 3 5 5 5 5 5 5 5 5 5 5 5 5 5 5 5 5 5 5 5 5 5 5 5 5 5 5 5 5 5 5 5 5 5 5 5 5 5 3 5 3 5 5 5 5 5 5 5 5 5 5 3 5 5 5 5 5 5 5 5 5 5 5 5 5 5 5 5 5 3 5 5 5 3 3 5 3 5 5 5 5 5 5 5 5 3 5 5 5 5 3 5 5 5 5 5 5 5 3 5 5 3 5 3 5 5 3 5 5 3 3 5 5 5 5 5 5 5 5 5 5 5 5 5 5 5 3 5 3 5 5 5 3 5 3 5 5 5 5 5 5 5 5 5 5 5 5 3 5 3 5 5 5 5 5 5 5 5 3 5 5 3 5 5 5 3 3 5 5 5 5 5 5 5 5 5 5 5 5 5 5 5 5 5 5 5 5 5 3 5 5 5 5 5 3 5 3 5 5 5 5 3 5 5 3 5 5 5 5 5 3 5 5 5 5 3 5 5 5 5 5 5 5 3 5 5 5 3 5 5 5 5 5 5 5 5 5 5 5 3 5 5 5 5 5 5 5 5 3 5 5 5 5 5 5 3 5 5 5 5 5 5 3 5 5 5 5 5 5 5 5 5 5 5 3 5 5 5 3 5 5 5 3 5 3 5 5 5 5 5 5 3 5 5 5 5 5 5 5 5 5 5 5 5 5 5 5 3 5 5 5 5 5 3 5 5 5 5 5 5 5 5 3 5 5 5 5 5 5 5 5 5 5 5 5 5 5 5 5 3 5 5 5 5 3 5 5 5 5 5 5 5 5 5 5 5 5 5 5 5 5 5 5 5 5 5 5 5 5 5 5 3 5 5 5 3 5 3 5 5 5 5 3 5 3 5 5 5 5 5 3 5 5 5 5 5 5 5 5 5 3 5 5 5 5 5 5 5 5 5 5 5 5 5 5 5 5 5 5 5 5 5 5 5 5 3 3 5 5 5 5 5 3 5 5 5 3 5 5 5 3 5 5 3 5 3 5 5 5 5 3 5 5 5 5 3 3 5 5 5 5 5 5 5 5 5 5 5 5 3 5 5 5 5 3 5 5 5 5 5 3 5 5 3 5 5 5 5 5 5 5 5 5 5 5 5 5 5 5 5 3 5 5 3 5 5 5 3 5 5 5 5 5 5 5 5 5 5 5 3 5 5 5 5 5 5 5 5 5 5 5 5 5 5 5 5 3 5 5 3 5 3 5 5 3 5 3 5 3 5 5 5 5 5 5 5 5 5 5 5 5 5 3 5 3 3 5 5 3 3 5 5 3 3 5 5 5 3 5 3 5 5 3 5 5 5 5 3 3 5 3 5 5 3 3 5 5 3 5 5 5 3 5 5 5 3 3 3 5 5 3 5 3 3 5 5 5 5 5 5 5 5 5 5 5 3 3 5 3 5 3 5 3 5 5 5 3 5 5 5 5 5 3 5 5 5 5 5 5 5 5 5 5 5 5 5 5 5 5 5 5 5 5 5 5 5 5 3 5 5 5 5 5 5 5 5 5 5 5 5 5 5 5 5 5 5 3 5 5 5 5 5 5 5 5 5 5 5 3 5 5 5 5 5 3 5 5 5 5 5 5 5 5 5 5 5 5 5 5 3 5 5 5 5 5 5 5 5 5 5 5 5 5 5 3 5 3 5 5 5 5 3 5 5 5 5 5 5 5 5 5 5 5 5 3 5 3 5 5 5 5 3 5 5 5 5 5 5 5 3 5 5 5 5 5 5 5 3 5 5 5 3 5 3 5 5 5 5 5 5 5 5 5 3 5 5 5 5 5 5 5 5 5 5 5 5 5 5 5 5 5 5 5 5 5 5 5 5 5 5 5 5 5 5 5 5 5 5 5 5 5 5 5 5 5 5 5 3 5 5 3 5 5 5 5 5 5 5 5 5 5 3 5 5 5 5 5 3 5 5 3 5 5 5 5 5 5 3 5 5 5 5 3 5 5 3 5 3 5 5 5 5 5 5 5 5 5 5 5 3 5 3 5 5 5 5 3 5 5 5 5 5 5 5 5 5 5 5 5 5 5 5 5 5 5 5 5 5 3 5 5 5 5 3 5 5 5 5 5 5 5 3 5 5 5 5 5 3 5 5 5 3 5 5 5 3 5 5 3 5 5 5 3 5 5 3 5 5 5 5 5 5 5 5 5 5 5 5 5 5 5 5 5 5 5 5 5 5 5 5 5 5 5 5 5 5 5 3 5 5 5 5 5 5 5 5 5 5 5 3 5 5 5 5 5 5 5 5 5 5 5 5 5 5 5 3 3 5 5 5 3 5 5 5 5 3 5 5 3 5 5 5 5 5 5 5 5 5 5 5 5 5 3 3 5 5 5 5 5 5 5 5 5 5 5 3 5 5 3 5 5 5 5 5 5 5 5 5 5 5 5 5 5 5 5 5 5 5 3 5 5 5 3 5 5 5 5 5 3 5 5 5 5 5 5 5 5 5 5 5 5 5 5 5 5 5 5 5 5 3 5 5 3 5 5 5 5 5 5 5 5 5 5 5 5 5 5 5 5 5 5 5 3 5 5 5 5 5 5 5 5 5 5 5 5 5 5 5 5 5 5 5 5 5 5 5 5 5 5 5 5 5 5 5 5 3 5 5 5 5 5 5 3 5 5 5 5 5 3 5 5 5 5 3 5 5 5 5 5 5 5 5 5 5 5 5 5 5 5 5 5 5 5 5 5 5 3 5 5 5 5 5 5 5 3 5 5 3 5 5 3 5 5 5 5 5 5 3 5 5 5 5 5 5 5 5 5 5 3 5 3 5 5 5 5 5 5 5 5 3 5 5 3 5 5 5 3 5 5 5 3 5 5 5 3 3 5 5 3 5 5 3 5 5 3 5 5 5 5 5 5 5 5 5 3 5 5 5 3 5 5 5 3 5 5 5 3 5 3 5 5 3 5 5 5 5 5 5 5 5 3 5 5 3 5 5 5 5 5 5 5 5 5 5 5 5 5 3 5 3 5 5 5 3 3 5 3 5 5 5 5 3 5 3 5 5 5 5 5 5 5 5 5 3 5 5 5 5 5 5 5 5 5 5 5 5 5 5 5 5 5 5 5 5 5 5 5 5 5 5 5 5 3 5 5 5 5 5 5 3 5 5 5 5 5 5 3 5 5 5 5 5 5 3 5 5 5 3 5 5 5 3 5 5 3 5 5 5 5 5 5 3 5 5 5 3 3 5 5 5 5 5 5 5 5 5 5 5 5 5 5 5 5 5 3 5 5 5 5 5 5 5 3 5 5 5 5 5 3 5 5 5 5 5 3 5 5 3 5 5 5 5 3 5 5 5 5 5 5 3 5 3 5 3 3 5 3 5 5 5 3 5 5 5 5 5 3 5 5 5 3 5 5 5 5 3 3 3 5 5 5 5 3 3 5 3 5 5 5 5 5 5 3 5 3 5 5 3 5 5 5 3 5 5 3 5 5 5 5 5 5 5 5 5 5 5 5 3 5 5 5 5 3 5 5 5 5 3 5 5 5 5 5 5 5 5 5 3 3 3 5 5 5 3 3 5 5 3 5 3 5 5 5 5 5 5 5 3 5 5 5 5 5 5 5 5 5 5 5 5 5 5 5 5 3 5 5 5 5 5 5 5 5 5 3 5 5 3 5 3 5 3 5 5 3 5 5 5 3 3 5 5 3 5 5 5 3 5 5 5 5 3 5 5 5 5 5 5 5 5 5 5 5 3 3 5 5 5 5 5 5 5 5 5 5 5 5 5 5 5 5 5 5 5 5 5 5 5 5 5 5 5 5 5 5 5 5 3 5 5 5 5 5 5 5 5 5 5 5 5 5 5 5 5 5 5 5 3 5 5 5 5 5 5 3 3 5 5 3 3 5 5 5 3 5 5 5 5 5 5 5 5 5 5 5 5 5 5 5 5 5 5 5 5 5 5 5 3 5 3 5 3 5 5 5 5 5 5 3 5 3 3 5 5 3 5 5 5 5 5 5 3 3 5 5 3 3 5 5 3 3 5 5 5 5 5 5 5 5 3 5 5 5 5 5 3 5 5 3 5 5 5 3 5 5 5 5 5 5 5 5 5 5 5 5 5 5 5 5 5 5 5 5 5 5 5 5 5 5 5 5 5 5 5 5 5 5 3 5 5 3 5 3 3 5 5 5 5 5 5 5 5 5 3 5 5 5 5 5 3 5 5 5 5 5 5 5 3 5 5 5 5 5 5 5 5 3 5 5 5 5 5 3 5 5 5 5 5 5 5 5 5 5 5 5 5 5 5 5 5 5 5 5 5 5 5 5 5 5 5 5 5 5 3 3 5 5 5 5 5 5 5 3 5 5 5 3 5 3 5 5 5 5 5 5 5 5 5 5 5 5 5 5 5 5 5 5 5 5 5 3 5 5 5 5 5 5 3 5 5 5 5 5 5 5 3 5 5 3 5 5 5 5 5 5 3 5 5 5 3 5 5 3 3 5 5 5 5 5 5 5 5 5 5 5 5 5 5 5 5 5 5 5 5 5 5 5 5 5 5 5 5 3 5 5 5 5 5 5 5 5 5 5 5 5 5 5 5 5 5 5 5 3 5 5 5 3 3 5 5 5 5 5 3 5 5 5 3 5 5 5 5 5 3 5 5 5 5 5 5 5 5 5 5 5 5 5 5 5 5 5 5 5 5 5 3 5 5 5 5 5 5 3 5 5 5 5 5 5 5 5 5 5 5 5 3 5 5 5 5 3 5 3 5 5 5 5 5 5 5 5 5 5 5 5 5 3 5 5 5 5 5 3 5 5 5 5 5 5 3 5 5 5 5 5 5 5 5 5 5 5 5 3 5 5 3 5 5 3 5 5 3 5 5 5 5 5 5 5 5 5 5 3 5 5 5 5 5 5 5 5 3 5 5 5 3 5 5 5 3 5 5 3 5 5 5 3 5 5 5 5 5 3 5 3 5 5 5 5 3 3 5 5 5 3 5 5 5 5 3 5 5 5 5 5 5 5 5 5 5 5 5 5 5 5 3 5 5 3 3 5 5 5 5 3 5 5 5 5 5 5 3 5 5 5 5 5 5 3 5 5 5 5 5 5 5 5 3 5 5 5 5 5 5 5 5 5 5 3 5 5 3 5 5 3 5 5 5 5 5 3 3 5 5 3 3 5 3 5 3 5 3 3 5 5 3 5 3 5 3 5 3 5 3 5 5 3 5 3 5 3 5 5 5 5 5 5 3 5 5 5 3 5 5 5 5 5 5 5 5 5 3 5 5 3 5 3 5 3 5 5 5 3 3 5 5 5 5 5 5 5 5 5 5 5 3 5 5 5 5 5 3 5 5 5 5 5 5 5 5 5 5 5 5 5 5 5 5 5 3 5 5 5 5 5 5 3 5 5 5 3 5 5 3 5 5 5 3 5 3 3 5 5 5 5 5 5 5 5 5 3 5 5 5 5 5 5 5 3 5 3 5 3 5 5 5 5 5 5 5 5 5 5 5 5 5 5 5 5 5 5 5 5 5 5 5 5 5 5 5 5 5 5 5 5 5 5 5 5 5 3 5 5 3 3 5 5 5 5 3 5 5 5 5 5 3 5 5 3 3 5 5 5 5 5 5 3 5 3 5 5 3 3 5 3 5 5 5 3 5 5 5 5 3 5 5 5 3 5 5 3 3 5 5 5 3 5 5 5 5 3 5 5 3 5 5 5 3 5 5 3 5 5 5 3 5 3 5 5 3 5 5 3 3 5 5 3 5 3 3 5 5 5 5 3 5 5 5 5 3 5 5 5 5 5 5 5 5 5 5 5 5 3 5 5 5 5 3 5 3 5 5 5 5 5 3 3 3 5 5 5 5 5 5 5 5 3 5 5 5 5 5 5 3 5 5 5 5 3 5 5 5 5 5 5 5 5 5 5 5 5 5 5 5 5 5 5 3 5 3 5 5 3 3 5 3 5 5 3 5 3 5 3 5 3 5 5 5 5 3 5 5 5 3 5 5 5 5 5 5 5 5 5 5 5 5 5 5 5 5 5 5 5 5 5 5 5 5 5 3 5 5 5 5 5 3 5 5 5 5 5 5 5 5 5 5 5 3 5 5 5 5 5 3 5 5 3 3 5 5 5 3 5 5 3 3 5 3 5 5 5 5 5 5 5 5 5 5 5 5 5 5 5 5 3 5 5 5 5 3 5 5 5 5 5 5 5 5 3 3 5 5 3 5 5 5 5 5 5 5 5 5 3 3 5 5 3 5 5 5 3 5 5 5 5 5 5 5 5 5 5 5 5 5 5 5 5 5 5 5 5 5 5 5 5 5 5 3 5 5 5 5 5 5 5 5 5 5 5 5 5 5 5 5 5 5 5 5 3 5 5 5 3 3 5 5 5 3 5 5 3 5 5 5 5 5 3 5 3 5 5 5 5 5 5 5 5 3 5 5 5 3 5 5 3 5 3 5 5 5 3 5 5 5 3 5 5 5 5 5 5 5 5 5 5 5 5 5 5 5 5 5 3 5 5 5 5 5 5 5 5 5 3 5 5 5 5 5 5 5 5 3 5 5 5 5 5 5 5 5 5 5 5 5 5 3 5 5 5 3 5 5 5 5 5 5 5 5 5 5 5 5 5 5 5 5 5 5 5 3 5 5 5 3 5 3 5 5 5 3 5 5 5 3 3 5 5 5 5 5 5 5 5 5 5 5 5 5 5 5 5 5 5 5 5 5 5 3 5 5 5 5 3 5 5 5 5 3 5 5 5 5 5 5 5 3 5 5 5 5 3 5 5 5 5 5 5 3 5 5 5 5 5 5 3 5 5 5 3 5 5 5 5 5 5 5 5 5 3 5 5 5 5 5 5 3 5 5 5 5 5 5 5 5 5 5 5 3 5 5 3 5 5 5 5 5 3 5 5 3 5 5 5 5 5 5 5 3 3 5 5 5 5 3 5 5 5 5 5 5 3 5 5 5 5 5 5 5 5 5 5 3 5 5 5 5 5 5 5 5 5 5 5 5 3 5 3 5 5 5 3 5 5 3 5 5 5 5 3 5 5 5 5 5 3 5 5 5 5 5 5 5 5 3 5 5 5 5 3 5 5 5 5 5 5 5 3 5 5 5 5 5 5 5 5 5 5 3 5 5 5 3 5 3 5 5 5 5 5 5 3 5 3 5 3 5 5 5 5 3 5 5 5 5 5 5 5 5 5 5 5 5 5 5 3 5 3 5 5 5 5 5 5 5 3 5 5 5 5 5 5 5 5 5 5 5 5 5 3 5 5 5 5 3 5 5 5 5 5 5 5 5 5 5 5 5 5 5 5 5 5 5 5 5 5 5 5 5 3 5 5 5 5 3 5 5 5 3 5 5 3 5 5 3 5 5 5 5 5 5 5 5 5 5 5 5 5 5 5 3 5 5 3 5 5 5 5 5 5 5 3 5 5 5 5 5 3 5 5 5 3 5 5 5 3 5 5 5 5 5 5 5 3 5 5 5 3 5 3 3 5 5 5 5 5 3 5 5 5 5 5 5 5 5 5 5 3 5 5 5 5 5 5 5 5 5 5 5 5 5 5 5 5 5 5 5 5 5 5 5 5 5 5 5 5 5 5 5 5 5 5 5 5 5 3 5 5 5 5 5 5 5 5 5 5 5 5 5 5 5 5 3 5 5 5 5 5 5 5 5 5 3 5 5 5 5 5 5 5 3 5 5 5 5 5 5 5 5 5 5 5 5 5 5 5 5 5 5 5 5 5 3 5 5 5 5 5 5 5 5 5 5 5 5 5 5 5 5 5 3 5 5 5 5 5 5 5 5 5 5 5 5 5 5 5 5 5 5 5 5 5 5 5 5 5 5 5 5 5 5 5 5 5 5 5 5 5 5 5 5 5 5 5 5 5 5 3 5 5 5 5 5 5 5 5 5 5 5 5 5 3 5 3 5 5 5 5 5 3 5 5 5 5 5 3 3 5 5 5 5 5 5 5 5 5 5 5 5 5 5 5 5 5 3 3 5 5 5 5 5 5 3 5 3 5 5 5 5 5 5 5 5 5 3 5 5 5 5 5 5 5 5 5 5 5 5 5 5 5 5 5 5 5 3 5 5 5 5 5 3 5 3 5 5 5 5 5 5 5 3 5 5 5 3 5 5 5 3 5 5 3 5 5 5 3 5 5 3 5 3 5 3 5 5 3 5 5 5 5 5 5 5 5 5 5 5 5 5 5 5 5 5 5 5 5 5 3 5 3 5 5 5 5 5 5 5 3 5 5 5 5 5 5 5 5 5 5 5 5 5 5 5 5 5 5 5 3 5 5 5 3 5 5 5 5 5 5 5 5 5 5 3 5 5 5 5 3 5 5 3 5 5 5 5 5 3 5 5 5 5 3 5 3 5 5 3 5 5 5 5 5 5 5 3 5 5 3 5 3 5 5 5 5 5 5 5 5 5 5 5 5 5 5 5 5 5 5 3 5 5 5 5 5 5 5 3 5 5 5 5 3 5 5 5 5 5 5 5 5 5 3 5 5 5 5 3 5 5 5 5 5 5 5 5 5 5 5 5 3 5 5 5 5 5 5 5 5 5 3 5 5 5 5 5 5 5 5 5 5 5 5 3 5 5 3 5 5 5 5 5 5 5 5 5 3 3 3 5 5 5 3 5 5 5 5 5 5 3 5 5 5 3 3 5 5 5 5 5 5 5 5 5 5 5 5 3 5 5 5 3 3 5 5 5 5 5 3 5 5 5 5 3 5 5 5 5 3 5 5 5 5 5 3 3 3 5 5 5 3 3 5 5 5 5 5 5 5 5 5 3 3 5 5 5 3 3 5 5 5 5 5 5 5 5 5 5 5 5 5 5 5 5 5 3 5 3 5 5 5 5 3 5 5 5 5 5 5 5 3 5 5 5 5 5 5 5 3 5 5 3 5 3 3 5 5 5 3 3 5 5 5 3 3 5 5 5 5 5 5 5 5 5 5 3 5 5 5 5 5 5 5 3 5 5 5 5 3 5 5 5 5 5 5 3 5 5 5 5 3 5 3 5 5 5 5 5 5 5 5 5 5 5 5 5 5 3 5 5 5 5 5 5 5 3 5 5 5 5 3 5 5 5 3 5 5 5 5 5 5 5 5 5 5 5 5 5 5 5 5 5 5 5 5 5 5 3 5 3 5 5 3 5 5 5 3 5 5 3 5 5 5 5 5 5 5 5 5 5 5 5 5 5 5 5 5 5 5 5 3 3 3 5 5 5 5 5 5 5 5 5 5 5 5 5 3 5 5 5 3 5 5 3 5 5 5 5 3 5 5 3 3 5 5 5 5 3 5 5 3 5 3 5 5 5 5 5 5 5 5 5 5 5 5 3 5 5 5 5 5 5 5 3 5 3 5 5 5 5 3 5 5 5 5 5 5 5 5 5 5 5 5 5 5 5 5 5 5 5 5 5 5 5 3 5 5 5 3 5 3 5 5 5 3 5 5 5 5 5 3 5 5 3 5 5 5 5 5 5 5 5 3 5 5 5 5 5 3 5 5 5 5 5 5 5 5 5 5 5 5 5 5 3 5 5 5 5 3 5 5 5 5 5 5 5 5 5 5 5 5 3 5 5 5 5 3 5 5 5 5 5 5 5 5 5 5 5 5 5 3 5 5 3 5 5 5 3 5 5 5 5 5 5 5 5 5 5 5 5 5 3 3 5 3 3 5 5 5 3 3 5 3 5 3 5 3 5 5 5 3 5 3 5 5 5 5 3 5 5 5 5 5 5 3 5 5 5 5 5 3 5 5 3 5 5 3 5 5 3 5 5 5 5 5 3 5 3 5 5 5 5 5 5 5 5 5 5 5 5 5 3 5 5 3 5 5 5 5 5 5 5 5 5 3 5 5 5 5 5 5 5 5 5 3 5 5 3 5 3 5 5 5 5 5 5 5 3 5 5 5 5 5 5 5 3 5 3 5 5 3 5 5 5 3 5 5 5 5 3 5 5 5 5 5 3 5 5 5 5 5 5 5 5 5 5 5 5 5 5 5 5 5 5 5 5 5 3 5 5 3 5 5 5 3 5 5 5 5 3 5 5 5 5 5 5 5 5 5 5 5 5 5 5 5 5 5 5 5 5 5 5 5 3 5 5 5 5 5 5 3 5 5 5 5 5 5 5 5 5 5 5 5 5 3 5 3 5 5 3 5 5 5 5 3 3 5 3 5 3 5 5 5 5 5 3 5 5 3 3 5 5 5 5 5 3 5 5 3 5 5 5 5 5 5 5 5 3 3 5 5 5 3 5 3 5 5 5 5 5 3 5 3 5 5 5 5 5 3 3 5 5 5 5 3 5 5 5 5 3 5 5 5 5 5 5 5 5 5 5 5 5 5 5 5 5 5 3 5 5 3 5 5 5 3 5 5 5 5 5 5 5 5 5 5 5 5 5 5 5 5 5 5 5 3 5 5 5 5 5 5 5 5 5 5 5 5 5 5 3 3 5 5 5 3 5 5 5 5 5 3 5 5 5 5 5 5 5 5 5 5 5 3 5 5 3 5 5 5 5 5 5 5 5 5 5 3 5 5 5 3 5 3 5 3 5 5 5 3 3 5 3 5 5 3 5 5 3 3 5 5 5 3 5 5 3 5 3 5 5 5 3 5 5 3 3 5 3 5 5 3 5 3 5 5 5 5 5 5 5 5 5 3 5 5 5 5 5 3 5 5 5 5 5 5 5 5 5 5 3 5 5 5 5 3 3 5 5 3 5 3 5 5 5 5 5 3 5 5 3 5 3 5 5 5 5 5 5 5 3 5 5 5 5 5 5 5 5 5 3 5 3 5 3 5 3 5 5 5 5 3 5 5 5 5 5 3 3 5 5 5 5 5 5 3 5 5 5 5 5 3 5 5 5 5 3 5 5 3 5 3 5 5 5 3 5 3 5 5 3 3 3 5 5 5 5 5 5 3 3 3 5 5 5 5 3 5 3 5 3 5 5 5 5 5 5 3 5 5 5 5 5 5 5 5 5 5 5 5 5 5 5 5 5 5 5 5 5 5 5 5 5 5 5 5 5 5 5 5 5 5 5 5 5 5 5 5 5 5 5 5 5 5 5 5 5 3 5 5 5 3 3 5 5 5 5 5 5 5 5 5 5 5 5 5 5 5 5 5 5 5 3 5 5 5 5 5 5 5 3 5 5 3 5 5 3 5 5 3 5 3 5 5 3 5 5 5 3 5 3 5 3 3 5 5 5 3 3 5 5 3 5 5 3 5 5 5 5 5 5 5 5 5 5 5 5 3 5 5 5 5 3 5 5 5 5 3 5 5 5 5 5 5 5 5 5 3 5 3 5 5 5 5 3 5 5 5 3 5 5 5 5 5 5 3 5 5 3 5 5 5 3 5 5 5 5 5 5 5 3 5 5 5 5 5 3 5 5 5 5 5 5 5 5 5 5 5 5 5 5 5 3 5 5 5 5 5 3 5 5 3 5 3 5 5 5 5 3 3 5 5 3 5 5 5 5 5 5 5 5 5 5 5 3 5 3 5 5 5 5 5 3 5 5 5 3 5 5 5 3 5 5 5 5 5 5 5 5 5 5 5 5 5 3 5 5 5 5 5 5 5 3 5 3 5 5 5 5 5 5 5 3 3 5 5 5 5 5 5 5 5 5 3 5 5 5 5 5 5 3 3 3 5 3 5 5 5 5 5 5 3 5 3 5 3 5 3 5 5 5 5 5 5 3 5 5 3 5 5 5 5 3 5 5 5 5 5 5 5 5 5 5 5 5 5 5 5 5 5 5 5 5 5 3 5 3 5 5 5 5 5 5 5 5 5 5 5 5 5 5 5 5 5 5 5 5 5 5 5 5 5 5 5 5 5 5 5 5 5 5 5 5 5 5 5 5 5 5 5 5 5 5 5 5 5 5 5 5 5 5 5 5 5 5 3 5 5 5 5 5 5 5 5 5 5 5 5 5 5 5 5 5 5 5 5 5 5 5 3 5 5 5 3 5 3 5 5 5 5 5 5 5 5 5 5 5 5 5 5 5 5 5 5 5 5 5 5 5 5 5 5 5 5 5 5 5 5 5 5 5 5 5 5 5 3 5 3 5 5 5 5 5 5 5 5 5 5 5 5 5 5 5 5 5 5 5 5 5 5 5 5 5 3 5 5 5 5 5 5 5 5 5 5 5 5 5 5 5 5 5 5 5 5 5 5 5 5 5 5 5 5 5 5 5 5 5 5 5 5 5 5 5 5 5 5 5 5 5 5 5 5 5 5 5 5 5 5 5 5 5 5 5 5 5 5 5 5 5 5 5 5 5 3 5 5 5 5 5 5 5 3 5 5 3 5 5 5 5 5 5 5 5 5 5 5 5 5 5 5 5 5 5 5 5 3 5 5 5 5 5 5 5 5 5 5 5 5 5 5 5 5 5 5 5 5 5 5 5 5 5 5 5 5 5 5 5 5 3 5 5 5 5 3 5 3 5 5 5 5 5 5 3 5 5 3 5 5 3 3 5 3 5 5 5 3 5 5 5 5 5 5 5 5 5 5 5 5 5 5 5 3 5 5 5 5 5 5 5 5 3 5 5 5 5 5 5 5 5 5 5 5 5 5 5 5 5 5 5 5 5 5 5 5 5 5 5 5 5 5 5 5 5 5 5 5 5 3 5 5 5 5 5 5 5 3 5 5 3 5 3 5 5 5 5 5 5 5 5 5 5 5 3 3 5 5 3 5 5 3 3 5 5 5 5 3 5 3 5 5 3 5 3 3 5 3 5 3 5 5 5 5 5 5 5 3 5 3 5 5 5 5 5 3 5 5 5 3 5 5 3 5 3 5 3 3 5 5 3 5 5 5 5 5 5 3 5 5 5 5 5 5 5 5 3 3 5 5 5 3 5 5 5 5 3 3 5 3 5 5 5 3 5 5 5 5 5 5 5 5 5 5 5 5 5 5 5 5 3 5 5 5 5 5 5 3 5 3 5 5 5 3 3 5 5 3 5 3 5 5 5 5 5 5 5 5 5 5 5 5 3 3 5 5 5 5 5 3 5 5 5 5 5 5 5 3 5 5 5 3 5 3 5 5 3 5 5 5 5 5 5 5 5 5 3 5 5 3 5 5 5 5 5 5 5 5 5 5 5 3 5 5 5 5 5 5 5 5 5 5 5 5 5 5 5 5 5 5 5 5 5 5 3 5 5 5 5 5 5 5 5 5 5 5 3 5 5 5 5 3 5 5 5 5 5 5 5 5 5 5 5 3 5 5 5 5 5 3 5 3 5 5 5 5 5 5 5 5 5 3 5 5 3 5 5 3 5 5 5 5 3 5 5 5 5 5 5 5 5 5 5 5 5 5 5 5 5 5 5 5 5 5 3 5 5 3 5 3 5 5 5 5 5 5 5 5 5 3 5 5 3 3 3 5 5 5 3 5 5 5 5 5 5 3 3 5 3 5 5 3 5 5 3 5 5 5 5 3 5 5 5 5 3 5 5 5 5 5 5 5 5 5 5 5 3 5 5 3 5 3 3 5 5 3 3 3 5 5 5 5 5 5 5 5 5 5 3 5 5 5 5 5 5 5 5 5 3 5 5 5 5 5 3 5 5 5 5 5 5 5 5 5 5 3 5 5 5 5 5 5 5 5 5 5 5 5 5 5 5 5 5 5 5 5 5 5 5 5 3 3 5 5 5 5 5 5 5 5 3 5 5 5 5 5 5 5 5 5 5 5 5 5 5 5 5 3 5 5 5 5 3 5 5 5 3 3 5 5 5 5 5 5 3 5 3 5 5 5 3 5 5 5 5 5 5 5 5 3 5 3 3 5 5 5 5 5 5 5 5 5 5 5 5 3 5 5 3 5 3 5 5 5 5 5 5 5 5 5 5 5 5 5 5 5 5 5 5 5 5 5 5 5 3 5 5 5 5 5 3 5 5 5 5 5 5 5 5 5 5 3 5 5 5 3 5 5 5 5 5 5 5 5 5 5 5 3 3 5 5 5 5 5 3 5 5 5 3 5 5 5 5 5 5 5 5 5 5 3 5 5 5 5 5 5 5 3 3 5 3 5 5 5 5 3 5 5 5 5 5 3 5 5 5 5 5 5 5 5 5 5 3 5 5 5 5 5 5 5 5 5 5 3 5 5 5 5 5 5 5 3 5 5 5 5 5 5 5 5 5 5 5 5 5 5 5 5 5 5 5 5 3 5 5 5 3 5 5 5 5 5 5 5 5 5 5 5 5 5 3 5 3 3 5 3 3 5 5 5 5 5 3 5 5 5 5 5 5 5 3 5 5 3 5 5 3 5 5 3 5 5 3 3 3 3 5 5 3 3 5 5 3 5 5 3 5 5 5 5 3 3 3 3 5 5 5 3 5 3 5 3 5 3 3 5 5 5 5 5 5 5 3 5 5 3 5 3 5 5 3 3 5 5 5 5 5 5 5 5 5 5 5 5 5 5 5 5 5 3 5 5 5 5 5 5 5 5 5 5 5 5 5 5 5 5 5 3 5 5 5 5 5 5 5 5 5 5 5 5 5 5 3 3 5 5 5 5 3 5 3 5 5 5 3 3 5 3 5 5 5 5 5 5 5 5 5 5 5 5 5 5 5 5 5 5 5 3 5 3 5 5 5 5 3 5 5 5 5 5 5 5 5 5 5 5 5 5 5 5 5 5 5 5 5 3 5 5 5 5 5 5 5 5 5 5 5 5 5 5 3 5 5 5 5 5 5 5 5 5 5 5 5 5 5 5 5 5 5 5 5 5 5 5 5 5 5 5 5 5 5 5 5 5 5 5 5 5 5 5 5 5 5 5 5 5 5 5 5 5 5 5 5 5 5 5 5 5 5 5 5 5 5 3 5 5 5 3 5 5 3 5 5 5 5 5 5 5 5 5 5 5 3 5 5 5 5 3 5 5 5 5 5 5 5 5 5 5 5 5 5 5 5 5 5 5 5 5 5 5 5 5 5 5 5 5 5 3 5 5 5 5 3 5 5 5 5 5 5 5 5 5 5 3 5 5 3 5 5 5 5 5 5 5 5 5 5 5 5 3 5 5 5 5 5 5 5 5 3 5 5 5 5 5 5 5 5 5 5 3 5 3 5 5 5 3 5 5 5 3 5 3 5 3 3 5 5 5 5 5 3 5 5 5 5 5 5 5 5 5 5 5 5 5 5 5 5 5 5 5 5 5 5 5 3 5 5 3 5 5 5 3 5 3 5 5 5 5 5 5 5 5 5 5 5 5 3 5 5 5 5 5 5 5 5 5 5 5 5 5 5 5 5 5 5 5 3 5 5 5 5 5 5 5 5 5 5 5 5 5 5 5 5 5 5 5 5 5 5 5 5 5 5 5 3 5 5 5 5 5 5 5 5 5 5 5 5 5 5 5 5 5 5 3 5 5 5 3 5 5 5 3 3 5 5 5 5 5 3 5 5 5 5 5 5 5 3 3 5 5 5 3 5 3 5 5 5 5 5 5 3 3 5 5 3 3 5 5 5 5 5 5 5 5 5 5 3 5 5 5 5 5 5 3 5 5 5 5 5 5 5 5 5 5 5 5 5 5 5 5 5 3 5 5 5 5 3 5 5 3 5 5 5 5 5 5 5 5 5 5 5 3 5 3 5 3 5 5 5 5 5 5 5 5 5 5 5 5 5 5 5 5 5 5 5 3 5 5 3 5 5 5 3 5 5 3 5 5 5 5 3 5 5 5 5 5 5 5 3 5 5 5 5 5 5 5 5 5 5 5 5 5 5 5 5 5 5 5 5 5 5 5 5 5 5 5 5 5 3 5 5 5 5 5 5 5 5 5 5 5 5 5 5 5 5 5 5 5 5 5 5 5 5 5 5 5 5 5 5 5 5 5 5 5 5 5 3 3 3 5 5 3 5 5 5 3 5 3 5 5 5 5 5 3 5 5 5 5 5 5 5 3 5 5 5 5 5 5 5 5 5 5 5 5 5 5 3 5 5 5 3 5 3 5 5 5 5 5 5 5 5 3 5 5 5 5 5 5 5 3 5 3 5 3 5 5 5 5 5 5 5 5 3 5 5 3 3 3 5 3 5 3 5 5 5 5 5 5 5 5 5 5 5 5 5 5 5 5 5 5 5 5 5 3 5 5 3 3 5 5 5 3 5 5 5 5 5 5 5 3 5 3 5 5 5 5 3 5 5 3 5 5 5 5 5 5 5 3 5 5 3 5 5 5 3 5 5 5 5 5 5 5 5 5 3 5 5 5 5 5 5 3 5 5 3 5 5 5 5 3 5 5 5 5 5 5 3 3 3 5 5 5 3 5 3 5 3 5 5 5 5 5 5 3 5 5 5 3 5 5 5 3 5 5 5 5 5 5 5 5 5 5 5 5 3 5 5 5 3 5 5 5 5 5 3 3 5 5 3 5 3 3 3 5 5 5 3 5 5 5 5 5 3 5 5 5 5 5 5 5 5 5 5 5 5 3 5 5 5 5 5 5 3 5 5 3 5 5 3 5 5 5 5 5 3 5 5 3 5 3 5 3 5 5 5 5 5 5 3 5 5 5 5 3 5 5 5 5 5 5 5 5 5 5 3 5 5 5 5 5 3 5 5 5 5 5 5 5 5 5 5 5 5 5 5 5 3 5 5 5 5 5 3 5 3 5 5 5 5 5 3 5 5 5 5 5 3 5 5 5 5 5 3 5 5 5 5 5 5 5 5 5 5 3 5 3 5 3 5 5 3 5 5 5 5 5 5 5 5 3 5 3 5 5 5 5 5 5 5 5 5 5 3 5 5 5 5 5 5 5 5 5 5 3 5 5 5 3 5 3 3 5 5 5 3 5 5 5 3 3 5 5 5 5 5 5 5 5 5 5 3 3 5 5 5 5 5 3 5 5 5 5 5 5 5 5 5 5 3 5 3 3 3 5 5 5 5 5 5 5 5 3 5 5 5 5 5 5 5 5 5 5 5 5 5 5 5 5 5 5 5 5 5 5 5 5 5 5 5 5 5 3 5 5 5 5 3 5 5 5 5 5 5 5 5 3 5 5 5 5 5 5 5 5 3 5 5 5 5 5 5 5 5 5 5 5 5 5 5 5 5 5 5 5 5 5 5 5 5 5 5 3 5 5 5 5 5 5 3 5 3 5 5 3 5 5 5 3 5 3 5 5 5 3 5 5 5 3 5 5 5 5 5 5 3 5 5 5 5 5 5 5 5 5 5 5 5 5 5 5 5 5 5 5 5 5 5 5 5 5 5 5 3 5 3 5 5 5 5 3 5 5 5 5 5 5 5 5 5 5 5 5 5 3 5 5 3 5 5 3 5 5 5 5 5 3 5 5 5 5 5 5 5 5 3 5 3 5 5 5 5 5 3 3 5 5 3 5 5 5 3 5 5 5 5 5 5 5 3 5 5 5 5 5 5 5 5 5 5 5 5 5 5 5 5 3 5 5 5 5 5 3 5 3 5 5 5 5 5 5 5 5 5 5 5 5 3 5 3 5 5 5 5 5 5 3 3 5 5 5 5 5 5 5 5 5 5 5 5 5 5 5 5 5 5 5 5 5 3 5 5 3 5 5 5 5 5 3 5 5 5 5 5 5 3 5 5 5 5 5 5 5 5 5 5 5 5 5 5 5 5 3 5 5 3 5 5 5 5 3 5 5 5 5 5 5 5 5 5 5 5 3 5 5 5 5 5 5 5 5 5 5 5 5 5 5 5 5 5 5 5 3 5 5 5 5 5 5 5 5 5 5 5 5 3 5 5 5 5 5 5 5 5 5 5 5 5 5 3 3 5 5 5 5 5 5 3 5 5 5 5 5 5 5 5 5 5 5 5 5 5 5 5 5 5 5 5 5 5 5 5 5 5 5 5 5 5 5 5 5 5 5 3 5 5 5 5 5 5 5 5 3 5 5 5 5 5 5 5 5 5 5 5 5 3 5 5 5 5 3 5 3 5 5 5 5 5 5 5 5 3 5 5 5 5 5 5 5 5 5 5 3 5 5 5 3 5 5 3 5 5 5 5 3 5 5 3 5 5 5 5 5 5 5 5 3 5 5 5 3 5 5 5 5 5 5 5 3 5 3 5 3 5 3 3 5 5 5 3 3 3 5 5 3 5 5 5 3 5 5 5 5 3 5 5 5 5 5 5 5 5 5 5 5 5 5 5 5 5 5 5 5 5 5 5 5 5 5 5 5 5 5 5 5 5 5 5 5 5 5 5 3 5 5 5 5 5 5 5 5 3 5 5 5 5 3 5 5 3 5 5 3 5 5 5 5 3 5 5 5 5 5 3 5 5 5 5 5 5 5 5 5 5 5 5 5 3 3 5 5 5 3 5 5 5 5 5 5 5 5 5 5 5 5 5 5 3 5 5 5 5 5 5 3 5 5 3 5 5 5 5 5 5 5 5 5 5 3 5 5 5 5 5 3 5 5 5 5 5 5 5 5 5 5 3 5 5 5 5 5 5 5 5 5 5 5 5 5 5 5 3 5 5 5 5 5 5 5 5 5 5 5 5 5 5 5 5 5 5 5 5 5 5 5 3 5 3 5 5 5 3 5 5 5 5 5 5 5 5 5 3 5 5 5 3 5 5 5 5 5 5 5 5 5 5 5 5 5 5 5 5 3 5 5 5 5 5 3 5 5 5 3 5 3 5 5 5 5 5 5 3 5 5 5 5 5 5 5 5 5 5 5 5 5 5 5 5 5 5 5 5 5 5 5 5 5 5 5 3 5 5 3 5 5 5 5 5 5 5 3 5 5 5 5 3 5 5 3 5 5 5 5 5 5 3 5 5 5 3 5 5 5 3 5 5 5 5 5 3 5 5 5 5 5 3 5 5 5 5 5 5 5 5 3 5 5 3 5 5 5 5 3 5 5 5 5 3 5 5 5 5 3 5 5 5 3 5 3 5 5 5 5 5 5 5 5 5 5 3 5 5 5 5 5 5 5 3 3 5 5 5 5 5 3 5 5 5 5 5 3 5 5 5 3 5 5 3 5 5 3 5 5 5 3 5 5 5 5 5 5 3 5 5 5 5 5 3 5 5 5 5 5 3 5 5 5 5 5 5 3 5 5 5 5 3 5 5 5 5 5 3 5 5 5 5 5 5 5 5 5 5 3 5 5 5 5 5 5 5 3 5 5 5 5 3 3 5 5 3 5 5 5 5 5 5 5 3 5 5 5 5 5 5 5 3 5 3 5 5 3 5 5 5 5 3 5 3 5 5 5 5 5 5 5 5 5 5 3 5 5 5 5 5 3 5 5 5 3 5 5 5 5 3 5 5 3 5 5 5 5 5 3 5 3 5 3 3 5 5 5 5 3 3 5 5 5 5 5 5 5 5 5 5 5 5 5 3 5 5 5 5 5 5 3 3 5 5 5 5 5 5 5 5 5 5 5 5 5 3 5 5 5 5 5 5 5 5 5 5 5 5 5 5 5 5 5 5 5 5 5 5 5 5 5 5 5 5 5 5 5 5 5 3 5 5 3 5 5 5 5 5 5 5 3 5 5 5 3 5 5 3 5 5 5 3 3 5 5 5 5 3 3 5 5 5 5 5 5 5 5 5 5 5 5 5 5 3 5 5 3 5 5 5 3 5 5 5 5 3 5 5 3 5 5 5 5 5 5 5 5 5 5 5 3 5 5 5 5 5 5 5 3 5 5 5 5 5 5 5 5 5 5 5 5 5 5 5 5 5 5 3 5 5 5 5 5 5 3 5 3 5 5 5 5 5 3 5 5 3 5 5 5 3 5 5 5 3 5 5 5 5 5 5 5 5 5 5 5 5 5 5 3 5 5 5 5 3 3 5 5 5 5 5 5 5 5 5 5 5 5 5 5 5 5 5 5 5 3 5 5 5 5 5 5 5 5 3 5 3 5 5 5 5 5 5 5 3 5 3 5 5 5 5 5 3 5 5 5 5 5 5 3 5 5 5 5 5 3 3 5 5 5 3 3 3 5 5 5 5 5 3 5 5 5 5 5 3 5 5 5 5 3 5 3 3 5 3 3 5 5 5 3 5 5 5 3 5 5 5 3 5 5 5 3 5 5 5 5 5 5 5 5 3 5 5 5 3 5 5 5 5 5 5 3 5 5 5 5 5 5 3 5 5 5 5 5 5 5 5 5 5 5 5 5 5 3 5 3 5 5 5 3 5 5 3 5 3 5 3 5 5 3 5 5 5 5 5 5 3 5 5 5 5 3 5 5 5 5 5 5 3 5 5 5 5 5 5 5 5 5 5 3 5 5 5 5 5 5 5 5 5 5 5 5 5 5 5 5 5 5 5 3 3 5 5 5 3 5 5 3 5 5 3 5 5 3 5 5 3 3 5 5 5 5 3 5 5 5 5 5 5 5 5 5 5 5 3 3 5 5 5 3 5 3 5 3 5 5 5 5 5 3 5 5 3 5 3 5 5 3 3 3 5 5 5 5 3 5 5 3 5 3 5 5 3 5 5 5 5 5 5 5 5 3 5 3 3 5 5 5 5 5 3 3 5 5 5 3 3 5 5 5 5 5 5 5 5 3 5 3 5 5 5 5 5 5 5 5 5 5 5 5 5 5 5 5 5 5 5 5 5 5 5 5 5 5 5 5 5 3 5 5 5 5 5 5 5 5 5 5 5 5 5 5 5 3 5 5 3 5 5 5 5 5 3 5 5 5 5 5 5 5 5 5 5 5 5 5 3 5 5 5 5 5 5 5 5 5 3 5 5 3 5 5 5 5 3 3 3 5 5 5 5 5 3 5 5 5 
</DataArray>
</Cells>
<PointData Scalars="" Vectors="displacement," Tensors="">
<DataArray type="Float64" Name="displacement" NumberOfComponents="3" format="ascii">
2.0862629889170891e-07 -0.014604615954228156 0 -1.39128595360896e-07 -0.014999162836693026 0 6.7783078224843226e-08 -0.01498807704924472 0 -1.39128595360896e-07 -0.014999162836693026 0 6.7783078224843226e-08 -0.01498807704924472 0 6.9022060986528964e-08 -0.015000368643100323 0 4.76321605660886e-08 -0.01460361957739835 0 -1.5709517771781699e-06 -0.014791405717164769 0 -5.9549330264342431e-08 -0.014602393797934141 0 -8.063364437557403e-05 -0.014377329103231131 0 -7.6290297367323504e-05 -0.014522830767042055 0 -5.9549330264342431e-08 -0.014602393797934141 0 -8.063364437557403e-05 -0.014377329103231131 0 -4.4011944768914659e-07 -0.013980007910779184 0 -8.063364437557403e-05 -0.014377329103231131 0 -4.8903787402048575e-05 -0.014675113700902869 0 -6.7943944961644317e-05 -0.014570702482974195 0 -8.063364437557403e-05 -0.014377329103231131 0 -7.6290297367323504e-05 -0.014522830767042055 0 -4.8903787402048575e-05 -0.014675113700902869 0 -1.5709517771781699e-06 -0.014791405717164769 0 -7.0932277068571779e-08 -0.014999646699547609 0 -7.6290297367323504e-05 -0.014522830767042055 0 -5.1371107479241255e-07 -0.014998986304527728 0 -4.8903787402048575e-05 -0.014675113700902869 0 -5.1371107479241255e-07 -0.014998986304527728 0 -4.8903787402048575e-05 -0.014675113700902869 0 -4.872376473640168e-05 -0.014808870941067488 0 -4.8903787402048575e-05 -0.014675113700902869 0 -4.872376473640168e-05 -0.014808870941067488 0 -6.7943944961644317e-05 -0.014570702482974195 0 -7.5908485089018235e-05 -0.014693800357030743 0 -4.872376473640168e-05 -0.014808870941067488 0 -6.7943944961644317e-05 -0.014570702482974195 0 -7.5908485089018235e-05 -0.014693800357030743 0 -4.872376473640168e-05 -0.014808870941067488 0 -3.7926940366316712e-05 -0.014816865559100211 0 -4.872376473640168e-05 -0.014808870941067488 0 1.3090725085564254e-07 -0.014999787379169342 0 -3.7926940366316712e-05 -0.014816865559100211 0 -5.1371107479241255e-07 -0.014998986304527728 0 -4.872376473640168e-05 -0.014808870941067488 0 1.3090725085564254e-07 -0.014999787379169342 0 -9.5003147155981883e-05 -0.01455383830753381 0 -0.00030412245943642037 -0.014306895864785884 0 -0.00020554905730949793 -0.01450011424101017 0 -7.5908485089018235e-05 -0.014693800357030743 0 -9.5003147155981883e-05 -0.01455383830753381 0 -6.7943944961644317e-05 -0.014570702482974195 0 -7.5908485089018235e-05 -0.014693800357030743 0 -9.5003147155981883e-05 -0.01455383830753381 0 -0.00011966980839232077 -0.014640884995427178 0 -9.5003147155981883e-05 -0.01455383830753381 0 -6.7943944961644317e-05 -0.014570702482974195 0 0.00011170426535321276 -0.01446995611149334 0 -9.5003147155981883e-05 -0.01455383830753381 0 0.00011170426535321276 -0.01446995611149334 0 -0.00030412245943642037 -0.014306895864785884 0 -6.4650189977806665e-05 -0.013713517942616025 0 -9.378089817653674e-05 -0.013946346888622344 0 -6.7943944961644317e-05 -0.014570702482974195 0 0.00011170426535321276 -0.01446995611149334 0 -7.4661767177956263e-05 -0.014159912591474286 0 -8.063364437557403e-05 -0.014377329103231131 0 -6.7943944961644317e-05 -0.014570702482974195 0 -7.4661767177956263e-05 -0.014159912591474286 0 -8.063364437557403e-05 -0.014377329103231131 0 -7.4661767177956263e-05 -0.014159912591474286 0 -4.4011944768914659e-07 -0.013980007910779184 0 -7.4661767177956263e-05 -0.014159912591474286 0 -4.4011944768914659e-07 -0.013980007910779184 0 8.3059271672002298e-07 -0.013357840684382744 0 -6.4650189977806665e-05 -0.013713517942616025 0 -1.6114121528062221e-07 -0.013356780962933556 0 -0.0003541175520745209 -0.012942870018537299 0 -9.9772945174346196e-08 -0.013354959151815516 0 -0.00014478330856664999 -0.01287604067724505 0 0.00011170426535321276 -0.01446995611149334 0 -7.4661767177956263e-05 -0.014159912591474286 0 8.3059271672002298e-07 -0.013357840684382744 0 -9.9772945174346196e-08 -0.013354959151815516 0 -0.00014478330856664999 -0.01287604067724505 0 -3.7437587191680363e-07 -0.012478107552250595 0 -0.00014478330856664999 -0.01287604067724505 0 -3.7437587191680363e-07 -0.012478107552250595 0 -1.4096422704744898e-05 -0.012777956719060551 0 -3.7437587191680363e-07 -0.012478107552250595 0 -1.4096422704744898e-05 -0.012777956719060551 0 3.5036758574359911e-05 -0.01231342195321501 0 -0.0003541175520745209 -0.012942870018537299 0 -0.00014478330856664999 -0.01287604067724505 0 -1.4096422704744898e-05 -0.012777956719060551 0 6.5683021960086351e-07 -0.01159870842550904 0 0.00028097172740333752 -0.012496831918113543 0 0.0001013583206624311 -0.011134875081464225 0 -1.6072131440916766e-05 -0.011799782726591759 0 -8.0362805268681117e-06 -0.011695496186136542 0 6.5683021960086351e-07 -0.01159870842550904 0 3.5036758574359911e-05 -0.01231342195321501 0 0.00028097172740333752 -0.012496831918113543 0 -3.7437587191680363e-07 -0.012478107552250595 0 6.5683021960086351e-07 -0.01159870842550904 0 3.5036758574359911e-05 -0.01231342195321501 0 -1.4096422704744898e-05 -0.012777956719060551 0 3.5036758574359911e-05 -0.01231342195321501 0 0.00028097172740333752 -0.012496831918113543 0 -1.4096422704744898e-05 -0.012777956719060551 0 0.00028097172740333752 -0.012496831918113543 0 0.00027286067142334139 -0.013360642908878066 0 0.00010116827645162408 -0.010212588129425172 0 5.2735731594747452e-05 -0.010438761573521577 0 7.2082992374925648e-05 -0.010249094567609548 0 0.00010116827645162408 -0.010212588129425172 0 0.0001013583206624311 -0.011134875081464225 0 5.2735731594747452e-05 -0.010438761573521577 0 -8.8249407980880241e-05 -0.010374310010848681 0 7.2082992374925648e-05 -0.010249094567609548 0 0.00010133890262663579 -0.010364314145101463 0 0.00010116827645162408 -0.010212588129425172 0 -8.8249407980880241e-05 -0.010374310010848681 0 7.2082992374925648e-05 -0.010249094567609548 0 -1.6072131440916766e-05 -0.011799782726591759 0 -0.00012184203231976637 -0.01215184746172257 0 0.00010116827645162408 -0.010212588129425172 0 -8.8249407980880241e-05 -0.010374310010848681 0 -0.00048488881563844876 -0.010322721302457764 0 -0.00044142801381471516 -0.010579537905449124 0 -0.00078486614922715326 -0.010507222312992856 0 -0.00048364823909083685 -0.010924663431675001 0 -8.8249407980880241e-05 -0.010374310010848681 0 -0.00044142801381471516 -0.010579537905449124 0 -0.00022958231456503595 -0.010753659459860334 0 -8.8249407980880241e-05 -0.010374310010848681 0 -0.00044142801381471516 -0.010579537905449124 0 -0.00048488881563844876 -0.010322721302457764 0 -8.8249407980880241e-05 -0.010374310010848681 0 7.465022126456865e-05 -0.010712079012122597 0 -0.00022958231456503595 -0.010753659459860334 0 -8.8249407980880241e-05 -0.010374310010848681 0 7.465022126456865e-05 -0.010712079012122597 0 0.00010133890262663579 -0.010364314145101463 0 -0.0003541175520745209 -0.012942870018537299 0 -6.1374096637943388e-05 -0.013515545414019541 0 -0.00030412245943642037 -0.014306895864785884 0 -0.0003541175520745209 -0.012942870018537299 0 -1.4096422704744898e-05 -0.012777956719060551 0 -6.1374096637943388e-05 -0.013515545414019541 0 -6.1374096637943388e-05 -0.013515545414019541 0 0.00027286067142334139 -0.013360642908878066 0 0.00016871299678313968 -0.01387554220485613 0 -1.4096422704744898e-05 -0.012777956719060551 0 -6.1374096637943388e-05 -0.013515545414019541 0 0.00027286067142334139 -0.013360642908878066 0 -0.00044142801381471516 -0.010579537905449124 0 -0.00048488881563844876 -0.010322721302457764 0 -0.00078486614922715326 -0.010507222312992856 0 -0.00012184203231976637 -0.01215184746172257 0 -0.00018533796052556259 -0.012407350403107196 0 -0.00018533796052556259 -0.012407350403107196 0 -0.00031507649161605637 -0.012662646355843217 0 -6.1374096637943388e-05 -0.013515545414019541 0 -0.00014043133563938735 -0.014368478470792753 0 -0.00030412245943642037 -0.014306895864785884 0 -6.1374096637943388e-05 -0.013515545414019541 0 0.00016871299678313968 -0.01387554220485613 0 -0.00014043133563938735 -0.014368478470792753 0 -0.00014043133563938735 -0.014368478470792753 0 -0.00030412245943642037 -0.014306895864785884 0 -0.00024650387167659865 -0.014445397167748278 0 -0.00024650387167659865 -0.014445397167748278 0 -0.00023500027979392798 -0.014438578355348277 0 -0.00024943691684111596 -0.014493158201403837 0 -0.00014043133563938735 -0.014368478470792753 0 -0.00024650387167659865 -0.014445397167748278 0 -0.00023500027979392798 -0.014438578355348277 0 -0.00078486614922715326 -0.010507222312992856 0 -0.00092172351793536143 -0.011272781852778515 0 -0.00048364823909083685 -0.010924663431675001 0 -0.00010107259283537339 -0.014343894080103182 0 -0.00014043133563938735 -0.014368478470792753 0 -0.00023500027979392798 -0.014438578355348277 0 -0.00010107259283537339 -0.014343894080103182 0 -0.00023500027979392798 -0.014438578355348277 0 -0.00031217561984852102 -0.014466189693554466 0 -0.00018533796052556259 -0.012407350403107196 0 -0.00045234822876762337 -0.012852564096510498 0 -0.00023500027979392798 -0.014438578355348277 0 -0.00031217561984852102 -0.014466189693554466 0 -0.00028924214815600661 -0.014451346121453741 0 -0.00031217561984852102 -0.014466189693554466 0 -0.00028924214815600661 -0.014451346121453741 0 -0.00033771820331988278 -0.014388934721910643 0 -0.00028924214815600661 -0.014451346121453741 0 -0.00033771820331988278 -0.014388934721910643 0 -0.00024943691684111596 -0.014493158201403837 0 -0.00023500027979392798 -0.014438578355348277 0 -0.00028924214815600661 -0.014451346121453741 0 -0.00024943691684111596 -0.014493158201403837 0 7.465022126456865e-05 -0.010712079012122597 0 -0.00014644116593548573 -0.011009234835404589 0 0.00010902344932693929 -0.011219625255682975 0 7.465022126456865e-05 -0.010712079012122597 0 -0.00014644116593548573 -0.011009234835404589 0 -0.00022958231456503595 -0.010753659459860334 0 -0.00014644116593548573 -0.011009234835404589 0 -0.00022958231456503595 -0.010753659459860334 0 -0.00048364823909083685 -0.010924663431675001 0 -0.00044142801381471516 -0.010579537905449124 0 -0.00022958231456503595 -0.010753659459860334 0 -0.00048364823909083685 -0.010924663431675001 0 -0.00092172351793536143 -0.011272781852778515 0 -0.00024976460969980955 -0.011502604432548025 0 -0.00044814760489717302 -0.012082027679915857 0 -0.00014644116593548573 -0.011009234835404589 0 -0.00048364823909083685 -0.010924663431675001 0 -0.00024976460969980955 -0.011502604432548025 0 -0.00092172351793536143 -0.011272781852778515 0 -0.00048364823909083685 -0.010924663431675001 0 -0.00024976460969980955 -0.011502604432548025 0 -0.00014644116593548573 -0.011009234835404589 0 -0.00024976460969980955 -0.011502604432548025 0 0.00010902344932693929 -0.011219625255682975 0 -0.00024976460969980955 -0.011502604432548025 0 0.00010902344932693929 -0.011219625255682975 0 0.00015744586302487699 -0.011674284959889576 0 5.6396893610381764e-05 -0.012094549794178372 0 0.00015744586302487699 -0.011674284959889576 0 0.00043864986296870105 -0.011993950606365456 0 -0.00024976460969980955 -0.011502604432548025 0 5.6396893610381764e-05 -0.012094549794178372 0 0.00015744586302487699 -0.011674284959889576 0 -0.00024976460969980955 -0.011502604432548025 0 5.6396893610381764e-05 -0.012094549794178372 0 -0.00044814760489717302 -0.012082027679915857 0 -0.00044814760489717302 -0.012082027679915857 0 -0.00098598216628273676 -0.012391757589483368 0 -0.00043248998138070265 -0.012942783901496054 0 -0.00044814760489717302 -0.012082027679915857 0 9.6566101082307614e-05 -0.012893451400311574 0 -0.00043248998138070265 -0.012942783901496054 0 5.6396893610381764e-05 -0.012094549794178372 0 -0.00044814760489717302 -0.012082027679915857 0 9.6566101082307614e-05 -0.012893451400311574 0 5.6396893610381764e-05 -0.012094549794178372 0 9.6566101082307614e-05 -0.012893451400311574 0 0.00043079815557232291 -0.012459911982519788 0 -0.00031217561984852102 -0.014466189693554466 0 -0.00033771820331988278 -0.014388934721910643 0 -0.000566868217441935 -0.014282315908091207 0 -0.00092172351793536143 -0.011272781852778515 0 -0.00044814760489717302 -0.012082027679915857 0 -0.00098598216628273676 -0.012391757589483368 0 -0.00045234822876762337 -0.012852564096510498 0 -0.00058904505915656057 -0.013249408756542158 0 -0.000566868217441935 -0.014282315908091207 0 -0.00041039961412192376 -0.0142045986389074 0 -0.00052906272969889469 -0.013930950742805466 0 -0.00041039961412192376 -0.0142045986389074 0 -0.00027147241625559432 -0.014256649677798501 0 -0.00039930177188770042 -0.014040214055372749 0 -0.00033771820331988278 -0.014388934721910643 0 -0.00041039961412192376 -0.0142045986389074 0 -0.00027147241625559432 -0.014256649677798501 0 -0.00033771820331988278 -0.014388934721910643 0 -0.000566868217441935 -0.014282315908091207 0 -0.00041039961412192376 -0.0142045986389074 0 -0.00027147241625559432 -0.014256649677798501 0 -0.0002125533893797861 -0.014471428276676393 0 -0.0001292307635816846 -0.014362136952342017 0 -0.00033771820331988278 -0.014388934721910643 0 -0.00027147241625559432 -0.014256649677798501 0 -0.0002125533893797861 -0.014471428276676393 0 -0.0002125533893797861 -0.014471428276676393 0 -0.0001292307635816846 -0.014362136952342017 0 -8.530374260957902e-05 -0.014540484959854711 0 -0.00027147241625559432 -0.014256649677798501 0 -0.0001292307635816846 -0.014362136952342017 0 -0.00014912538990710658 -0.014171698963596897 0 -0.0001292307635816846 -0.014362136952342017 0 7.3537113497860669e-06 -0.01426336484481279 0 -0.00014912538990710658 -0.014171698963596897 0 7.3537113497860669e-06 -0.01426336484481279 0 0.00019495016390369847 -0.014421077210662245 0 -1.8515840094762447e-05 -0.014444832486801916 0 -0.0001292307635816846 -0.014362136952342017 0 7.3537113497860669e-06 -0.01426336484481279 0 -1.8515840094762447e-05 -0.014444832486801916 0 4.4042415922207133e-06 -0.014760264529247726 0 -4.67529532430425e-05 -0.014880810042581944 0 8.6645663233058542e-06 -0.015014358222427903 0 -6.4670416756288295e-10 -0.014999737560060598 0 1.5885723269983571e-08 -0.01500017384488922 0 8.6645663233058542e-06 -0.015014358222427903 0 -3.3346161562619915e-06 -0.014998680228455234 0 1.5885723269983571e-08 -0.01500017384488922 0 7.3537113497860669e-06 -0.01426336484481279 0 0.00019495016390369847 -0.014421077210662245 0 0.00021386164235452927 -0.014148679714570421 0 4.4042415922207133e-06 -0.014760264529247726 0 1.4494083427159907e-05 -0.014771121001977595 0 0.00019495016390369847 -0.014421077210662245 0 -1.8515840094762447e-05 -0.014444832486801916 0 -1.5487470993443631e-07 -0.014626875800727374 0 8.6645663233058542e-06 -0.015014358222427903 0 -6.4670416756288295e-10 -0.014999737560060598 0 4.7720830893712758e-05 -0.014885416898217851 0 0.00019495016390369847 -0.014421077210662245 0 -1.5487470993443631e-07 -0.014626875800727374 0 4.7720830893712758e-05 -0.014885416898217851 0 -0.0001292307635816846 -0.014362136952342017 0 -1.8515840094762447e-05 -0.014444832486801916 0 -8.530374260957902e-05 -0.014540484959854711 0 -1.8515840094762447e-05 -0.014444832486801916 0 -1.5487470993443631e-07 -0.014626875800727374 0 -8.530374260957902e-05 -0.014540484959854711 0 -8.530374260957902e-05 -0.014540484959854711 0 -5.7605280648889587e-05 -0.014726565459443498 0 -0.00014091330203994446 -0.014594416888920205 0 -1.5487470993443631e-07 -0.014626875800727374 0 -5.7605280648889587e-05 -0.014726565459443498 0 4.7720830893712758e-05 -0.014885416898217851 0 -1.5487470993443631e-07 -0.014626875800727374 0 -8.530374260957902e-05 -0.014540484959854711 0 -5.7605280648889587e-05 -0.014726565459443498 0 -5.7605280648889587e-05 -0.014726565459443498 0 4.7720830893712758e-05 -0.014885416898217851 0 -6.1366847619879167e-06 -0.014861674609737325 0 -6.4670416756288295e-10 -0.014999737560060598 0 4.7720830893712758e-05 -0.014885416898217851 0 1.3090725085564254e-07 -0.014999787379169342 0 4.7720830893712758e-05 -0.014885416898217851 0 -6.1366847619879167e-06 -0.014861674609737325 0 1.3090725085564254e-07 -0.014999787379169342 0 -6.1366847619879167e-06 -0.014861674609737325 0 1.3090725085564254e-07 -0.014999787379169342 0 -3.7926940366316712e-05 -0.014816865559100211 0 -7.5908485089018235e-05 -0.014693800357030743 0 -3.7926940366316712e-05 -0.014816865559100211 0 -0.00011966980839232077 -0.014640884995427178 0 -5.7605280648889587e-05 -0.014726565459443498 0 -3.7926940366316712e-05 -0.014816865559100211 0 -0.00011966980839232077 -0.014640884995427178 0 -5.7605280648889587e-05 -0.014726565459443498 0 -6.1366847619879167e-06 -0.014861674609737325 0 -3.7926940366316712e-05 -0.014816865559100211 0 -9.5003147155981883e-05 -0.01455383830753381 0 -0.00011966980839232077 -0.014640884995427178 0 -0.00020554905730949793 -0.01450011424101017 0 -0.00011966980839232077 -0.014640884995427178 0 -0.00019469584221360579 -0.014547156294227516 0 -0.00014091330203994446 -0.014594416888920205 0 -0.00011966980839232077 -0.014640884995427178 0 -0.00020554905730949793 -0.01450011424101017 0 -0.00019469584221360579 -0.014547156294227516 0 -0.00030412245943642037 -0.014306895864785884 0 -0.00024650387167659865 -0.014445397167748278 0 -0.00020554905730949793 -0.01450011424101017 0 -0.00024650387167659865 -0.014445397167748278 0 -0.00020554905730949793 -0.01450011424101017 0 -0.00024943691684111596 -0.014493158201403837 0 -0.00020554905730949793 -0.01450011424101017 0 -0.00019469584221360579 -0.014547156294227516 0 -0.00024943691684111596 -0.014493158201403837 0 -0.00033771820331988278 -0.014388934721910643 0 -0.0002125533893797861 -0.014471428276676393 0 -0.00024943691684111596 -0.014493158201403837 0 -0.0002125533893797861 -0.014471428276676393 0 -0.00019469584221360579 -0.014547156294227516 0 -0.00024943691684111596 -0.014493158201403837 0 -0.0002125533893797861 -0.014471428276676393 0 -0.00019469584221360579 -0.014547156294227516 0 -0.00014091330203994446 -0.014594416888920205 0 -0.0002125533893797861 -0.014471428276676393 0 -8.530374260957902e-05 -0.014540484959854711 0 -0.00014091330203994446 -0.014594416888920205 0 -5.7605280648889587e-05 -0.014726565459443498 0 -0.00011966980839232077 -0.014640884995427178 0 -0.00014091330203994446 -0.014594416888920205 0 -4.9104115780949006e-05 -0.0085892729403081007 0 -6.9692148116470067e-05 -0.0088340806437259469 0 7.0246479305117844e-05 -0.0087747921872889066 0 -4.9104115780949006e-05 -0.0085892729403081007 0 -0.00014768418234143579 -0.0088074383154099298 0 -6.9692148116470067e-05 -0.0088340806437259469 0 -4.9104115780949006e-05 -0.0085892729403081007 0 7.0246479305117844e-05 -0.0087747921872889066 0 7.9637524526102331e-05 -0.0085165251262994193 0 -4.9104115780949006e-05 -0.0085892729403081007 0 -0.00014768418234143579 -0.0088074383154099298 0 -0.00014944094991121461 -0.0085910318253376132 0 -0.00014768418234143579 -0.0088074383154099298 0 -0.00014944094991121461 -0.0085910318253376132 0 -0.00018381156616965297 -0.0089043887549234303 0 -0.00014944094991121461 -0.0085910318253376132 0 -4.6760532013105736e-05 -0.0079826005883508969 0 2.1706811132522516e-05 -0.0082615526258717209 0 -4.9104115780949006e-05 -0.0085892729403081007 0 -0.00014944094991121461 -0.0085910318253376132 0 2.1706811132522516e-05 -0.0082615526258717209 0 -4.9104115780949006e-05 -0.0085892729403081007 0 2.1706811132522516e-05 -0.0082615526258717209 0 7.9637524526102331e-05 -0.0085165251262994193 0 -4.6760532013105736e-05 -0.0079826005883508969 0 -1.5836166093254737e-07 -0.0080836940878491227 0 -1.1702802386854794e-07 -0.0072045322975850768 0 -4.6760532013105736e-05 -0.0079826005883508969 0 -1.5836166093254737e-07 -0.0080836940878491227 0 -0.00010060622210533658 -0.0085571432843797035 0 -0.00014944094991121461 -0.0085910318253376132 0 -4.6760532013105736e-05 -0.0079826005883508969 0 -0.00010060622210533658 -0.0085571432843797035 0 -0.00014944094991121461 -0.0085910318253376132 0 -0.00010060622210533658 -0.0085571432843797035 0 -0.00014045927062774179 -0.0090066223964191776 0 -0.00010060622210533658 -0.0085571432843797035 0 -2.397662719945006e-07 -0.0089623765593103803 0 -0.00014045927062774179 -0.0090066223964191776 0 -1.5836166093254737e-07 -0.0080836940878491227 0 -0.00010060622210533658 -0.0085571432843797035 0 -2.397662719945006e-07 -0.0089623765593103803 0 -2.397662719945006e-07 -0.0089623765593103803 0 -0.00014045927062774179 -0.0090066223964191776 0 -3.1667438709167234e-05 -0.0095636347244076377 0 -0.00014045927062774179 -0.0090066223964191776 0 -0.00018381156616965297 -0.0089043887549234303 0 -5.9334639330667201e-05 -0.0092670823174068502 0 -0.00014944094991121461 -0.0085910318253376132 0 -0.00014045927062774179 -0.0090066223964191776 0 -0.00018381156616965297 -0.0089043887549234303 0 -0.00014768418234143579 -0.0088074383154099298 0 -0.00018381156616965297 -0.0089043887549234303 0 -0.00017128314748045506 -0.0088665751295121959 0 -0.00018381156616965297 -0.0089043887549234303 0 -5.9334639330667201e-05 -0.0092670823174068502 0 -0.00014679366929929404 -0.0088865729464863291 0 0.00039800282401320804 -0.0086138158889440854 0 0.00054330876448130698 -0.0084664860045270771 0 -5.9334639330667201e-05 -0.0092670823174068502 0 0.00026335689258515983 -0.0098287141594268768 0 0.0002663997739275894 -0.008997394355120085 0 0.00055617224354169881 -0.0098863705328544847 0 0.00063075847416812526 -0.0099481511412724804 0 -5.9334639330667201e-05 -0.0092670823174068502 0 0.00026335689258515983 -0.0098287141594268768 0 -3.1667438709167234e-05 -0.0095636347244076377 0 -0.00014045927062774179 -0.0090066223964191776 0 -5.9334639330667201e-05 -0.0092670823174068502 0 -3.1667438709167234e-05 -0.0095636347244076377 0 -2.397662719945006e-07 -0.0089623765593103803 0 -3.1667438709167234e-05 -0.0095636347244076377 0 -1.9588372751717034e-08 -0.0098409803604732737 0 -3.1667438709167234e-05 -0.0095636347244076377 0 -1.9588372751717034e-08 -0.0098409803604732737 0 3.033723136061292e-05 -0.010106350023878746 0 -1.9588372751717034e-08 -0.0098409803604732737 0 4.8085787623360232e-08 -0.010719606095520737 0 3.033723136061292e-05 -0.010106350023878746 0 0.00026335689258515983 -0.0098287141594268768 0 -3.1667438709167234e-05 -0.0095636347244076377 0 3.033723136061292e-05 -0.010106350023878746 0 0.00026335689258515983 -0.0098287141594268768 0 6.7373046330685253e-05 -0.010219488661899702 0 3.033723136061292e-05 -0.010106350023878746 0 6.7373046330685253e-05 -0.010219488661899702 0 3.033723136061292e-05 -0.010106350023878746 0 1.2936858344693617e-05 -0.01053300133390743 0 4.8085787623360232e-08 -0.010719606095520737 0 3.033723136061292e-05 -0.010106350023878746 0 1.2936858344693617e-05 -0.01053300133390743 0 4.8085787623360232e-08 -0.010719606095520737 0 0.0001013583206624311 -0.011134875081464225 0 1.2936858344693617e-05 -0.01053300133390743 0 6.5683021960086351e-07 -0.01159870842550904 0 4.8085787623360232e-08 -0.010719606095520737 0 0.0001013583206624311 -0.011134875081464225 0 0.0001013583206624311 -0.011134875081464225 0 1.2936858344693617e-05 -0.01053300133390743 0 5.2735731594747452e-05 -0.010438761573521577 0 6.7373046330685253e-05 -0.010219488661899702 0 5.2735731594747452e-05 -0.010438761573521577 0 7.2082992374925648e-05 -0.010249094567609548 0 6.7373046330685253e-05 -0.010219488661899702 0 1.2936858344693617e-05 -0.01053300133390743 0 5.2735731594747452e-05 -0.010438761573521577 0 7.2082992374925648e-05 -0.010249094567609548 0 0.00014974354471667084 -0.010152488087239127 0 0.00010133890262663579 -0.010364314145101463 0 6.7373046330685253e-05 -0.010219488661899702 0 7.2082992374925648e-05 -0.010249094567609548 0 0.00014974354471667084 -0.010152488087239127 0 0.00026335689258515983 -0.0098287141594268768 0 6.7373046330685253e-05 -0.010219488661899702 0 0.00014974354471667084 -0.010152488087239127 0 0.00026335689258515983 -0.0098287141594268768 0 0.00014974354471667084 -0.010152488087239127 0 0.00029659923536343901 -0.010515645966059778 0 0.00026335689258515983 -0.0098287141594268768 0 0.00029659923536343901 -0.010515645966059778 0 0.00068801709301464912 -0.010642098104921676 0 7.465022126456865e-05 -0.010712079012122597 0 0.00029659923536343901 -0.010515645966059778 0 0.00010133890262663579 -0.010364314145101463 0 0.00014974354471667084 -0.010152488087239127 0 0.00029659923536343901 -0.010515645966059778 0 0.00010133890262663579 -0.010364314145101463 0 7.465022126456865e-05 -0.010712079012122597 0 0.00010902344932693929 -0.011219625255682975 0 0.00036371938511951276 -0.010972169078546545 0 7.465022126456865e-05 -0.010712079012122597 0 0.00029659923536343901 -0.010515645966059778 0 0.00036371938511951276 -0.010972169078546545 0 0.00029659923536343901 -0.010515645966059778 0 0.00036371938511951276 -0.010972169078546545 0 0.00052224562628657117 -0.010949688070037164 0 0.00029659923536343901 -0.010515645966059778 0 0.00052224562628657117 -0.010949688070037164 0 0.00068801709301464912 -0.010642098104921676 0 0.00036371938511951276 -0.010972169078546545 0 0.00052224562628657117 -0.010949688070037164 0 0.00039776751916234044 -0.011147902403505307 0 0.00068771154487974856 -0.011315312509203663 0 0.00086734599058788673 -0.010430529484136256 0 0.00052224562628657117 -0.010949688070037164 0 0.00039776751916234044 -0.011147902403505307 0 0.0007571056019159227 -0.011146450767409798 0 0.00036371938511951276 -0.010972169078546545 0 0.00074688355014824754 -0.011557296886411451 0 0.00049204966858826303 -0.011584598887872347 0 0.00068771154487974856 -0.011315312509203663 0 0.00067684724254463678 -0.011322231523000813 0 0.00010902344932693929 -0.011219625255682975 0 0.00036371938511951276 -0.010972169078546545 0 0.00049204966858826303 -0.011584598887872347 0 0.00064988886707088888 -0.011255901779169707 0 0.00068771154487974856 -0.011315312509203663 0 0.00010902344932693929 -0.011219625255682975 0 0.00015744586302487699 -0.011674284959889576 0 0.00049204966858826303 -0.011584598887872347 0 0.00015744586302487699 -0.011674284959889576 0 0.00049204966858826303 -0.011584598887872347 0 0.00043864986296870105 -0.011993950606365456 0 0.0008835965186908888 -0.011567045728915768 0 0.00064787759629106366 -0.011852940645539921 0 0.00078682740784391601 -0.012241232210165136 0 0.00049204966858826303 -0.011584598887872347 0 0.00064787759629106366 -0.011852940645539921 0 0.00043864986296870105 -0.011993950606365456 0 0.0008835965186908888 -0.011567045728915768 0 0.00049204966858826303 -0.011584598887872347 0 0.00064787759629106366 -0.011852940645539921 0 0.00078682740784391601 -0.012241232210165136 0 0.00043864986296870105 -0.011993950606365456 0 0.00043079815557232291 -0.012459911982519788 0 0.00064787759629106366 -0.011852940645539921 0 0.00078682740784391601 -0.012241232210165136 0 0.00043864986296870105 -0.011993950606365456 0 5.6396893610381764e-05 -0.012094549794178372 0 0.00043864986296870105 -0.011993950606365456 0 0.00043079815557232291 -0.012459911982519788 0 0.00078682740784391601 -0.012241232210165136 0 0.00043079815557232291 -0.012459911982519788 0 0.00063995394047848899 -0.012872143522112961 0 9.6566101082307614e-05 -0.012893451400311574 0 0.00043079815557232291 -0.012459911982519788 0 0.00063995394047848899 -0.012872143522112961 0 0.00078682740784391601 -0.012241232210165136 0 0.00063995394047848899 -0.012872143522112961 0 0.0012634373593918462 -0.01270711600792836 0 0.0008835965186908888 -0.011567045728915768 0 0.00078682740784391601 -0.012241232210165136 0 0.0012634373593918462 -0.01270711600792836 0 0.00070490958747007756 -0.011929736497083572 0 0.0010153718051013182 -0.012834935643743143 0 0.0012055976222397769 -0.012323163056142585 0 0.00070490958747007756 -0.011929736497083572 0 0.0012055976222397769 -0.012323163056142585 0 0.0015005011077852126 -0.011863633823255004 0 0.00068771154487974856 -0.011315312509203663 0 0.0011030737175875274 -0.012642829342803696 0 0.0012055976222397769 -0.012323163056142585 0 0.0016004627359918716 -0.012662579152689819 0 0.0015005011077852126 -0.011863633823255004 0 0.0012052625599122812 -0.011674658267811217 0 0.00086734599058788673 -0.010430529484136256 0 0.0010153718051013182 -0.012834935643743143 0 0.0012055976222397769 -0.012323163056142585 0 0.0016004627359918716 -0.012662579152689819 0 0.0010153718051013182 -0.012834935643743143 0 0.0016004627359918716 -0.012662579152689819 0 0.0014081607725777627 -0.013165932049461766 0 0.0012033827006796751 -0.010817175114127199 0 0.0018553647919220184 -0.011329266260034263 0 0.0021122666079044145 -0.010398586577259642 0 0.0018553647919220184 -0.011329266260034263 0 0.0021122666079044145 -0.010398586577259642 0 0.0025510363324230166 -0.011299562839772887 0 0.0012033827006796751 -0.010817175114127199 0 0.0021122666079044145 -0.010398586577259642 0 0.0010386036045122388 -0.0095284974091360882 0 0.0021122666079044145 -0.010398586577259642 0 0.0010386036045122388 -0.0095284974091360882 0 0.0023158767317306731 -0.0094201946061498263 0 0.00019624742825542372 -0.0085277564163848615 0 -2.6646873338740334e-05 -0.008823712160718037 0 -0.0002181942558056317 -0.0085663820853739379 0 0.00086734599058788673 -0.010430529484136256 0 0.0011109772774334946 -0.0093401592975794877 0 0.00052224562628657117 -0.010949688070037164 0 0.0007571056019159227 -0.011146450767409798 0 0.00068801709301464912 -0.010642098104921676 0 0.00086734599058788673 -0.010430529484136256 0 0.00063075847416812526 -0.0099481511412724804 0 0.00019624742825542372 -0.0085277564163848615 0 0.0002663997739275894 -0.008997394355120085 0 -2.6646873338740334e-05 -0.008823712160718037 0 -2.6646873338740334e-05 -0.008823712160718037 0 -0.00033306258531327155 -0.0089273238470671847 0 -0.0002181942558056317 -0.0085663820853739379 0 -5.9334639330667201e-05 -0.0092670823174068502 0 0.0002663997739275894 -0.008997394355120085 0 -2.6646873338740334e-05 -0.008823712160718037 0 -5.9334639330667201e-05 -0.0092670823174068502 0 -2.6646873338740334e-05 -0.008823712160718037 0 -0.00033306258531327155 -0.0089273238470671847 0 -0.00018381156616965297 -0.0089043887549234303 0 -0.00014679366929929404 -0.0088865729464863291 0 -0.00017128314748045506 -0.0088665751295121959 0 -0.00014679366929929404 -0.0088865729464863291 0 -0.00017128314748045506 -0.0088665751295121959 0 -0.0001798625888381077 -0.0089041726611666719 0 0.00054330876448130698 -0.0084664860045270771 0 0.0014435587599528048 -0.0084093180459048553 0 -0.00014768418234143579 -0.0088074383154099298 0 -0.00017128314748045506 -0.0088665751295121959 0 -0.0001798625888381077 -0.0089041726611666719 0 -0.00033306258531327155 -0.0089273238470671847 0 -0.00061763960248904142 -0.0086018391405283442 0 -0.0002181942558056317 -0.0085663820853739379 0 0.0014435587599528048 -0.0084093180459048553 0 0.0011109772774334946 -0.0093401592975794877 0 0.0035918518779349861 -0.00931050531056812 0 0.0023158767317306731 -0.0094201946061498263 0 0.0032453996430307024 -0.010427779598573706 0 0.0021122666079044145 -0.010398586577259642 0 0.0023158767317306731 -0.0094201946061498263 0 0.0032453996430307024 -0.010427779598573706 0 0.0021122666079044145 -0.010398586577259642 0 0.0025510363324230166 -0.011299562839772887 0 0.0032453996430307024 -0.010427779598573706 0 0.0032453996430307024 -0.010427779598573706 0 0.0045791101024259262 -0.01039709182453484 0 0.0039417734734610143 -0.011627595310478559 0 0.0025510363324230166 -0.011299562839772887 0 0.0032453996430307024 -0.010427779598573706 0 0.0039417734734610143 -0.011627595310478559 0 0.0035918518779349861 -0.00931050531056812 0 0.0032453996430307024 -0.010427779598573706 0 0.0045791101024259262 -0.01039709182453484 0 0.0014435587599528048 -0.0084093180459048553 0 0.0019794230343087083 -0.0071806894173900293 0 0.0019794230343087083 -0.0071806894173900293 0 0.0027023309536359941 -0.0072886800199190374 0 0.0026049677586102243 -0.0039340909706240476 0 0.0021920688198889902 -0.0034651186286959799 0 0.0029121352137525553 -0.0033345742149202286 0 0.0026358011082882812 -0.0039257579262627776 0 0.0021920688198889902 -0.0034651186286959799 0 0.0021066777080688413 -0.0040904805390716325 0 0.0019794230343087083 -0.0071806894173900293 0 0.0014645436165705531 -0.0058484794013829566 0 0.0026358011082882812 -0.0039257579262627776 0 0.0021066777080688413 -0.0040904805390716325 0 0.0022508534341336142 -0.0047503233755128672 0 0.0019794230343087083 -0.0071806894173900293 0 0.0013880268634598747 -0.0073146982476144321 0 0.0021066777080688413 -0.0040904805390716325 0 0.0022508534341336142 -0.0047503233755128672 0 0.001742687617154377 -0.0048150171601525809 0 0.0013880268634598747 -0.0073146982476144321 0 0.0015074665857933702 -0.0071773602648915469 0 0.0014435587599528048 -0.0084093180459048553 0 0.0013880268634598747 -0.0073146982476144321 0 -0.0001798625888381077 -0.0089041726611666719 0 -4.628149174024548e-05 -0.0089180281650893829 0 -6.9692148116470067e-05 -0.0088340806437259469 0 0.0015602795751821013 -0.0077237732007650094 0 0.001606860515718455 -0.0077733660580523098 0 0.0016366787706473995 -0.0077161032731007566 0 -0.00014768418234143579 -0.0088074383154099298 0 -0.0001798625888381077 -0.0089041726611666719 0 -6.9692148116470067e-05 -0.0088340806437259469 0 0.0013880268634598747 -0.0073146982476144321 0 0.0011033892893988499 -0.0072610491798722346 0 -4.628149174024548e-05 -0.0089180281650893829 0 -6.9692148116470067e-05 -0.0088340806437259469 0 7.0246479305117844e-05 -0.0087747921872889066 0 0.0021386892095640766 -0.0047850213129253718 0 0.0017007584864736573 -0.0055006299616223858 0 0.001742687617154377 -0.0048150171601525809 0 0.0023405502050116364 -0.0020303410058549092 0 0.0022252118461879317 -0.0024509295647279807 0 0.0020151392931783739 -0.0020886439526157548 0 0.0023405502050116364 -0.0020303410058549092 0 0.0026988051861949595 -0.001878161288313913 0 0.0023964096231183984 -0.0016829830583621685 0 0.0023405502050116364 -0.0020303410058549092 0 0.0026988051861949595 -0.001878161288313913 0 0.0026656732452611954 -0.0023579447799855699 0 0.0026988051861949595 -0.001878161288313913 0 0.0026656732452611954 -0.0023579447799855699 0 0.0030297440459608567 -0.0020981099299338642 0 0.0026656732452611954 -0.0023579447799855699 0 0.0022252118461879317 -0.0024509295647279807 0 0.0024882803004478301 -0.0028875610256284706 0 0.0023405502050116364 -0.0020303410058549092 0 0.0026656732452611954 -0.0023579447799855699 0 0.0022252118461879317 -0.0024509295647279807 0 0.0022252118461879317 -0.0024509295647279807 0 0.0024882803004478301 -0.0028875610256284706 0 0.0019927276543878453 -0.0028889781423347208 0 0.0021920688198889902 -0.0034651186286959799 0 0.0024882803004478301 -0.0028875610256284706 0 0.0019927276543878453 -0.0028889781423347208 0 0.0021920688198889902 -0.0034651186286959799 0 0.0024882803004478301 -0.0028875610256284706 0 0.0029121352137525553 -0.0033345742149202286 0 0.0024882803004478301 -0.0028875610256284706 0 0.0031917394662007814 -0.0027506481136820231 0 0.0029121352137525553 -0.0033345742149202286 0 0.0026656732452611954 -0.0023579447799855699 0 0.0024882803004478301 -0.0028875610256284706 0 0.0031917394662007814 -0.0027506481136820231 0 0.0028359539472396817 -0.0076409154322744002 0 0.0027023309536359941 -0.0072886800199190374 0 0.0025510363324230166 -0.011299562839772887 0 0.0039417734734610143 -0.011627595310478559 0 0.00286802317987149 -0.012071804789180362 0 0.0032979638348929531 -0.01286746888902442 0 0.0039417734734610143 -0.011627595310478559 0 0.00286802317987149 -0.012071804789180362 0 0.0025510363324230166 -0.011299562839772887 0 0.00286802317987149 -0.012071804789180362 0 0.0021362423086585683 -0.011928556468518285 0 0.00286802317987149 -0.012071804789180362 0 0.0022295795880374657 -0.012647245985162699 0 0.0021362423086585683 -0.011928556468518285 0 0.0032979638348929531 -0.01286746888902442 0 0.0022508807986370456 -0.013378120772579521 0 0.0022295795880374657 -0.012647245985162699 0 0.0032979638348929531 -0.01286746888902442 0 0.00286802317987149 -0.012071804789180362 0 0.0022295795880374657 -0.012647245985162699 0 0.0032979638348929531 -0.01286746888902442 0 0.0026191814164658045 -0.014098436406152806 0 0.0022508807986370456 -0.013378120772579521 0 0.0028359539472396817 -0.0076409154322744002 0 0.0027066542475567877 -0.007969177720958039 0 0.0026191814164658045 -0.014098436406152806 0 0.0020568325304650375 -0.013888823224550114 0 0.0022508807986370456 -0.013378120772579521 0 0.0026656732452611954 -0.0023579447799855699 0 0.0031917394662007814 -0.0027506481136820231 0 0.0030297440459608567 -0.0020981099299338642 0 0.0031917394662007814 -0.0027506481136820231 0 0.0030297440459608567 -0.0020981099299338642 0 0.0034422319590117472 -0.0021926525194238505 0 0.0030297440459608567 -0.0020981099299338642 0 0.0032897508083535652 -0.0018730212431499573 0 0.0030275093779066633 -0.0016893967735329954 0 0.0026988051861949595 -0.001878161288313913 0 0.0030297440459608567 -0.0020981099299338642 0 0.0030275093779066633 -0.0016893967735329954 0 0.0034422319590117472 -0.0021926525194238505 0 0.0036749293606060255 -0.0016703317977722813 0 0.0032897508083535652 -0.0018730212431499573 0 0.0030297440459608567 -0.0020981099299338642 0 0.0034422319590117472 -0.0021926525194238505 0 0.0032897508083535652 -0.0018730212431499573 0 0.0027066542475567877 -0.007969177720958039 0 0.0023606764549654155 -0.0082765609772398052 0 0.0018004655669127813 -0.014633020272437932 0 0.0016237912124786435 -0.014415120895316933 0 0.0017501851824315896 -0.014138277466216726 0 0.0026191814164658045 -0.014098436406152806 0 0.0018004655669127813 -0.014633020272437932 0 0.0019867586107180195 -0.015018441716510962 0 0.0018004655669127813 -0.014633020272437932 0 0.0015559518058164447 -0.013420183576896708 0 0.0020568325304650375 -0.013888823224550114 0 0.0026191814164658045 -0.014098436406152806 0 0.0018004655669127813 -0.014633020272437932 0 0.0020568325304650375 -0.013888823224550114 0 0.0016464114875205185 -0.013997108817243092 0 0.001577404030209403 -0.013571778421089272 0 0.0018004655669127813 -0.014633020272437932 0 0.0015181605225922067 -0.014710458609900723 0 0.0016237912124786435 -0.014415120895316933 0 0.0016237912124786435 -0.014415120895316933 0 0.0011713514857431 -0.014444809448569226 0 0.0012929901379305335 -0.014661589177502061 0 0.0015181605225922067 -0.014710458609900723 0 0.0016237912124786435 -0.014415120895316933 0 0.0012929901379305335 -0.014661589177502061 0 0.0015181605225922067 -0.014710458609900723 0 0.0012929901379305335 -0.014661589177502061 0 0.0012928373276008711 -0.014851427797118321 0 0.0016237912124786435 -0.014415120895316933 0 0.0017501851824315896 -0.014138277466216726 0 0.001336620261566627 -0.013705420792269113 0 0.0016237912124786435 -0.014415120895316933 0 0.0015081120770461596 -0.013740035863021211 0 0.0013183661075130081 -0.014184863681431405 0 0.001510994875456501 -0.013954097628466297 0 0.0013807350956980277 -0.013536735319582627 0 0.0016237912124786435 -0.014415120895316933 0 0.0013183661075130081 -0.014184863681431405 0 0.0011713514857431 -0.014444809448569226 0 0.0015559518058164447 -0.013420183576896708 0 0.0020568325304650375 -0.013888823224550114 0 0.0022508807986370456 -0.013378120772579521 0 0.0015559518058164447 -0.013420183576896708 0 0.0022508807986370456 -0.013378120772579521 0 0.0022295795880374657 -0.012647245985162699 0 0.001577404030209403 -0.013571778421089272 0 0.0014252304523639861 -0.012709003912923072 0 0.0015559518058164447 -0.013420183576896708 0 0.0022295795880374657 -0.012647245985162699 0 0.0013697839297652939 -0.012114576052242329 0 0.0012033827006796751 -0.010817175114127199 0 0.0018553647919220184 -0.011329266260034263 0 0.0013697839297652939 -0.012114576052242329 0 0.0022295795880374657 -0.012647245985162699 0 0.0021362423086585683 -0.011928556468518285 0 0.0013697839297652939 -0.012114576052242329 0 0.0018553647919220184 -0.011329266260034263 0 0.0021362423086585683 -0.011928556468518285 0 0.0013697839297652939 -0.012114576052242329 0 0.0018553647919220184 -0.011329266260034263 0 0.0025510363324230166 -0.011299562839772887 0 0.0021362423086585683 -0.011928556468518285 0 0.0016004627359918716 -0.012662579152689819 0 0.0014081607725777627 -0.013165932049461766 0 0.0016859944925306423 -0.013447031812202231 0 0.0014081607725777627 -0.013165932049461766 0 0.0016859944925306423 -0.013447031812202231 0 0.001336620261566627 -0.013705420792269113 0 0.0012052625599122812 -0.011674658267811217 0 0.0014252304523639861 -0.012709003912923072 0 0.0010153718051013182 -0.012834935643743143 0 0.0014081607725777627 -0.013165932049461766 0 0.001336620261566627 -0.013705420792269113 0 0.0017501851824315896 -0.014138277466216726 0 0.0016859944925306423 -0.013447031812202231 0 0.001336620261566627 -0.013705420792269113 0 0.0015081120770461596 -0.013740035863021211 0 0.00093871173508645802 -0.013390776357444078 0 0.0009515412737778027 -0.014110010090134068 0 0.0015081120770461596 -0.013740035863021211 0 0.0009515412737778027 -0.014110010090134068 0 0.0013183661075130081 -0.014184863681431405 0 0.00063995394047848899 -0.012872143522112961 0 0.0012634373593918462 -0.01270711600792836 0 0.00093871173508645802 -0.013390776357444078 0 0.0012634373593918462 -0.01270711600792836 0 0.0015081120770461596 -0.013740035863021211 0 0.00093871173508645802 -0.013390776357444078 0 0.0011030737175875274 -0.012642829342803696 0 0.0013807350956980277 -0.013536735319582627 0 9.6566101082307614e-05 -0.012893451400311574 0 0.00063995394047848899 -0.012872143522112961 0 0.00035508760607351334 -0.013483356859145297 0 0.00063995394047848899 -0.012872143522112961 0 0.00093871173508645802 -0.013390776357444078 0 0.00035508760607351334 -0.013483356859145297 0 0.00093871173508645802 -0.013390776357444078 0 0.00035508760607351334 -0.013483356859145297 0 0.0009515412737778027 -0.014110010090134068 0 0.00035508760607351334 -0.013483356859145297 0 0.0009515412737778027 -0.014110010090134068 0 2.1287409123348502e-05 -0.014082128222581527 0 0.0009515412737778027 -0.014110010090134068 0 0.0011713514857431 -0.014444809448569226 0 0.00070101113778214894 -0.014595870382332657 0 0.0009515412737778027 -0.014110010090134068 0 0.00070101113778214894 -0.014595870382332657 0 0.00053440089115042231 -0.014294504885918045 0 0.00059599858530103337 -0.014252648068061164 0 0.00034645352202451724 -0.014283011150878298 0 0.0009515412737778027 -0.014110010090134068 0 0.0013183661075130081 -0.014184863681431405 0 0.0011713514857431 -0.014444809448569226 0 0.0011713514857431 -0.014444809448569226 0 0.0010443456211099991 -0.014690493035821695 0 0.00070101113778214894 -0.014595870382332657 0 0.0011713514857431 -0.014444809448569226 0 0.0012929901379305335 -0.014661589177502061 0 0.0010443456211099991 -0.014690493035821695 0 0.0012929901379305335 -0.014661589177502061 0 0.0010443456211099991 -0.014690493035821695 0 0.0011246973630158264 -0.014848303588321494 0 0.0010443456211099991 -0.014690493035821695 0 0.00070101113778214894 -0.014595870382332657 0 0.00095775500820654853 -0.014878352371662847 0 0.00070101113778214894 -0.014595870382332657 0 0.00084417349810771136 -0.01509843695246567 0 0.00095775500820654853 -0.014878352371662847 0 0.00070101113778214894 -0.014595870382332657 0 0.00076968759384152545 -0.01499715753259051 0 0.00059246715259544155 -0.014800522217452247 0 0.00076198105099837426 -0.0147526307863503 0 0.00077808208883598364 -0.014790804337297001 0 0.00084417349810771136 -0.01509843695246567 0 0.00097661294772649642 -0.015053479829489166 0 0.00095775500820654853 -0.014878352371662847 0 0.00076968759384152545 -0.01499715753259051 0 0.0006497755380251598 -0.015009364261700717 0 0.00059246715259544155 -0.014800522217452247 0 0.0010443456211099991 -0.014690493035821695 0 0.00095775500820654853 -0.014878352371662847 0 0.0011246973630158264 -0.014848303588321494 0 0.00095775500820654853 -0.014878352371662847 0 0.0011246973630158264 -0.014848303588321494 0 0.0010670503097502376 -0.014983466044710824 0 0.0012929901379305335 -0.014661589177502061 0 0.0011246973630158264 -0.014848303588321494 0 0.0012928373276008711 -0.014851427797118321 0 0.0011246973630158264 -0.014848303588321494 0 0.0012928373276008711 -0.014851427797118321 0 0.001232208455807144 -0.015025202554547451 0 0.0012928373276008711 -0.014851427797118321 0 0.001232208455807144 -0.015025202554547451 0 0.0014152730220652193 -0.014951616457158543 0 0.0011246973630158264 -0.014848303588321494 0 0.001232208455807144 -0.015025202554547451 0 0.0010670503097502376 -0.014983466044710824 0 0.00097661294772649642 -0.015053479829489166 0 0.00095775500820654853 -0.014878352371662847 0 0.0010670503097502376 -0.014983466044710824 0 0.001232208455807144 -0.015025202554547451 0 0.0010670503097502376 -0.014983466044710824 0 0.0011163288736245006 -0.015101488337089268 0 0.00097661294772649642 -0.015053479829489166 0 0.0010670503097502376 -0.014983466044710824 0 0.0011163288736245006 -0.015101488337089268 0 0.00097661294772649642 -0.015053479829489166 0 0.0011163288736245006 -0.015101488337089268 0 0.0010455153940127197 -0.015248584607268845 0 0.0010455153940127197 -0.015248584607268845 0 0.0011760642521615342 -0.015403732988188472 0 0.00097589754661952903 -0.015634987646934655 0 0.0011163288736245006 -0.015101488337089268 0 0.0010455153940127197 -0.015248584607268845 0 0.0012005883023725255 -0.015200669095143022 0 0.0012005883023725255 -0.015200669095143022 0 0.0013433961310536141 -0.015339826016294297 0 0.0013970992780567937 -0.015128333254283038 0 0.001232208455807144 -0.015025202554547451 0 0.0011163288736245006 -0.015101488337089268 0 0.0012005883023725255 -0.015200669095143022 0 0.001232208455807144 -0.015025202554547451 0 0.0012005883023725255 -0.015200669095143022 0 0.0013970992780567937 -0.015128333254283038 0 0.0012005883023725255 -0.015200669095143022 0 0.0011760642521615342 -0.015403732988188472 0 0.0013433961310536141 -0.015339826016294297 0 0.0011760642521615342 -0.015403732988188472 0 0.0012761517500982061 -0.01552871705703765 0 0.0013433961310536141 -0.015339826016294297 0 0.0010455153940127197 -0.015248584607268845 0 0.0012005883023725255 -0.015200669095143022 0 0.0011760642521615342 -0.015403732988188472 0 0.0007590696341063626 -0.015057547750785308 0 0.00083241908294100231 -0.01528875597865474 0 0.00057488750263326113 -0.015158181302906689 0 0.00077808208883598364 -0.014790804337297001 0 0.00062323255939024423 -0.014006797362140078 0 0.00043720249481898535 -0.014712447467218783 0 0.00038509512730753117 -0.014666821410171374 0 0.0007590696341063626 -0.015057547750785308 0 0.0006497755380251598 -0.015009364261700717 0 0.00053030743123264024 -0.015183582882487527 0 0.00084417349810771136 -0.01509843695246567 0 0.0010455153940127197 -0.015248584607268845 0 0.00097589754661952903 -0.015634987646934655 0 0.00076968759384152545 -0.01499715753259051 0 0.0007590696341063626 -0.015057547750785308 0 0.00083241908294100231 -0.01528875597865474 0 0.00084417349810771136 -0.01509843695246567 0 0.00097661294772649642 -0.015053479829489166 0 0.0010455153940127197 -0.015248584607268845 0 0.00076968759384152545 -0.01499715753259051 0 0.0007590696341063626 -0.015057547750785308 0 0.0006497755380251598 -0.015009364261700717 0 0.00062323255939024423 -0.014006797362140078 0 0.00038509512730753117 -0.014666821410171374 0 -2.1920358009199845e-05 -0.014817237611033185 0 -2.8049581935498676e-05 -0.014812724900085904 0 -2.7567820381199821e-05 -0.014821134389402644 0 -2.1920358009199845e-05 -0.014817237611033185 0 -2.4851380967512131e-05 -0.01482148049012025 0 -2.7567820381199821e-05 -0.014821134389402644 0 -2.1920358009199845e-05 -0.014817237611033185 0 -2.4851380967512131e-05 -0.01482148049012025 0 -2.5823227993269748e-05 -0.014822820174395346 0 -2.4851380967512131e-05 -0.01482148049012025 0 -2.5579076026051435e-05 -0.01482380140181149 0 -2.5823227993269748e-05 -0.014822820174395346 0 -2.4851380967512131e-05 -0.01482148049012025 0 -2.7567820381199821e-05 -0.014821134389402644 0 -2.5579076026051435e-05 -0.01482380140181149 0 -0.00068529771644517095 -0.011529892288295878 0 -0.00014046162993944401 -0.01206516140942903 0 -0.00052630563985234485 -0.012258036653157871 0 -0.00068529771644517095 -0.011529892288295878 0 -2.9015908562562298e-05 -0.011854579896803228 0 -0.00014046162993944401 -0.01206516140942903 0 0.00062323255939024423 -0.014006797362140078 0 0.00016080848744450077 -0.01368646282188595 0 0.00097589754661952903 -0.015634987646934655 0 0.0012761517500982061 -0.01552871705703765 0 0.0014108334904918448 -0.015841511324538579 0 0.00062323255939024423 -0.014006797362140078 0 0.00025992764186322432 -0.012138573069524984 0 0.0011760642521615342 -0.015403732988188472 0 0.00097589754661952903 -0.015634987646934655 0 0.0012761517500982061 -0.01552871705703765 0 0.0012761517500982061 -0.01552871705703765 0 0.001439990001592261 -0.015491101709061738 0 0.0013433961310536141 -0.015339826016294297 0 0.0012761517500982061 -0.01552871705703765 0 0.001439990001592261 -0.015491101709061738 0 0.0014108334904918448 -0.015841511324538579 0 0.0014640663250046631 -0.0090874714133174269 0 0.00025992764186322432 -0.012138573069524984 0 0.00026115522312953433 -0.010970161767087721 0 -0.00012800205120814683 -0.01170956769990481 0 0.00032981384442799019 -0.011480695316343589 0 0.001439990001592261 -0.015491101709061738 0 0.0016269162014679022 -0.015441341978192065 0 0.0014108334904918448 -0.015841511324538579 0 -0.00012800205120814683 -0.01170956769990481 0 0.00047890591979438444 -0.011733395527353949 0 0.00032981384442799019 -0.011480695316343589 0 0.00025992764186322432 -0.012138573069524984 0 0.0004635547536873123 -0.012180617977078303 0 -2.2994483670028623e-05 -0.011840682639665595 0 0.00015426445468820613 -0.012137894159754234 0 0.00053531786077333726 -0.012110456445912576 0 0.00025992764186322432 -0.012138573069524984 0 0.00025047938015093575 -0.012137419520594387 0 0.00015426445468820613 -0.012137894159754234 0 -0.00014046162993944401 -0.01206516140942903 0 3.3379266740624075e-05 -0.012336727057666955 0 -2.2994483670028623e-05 -0.011840682639665595 0 0.00015426445468820613 -0.012137894159754234 0 -0.00014046162993944401 -0.01206516140942903 0 0.00049771351934648747 -0.012026932028255923 0 0.00077017140396997525 -0.011736837110734916 0 0.0011072092349245805 -0.012361377744335881 0 -0.00012800205120814683 -0.01170956769990481 0 0.00049771351934648747 -0.012026932028255923 0 0.00047890591979438444 -0.011733395527353949 0 0.00047890591979438444 -0.011733395527353949 0 0.00077017140396997525 -0.011736837110734916 0 0.00032981384442799019 -0.011480695316343589 0 0.00049771351934648747 -0.012026932028255923 0 0.00047890591979438444 -0.011733395527353949 0 0.00077017140396997525 -0.011736837110734916 0 0.003920711992695624 -0.0011754317365450992 0 0.0036015835208017951 -0.00071114478028334069 0 0.0036401606131144901 -0.0010238599731303422 0 0.0014640663250046631 -0.0090874714133174269 0 0.0015184307534170933 -0.0072199225926894706 0 0.0036015835208017951 -0.00071114478028334069 0 0.0036401606131144901 -0.0010238599731303422 0 0.0034948353295520054 -0.00087469152767899591 0 0.00026115522312953433 -0.010970161767087721 0 0.00077017140396997525 -0.011736837110734916 0 0.00032981384442799019 -0.011480695316343589 0 0.003920711992695624 -0.0011754317365450992 0 0.0036401606131144901 -0.0010238599731303422 0 0.0037206060994900941 -0.0011777560424288233 0 0.0036401606131144901 -0.0010238599731303422 0 0.0035610795781397643 -0.0012011443896863868 0 0.0037206060994900941 -0.0011777560424288233 0 0.0035610795781397643 -0.0012011443896863868 0 0.0036667022899509421 -0.0013327203033253977 0 0.0034857199453490646 -0.0014403860451494234 0 0.003920711992695624 -0.0011754317365450992 0 0.0036667022899509421 -0.0013327203033253977 0 0.0036749293606060255 -0.0016703317977722813 0 0.0016404722072108952 -0.015461145596985429 0 0.0016308280197898262 -0.015175364729565032 0 0.0019867586107180195 -0.015018441716510962 0 0.0014640663250046631 -0.0090874714133174269 0 0.0023606764549654155 -0.0082765609772398052 0 0.0035610795781397643 -0.0012011443896863868 0 0.0037206060994900941 -0.0011777560424288233 0 0.0036667022899509421 -0.0013327203033253977 0 0.0036667022899509421 -0.0013327203033253977 0 0.0036749293606060255 -0.0016703317977722813 0 0.0034857199453490646 -0.0014403860451494234 0 0.003920711992695624 -0.0011754317365450992 0 0.0037206060994900941 -0.0011777560424288233 0 0.0036667022899509421 -0.0013327203033253977 0 0.0014640663250046631 -0.0090874714133174269 0 0.0017009573682946577 -0.0096099022096560217 0 0.001439990001592261 -0.015491101709061738 0 0.0016269162014679022 -0.015441341978192065 0 0.0015419801983469021 -0.015309757570370296 0 0.0016404722072108952 -0.015461145596985429 0 0.0015419801983469021 -0.015309757570370296 0 0.0016308280197898262 -0.015175364729565032 0 0.001439990001592261 -0.015491101709061738 0 0.0015419801983469021 -0.015309757570370296 0 0.0013433961310536141 -0.015339826016294297 0 0.0015419801983469021 -0.015309757570370296 0 0.0013433961310536141 -0.015339826016294297 0 0.0013970992780567937 -0.015128333254283038 0 0.0015419801983469021 -0.015309757570370296 0 0.0013970992780567937 -0.015128333254283038 0 0.0016308280197898262 -0.015175364729565032 0 0.0013970992780567937 -0.015128333254283038 0 0.0016308280197898262 -0.015175364729565032 0 0.0016021866377938663 -0.014937525237790661 0 0.001232208455807144 -0.015025202554547451 0 0.0013970992780567937 -0.015128333254283038 0 0.0014152730220652193 -0.014951616457158543 0 0.0013970992780567937 -0.015128333254283038 0 0.0016021866377938663 -0.014937525237790661 0 0.0014152730220652193 -0.014951616457158543 0 0.0015181605225922067 -0.014710458609900723 0 0.0012928373276008711 -0.014851427797118321 0 0.0014152730220652193 -0.014951616457158543 0 0.0018004655669127813 -0.014633020272437932 0 0.0015181605225922067 -0.014710458609900723 0 0.0016021866377938663 -0.014937525237790661 0 0.0015181605225922067 -0.014710458609900723 0 0.0016021866377938663 -0.014937525237790661 0 0.0014152730220652193 -0.014951616457158543 0 0.0018004655669127813 -0.014633020272437932 0 0.0016021866377938663 -0.014937525237790661 0 0.0019867586107180195 -0.015018441716510962 0 0.0016308280197898262 -0.015175364729565032 0 0.0016021866377938663 -0.014937525237790661 0 0.0019867586107180195 -0.015018441716510962 0 0.0036749293606060255 -0.0016703317977722813 0 0.0033223884965288136 -0.0016041155012147966 0 0.0032897508083535652 -0.0018730212431499573 0 0.0036749293606060255 -0.0016703317977722813 0 0.0033223884965288136 -0.0016041155012147966 0 0.0034857199453490646 -0.0014403860451494234 0 0.0033223884965288136 -0.0016041155012147966 0 0.0030275093779066633 -0.0016893967735329954 0 0.0031736058610276098 -0.0013280912368934892 0 0.0033223884965288136 -0.0016041155012147966 0 0.0032897508083535652 -0.0018730212431499573 0 0.0030275093779066633 -0.0016893967735329954 0 0.0031736058610276098 -0.0013280912368934892 0 0.0029000965973821043 -0.0011317404281257404 0 0.0027238728371341446 -0.001433198181234284 0 0.0030275093779066633 -0.0016893967735329954 0 0.0031736058610276098 -0.0013280912368934892 0 0.0027238728371341446 -0.001433198181234284 0 0.0031736058610276098 -0.0013280912368934892 0 0.0033683949119848611 -0.0012037781523008828 0 0.0031646964547349388 -0.00099327237189170007 0 0.0031736058610276098 -0.0013280912368934892 0 0.0033683949119848611 -0.0012037781523008828 0 0.0034857199453490646 -0.0014403860451494234 0 0.0033223884965288136 -0.0016041155012147966 0 0.0031736058610276098 -0.0013280912368934892 0 0.0034857199453490646 -0.0014403860451494234 0 0.0035610795781397643 -0.0012011443896863868 0 0.0033683949119848611 -0.0012037781523008828 0 0.0034857199453490646 -0.0014403860451494234 0 0.0036401606131144901 -0.0010238599731303422 0 0.0035610795781397643 -0.0012011443896863868 0 0.0034604309360682277 -0.0010354267298945746 0 0.0035610795781397643 -0.0012011443896863868 0 0.0033683949119848611 -0.0012037781523008828 0 0.0034604309360682277 -0.0010354267298945746 0 0.0033683949119848611 -0.0012037781523008828 0 0.0034604309360682277 -0.0010354267298945746 0 0.0031646964547349388 -0.00099327237189170007 0 0.0033505327809607043 -0.00087345151064057759 0 0.0032116983535235228 -0.00074743850184330498 0 0.0031646964547349388 -0.00099327237189170007 0 0.0034604309360682277 -0.0010354267298945746 0 0.0033505327809607043 -0.00087345151064057759 0 0.0031646964547349388 -0.00099327237189170007 0 0.0036401606131144901 -0.0010238599731303422 0 0.0034604309360682277 -0.0010354267298945746 0 0.0034948353295520054 -0.00087469152767899591 0 0.0034604309360682277 -0.0010354267298945746 0 0.0033505327809607043 -0.00087345151064057759 0 0.0034948353295520054 -0.00087469152767899591 0 0.0033505327809607043 -0.00087345151064057759 0 0.0034948353295520054 -0.00087469152767899591 0 0.0033888176258327542 -0.0007581470397041095 0 0.0036015835208017951 -0.00071114478028334069 0 0.0032883235168019468 -0.00058450123354736045 0 0.0032697021128306933 -0.00026952627393153628 0 0.0015184307534170933 -0.0072199225926894706 0 0.0018151770912474175 -0.0067515009244717818 0 0.0036015835208017951 -0.00071114478028334069 0 0.0033888176258327542 -0.0007581470397041095 0 0.0032883235168019468 -0.00058450123354736045 0 0.0036015835208017951 -0.00071114478028334069 0 0.0034948353295520054 -0.00087469152767899591 0 0.0033888176258327542 -0.0007581470397041095 0 0.0033888176258327542 -0.0007581470397041095 0 0.0032116983535235228 -0.00074743850184330498 0 0.0032883235168019468 -0.00058450123354736045 0 0.0032116983535235228 -0.00074743850184330498 0 0.0032883235168019468 -0.00058450123354736045 0 0.0030873427071772984 -0.00061893563212606865 0 0.0033505327809607043 -0.00087345151064057759 0 0.0033888176258327542 -0.0007581470397041095 0 0.0032116983535235228 -0.00074743850184330498 0 0.0028809234360340644 -0.00059868950745205988 0 0.0030873427071772984 -0.00061893563212606865 0 0.0030385089506776456 -0.00041944116836130444 0 0.0032883235168019468 -0.00058450123354736045 0 0.0030873427071772984 -0.00061893563212606865 0 0.0030385089506776456 -0.00041944116836130444 0 0.0032116983535235228 -0.00074743850184330498 0 0.0030873427071772984 -0.00061893563212606865 0 0.0030221480090171808 -0.00076179403624007213 0 0.0028809234360340644 -0.00059868950745205988 0 0.0030221480090171808 -0.00076179403624007213 0 0.0028342579215913282 -0.00087254279666833029 0 0.0028809234360340644 -0.00059868950745205988 0 0.0030873427071772984 -0.00061893563212606865 0 0.0030221480090171808 -0.00076179403624007213 0 0.0030221480090171808 -0.00076179403624007213 0 0.0031646964547349388 -0.00099327237189170007 0 0.0028342579215913282 -0.00087254279666833029 0 0.0032116983535235228 -0.00074743850184330498 0 0.0030221480090171808 -0.00076179403624007213 0 0.0031646964547349388 -0.00099327237189170007 0 0.0031736058610276098 -0.0013280912368934892 0 0.0031646964547349388 -0.00099327237189170007 0 0.0029000965973821043 -0.0011317404281257404 0 0.0031646964547349388 -0.00099327237189170007 0 0.0029000965973821043 -0.0011317404281257404 0 0.0028342579215913282 -0.00087254279666833029 0 0.0025573970602592636 -0.0010385539241492372 0 0.0028342579215913282 -0.00087254279666833029 0 0.0026191306296965743 -0.00066074055074186633 0 0.0029000965973821043 -0.0011317404281257404 0 0.0025573970602592636 -0.0010385539241492372 0 0.0028342579215913282 -0.00087254279666833029 0 0.0028809234360340644 -0.00059868950745205988 0 0.0028342579215913282 -0.00087254279666833029 0 0.0026191306296965743 -0.00066074055074186633 0 0.0028809234360340644 -0.00059868950745205988 0 0.0026191306296965743 -0.00066074055074186633 0 0.0027095584568464651 -0.00035629592018473951 0 0.0023072907618172092 -0.00072904891621182813 0 0.0022413335701299748 -0.00036016511046726112 0 0.0019775227702040891 -0.00061864565451613923 0 0.0026191306296965743 -0.00066074055074186633 0 0.0023072907618172092 -0.00072904891621182813 0 0.0022413335701299748 -0.00036016511046726112 0 0.0025573970602592636 -0.0010385539241492372 0 0.0023072907618172092 -0.00072904891621182813 0 0.0021552459555702827 -0.00098174502044091698 0 0.0025573970602592636 -0.0010385539241492372 0 0.0026191306296965743 -0.00066074055074186633 0 0.0023072907618172092 -0.00072904891621182813 0 0.0025573970602592636 -0.0010385539241492372 0 0.0023222771519952131 -0.0013291541829751089 0 0.0021552459555702827 -0.00098174502044091698 0 0.0029000965973821043 -0.0011317404281257404 0 0.0025573970602592636 -0.0010385539241492372 0 0.0027238728371341446 -0.001433198181234284 0 0.0025573970602592636 -0.0010385539241492372 0 0.0023222771519952131 -0.0013291541829751089 0 0.0027238728371341446 -0.001433198181234284 0 0.0026988051861949595 -0.001878161288313913 0 0.0027238728371341446 -0.001433198181234284 0 0.0023964096231183984 -0.0016829830583621685 0 0.0026988051861949595 -0.001878161288313913 0 0.0030275093779066633 -0.0016893967735329954 0 0.0027238728371341446 -0.001433198181234284 0 0.0023222771519952131 -0.0013291541829751089 0 0.0027238728371341446 -0.001433198181234284 0 0.0023964096231183984 -0.0016829830583621685 0 0.0023222771519952131 -0.0013291541829751089 0 0.0023964096231183984 -0.0016829830583621685 0 0.0020678452549847321 -0.0017185796897407218 0 0.0023405502050116364 -0.0020303410058549092 0 0.0023964096231183984 -0.0016829830583621685 0 0.0020678452549847321 -0.0017185796897407218 0 2.0404936011483381e-06 -0.014865773246316128 0 1.4786333430059864e-05 -0.014851387307467774 0 4.2790285897436978e-06 -0.014889565327075393 0 2.0404936011483381e-06 -0.014865773246316128 0 4.2790285897436978e-06 -0.014889565327075393 0 -1.4154230596246482e-06 -0.014922437621095384 0 2.4895902509164558e-05 -0.014749260894442935 0 -7.5299607162994142e-05 -0.0145620657116071 0 2.0404936011483381e-06 -0.014865773246316128 0 3.2487810035628725e-05 -0.014809008810796827 0 1.4786333430059864e-05 -0.014851387307467774 0 2.0404936011483381e-06 -0.014865773246316128 0 3.2487810035628725e-05 -0.014809008810796827 0 5.8490453867907596e-05 -0.014732599637640264 0 3.2487810035628725e-05 -0.014809008810796827 0 1.4786333430059864e-05 -0.014851387307467774 0 2.144329613147552e-05 -0.014856506051554343 0 3.2487810035628725e-05 -0.014809008810796827 0 2.144329613147552e-05 -0.014856506051554343 0 4.6233055434454461e-05 -0.01481378500024999 0 2.144329613147552e-05 -0.014856506051554343 0 3.0816203336438288e-05 -0.014871700013915466 0 4.6233055434454461e-05 -0.01481378500024999 0 2.144329613147552e-05 -0.014856506051554343 0 3.0816203336438288e-05 -0.014871700013915466 0 1.3639159020414586e-05 -0.014903075088684697 0 4.2790285897436978e-06 -0.014889565327075393 0 9.2704687562418215e-07 -0.014927476254310448 0 1.3639159020414586e-05 -0.014903075088684697 0 4.2790285897436978e-06 -0.014889565327075393 0 9.2704687562418215e-07 -0.014927476254310448 0 -3.0085204468199757e-06 -0.014939742666723292 0 2.144329613147552e-05 -0.014856506051554343 0 4.2790285897436978e-06 -0.014889565327075393 0 1.3639159020414586e-05 -0.014903075088684697 0 1.4786333430059864e-05 -0.014851387307467774 0 2.144329613147552e-05 -0.014856506051554343 0 4.2790285897436978e-06 -0.014889565327075393 0 9.2704687562418215e-07 -0.014927476254310448 0 -3.0085204468199757e-06 -0.014939742666723292 0 -3.9853330182610538e-06 -0.014966588914491583 0 -3.0085204468199757e-06 -0.014939742666723292 0 -3.1903525217323566e-06 -0.014968732713066358 0 -3.9853330182610538e-06 -0.014966588914491583 0 4.2790285897436978e-06 -0.014889565327075393 0 -3.0085204468199757e-06 -0.014939742666723292 0 -1.4154230596246482e-06 -0.014922437621095384 0 -3.0085204468199757e-06 -0.014939742666723292 0 -3.1903525217323566e-06 -0.014968732713066358 0 -2.9031108664499549e-06 -0.014955607868858108 0 -1.2221434644818767e-08 -0.014999914559123723 0 -3.1903525217323566e-06 -0.014968732713066358 0 -3.9853330182610538e-06 -0.014966588914491583 0 -1.2221434644818767e-08 -0.014999914559123723 0 -3.1903525217323566e-06 -0.014968732713066358 0 -3.5324916375436877e-06 -0.014988842262863344 0 -1.2221434644818767e-08 -0.014999914559123723 0 -3.5324916375436877e-06 -0.014988842262863344 0 -1.3096944838056956e-09 -0.01499998012290819 0 -3.5324916375436877e-06 -0.014988842262863344 0 -1.6688328403281631e-06 -0.014966624771858875 0 -1.1964899626860899e-05 -0.014947663898003727 0 -3.1903525217323566e-06 -0.014968732713066358 0 -3.5324916375436877e-06 -0.014988842262863344 0 -2.9031108664499549e-06 -0.014955607868858108 0 -3.5324916375436877e-06 -0.014988842262863344 0 -2.9031108664499549e-06 -0.014955607868858108 0 -1.6688328403281631e-06 -0.014966624771858875 0 2.4895902509164558e-05 -0.014749260894442935 0 2.3789509037225483e-05 -0.014806731307167561 0 2.0404936011483381e-06 -0.014865773246316128 0 -1.6688328403281631e-06 -0.014966624771858875 0 -1.4154230596246482e-06 -0.014922437621095384 0 -2.9031108664499549e-06 -0.014955607868858108 0 -1.6688328403281631e-06 -0.014966624771858875 0 -1.4154230596246482e-06 -0.014922437621095384 0 -3.0085204468199757e-06 -0.014939742666723292 0 -2.9031108664499549e-06 -0.014955607868858108 0 -1.4154230596246482e-06 -0.014922437621095384 0 -1.6688328403281631e-06 -0.014966624771858875 0 1.9905924808348062e-05 -0.014951563066711396 0 5.5201662614544353e-06 -0.014948319478440546 0 3.2603879152077892e-05 -0.014958556608214017 0 -1.6688328403281631e-06 -0.014966624771858875 0 1.9905924808348062e-05 -0.014951563066711396 0 5.5201662614544353e-06 -0.014948319478440546 0 7.886033630568703e-07 -0.014939487703737967 0 1.8454685161718231e-05 -0.014938322715354162 0 1.9905924808348062e-05 -0.014951563066711396 0 5.5201662614544353e-06 -0.014948319478440546 0 1.8454685161718231e-05 -0.014938322715354162 0 -3.3965152304716071e-05 -0.0149517826974419 0 -3.7144775441911531e-05 -0.01493651529023555 0 -3.5324916375436877e-06 -0.014988842262863344 0 -1.3096944838056956e-09 -0.01499998012290819 0 -8.7183086934597465e-07 -0.015001292695825464 0 -1.3096944838056956e-09 -0.01499998012290819 0 -8.7183086934597465e-07 -0.015001292695825464 0 -6.6877006055500191e-10 -0.015000012874849615 0 -1.6688328403281631e-06 -0.014966624771858875 0 5.5201662614544353e-06 -0.014948319478440546 0 -1.1964899626860899e-05 -0.014947663898003727 0 5.5201662614544353e-06 -0.014948319478440546 0 -1.1964899626860899e-05 -0.014947663898003727 0 7.886033630568703e-07 -0.014939487703737967 0 -1.1964899626860899e-05 -0.014947663898003727 0 7.886033630568703e-07 -0.014939487703737967 0 -9.7400412660755159e-06 -0.014924258949124169 0 -3.7144775441911531e-05 -0.01493651529023555 0 -4.67529532430425e-05 -0.014880810042581944 0 7.886033630568703e-07 -0.014939487703737967 0 -9.7400412660755159e-06 -0.014924258949124169 0 1.8454685161718231e-05 -0.014938322715354162 0 -8.7183086934597465e-07 -0.015001292695825464 0 6.6027226921662835e-08 -0.015000129440905709 0 -6.6877006055500191e-10 -0.015000012874849615 0 -4.67529532430425e-05 -0.014880810042581944 0 -3.7032884671511403e-08 -0.014999208021283208 0 7.3537113497860669e-06 -0.01426336484481279 0 0.00021386164235452927 -0.014148679714570421 0 -1.9397196780116135e-05 -0.014034345342533783 0 -4.67529532430425e-05 -0.014880810042581944 0 -7.6130989878877791e-05 -0.014671737675718066 0 7.3537113497860669e-06 -0.01426336484481279 0 -1.9397196780116135e-05 -0.014034345342533783 0 -0.00014912538990710658 -0.014171698963596897 0 -0.00014912538990710658 -0.014171698963596897 0 -0.00016579043156917617 -0.0140338363026368 0 -0.00027769757443834079 -0.014025758027160223 0 -1.9397196780116135e-05 -0.014034345342533783 0 -0.00014912538990710658 -0.014171698963596897 0 -0.00016579043156917617 -0.0140338363026368 0 -1.9397196780116135e-05 -0.014034345342533783 0 -0.00016579043156917617 -0.0140338363026368 0 -0.00021587486182843862 -0.013893800735050432 0 -7.6130989878877791e-05 -0.014671737675718066 0 -0.00011588166742480207 -0.014563263244527907 0 1.9905924808348062e-05 -0.014951563066711396 0 1.8454685161718231e-05 -0.014938322715354162 0 4.0135196084864276e-05 -0.01494917034288089 0 3.2603879152077892e-05 -0.014958556608214017 0 1.9905924808348062e-05 -0.014951563066711396 0 4.0135196084864276e-05 -0.01494917034288089 0 -0.00011588166742480207 -0.014563263244527907 0 -7.5299607162994142e-05 -0.0145620657116071 0 -0.00021587486182843862 -0.013893800735050432 0 -0.00027769757443834079 -0.014025758027160223 0 -0.0004820427698304371 -0.013750746376763191 0 3.2603879152077892e-05 -0.014958556608214017 0 4.0135196084864276e-05 -0.01494917034288089 0 5.7732112913595211e-05 -0.014955453168585927 0 -0.00027147241625559432 -0.014256649677798501 0 -0.00027769757443834079 -0.014025758027160223 0 -0.00039930177188770042 -0.014040214055372749 0 -0.00027147241625559432 -0.014256649677798501 0 -0.00014912538990710658 -0.014171698963596897 0 -0.00027769757443834079 -0.014025758027160223 0 -0.00016579043156917617 -0.0140338363026368 0 -0.00021587486182843862 -0.013893800735050432 0 -0.00027769757443834079 -0.014025758027160223 0 -0.00041039961412192376 -0.0142045986389074 0 -0.00039930177188770042 -0.014040214055372749 0 -0.00052906272969889469 -0.013930950742805466 0 -0.00058904505915656057 -0.013249408756542158 0 -0.00061827578534229028 -0.013465693919149393 0 -0.000566868217441935 -0.014282315908091207 0 -0.00052906272969889469 -0.013930950742805466 0 -0.00071181651290595511 -0.013738309723395127 0 -0.00060465768722619921 -0.013809008984560512 0 -0.0006448077303906019 -0.013891135965424403 0 -0.0004820427698304371 -0.013750746376763191 0 -0.00052906272969889469 -0.013930950742805466 0 -0.00071181651290595511 -0.013738309723395127 0 -0.00060465768722619921 -0.013809008984560512 0 -0.00071181651290595511 -0.013738309723395127 0 -0.00060465768722619921 -0.013809008984560512 0 -0.0006448077303906019 -0.013891135965424403 0 -0.00027769757443834079 -0.014025758027160223 0 -0.00039930177188770042 -0.014040214055372749 0 -0.0004820427698304371 -0.013750746376763191 0 -0.00039930177188770042 -0.014040214055372749 0 -0.00052906272969889469 -0.013930950742805466 0 -0.0004820427698304371 -0.013750746376763191 0 -0.00052906272969889469 -0.013930950742805466 0 -0.00060465768722619921 -0.013809008984560512 0 -0.0004820427698304371 -0.013750746376763191 0 9.6566101082307614e-05 -0.012893451400311574 0 -0.00043248998138070265 -0.012942783901496054 0 -0.00019080548514627857 -0.013541754991914767 0 9.6566101082307614e-05 -0.012893451400311574 0 0.00035508760607351334 -0.013483356859145297 0 -0.00019080548514627857 -0.013541754991914767 0 -0.00098598216628273676 -0.012391757589483368 0 -0.00071181651290595511 -0.013738309723395127 0 -0.00043248998138070265 -0.012942783901496054 0 -0.00071181651290595511 -0.013738309723395127 0 -0.00043248998138070265 -0.012942783901496054 0 -0.00019080548514627857 -0.013541754991914767 0 -0.00071181651290595511 -0.013738309723395127 0 -0.00040376702086348029 -0.013806228610730518 0 -0.00019080548514627857 -0.013541754991914767 0 -0.00040376702086348029 -0.013806228610730518 0 2.1287409123348502e-05 -0.014082128222581527 0 -0.0006448077303906019 -0.013891135965424403 0 -0.00071181651290595511 -0.013738309723395127 0 -0.00040376702086348029 -0.013806228610730518 0 -0.0006448077303906019 -0.013891135965424403 0 0.00035508760607351334 -0.013483356859145297 0 -0.00019080548514627857 -0.013541754991914767 0 2.1287409123348502e-05 -0.014082128222581527 0 -0.00040376702086348029 -0.013806228610730518 0 -0.00019080548514627857 -0.013541754991914767 0 2.1287409123348502e-05 -0.014082128222581527 0 0.00070101113778214894 -0.014595870382332657 0 0.00053440089115042231 -0.014294504885918045 0 0.00050588971663507076 -0.014605820351143411 0 0.00053440089115042231 -0.014294504885918045 0 0.00036348016243394564 -0.014529950728432144 0 0.00050588971663507076 -0.014605820351143411 0 0.00053440089115042231 -0.014294504885918045 0 0.00036348016243394564 -0.014529950728432144 0 0.00021888171783723047 -0.014435932166190836 0 0.00034645352202451724 -0.014283011150878298 0 6.4239292831163349e-06 -0.014369854558530001 0 0.00036348016243394564 -0.014529950728432144 0 0.0002561875404011984 -0.014649193419922452 0 0.00016498793652274042 -0.01461246182459959 0 0.00036348016243394564 -0.014529950728432144 0 0.00021888171783723047 -0.014435932166190836 0 0.00016498793652274042 -0.01461246182459959 0 0.0002561875404011984 -0.014649193419922452 0 0.00036533245412894615 -0.014726373622131025 0 0.00022023167518646949 -0.014748518051980618 0 0.00036533245412894615 -0.014726373622131025 0 0.00022023167518646949 -0.014748518051980618 0 0.00025634597509663278 -0.014850497096196699 0 0.00036348016243394564 -0.014529950728432144 0 0.0002561875404011984 -0.014649193419922452 0 0.00036533245412894615 -0.014726373622131025 0 0.00036348016243394564 -0.014529950728432144 0 0.00036533245412894615 -0.014726373622131025 0 0.00050588971663507076 -0.014605820351143411 0 0.00036533245412894615 -0.014726373622131025 0 0.00050588971663507076 -0.014605820351143411 0 0.00059246715259544155 -0.014800522217452247 0 0.00070101113778214894 -0.014595870382332657 0 0.00050588971663507076 -0.014605820351143411 0 0.00059246715259544155 -0.014800522217452247 0 5.8490453867907596e-05 -0.014732599637640264 0 8.2381958587646932e-05 -0.014781447532670158 0 4.6233055434454461e-05 -0.01481378500024999 0 3.2487810035628725e-05 -0.014809008810796827 0 5.8490453867907596e-05 -0.014732599637640264 0 4.6233055434454461e-05 -0.01481378500024999 0 5.8490453867907596e-05 -0.014732599637640264 0 0.00013059414241175824 -0.014709889149454255 0 8.2381958587646932e-05 -0.014781447532670158 0 -7.5299607162994142e-05 -0.0145620657116071 0 2.4179759392564588e-05 -0.014601011527345165 0 6.4239292831163349e-06 -0.014369854558530001 0 -7.5299607162994142e-05 -0.0145620657116071 0 5.8490453867907596e-05 -0.014732599637640264 0 0.00016498793652274042 -0.01461246182459959 0 0.00013059414241175824 -0.014709889149454255 0 0.00021888171783723047 -0.014435932166190836 0 -0.00021897994542786548 -0.014443576694092918 0 0.00016498793652274042 -0.01461246182459959 0 0.0002561875404011984 -0.014649193419922452 0 0.00016498793652274042 -0.01461246182459959 0 0.00013059414241175824 -0.014709889149454255 0 0.00013059414241175824 -0.014709889149454255 0 0.00014461764582460242 -0.014799214135342383 0 8.2381958587646932e-05 -0.014781447532670158 0 0.0002561875404011984 -0.014649193419922452 0 0.00013059414241175824 -0.014709889149454255 0 0.00022023167518646949 -0.014748518051980618 0 0.00013059414241175824 -0.014709889149454255 0 0.00022023167518646949 -0.014748518051980618 0 0.00014461764582460242 -0.014799214135342383 0 0.00022023167518646949 -0.014748518051980618 0 0.00014461764582460242 -0.014799214135342383 0 0.00025634597509663278 -0.014850497096196699 0 0.00014461764582460242 -0.014799214135342383 0 8.2381958587646932e-05 -0.014781447532670158 0 9.7508363606979475e-05 -0.014846875719828094 0 8.2381958587646932e-05 -0.014781447532670158 0 5.430875747938266e-05 -0.014863573904456286 0 9.7508363606979475e-05 -0.014846875719828094 0 8.2381958587646932e-05 -0.014781447532670158 0 4.6233055434454461e-05 -0.01481378500024999 0 5.430875747938266e-05 -0.014863573904456286 0 3.0816203336438288e-05 -0.014871700013915466 0 4.6233055434454461e-05 -0.01481378500024999 0 5.430875747938266e-05 -0.014863573904456286 0 5.430875747938266e-05 -0.014863573904456286 0 5.4044973747733711e-05 -0.014914688455389 0 3.1023390311545851e-05 -0.014908015007365371 0 5.430875747938266e-05 -0.014863573904456286 0 5.4044973747733711e-05 -0.014914688455389 0 8.5540218953365419e-05 -0.014897505456796816 0 5.4044973747733711e-05 -0.014914688455389 0 8.5540218953365419e-05 -0.014897505456796816 0 7.22568260942364e-05 -0.014931832032198247 0 5.430875747938266e-05 -0.014863573904456286 0 8.5540218953365419e-05 -0.014897505456796816 0 9.7508363606979475e-05 -0.014846875719828094 0 0.00014461764582460242 -0.014799214135342383 0 9.7508363606979475e-05 -0.014846875719828094 0 0.0001416699398135995 -0.014884502367457147 0 8.5540218953365419e-05 -0.014897505456796816 0 9.7508363606979475e-05 -0.014846875719828094 0 0.0001416699398135995 -0.014884502367457147 0 0.00014461764582460242 -0.014799214135342383 0 0.0001416699398135995 -0.014884502367457147 0 0.00025634597509663278 -0.014850497096196699 0 0.0001416699398135995 -0.014884502367457147 0 0.00025634597509663278 -0.014850497096196699 0 0.00023251302889545892 -0.014940796002781517 0 0.0001416699398135995 -0.014884502367457147 0 0.0001372346349224387 -0.01496211637314418 0 0.00023251302889545892 -0.014940796002781517 0 8.5540218953365419e-05 -0.014897505456796816 0 9.8015296704479768e-05 -0.014910368823481356 0 7.22568260942364e-05 -0.014931832032198247 0 0.00020339900943741721 -0.014810673816803299 0 0.00021264139378612395 -0.014810146872728584 0 8.5540218953365419e-05 -0.014897505456796816 0 0.0001416699398135995 -0.014884502367457147 0 0.00014246726072195853 -0.014928506079543758 0 0.00021149194948835587 -0.01481690514774305 0 0.00021264139378612395 -0.014810146872728584 0 0.00021264139378612395 -0.014810146872728584 0 0.00030894668269329208 -0.01476532058306324 0 0.00020175653219515281 -0.014755030562215651 0 0.0002019553892864416 -0.014768665627867033 0 0.00021496609799999023 -0.01476141534261796 0 9.8015296704479768e-05 -0.014910368823481356 0 8.7828454913012235e-05 -0.014947161048009397 0 7.22568260942364e-05 -0.014931832032198247 0 0.00021264139378612395 -0.014810146872728584 0 0.00015286144415482711 -0.014844061012853576 0 8.7828454913012235e-05 -0.014947161048009397 0 7.22568260942364e-05 -0.014931832032198247 0 5.553532554539153e-05 -0.014961176674955967 0 7.22568260942364e-05 -0.014931832032198247 0 5.553532554539153e-05 -0.014961176674955967 0 3.3451675911456195e-05 -0.014946755554170398 0 5.4044973747733711e-05 -0.014914688455389 0 7.22568260942364e-05 -0.014931832032198247 0 3.3451675911456195e-05 -0.014946755554170398 0 0.00036533245412894615 -0.014726373622131025 0 0.00059246715259544155 -0.014800522217452247 0 0.00041823441662993034 -0.014895988091816043 0 0.0006497755380251598 -0.015009364261700717 0 0.00054317514116389743 -0.014990462085046214 0 0.00059246715259544155 -0.014800522217452247 0 0.00054317514116389743 -0.014990462085046214 0 0.00041823441662993034 -0.014895988091816043 0 0.00044198599489739623 -0.015030797906675015 0 0.00054317514116389743 -0.014990462085046214 0 0.00059246715259544155 -0.014800522217452247 0 0.00041823441662993034 -0.014895988091816043 0 0.00032395389303889347 -0.014952281869697558 0 0.00041823441662993034 -0.014895988091816043 0 0.00025634597509663278 -0.014850497096196699 0 0.00032395389303889347 -0.014952281869697558 0 0.00041823441662993034 -0.014895988091816043 0 0.00044198599489739623 -0.015030797906675015 0 0.00036533245412894615 -0.014726373622131025 0 0.00041823441662993034 -0.014895988091816043 0 0.00025634597509663278 -0.014850497096196699 0 0.00032395389303889347 -0.014952281869697558 0 0.00023251302889545892 -0.014940796002781517 0 0.0003182335155625143 -0.015068376942546464 0 0.00032395389303889347 -0.014952281869697558 0 0.00025634597509663278 -0.014850497096196699 0 0.00023251302889545892 -0.014940796002781517 0 0.0001372346349224387 -0.01496211637314418 0 0.00023251302889545892 -0.014940796002781517 0 0.0003182335155625143 -0.015068376942546464 0 0.00030894668269329208 -0.01476532058306324 0 0.00038509512730753117 -0.014666821410171374 0 0.00021496609799999023 -0.01476141534261796 0 0.0002284505842421376 -0.014767759767794745 0 0.00021520400763048029 -0.014775180687927667 0 0.0002019553892864416 -0.014768665627867033 0 0.00021496609799999023 -0.01476141534261796 0 0.00021520400763048029 -0.014775180687927667 0 0.00032395389303889347 -0.014952281869697558 0 0.0003182335155625143 -0.015068376942546464 0 0.00044198599489739623 -0.015030797906675015 0 0.0003182335155625143 -0.015068376942546464 0 0.00044198599489739623 -0.015030797906675015 0 0.00053030743123264024 -0.015183582882487527 0 0.00054317514116389743 -0.014990462085046214 0 0.00044198599489739623 -0.015030797906675015 0 0.00053030743123264024 -0.015183582882487527 0 0.0006497755380251598 -0.015009364261700717 0 0.00054317514116389743 -0.014990462085046214 0 0.00053030743123264024 -0.015183582882487527 0 -2.8049581935498676e-05 -0.014812724900085904 0 -3.4342278952391891e-05 -0.014815274822845004 0 -2.7567820381199821e-05 -0.014821134389402644 0 0.00038509512730753117 -0.014666821410171374 0 0.00019052235884651675 -0.014788787529757113 0 0.00019052235884651675 -0.014788787529757113 0 9.4642917557824486e-05 -0.014868523975733258 0 -3.4342278952391891e-05 -0.014815274822845004 0 -3.5903296141879341e-05 -0.014821078226933657 0 -4.317819736021341e-05 -0.014818287736212334 0 -3.5903296141879341e-05 -0.014821078226933657 0 -2.7567820381199821e-05 -0.014821134389402644 0 -3.2483853428372744e-05 -0.014827438912096404 0 -3.4342278952391891e-05 -0.014815274822845004 0 -3.5903296141879341e-05 -0.014821078226933657 0 -2.7567820381199821e-05 -0.014821134389402644 0 -3.5903296141879341e-05 -0.014821078226933657 0 -4.5462120379669936e-05 -0.014829435869886352 0 -3.2483853428372744e-05 -0.014827438912096404 0 5.553532554539153e-05 -0.014961176674955967 0 2.8094421111769251e-05 -0.014983243000877567 0 3.3064657197303583e-05 -0.01496796350816138 0 5.553532554539153e-05 -0.014961176674955967 0 3.3064657197303583e-05 -0.01496796350816138 0 3.3451675911456195e-05 -0.014946755554170398 0 8.7828454913012235e-05 -0.014947161048009397 0 5.553532554539153e-05 -0.014961176674955967 0 8.071360822864491e-05 -0.014975350952746139 0 0.0002019553892864416 -0.014768665627867033 0 0.00021520400763048029 -0.014775180687927667 0 0.00020205693192594176 -0.014782570320624265 0 0.00015286144415482711 -0.014844061012853576 0 9.4642917557824486e-05 -0.014868523975733258 0 9.4642917557824486e-05 -0.014868523975733258 0 5.1060742010156324e-05 -0.014869418040924435 0 -5.1314963421931876e-05 -0.014943271499219122 0 -1.5770027876630251e-05 -0.014925529880620812 0 -5.2165135634718652e-05 -0.014913449892215229 0 -3.5903296141879341e-05 -0.014821078226933657 0 -4.317819736021341e-05 -0.014818287736212334 0 -4.5462120379669936e-05 -0.014829435869886352 0 5.553532554539153e-05 -0.014961176674955967 0 8.071360822864491e-05 -0.014975350952746139 0 2.8094421111769251e-05 -0.014983243000877567 0 9.4642917557824486e-05 -0.014868523975733258 0 2.6781533300740825e-05 -0.014923314215174968 0 2.8094421111769251e-05 -0.014983243000877567 0 1.275715191452947e-05 -0.014976451122812014 0 1.7904709738259469e-05 -0.014970153460403647 0 2.8094421111769251e-05 -0.014983243000877567 0 1.7904709738259469e-05 -0.014970153460403647 0 3.3064657197303583e-05 -0.01496796350816138 0 2.8094421111769251e-05 -0.014983243000877567 0 1.275715191452947e-05 -0.014976451122812014 0 1.0221718720169513e-05 -0.014946837158248825 0 1.7904709738259469e-05 -0.014970153460403647 0 1.1390214634513077e-05 -0.014956075802087512 0 6.9498146460376793e-06 -0.014974804973902479 0 1.275715191452947e-05 -0.014976451122812014 0 1.7904709738259469e-05 -0.014970153460403647 0 6.9498146460376793e-06 -0.014974804973902479 0 1.7904709738259469e-05 -0.014970153460403647 0 3.3064657197303583e-05 -0.01496796350816138 0 3.3451675911456195e-05 -0.014946755554170398 0 3.3451675911456195e-05 -0.014946755554170398 0 1.7199419856991692e-05 -0.014933232734074106 0 1.1390214634513077e-05 -0.014956075802087512 0 3.3451675911456195e-05 -0.014946755554170398 0 1.7199419856991692e-05 -0.014933232734074106 0 3.1023390311545851e-05 -0.014908015007365371 0 1.7904709738259469e-05 -0.014970153460403647 0 3.3451675911456195e-05 -0.014946755554170398 0 1.1390214634513077e-05 -0.014956075802087512 0 5.4044973747733711e-05 -0.014914688455389 0 3.3451675911456195e-05 -0.014946755554170398 0 3.1023390311545851e-05 -0.014908015007365371 0 1.1390214634513077e-05 -0.014956075802087512 0 2.1591049177786424e-06 -0.014965239356180049 0 6.9498146460376793e-06 -0.014974804973902479 0 1.1390214634513077e-05 -0.014956075802087512 0 4.3115746547714506e-06 -0.01494208440433404 0 2.1591049177786424e-06 -0.014965239356180049 0 1.7199419856991692e-05 -0.014933232734074106 0 1.1390214634513077e-05 -0.014956075802087512 0 4.3115746547714506e-06 -0.01494208440433404 0 1.7199419856991692e-05 -0.014933232734074106 0 4.3115746547714506e-06 -0.01494208440433404 0 1.3639159020414586e-05 -0.014903075088684697 0 9.2704687562418215e-07 -0.014927476254310448 0 4.3115746547714506e-06 -0.01494208440433404 0 1.3639159020414586e-05 -0.014903075088684697 0 3.0816203336438288e-05 -0.014871700013915466 0 1.3639159020414586e-05 -0.014903075088684697 0 3.1023390311545851e-05 -0.014908015007365371 0 3.0816203336438288e-05 -0.014871700013915466 0 5.430875747938266e-05 -0.014863573904456286 0 3.1023390311545851e-05 -0.014908015007365371 0 1.7199419856991692e-05 -0.014933232734074106 0 1.3639159020414586e-05 -0.014903075088684697 0 3.1023390311545851e-05 -0.014908015007365371 0 -1.2221434644818767e-08 -0.014999914559123723 0 -3.9853330182610538e-06 -0.014966588914491583 0 -4.0421370065180696e-09 -0.01499996695033272 0 4.3115746547714506e-06 -0.01494208440433404 0 -3.9853330182610538e-06 -0.014966588914491583 0 2.1591049177786424e-06 -0.014965239356180049 0 9.2704687562418215e-07 -0.014927476254310448 0 4.3115746547714506e-06 -0.01494208440433404 0 -3.9853330182610538e-06 -0.014966588914491583 0 -3.9853330182610538e-06 -0.014966588914491583 0 2.1591049177786424e-06 -0.014965239356180049 0 4.502824406731708e-07 -0.014986941937969431 0 -3.9853330182610538e-06 -0.014966588914491583 0 -4.0421370065180696e-09 -0.01499996695033272 0 4.502824406731708e-07 -0.014986941937969431 0 3.0717818423536844e-09 -0.014999976692858522 0 4.502824406731708e-07 -0.014986941937969431 0 6.4401754488262303e-06 -0.014985826494333613 0 -4.0421370065180696e-09 -0.01499996695033272 0 3.0717818423536844e-09 -0.014999976692858522 0 4.502824406731708e-07 -0.014986941937969431 0 4.502824406731708e-07 -0.014986941937969431 0 6.9498146460376793e-06 -0.014974804973902479 0 6.4401754488262303e-06 -0.014985826494333613 0 2.1591049177786424e-06 -0.014965239356180049 0 4.502824406731708e-07 -0.014986941937969431 0 6.9498146460376793e-06 -0.014974804973902479 0 1.275715191452947e-05 -0.014976451122812014 0 6.9498146460376793e-06 -0.014974804973902479 0 6.4401754488262303e-06 -0.014985826494333613 0 1.275715191452947e-05 -0.014976451122812014 0 6.4401754488262303e-06 -0.014985826494333613 0 1.3812675372968176e-05 -0.014984035996500288 0 3.0717818423536844e-09 -0.014999976692858522 0 6.4401754488262303e-06 -0.014985826494333613 0 2.4672905010523985e-09 -0.014999982933995635 0 6.4401754488262303e-06 -0.014985826494333613 0 2.4672905010523985e-09 -0.014999982933995635 0 1.3812675372968176e-05 -0.014984035996500288 0 2.4672905010523985e-09 -0.014999982933995635 0 1.3812675372968176e-05 -0.014984035996500288 0 9.1570658183070497e-06 -0.014994204926563106 0 1.3812675372968176e-05 -0.014984035996500288 0 9.1570658183070497e-06 -0.014994204926563106 0 7.4079542058189138e-06 -0.014994097709742176 0 2.4672905010523985e-09 -0.014999982933995635 0 9.1570658183070497e-06 -0.014994204926563106 0 1.2737259726420708e-08 -0.014999999976458069 0 -1.5770027876630251e-05 -0.014925529880620812 0 -9.9206510810817502e-06 -0.014914482779189962 0 1.0221718720169513e-05 -0.014946837158248825 0 2.6781533300740825e-05 -0.014923314215174968 0 2.1723881771090171e-05 -0.01493005966020601 0 1.275715191452947e-05 -0.014976451122812014 0 1.3812675372968176e-05 -0.014984035996500288 0 1.0221718720169513e-05 -0.014946837158248825 0 1.3812675372968176e-05 -0.014984035996500288 0 1.0221718720169513e-05 -0.014946837158248825 0 1.391598307400552e-05 -0.014902112458359765 0 6.6351363203181844e-06 -0.014952358361867417 0 5.3794447851374652e-08 -0.014939751855427782 0 9.1570658183070497e-06 -0.014994204926563106 0 7.4079542058189138e-06 -0.014994097709742176 0 8.078506371509903e-06 -0.014984185085994585 0 -9.9206510810817502e-06 -0.014914482779189962 0 1.0221718720169513e-05 -0.014946837158248825 0 1.391598307400552e-05 -0.014902112458359765 0 -9.9206510810817502e-06 -0.014914482779189962 0 1.391598307400552e-05 -0.014902112458359765 0 -2.2671921582705819e-05 -0.01488530071838717 0 7.4079542058189138e-06 -0.014994097709742176 0 8.078506371509903e-06 -0.014984185085994585 0 -1.6067061601388064e-05 -0.014971345052359562 0 5.3794447851374652e-08 -0.014939751855427782 0 -1.3506127394604911e-05 -0.014918229063669432 0 8.078506371509903e-06 -0.014984185085994585 0 3.9571933527601964e-06 -0.014967555265043359 0 -1.6067061601388064e-05 -0.014971345052359562 0 1.391598307400552e-05 -0.014902112458359765 0 -2.5586436798807927e-05 -0.014848266337694789 0 -2.2671921582705819e-05 -0.01488530071838717 0 8.078506371509903e-06 -0.014984185085994585 0 3.9571933527601964e-06 -0.014967555265043359 0 1.0847083829829835e-05 -0.014989588485372131 0 -8.7710913973040194e-06 -0.014969092100135317 0 -5.3129953018653904e-08 -0.014985781208031073 0 -3.8881113040499923e-06 -0.014969305171742619 0 -1.1129716120337661e-05 -0.01496006266158924 0 -1.0974265213984388e-06 -0.014985888176912657 0 -3.8881113040499923e-06 -0.014969305171742619 0 -1.1129716120337661e-05 -0.01496006266158924 0 -8.4527828061551479e-06 -0.014951083958042856 0 3.9571933527601964e-06 -0.014967555265043359 0 -1.6067061601388064e-05 -0.014971345052359562 0 -2.4871859536041175e-05 -0.014915226497508774 0 -8.7710913973040194e-06 -0.014969092100135317 0 -1.8837482695303171e-05 -0.014957903005643132 0 -1.1129716120337661e-05 -0.01496006266158924 0 -1.5204139375893953e-05 -0.014937167319048247 0 -2.4871859536041175e-05 -0.014915226497508774 0 -1.1129716120337661e-05 -0.01496006266158924 0 -8.4527828061551479e-06 -0.014951083958042856 0 -1.5204139375893953e-05 -0.014937167319048247 0 5.855399512968216e-09 -0.014999974339016175 0 -5.3129953018653904e-08 -0.014985781208031073 0 2.5530620209260839e-09 -0.014999996688701969 0 -1.0974265213984388e-06 -0.014985888176912657 0 3.6627326848753692e-07 -0.014984875391663365 0 9.1570658183070497e-06 -0.014994204926563106 0 1.2737259726420708e-08 -0.014999999976458069 0 1.0847083829829835e-05 -0.014989588485372131 0 9.1570658183070497e-06 -0.014994204926563106 0 8.078506371509903e-06 -0.014984185085994585 0 1.0847083829829835e-05 -0.014989588485372131 0 -3.8881113040499923e-06 -0.014969305171742619 0 -1.0974265213984388e-06 -0.014985888176912657 0 3.6627326848753692e-07 -0.014984875391663365 0 -3.8881113040499923e-06 -0.014969305171742619 0 3.6627326848753692e-07 -0.014984875391663365 0 -3.226469179704601e-06 -0.014965072586469596 0 2.5530620209260839e-09 -0.014999996688701969 0 3.6627326848753692e-07 -0.014984875391663365 0 1.5387399294724307e-09 -0.014999964133786368 0 3.6627326848753692e-07 -0.014984875391663365 0 1.5387399294724307e-09 -0.014999964133786368 0 -3.7127302026061161e-07 -0.014980831898285798 0 1.5387399294724307e-09 -0.014999964133786368 0 -3.7127302026061161e-07 -0.014980831898285798 0 -7.1704642339958172e-10 -0.014999966844710605 0 -1.5197976182384996e-06 -0.014971420960184249 0 -3.7127302026061161e-07 -0.014980831898285798 0 -7.1704642339958172e-10 -0.014999966844710605 0 -1.5197976182384996e-06 -0.014971420960184249 0 -3.7127302026061161e-07 -0.014980831898285798 0 -3.8899314220086352e-06 -0.014959826087850164 0 -3.7127302026061161e-07 -0.014980831898285798 0 -3.226469179704601e-06 -0.014965072586469596 0 -3.8899314220086352e-06 -0.014959826087850164 0 3.6627326848753692e-07 -0.014984875391663365 0 -3.7127302026061161e-07 -0.014980831898285798 0 -3.226469179704601e-06 -0.014965072586469596 0 -3.8881113040499923e-06 -0.014969305171742619 0 -3.226469179704601e-06 -0.014965072586469596 0 -8.4527828061551479e-06 -0.014951083958042856 0 -3.226469179704601e-06 -0.014965072586469596 0 -8.4527828061551479e-06 -0.014951083958042856 0 -8.1850693191162908e-06 -0.014944640796107328 0 -3.226469179704601e-06 -0.014965072586469596 0 -8.1850693191162908e-06 -0.014944640796107328 0 -3.8899314220086352e-06 -0.014959826087850164 0 -1.5204139375893953e-05 -0.014937167319048247 0 -1.4092853702337541e-05 -0.014931131403607811 0 -1.9442956697709739e-05 -0.014920714811896284 0 -8.4527828061551479e-06 -0.014951083958042856 0 -1.5204139375893953e-05 -0.014937167319048247 0 -1.4092853702337541e-05 -0.014931131403607811 0 -8.1850693191162908e-06 -0.014944640796107328 0 -1.4092853702337541e-05 -0.014931131403607811 0 -1.5772382664711381e-05 -0.014922113504048751 0 -8.4527828061551479e-06 -0.014951083958042856 0 -8.1850693191162908e-06 -0.014944640796107328 0 -1.4092853702337541e-05 -0.014931131403607811 0 -1.4092853702337541e-05 -0.014931131403607811 0 -1.5772382664711381e-05 -0.014922113504048751 0 -2.4853197019787553e-05 -0.014899023560310129 0 3.2103942183706922e-05 -0.01490628946499384 0 2.3112540801508737e-05 -0.01487979284634538 0 8.4661256246799446e-06 -0.014876199199471259 0 4.0024602766120039e-06 -0.014937456302490076 0 -7.8608015400139297e-06 -0.014915874889450417 0 -1.5772382664711381e-05 -0.014922113504048751 0 -9.2805360719665269e-06 -0.014936982520868865 0 -2.3190665866807672e-05 -0.014898691607345733 0 -8.1850693191162908e-06 -0.014944640796107328 0 -1.5772382664711381e-05 -0.014922113504048751 0 -9.2805360719665269e-06 -0.014936982520868865 0 -1.5197976182384996e-06 -0.014971420960184249 0 -3.8899314220086352e-06 -0.014959826087850164 0 -9.2805360719665269e-06 -0.014936982520868865 0 6.1592417985114872e-06 -0.014966746031849705 0 4.0024602766120039e-06 -0.014937456302490076 0 -8.1850693191162908e-06 -0.014944640796107328 0 -3.8899314220086352e-06 -0.014959826087850164 0 -9.2805360719665269e-06 -0.014936982520868865 0 1.2597505599524312e-05 -0.014948020756577907 0 3.2103942183706922e-05 -0.01490628946499384 0 3.0297068129924843e-05 -0.014926347039338051 0 3.2103942183706922e-05 -0.01490628946499384 0 3.0297068129924843e-05 -0.014926347039338051 0 2.3112540801508737e-05 -0.01487979284634538 0 3.0297068129924843e-05 -0.014926347039338051 0 2.3112540801508737e-05 -0.01487979284634538 0 2.3812953127589347e-05 -0.014830816833973382 0 4.5452167266654816e-05 -0.014959693989604341 0 2.578584079787975e-05 -0.014963120885494044 0 3.1233043496068269e-05 -0.014972387319153978 0 0.00018390097134484326 -0.014643301501832311 0 0.00021767170641914612 -0.014552673984214658 0 3.0297068129924843e-05 -0.014926347039338051 0 2.578584079787975e-05 -0.014963120885494044 0 6.5762776286363426e-06 -0.014972728538962924 0 3.0297068129924843e-05 -0.014926347039338051 0 4.5452167266654816e-05 -0.014959693989604341 0 2.578584079787975e-05 -0.014963120885494044 0 6.5762776286363426e-06 -0.014972728538962924 0 1.4128015400127118e-05 -0.01497946008060947 0 5.0941934501717122e-06 -0.014989079423199695 0 2.578584079787975e-05 -0.014963120885494044 0 6.5762776286363426e-06 -0.014972728538962924 0 1.4128015400127118e-05 -0.01497946008060947 0 6.5762776286363426e-06 -0.014972728538962924 0 -4.6229860787706061e-10 -0.014999987103520828 0 5.0941934501717122e-06 -0.014989079423199695 0 1.2597505599524312e-05 -0.014948020756577907 0 6.5762776286363426e-06 -0.014972728538962924 0 -5.4374709890501434e-09 -0.014999926699295209 0 6.1592417985114872e-06 -0.014966746031849705 0 8.4920553720695455e-09 -0.014999927124617845 0 6.5762776286363426e-06 -0.014972728538962924 0 -4.6229860787706061e-10 -0.014999987103520828 0 -5.4374709890501434e-09 -0.014999926699295209 0 1.2597505599524312e-05 -0.014948020756577907 0 3.0297068129924843e-05 -0.014926347039338051 0 6.5762776286363426e-06 -0.014972728538962924 0 -3.7698788678494505e-05 -0.014801172488304214 0 -2.4345394169829892e-05 -0.014833111113812423 0 -4.3815680169112527e-05 -0.014816000987203459 0 -5.2167243452373729e-05 -0.014786701851872348 0 -3.7698788678494505e-05 -0.014801172488304214 0 -4.3815680169112527e-05 -0.014816000987203459 0 -5.2167243452373729e-05 -0.014786701851872348 0 -4.3815680169112527e-05 -0.014816000987203459 0 -5.8634446589537081e-05 -0.014778416412199845 0 -5.2167243452373729e-05 -0.014786701851872348 0 -4.4267045103004585e-05 -0.014779558832536697 0 -3.7698788678494505e-05 -0.014801172488304214 0 -5.2167243452373729e-05 -0.014786701851872348 0 -6.4191453167724926e-05 -0.014770864405540677 0 -5.523240065348662e-05 -0.014768106735435381 0 -5.2167243452373729e-05 -0.014786701851872348 0 -4.4267045103004585e-05 -0.014779558832536697 0 -5.523240065348662e-05 -0.014768106735435381 0 -4.4267045103004585e-05 -0.014779558832536697 0 -3.7698788678494505e-05 -0.014801172488304214 0 -2.9673313087882103e-05 -0.014788946959643801 0 -3.7698788678494505e-05 -0.014801172488304214 0 -2.9673313087882103e-05 -0.014788946959643801 0 -1.5966280502934403e-05 -0.014813782072267846 0 -3.7698788678494505e-05 -0.014801172488304214 0 -1.5966280502934403e-05 -0.014813782072267846 0 -2.4345394169829892e-05 -0.014833111113812423 0 -2.9673313087882103e-05 -0.014788946959643801 0 -1.5966280502934403e-05 -0.014813782072267846 0 -8.2827165130287318e-06 -0.014777248780193821 0 2.3812953127589347e-05 -0.014830816833973382 0 -1.5966280502934403e-05 -0.014813782072267846 0 3.349786245200414e-06 -0.014848652196044259 0 2.3812953127589347e-05 -0.014830816833973382 0 -1.5966280502934403e-05 -0.014813782072267846 0 -8.2827165130287318e-06 -0.014777248780193821 0 2.3112540801508737e-05 -0.01487979284634538 0 3.349786245200414e-06 -0.014848652196044259 0 8.4661256246799446e-06 -0.014876199199471259 0 2.3112540801508737e-05 -0.01487979284634538 0 2.3812953127589347e-05 -0.014830816833973382 0 3.349786245200414e-06 -0.014848652196044259 0 3.349786245200414e-06 -0.014848652196044259 0 -2.4345394169829892e-05 -0.014833111113812423 0 8.4661256246799446e-06 -0.014876199199471259 0 -1.5966280502934403e-05 -0.014813782072267846 0 3.349786245200414e-06 -0.014848652196044259 0 -2.4345394169829892e-05 -0.014833111113812423 0 -1.6547072181401507e-05 -0.014906921144885668 0 -7.8608015400139297e-06 -0.014915874889450417 0 -2.4345394169829892e-05 -0.014833111113812423 0 -2.9746102003319981e-05 -0.014852410681187601 0 8.4661256246799446e-06 -0.014876199199471259 0 -2.9746102003319981e-05 -0.014852410681187601 0 -2.3190665866807672e-05 -0.014898691607345733 0 -2.4853197019787553e-05 -0.014899023560310129 0 -1.5772382664711381e-05 -0.014922113504048751 0 -2.3190665866807672e-05 -0.014898691607345733 0 -2.4853197019787553e-05 -0.014899023560310129 0 -1.5204139375893953e-05 -0.014937167319048247 0 -1.9442956697709739e-05 -0.014920714811896284 0 -2.4871859536041175e-05 -0.014915226497508774 0 -1.4092853702337541e-05 -0.014931131403607811 0 -2.4853197019787553e-05 -0.014899023560310129 0 -1.9442956697709739e-05 -0.014920714811896284 0 -2.4853197019787553e-05 -0.014899023560310129 0 -3.4794346164486601e-05 -0.014874371428694451 0 -2.4871859536041175e-05 -0.014915226497508774 0 -2.4853197019787553e-05 -0.014899023560310129 0 -1.9442956697709739e-05 -0.014920714811896284 0 -2.4871859536041175e-05 -0.014915226497508774 0 -3.4794346164486601e-05 -0.014874371428694451 0 -3.3024872561964124e-05 -0.01483750107039847 0 -3.1818246058565747e-05 -0.014849760793842317 0 -2.9746102003319981e-05 -0.014852410681187601 0 -2.4853197019787553e-05 -0.014899023560310129 0 -3.4794346164486601e-05 -0.014874371428694451 0 -2.9746102003319981e-05 -0.014852410681187601 0 -3.4794346164486601e-05 -0.014874371428694451 0 -3.3024872561964124e-05 -0.01483750107039847 0 -2.9746102003319981e-05 -0.014852410681187601 0 -3.3024872561964124e-05 -0.01483750107039847 0 -4.3815680169112527e-05 -0.014816000987203459 0 -2.4345394169829892e-05 -0.014833111113812423 0 -2.9746102003319981e-05 -0.014852410681187601 0 -4.3815680169112527e-05 -0.014816000987203459 0 -4.3815680169112527e-05 -0.014816000987203459 0 -3.8523559471349115e-05 -0.014808744874072946 0 -5.6745068711197891e-05 -0.014797515558167232 0 -3.3024872561964124e-05 -0.01483750107039847 0 -4.3815680169112527e-05 -0.014816000987203459 0 -3.8523559471349115e-05 -0.014808744874072946 0 -3.3024872561964124e-05 -0.01483750107039847 0 -3.8523559471349115e-05 -0.014808744874072946 0 -3.0933802146041088e-05 -0.014823287119654902 0 -3.3024872561964124e-05 -0.01483750107039847 0 -3.2969409048314666e-05 -0.014840127116342245 0 -3.1818246058565747e-05 -0.014849760793842317 0 -3.3024872561964124e-05 -0.01483750107039847 0 -3.0933802146041088e-05 -0.014823287119654902 0 -3.2969409048314666e-05 -0.014840127116342245 0 -3.2969409048314666e-05 -0.014840127116342245 0 -3.7577493233919754e-05 -0.01484956962037714 0 -3.188822118959842e-05 -0.014838171964014097 0 -3.0933802146041088e-05 -0.014823287119654902 0 -3.2969409048314666e-05 -0.014840127116342245 0 -3.188822118959842e-05 -0.014838171964014097 0 -3.0933802146041088e-05 -0.014823287119654902 0 -3.188822118959842e-05 -0.014838171964014097 0 -2.5607359347368214e-05 -0.01481935350071715 0 -3.4794346164486601e-05 -0.014874371428694451 0 -1.6067061601388064e-05 -0.014971345052359562 0 -2.4871859536041175e-05 -0.014915226497508774 0 -2.1041702338694992e-05 -0.014905908783289163 0 -1.3506127394604911e-05 -0.014918229063669432 0 -2.5586436798807927e-05 -0.014848266337694789 0 -3.2521397212331829e-05 -0.014856920912506136 0 -3.2353371214145001e-05 -0.014852659525471818 0 -3.4794346164486601e-05 -0.014874371428694451 0 -2.5586436798807927e-05 -0.014848266337694789 0 -3.2521397212331829e-05 -0.014856920912506136 0 -3.2521397212331829e-05 -0.014856920912506136 0 -3.4187335578495483e-05 -0.014849721443243119 0 -3.2353371214145001e-05 -0.014852659525471818 0 -3.4794346164486601e-05 -0.014874371428694451 0 -3.2521397212331829e-05 -0.014856920912506136 0 -3.1818246058565747e-05 -0.014849760793842317 0 -3.2521397212331829e-05 -0.014856920912506136 0 -3.1818246058565747e-05 -0.014849760793842317 0 -3.4187335578495483e-05 -0.014849721443243119 0 -3.2969409048314666e-05 -0.014840127116342245 0 -3.1818246058565747e-05 -0.014849760793842317 0 -3.4187335578495483e-05 -0.014849721443243119 0 -3.2969409048314666e-05 -0.014840127116342245 0 -3.4187335578495483e-05 -0.014849721443243119 0 -3.7577493233919754e-05 -0.01484956962037714 0 -3.7577493233919754e-05 -0.01484956962037714 0 -3.4543798452032489e-05 -0.014858251366627918 0 -4.4992503373057659e-05 -0.014860458056955073 0 -3.4187335578495483e-05 -0.014849721443243119 0 -3.2353371214145001e-05 -0.014852659525471818 0 -3.4543798452032489e-05 -0.014858251366627918 0 -3.4187335578495483e-05 -0.014849721443243119 0 -3.7577493233919754e-05 -0.01484956962037714 0 -3.4543798452032489e-05 -0.014858251366627918 0 -2.5586436798807927e-05 -0.014848266337694789 0 -3.4543798452032489e-05 -0.014858251366627918 0 -2.2671921582705819e-05 -0.01488530071838717 0 -2.5586436798807927e-05 -0.014848266337694789 0 -3.2353371214145001e-05 -0.014852659525471818 0 -3.4543798452032489e-05 -0.014858251366627918 0 -9.9206510810817502e-06 -0.014914482779189962 0 -2.2671921582705819e-05 -0.01488530071838717 0 -2.9559732921121552e-05 -0.014897199982434472 0 -2.2671921582705819e-05 -0.01488530071838717 0 -4.4992503373057659e-05 -0.014860458056955073 0 -2.9559732921121552e-05 -0.014897199982434472 0 -3.4543798452032489e-05 -0.014858251366627918 0 -2.2671921582705819e-05 -0.01488530071838717 0 -4.4992503373057659e-05 -0.014860458056955073 0 3.8014370787550619e-05 -0.014867729564486022 0 5.1060742010156324e-05 -0.014869418040924435 0 -4.4992503373057659e-05 -0.014860458056955073 0 -5.2165135634718652e-05 -0.014913449892215229 0 -2.9559732921121552e-05 -0.014897199982434472 0 -4.4992503373057659e-05 -0.014860458056955073 0 -4.5462120379669936e-05 -0.014829435869886352 0 -3.349345797110267e-05 -0.014838622495675424 0 -1.5770027876630251e-05 -0.014925529880620812 0 -5.2165135634718652e-05 -0.014913449892215229 0 -2.9559732921121552e-05 -0.014897199982434472 0 -1.5770027876630251e-05 -0.014925529880620812 0 -9.9206510810817502e-06 -0.014914482779189962 0 -2.9559732921121552e-05 -0.014897199982434472 0 -3.188822118959842e-05 -0.014838171964014097 0 -2.7553517033603989e-05 -0.014829382540936905 0 -2.5607359347368214e-05 -0.01481935350071715 0 -3.188822118959842e-05 -0.014838171964014097 0 -3.349345797110267e-05 -0.014838622495675424 0 -2.7553517033603989e-05 -0.014829382540936905 0 -3.7577493233919754e-05 -0.01484956962037714 0 -4.4992503373057659e-05 -0.014860458056955073 0 -3.188822118959842e-05 -0.014838171964014097 0 -4.4992503373057659e-05 -0.014860458056955073 0 -3.188822118959842e-05 -0.014838171964014097 0 -3.349345797110267e-05 -0.014838622495675424 0 -3.349345797110267e-05 -0.014838622495675424 0 -3.2483853428372744e-05 -0.014827438912096404 0 -2.7553517033603989e-05 -0.014829382540936905 0 -4.5462120379669936e-05 -0.014829435869886352 0 -3.349345797110267e-05 -0.014838622495675424 0 -3.2483853428372744e-05 -0.014827438912096404 0 -2.7567820381199821e-05 -0.014821134389402644 0 -3.2483853428372744e-05 -0.014827438912096404 0 -2.7553517033603989e-05 -0.014829382540936905 0 -2.7567820381199821e-05 -0.014821134389402644 0 -2.7553517033603989e-05 -0.014829382540936905 0 -2.5579076026051435e-05 -0.01482380140181149 0 -2.7553517033603989e-05 -0.014829382540936905 0 -2.5579076026051435e-05 -0.01482380140181149 0 -2.6309234646781506e-05 -0.014822673465459919 0 -2.5579076026051435e-05 -0.01482380140181149 0 -2.6309234646781506e-05 -0.014822673465459919 0 -2.5823227993269748e-05 -0.014822820174395346 0 -2.6309234646781506e-05 -0.014822673465459919 0 -2.5607359347368214e-05 -0.01481935350071715 0 -3.1574836997681667e-05 -0.014814814164396064 0 -2.7553517033603989e-05 -0.014829382540936905 0 -2.6309234646781506e-05 -0.014822673465459919 0 -2.5607359347368214e-05 -0.01481935350071715 0 -0.0003693093432891533 -0.013026872839776601 0 -0.00052630563985234485 -0.012258036653157871 0 -0.00019462578358687402 -0.012464613465014835 0 -2.6309234646781506e-05 -0.014822673465459919 0 -3.1574836997681667e-05 -0.014814814164396064 0 -2.5823227993269748e-05 -0.014822820174395346 0 2.3578240671412585e-05 -0.01391892931408982 0 0.00016080848744450077 -0.01368646282188595 0 -0.00014046162993944401 -0.01206516140942903 0 -0.00052630563985234485 -0.012258036653157871 0 -0.00019462578358687402 -0.012464613465014835 0 -0.00014046162993944401 -0.01206516140942903 0 -0.00019462578358687402 -0.012464613465014835 0 3.3379266740624075e-05 -0.012336727057666955 0 0.00015426445468820613 -0.012137894159754234 0 3.3379266740624075e-05 -0.012336727057666955 0 0.00035000656344556905 -0.012430557155973684 0 5.1667655618344931e-05 -0.012707359094421451 0 0.00035000656344556905 -0.012430557155973684 0 0.00037792287766966008 -0.012813313513374757 0 3.3379266740624075e-05 -0.012336727057666955 0 5.1667655618344931e-05 -0.012707359094421451 0 0.00035000656344556905 -0.012430557155973684 0 -0.00019462578358687402 -0.012464613465014835 0 3.3379266740624075e-05 -0.012336727057666955 0 5.1667655618344931e-05 -0.012707359094421451 0 0.00053531786077333726 -0.012110456445912576 0 0.000815214791104528 -0.012411837590240175 0 0.0011072092349245805 -0.012361377744335881 0 0.0004635547536873123 -0.012180617977078303 0 0.00063970533111920266 -0.012250503942124562 0 0.00053531786077333726 -0.012110456445912576 0 0.000815214791104528 -0.012411837590240175 0 0.00059254098204063774 -0.012394175306314757 0 0.00053531786077333726 -0.012110456445912576 0 0.00035000656344556905 -0.012430557155973684 0 0.00059254098204063774 -0.012394175306314757 0 0.00015426445468820613 -0.012137894159754234 0 0.00053531786077333726 -0.012110456445912576 0 0.00035000656344556905 -0.012430557155973684 0 0.00035000656344556905 -0.012430557155973684 0 0.00059254098204063774 -0.012394175306314757 0 0.00067066186363480692 -0.012628567923351689 0 0.00035000656344556905 -0.012430557155973684 0 0.00067066186363480692 -0.012628567923351689 0 0.00037792287766966008 -0.012813313513374757 0 0.000815214791104528 -0.012411837590240175 0 0.00067066186363480692 -0.012628567923351689 0 0.00097364333592166066 -0.012574630618858504 0 0.000815214791104528 -0.012411837590240175 0 0.00059254098204063774 -0.012394175306314757 0 0.00067066186363480692 -0.012628567923351689 0 0.00059370493826871686 -0.01312451034279259 0 0.00098994034286519145 -0.012932377952435783 0 0.00095504676143886951 -0.013506508467043444 0 0.00067066186363480692 -0.012628567923351689 0 0.00059370493826871686 -0.01312451034279259 0 0.00098994034286519145 -0.012932377952435783 0 0.00067066186363480692 -0.012628567923351689 0 0.00037792287766966008 -0.012813313513374757 0 0.00059370493826871686 -0.01312451034279259 0 0.00037792287766966008 -0.012813313513374757 0 0.00059370493826871686 -0.01312451034279259 0 0.00016326196107945595 -0.0131811377790214 0 -0.0003693093432891533 -0.013026872839776601 0 5.1667655618344931e-05 -0.012707359094421451 0 0.00016326196107945595 -0.0131811377790214 0 -0.0003693093432891533 -0.013026872839776601 0 -0.00019462578358687402 -0.012464613465014835 0 5.1667655618344931e-05 -0.012707359094421451 0 5.1667655618344931e-05 -0.012707359094421451 0 0.00037792287766966008 -0.012813313513374757 0 0.00016326196107945595 -0.0131811377790214 0 0.00016326196107945595 -0.0131811377790214 0 0.00048762258348485348 -0.013606210604522705 0 -0.00019575186672934222 -0.013823480776410872 0 -0.0003693093432891533 -0.013026872839776601 0 0.00016326196107945595 -0.0131811377790214 0 -0.00019575186672934222 -0.013823480776410872 0 0.00059370493826871686 -0.01312451034279259 0 0.00048762258348485348 -0.013606210604522705 0 0.00095504676143886951 -0.013506508467043444 0 0.00059370493826871686 -0.01312451034279259 0 0.00016326196107945595 -0.0131811377790214 0 0.00048762258348485348 -0.013606210604522705 0 0.00048762258348485348 -0.013606210604522705 0 0.00071700862605247439 -0.014035446242254002 0 0.00095504676143886951 -0.013506508467043444 0 0.00048762258348485348 -0.013606210604522705 0 0.00071700862605247439 -0.014035446242254002 0 0.00029096101199914387 -0.014055196250923226 0 0.00071700862605247439 -0.014035446242254002 0 0.00029096101199914387 -0.014055196250923226 0 0.00046585532319374438 -0.01441913144041944 0 1.4482015735453523e-05 -0.014235383004852725 0 3.7289153002654113e-05 -0.014415354136658546 0 0.00029096101199914387 -0.014055196250923226 0 -0.00019575186672934222 -0.013823480776410872 0 4.5451966548426503e-05 -0.014681733583409099 0 0.00048762258348485348 -0.013606210604522705 0 0.00029096101199914387 -0.014055196250923226 0 -0.00019575186672934222 -0.013823480776410872 0 -2.5253618937275984e-05 -0.014780295925032716 0 -2.5708634263759446e-05 -0.014798627371755904 0 -2.7598224306124475e-05 -0.014776509154247502 0 -2.5253618937275984e-05 -0.014780295925032716 0 -2.7598224306124475e-05 -0.014776509154247502 0 4.5451966548426503e-05 -0.014681733583409099 0 -3.8523559471349115e-05 -0.014808744874072946 0 -3.0933802146041088e-05 -0.014823287119654902 0 -2.5708634263759446e-05 -0.014798627371755904 0 -3.8523559471349115e-05 -0.014808744874072946 0 -2.5708634263759446e-05 -0.014798627371755904 0 -2.7598224306124475e-05 -0.014776509154247502 0 -2.5607359347368214e-05 -0.01481935350071715 0 -3.1574836997681667e-05 -0.014814814164396064 0 -2.5708634263759446e-05 -0.014798627371755904 0 -3.0933802146041088e-05 -0.014823287119654902 0 -2.5607359347368214e-05 -0.01481935350071715 0 -2.5708634263759446e-05 -0.014798627371755904 0 -3.1574836997681667e-05 -0.014814814164396064 0 -2.5253618937275984e-05 -0.014780295925032716 0 -2.5708634263759446e-05 -0.014798627371755904 0 2.3578240671412585e-05 -0.01391892931408982 0 1.4482015735453523e-05 -0.014235383004852725 0 0.0022413335701299748 -0.00036016511046726112 0 0.0025259086865461093 -0.00010052411806287423 0 0.0022187616599604835 0.00017324272725152386 0 0.0025259086865461093 -0.00010052411806287423 0 0.0026219364253744553 0.00016945264011204904 0 0.0022187616599604835 0.00017324272725152386 0 0.0022413335701299748 -0.00036016511046726112 0 0.0027095584568464651 -0.00035629592018473951 0 0.0025259086865461093 -0.00010052411806287423 0 0.0026191306296965743 -0.00066074055074186633 0 0.0022413335701299748 -0.00036016511046726112 0 0.0027095584568464651 -0.00035629592018473951 0 0.0027095584568464651 -0.00035629592018473951 0 0.0025259086865461093 -0.00010052411806287423 0 0.0028400398776395838 -0.00013580797161870433 0 0.0029537379203418367 0.0001462223780688827 0 0.0028400398776395838 -0.00013580797161870433 0 0.0026219364253744553 0.00016945264011204904 0 0.0025259086865461093 -0.00010052411806287423 0 0.0028400398776395838 -0.00013580797161870433 0 0.0026219364253744553 0.00016945264011204904 0 0.0029537379203418367 0.0001462223780688827 0 0.0028400398776395838 -0.00013580797161870433 0 0.0032697021128306933 -0.00026952627393153628 0 0.0019393776464998601 -0.0065691100210381916 0 0.0018151770912474175 -0.0067515009244717818 0 0.0017056390816206834 -0.013203697436225615 0 0.0012588150635370319 -0.012520000374719552 0 0.0012684648349806291 -0.013197356678547443 0 0.0027095584568464651 -0.00035629592018473951 0 0.0028400398776395838 -0.00013580797161870433 0 0.0030385089506776456 -0.00041944116836130444 0 0.0028400398776395838 -0.00013580797161870433 0 0.0030385089506776456 -0.00041944116836130444 0 0.0032697021128306933 -0.00026952627393153628 0 0.0028809234360340644 -0.00059868950745205988 0 0.0027095584568464651 -0.00035629592018473951 0 0.0030385089506776456 -0.00041944116836130444 0 0.00077017140396997525 -0.011736837110734916 0 0.0012588150635370319 -0.012520000374719552 0 0.0011072092349245805 -0.012361377744335881 0 0.0032883235168019468 -0.00058450123354736045 0 0.0030385089506776456 -0.00041944116836130444 0 0.0032697021128306933 -0.00026952627393153628 0 0.0012588150635370319 -0.012520000374719552 0 0.00097364333592166066 -0.012574630618858504 0 0.00098994034286519145 -0.012932377952435783 0 0.000815214791104528 -0.012411837590240175 0 0.0011072092349245805 -0.012361377744335881 0 0.00097364333592166066 -0.012574630618858504 0 0.0012588150635370319 -0.012520000374719552 0 0.0011072092349245805 -0.012361377744335881 0 0.00097364333592166066 -0.012574630618858504 0 0.00067066186363480692 -0.012628567923351689 0 0.00097364333592166066 -0.012574630618858504 0 0.00098994034286519145 -0.012932377952435783 0 0.00098994034286519145 -0.012932377952435783 0 0.0012684648349806291 -0.013197356678547443 0 0.00095504676143886951 -0.013506508467043444 0 0.0012588150635370319 -0.012520000374719552 0 0.00098994034286519145 -0.012932377952435783 0 0.0012684648349806291 -0.013197356678547443 0 0.0012684648349806291 -0.013197356678547443 0 0.00095504676143886951 -0.013506508467043444 0 0.0014327697014588179 -0.013817715357693281 0 0.00095504676143886951 -0.013506508467043444 0 0.0010481949276877902 -0.013877998817309349 0 0.0014327697014588179 -0.013817715357693281 0 0.00071700862605247439 -0.014035446242254002 0 0.00095504676143886951 -0.013506508467043444 0 0.0010481949276877902 -0.013877998817309349 0 0.0011072889861691467 -0.014223094575411488 0 0.0014327697014588179 -0.013817715357693281 0 0.0014407905458496901 -0.01454041800861829 0 0.00071700862605247439 -0.014035446242254002 0 0.0010481949276877902 -0.013877998817309349 0 0.0011072889861691467 -0.014223094575411488 0 0.00071700862605247439 -0.014035446242254002 0 0.0011072889861691467 -0.014223094575411488 0 0.00076110706154137531 -0.014536117180266176 0 0.0010481949276877902 -0.013877998817309349 0 0.0011072889861691467 -0.014223094575411488 0 0.0014327697014588179 -0.013817715357693281 0 0.0016030277160530753 -0.0060367159473743758 0 0.00087902108672581957 -0.0073452951043139541 0 0.0014327697014588179 -0.013817715357693281 0 0.0021644167088258602 -0.013877322588499807 0 0.0014407905458496901 -0.01454041800861829 0 0.0017056390816206834 -0.013203697436225615 0 0.0014327697014588179 -0.013817715357693281 0 0.0021644167088258602 -0.013877322588499807 0 0.0017056390816206834 -0.013203697436225615 0 0.0012684648349806291 -0.013197356678547443 0 0.0014327697014588179 -0.013817715357693281 0 0.0026219364253744553 0.00016945264011204904 0 0.0026579041851902598 0.00055755732043982287 0 0.0022187616599604835 0.00017324272725152386 0 0.0029537379203418367 0.0001462223780688827 0 0.0026219364253744553 0.00016945264011204904 0 0.0026579041851902598 0.00055755732043982287 0 0.0019393776464998601 -0.0065691100210381916 0 0.0016030277160530753 -0.0060367159473743758 0 0.0015806834576456144 -0.00024303124475657712 0 0.0017372758471194006 -0.00022854560536744506 0 0.0012632827587641215 -0.0008575889531764778 0 0.0015806834576456144 -0.00024303124475657712 0 0.0015296105203626371 -0.0001633408096976276 0 0.0012632827587641215 -0.0008575889531764778 0 0.0015806834576456144 -0.00024303124475657712 0 0.0015887326092384698 -0.00019712456488006269 0 0.0017372758471194006 -0.00022854560536744506 0 0.001571324068447424 -0.0059670639991082908 0 0.0016030277160530753 -0.0060367159473743758 0 0.0015887326092384698 -0.00019712456488006269 0 0.0017372758471194006 -0.00022854560536744506 0 0.0017410074373785454 -0.00020017532894737298 0 0.0017372758471194006 -0.00022854560536744506 0 0.0017315689105362622 -0.00018388038802070599 0 0.0017374743532096752 -0.00016425209554465578 0 0.0017372758471194006 -0.00022854560536744506 0 0.0017315689105362622 -0.00018388038802070599 0 0.0017410074373785454 -0.00020017532894737298 0 0.0017315689105362622 -0.00018388038802070599 0 0.0017410074373785454 -0.00020017532894737298 0 0.0017260330387300661 -0.00017406430942291552 0 0.0015887326092384698 -0.00019712456488006269 0 0.0017410074373785454 -0.00020017532894737298 0 0.0017682439339179929 -0.0001797901369930066 0 0.0017410074373785454 -0.00020017532894737298 0 0.0017682439339179929 -0.0001797901369930066 0 0.0017260330387300661 -0.00017406430942291552 0 0.0016030277160530753 -0.0060367159473743758 0 0.0028585307913567594 -0.002063451534264698 0 0.001763169056117354 -0.00011179042586692401 0 0.0017366350530943009 -0.00012380095307758541 0 0.0017054802062750228 -6.5414011686134856e-05 0 0.001763169056117354 -0.00011179042586692401 0 0.0017889031837582143 -9.9708380288741756e-05 0 0.0017054802062750228 -6.5414011686134856e-05 0 0.001763169056117354 -0.00011179042586692401 0 0.0017366350530943009 -0.00012380095307758541 0 0.0017608689102982195 -0.00014142083050860138 0 0.0017366350530943009 -0.00012380095307758541 0 0.0017374743532096752 -0.00016425209554465578 0 0.001713565074505775 -0.00013324174196359352 0 0.0017315689105362622 -0.00018388038802070599 0 0.0017374743532096752 -0.00016425209554465578 0 0.001713565074505775 -0.00013324174196359352 0 0.0017372758471194006 -0.00022854560536744506 0 0.0017374743532096752 -0.00016425209554465578 0 0.0017654122613445233 -0.00017620813562462125 0 0.0017366350530943009 -0.00012380095307758541 0 0.0017374743532096752 -0.00016425209554465578 0 0.0017608689102982195 -0.00014142083050860138 0 0.0017374743532096752 -0.00016425209554465578 0 0.0017608689102982195 -0.00014142083050860138 0 0.0017654122613445233 -0.00017620813562462125 0 0.0017372758471194006 -0.00022854560536744506 0 0.0017654122613445233 -0.00017620813562462125 0 0.0018182909156355589 -0.0001592849765538451 0 0.0017608689102982195 -0.00014142083050860138 0 0.0017843066974542465 -0.00015173966442620933 0 0.0017938103466118515 -0.00013262344755245363 0 0.0024666075043323493 -0.0017137649703348602 0 0.0023595799344644352 -0.0025061798355438211 0 0.0017608689102982195 -0.00014142083050860138 0 0.0017843066974542465 -0.00015173966442620933 0 0.0017654122613445233 -0.00017620813562462125 0 0.0017843066974542465 -0.00015173966442620933 0 0.0017654122613445233 -0.00017620813562462125 0 0.0018182909156355589 -0.0001592849765538451 0 0.0017843066974542465 -0.00015173966442620933 0 0.0017938103466118515 -0.00013262344755245363 0 0.0018182909156355589 -0.0001592849765538451 0 0.0017938103466118515 -0.00013262344755245363 0 0.0018139302824443542 -0.00013715165288022543 0 0.0018182909156355589 -0.0001592849765538451 0 0.0017938103466118515 -0.00013262344755245363 0 0.0018131740701718237 -0.00012227755926344741 0 0.0018139302824443542 -0.00013715165288022543 0 0.001763169056117354 -0.00011179042586692401 0 0.0017608689102982195 -0.00014142083050860138 0 0.0017938103466118515 -0.00013262344755245363 0 0.001763169056117354 -0.00011179042586692401 0 0.0017938103466118515 -0.00013262344755245363 0 0.001792739531469643 -0.0001161072096854067 0 0.001763169056117354 -0.00011179042586692401 0 0.001792739531469643 -0.0001161072096854067 0 0.0017889031837582143 -9.9708380288741756e-05 0 0.001792739531469643 -0.0001161072096854067 0 0.0018131740701718237 -0.00012227755926344741 0 0.0017889031837582143 -9.9708380288741756e-05 0 0.0017938103466118515 -0.00013262344755245363 0 0.001792739531469643 -0.0001161072096854067 0 0.0018131740701718237 -0.00012227755926344741 0 0.0018131740701718237 -0.00012227755926344741 0 0.0018294681149036004 -0.00013408622106932808 0 0.001862885459412692 -0.00012987618659102371 0 0.0018131740701718237 -0.00012227755926344741 0 0.001862885459412692 -0.00012987618659102371 0 0.0017889031837582143 -9.9708380288741756e-05 0 0.0011445356426162123 -0.0061126462368913947 0 0.0017009414280286493 -0.0026810373168546387 0 0.0018294681149036004 -0.00013408622106932808 0 0.0018182909156355589 -0.0001592849765538451 0 0.001862885459412692 -0.00012987618659102371 0 0.0023595799344644352 -0.0025061798355438211 0 0.0011445356426162123 -0.0061126462368913947 0 0.0018294681149036004 -0.00013408622106932808 0 0.0018139302824443542 -0.00013715165288022543 0 0.0018182909156355589 -0.0001592849765538451 0 0.0018131740701718237 -0.00012227755926344741 0 0.0018294681149036004 -0.00013408622106932808 0 0.0018139302824443542 -0.00013715165288022543 0 0.0012632827587641215 -0.0008575889531764778 0 0.00087112930789896154 -0.00078391221105393984 0 0.00055920466228710059 -0.0015569267094901423 0 0.0015296105203626371 -0.0001633408096976276 0 0.0012632827587641215 -0.0008575889531764778 0 0.00087112930789896154 -0.00078391221105393984 0 0.0014407905458496901 -0.01454041800861829 0 0.001002848660803871 -0.01461212317477918 0 0.00070332070593748686 -0.015123233631497684 0 0.0011072889861691467 -0.014223094575411488 0 0.0014407905458496901 -0.01454041800861829 0 0.001002848660803871 -0.01461212317477918 0 0.0011072889861691467 -0.014223094575411488 0 0.001002848660803871 -0.01461212317477918 0 0.00076110706154137531 -0.014536117180266176 0 0.00087902108672581957 -0.0073452951043139541 0 -2.140068184801548e-05 -0.0083953683713409062 0 0.00087112930789896154 -0.00078391221105393984 0 0.00055920466228710059 -0.0015569267094901423 0 9.1822371881043974e-05 -0.0015152696817754723 0 0.0011445356426162123 -0.0061126462368913947 0 -2.140068184801548e-05 -0.0083953683713409062 0 0.00053215918937541123 -0.00073332733305445303 0 0.00038622710229824035 -0.001183447122405757 0 -0.00062054389911193593 -0.0011313459948440875 0 0.00066942952137437675 6.3198542903418389e-05 0 0.00053215918937541123 -0.00073332733305445303 0 -0.00062054389911193593 -0.0011313459948440875 0 0.00066942952137437675 6.3198542903418389e-05 0 0.00053215918937541123 -0.00073332733305445303 0 0.0011760586062315634 -0.00047397637944826017 0 0.0010530468624943604 -0.00094189519317142481 0 0.00053215918937541123 -0.00073332733305445303 0 0.0011760586062315634 -0.00047397637944826017 0 0.0010530468624943604 -0.00094189519317142481 0 0.00053215918937541123 -0.00073332733305445303 0 0.00038622710229824035 -0.001183447122405757 0 0.00038622710229824035 -0.001183447122405757 0 0.00088230291526419794 -0.0015655936711093366 0 3.6046019456763485e-05 -0.0018409384665521631 0 0.00088230291526419794 -0.0015655936711093366 0 3.6046019456763485e-05 -0.0018409384665521631 0 0.00091750780100947286 -0.002307441707507183 0 0.0010530468624943604 -0.00094189519317142481 0 0.00038622710229824035 -0.001183447122405757 0 0.00088230291526419794 -0.0015655936711093366 0 0.0010530468624943604 -0.00094189519317142481 0 0.00088230291526419794 -0.0015655936711093366 0 0.0015662630401516984 -0.0011808296396026462 0 0.00088230291526419794 -0.0015655936711093366 0 0.0015662630401516984 -0.0011808296396026462 0 0.0015267358319485853 -0.0018472838128770976 0 0.00088230291526419794 -0.0015655936711093366 0 0.0015267358319485853 -0.0018472838128770976 0 0.00091750780100947286 -0.002307441707507183 0 0.0015267358319485853 -0.0018472838128770976 0 0.0021709496432115762 -0.0013764228905790734 0 0.0021412340343461879 -0.0021160989602863251 0 0.0015267358319485853 -0.0018472838128770976 0 0.0021412340343461879 -0.0021160989602863251 0 0.0016855437339988722 -0.0025352902523386651 0 0.0015662630401516984 -0.0011808296396026462 0 0.0015267358319485853 -0.0018472838128770976 0 0.0021709496432115762 -0.0013764228905790734 0 0.00066942952137437675 6.3198542903418389e-05 0 0.0017682671701843061 -0.0004452492902548405 0 0.0026626851572352822 -0.0002245103939636692 0 0.0015662630401516984 -0.0011808296396026462 0 0.0020372877786593822 -0.00079199516228851724 0 0.0021709496432115762 -0.0013764228905790734 0 0.00066942952137437675 6.3198542903418389e-05 0 0.0011760586062315634 -0.00047397637944826017 0 0.0017682671701843061 -0.0004452492902548405 0 0.0020372877786593822 -0.00079199516228851724 0 0.0016001722231396582 -0.00074353820013830694 0 0.0017682671701843061 -0.0004452492902548405 0 0.0015662630401516984 -0.0011808296396026462 0 0.0020372877786593822 -0.00079199516228851724 0 0.0016001722231396582 -0.00074353820013830694 0 0.0010530468624943604 -0.00094189519317142481 0 0.0016001722231396582 -0.00074353820013830694 0 0.0011760586062315634 -0.00047397637944826017 0 0.0010530468624943604 -0.00094189519317142481 0 0.0015662630401516984 -0.0011808296396026462 0 0.0016001722231396582 -0.00074353820013830694 0 0.0016001722231396582 -0.00074353820013830694 0 0.0011760586062315634 -0.00047397637944826017 0 0.0017682671701843061 -0.0004452492902548405 0 0.0020372877786593822 -0.00079199516228851724 0 0.0017682671701843061 -0.0004452492902548405 0 0.0024103733949103309 -0.00045217552234994262 0 0.0017682671701843061 -0.0004452492902548405 0 0.0024103733949103309 -0.00045217552234994262 0 0.0026626851572352822 -0.0002245103939636692 0 0.0024103733949103309 -0.00045217552234994262 0 0.002571874810834685 -0.0003423794798351431 0 0.0025660282382101601 -0.0005407772635828477 0 0.0024103733949103309 -0.00045217552234994262 0 0.002571874810834685 -0.0003423794798351431 0 0.0026626851572352822 -0.0002245103939636692 0 0.0025660282382101601 -0.0005407772635828477 0 0.0026543023106380403 -0.00022360575712113964 0 0.0028164415724602735 -0.00088831554831825146 0 0.002571874810834685 -0.0003423794798351431 0 0.0026626851572352822 -0.0002245103939636692 0 0.0026543023106380403 -0.00022360575712113964 0 0.002571874810834685 -0.0003423794798351431 0 0.0025660282382101601 -0.0005407772635828477 0 0.0026543023106380403 -0.00022360575712113964 0 0.0025660282382101601 -0.0005407772635828477 0 0.0028164415724602735 -0.00088831554831825146 0 0.0024423747149317772 -0.00087123508010757827 0 0.0028164415724602735 -0.00088831554831825146 0 0.0024423747149317772 -0.00087123508010757827 0 0.0026485787296758128 -0.0012689839785322084 0 0.0020372877786593822 -0.00079199516228851724 0 0.0024423747149317772 -0.00087123508010757827 0 0.0021709496432115762 -0.0013764228905790734 0 0.0024103733949103309 -0.00045217552234994262 0 0.0025660282382101601 -0.0005407772635828477 0 0.0024423747149317772 -0.00087123508010757827 0 0.0020372877786593822 -0.00079199516228851724 0 0.0024103733949103309 -0.00045217552234994262 0 0.0024423747149317772 -0.00087123508010757827 0 0.0021709496432115762 -0.0013764228905790734 0 0.0027019790749026216 -0.0018561622733588887 0 0.0026485787296758128 -0.0012689839785322084 0 0.0024423747149317772 -0.00087123508010757827 0 0.0021709496432115762 -0.0013764228905790734 0 0.0026485787296758128 -0.0012689839785322084 0 0.0021709496432115762 -0.0013764228905790734 0 0.0021412340343461879 -0.0021160989602863251 0 0.0027019790749026216 -0.0018561622733588887 0 0.0027019790749026216 -0.0018561622733588887 0 0.0031278364480260027 -0.0014528689208051046 0 0.0034113525993694316 -0.0019414924615374397 0 0.0028164415724602735 -0.00088831554831825146 0 0.0026485787296758128 -0.0012689839785322084 0 0.0031278364480260027 -0.0014528689208051046 0 0.0027019790749026216 -0.0018561622733588887 0 0.0026485787296758128 -0.0012689839785322084 0 0.0031278364480260027 -0.0014528689208051046 0 0.0031278364480260027 -0.0014528689208051046 0 0.0034113525993694316 -0.0019414924615374397 0 0.0037869788732079368 -0.0013126576598883851 0 0.0028164415724602735 -0.00088831554831825146 0 0.0031278364480260027 -0.0014528689208051046 0 0.0037869788732079368 -0.0013126576598883851 0 0.0034113525993694316 -0.0019414924615374397 0 0.0037869788732079368 -0.0013126576598883851 0 0.0048340300155699971 -0.00236947709068204 0 0.0026543023106380403 -0.00022360575712113964 0 0.0024559762343215499 0.00011889545713473377 0 0.0022530721396589824 -0.00014281320862765101 0 0.0026626851572352822 -0.0002245103939636692 0 0.0026543023106380403 -0.00022360575712113964 0 0.0022530721396589824 -0.00014281320862765101 0 0.0017009414280286493 -0.0026810373168546387 0 0.0018156468873725016 -0.0013166130654137531 0 0.0025344945481824326 -0.00096224041006369898 0 0.00263052012316082 -0.0012380328480352811 0 0.0026543023106380403 -0.00022360575712113964 0 0.0028164415724602735 -0.00088831554831825146 0 0.0037869788732079368 -0.0013126576598883851 0 -5.6745068711197891e-05 -0.014797515558167232 0 -4.1809189529920416e-05 -0.01472997256773082 0 -5.3589200761440077e-05 -0.014760102082027144 0 0.00025248723367697184 -0.012230694421368232 0 0.00029010930404536032 -0.01141514292339357 0 -5.6745068711197891e-05 -0.014797515558167232 0 -2.1863695812494178e-05 -0.014790515447771806 0 1.7794989248163989e-05 -0.01492078598304184 0 -5.6745068711197891e-05 -0.014797515558167232 0 -5.3589200761440077e-05 -0.014760102082027144 0 -5.8634446589537081e-05 -0.014778416412199845 0 -4.3815680169112527e-05 -0.014816000987203459 0 -5.6745068711197891e-05 -0.014797515558167232 0 -5.8634446589537081e-05 -0.014778416412199845 0 -3.8523559471349115e-05 -0.014808744874072946 0 -5.6745068711197891e-05 -0.014797515558167232 0 -2.7598224306124475e-05 -0.014776509154247502 0 -5.6745068711197891e-05 -0.014797515558167232 0 -2.7598224306124475e-05 -0.014776509154247502 0 -2.1863695812494178e-05 -0.014790515447771806 0 -2.7598224306124475e-05 -0.014776509154247502 0 -2.1863695812494178e-05 -0.014790515447771806 0 4.5451966548426503e-05 -0.014681733583409099 0 -2.1863695812494178e-05 -0.014790515447771806 0 4.5451966548426503e-05 -0.014681733583409099 0 1.7794989248163989e-05 -0.01492078598304184 0 0.00029096101199914387 -0.014055196250923226 0 4.5451966548426503e-05 -0.014681733583409099 0 0.00046585532319374438 -0.01441913144041944 0 4.5451966548426503e-05 -0.014681733583409099 0 0.00046585532319374438 -0.01441913144041944 0 0.00037685027612724908 -0.014757785764315962 0 4.5451966548426503e-05 -0.014681733583409099 0 0.00037685027612724908 -0.014757785764315962 0 1.7794989248163989e-05 -0.01492078598304184 0 0.001002848660803871 -0.01461212317477918 0 0.00076110706154137531 -0.014536117180266176 0 0.00070332070593748686 -0.015123233631497684 0 0.00071700862605247439 -0.014035446242254002 0 0.00076110706154137531 -0.014536117180266176 0 0.00046585532319374438 -0.01441913144041944 0 0.00076110706154137531 -0.014536117180266176 0 0.00046585532319374438 -0.01441913144041944 0 0.00037685027612724908 -0.014757785764315962 0 0.00076110706154137531 -0.014536117180266176 0 0.00037685027612724908 -0.014757785764315962 0 0.00070332070593748686 -0.015123233631497684 0 0.00037685027612724908 -0.014757785764315962 0 0.00070332070593748686 -0.015123233631497684 0 1.7794989248163989e-05 -0.01492078598304184 0 -2.0453081985988056e-05 -0.014695469877568826 0 -4.1809189529920416e-05 -0.01472997256773082 0 -2.3431967496073606e-05 -0.014710367443961331 0 -2.140068184801548e-05 -0.0083953683713409062 0 0.00029010930404536032 -0.01141514292339357 0 -4.1809189529920416e-05 -0.01472997256773082 0 -4.3411510903224588e-05 -0.014739185876745931 0 -2.3431967496073606e-05 -0.014710367443961331 0 -2.3431967496073606e-05 -0.014710367443961331 0 3.8153582060929286e-05 -0.014757600857448754 0 -1.9102416300073011e-05 -0.014750173809108843 0 -2.3431967496073606e-05 -0.014710367443961331 0 -3.9939773225826342e-05 -0.014750345642526953 0 -1.9102416300073011e-05 -0.014750173809108843 0 -4.3411510903224588e-05 -0.014739185876745931 0 -2.3431967496073606e-05 -0.014710367443961331 0 -3.9939773225826342e-05 -0.014750345642526953 0 0.0011445356426162123 -0.0061126462368913947 0 7.7823151184515255e-05 -0.0079270087301703904 0 0.0001298259505833897 -0.014519163882406861 0 -2.3431967496073606e-05 -0.014710367443961331 0 3.8153582060929286e-05 -0.014757600857448754 0 0.00029002256227679871 -0.014525810141244778 0 0.0001298259505833897 -0.014519163882406861 0 3.8153582060929286e-05 -0.014757600857448754 0 -2.140068184801548e-05 -0.0083953683713409062 0 -0.00090013900057388078 -0.010024032688091898 0 -0.00062054389911193593 -0.0011313459948440875 0 -0.00074314569585833218 -0.0020236019879047639 0 3.6046019456763485e-05 -0.0018409384665521631 0 0.00038622710229824035 -0.001183447122405757 0 -0.00062054389911193593 -0.0011313459948440875 0 3.6046019456763485e-05 -0.0018409384665521631 0 -0.00062054389911193593 -0.0011313459948440875 0 -0.00074314569585833218 -0.0020236019879047639 0 -0.0015000384381774908 -0.001942895258240946 0 -0.00074314569585833218 -0.0020236019879047639 0 -0.0015000384381774908 -0.001942895258240946 0 -0.0019303618487427538 -0.0023389286773608849 0 -3.9939773225826342e-05 -0.014750345642526953 0 -3.9015293575308098e-05 -0.01477265536274187 0 -5.1013190371054005e-05 -0.014765592308655576 0 -3.9939773225826342e-05 -0.014750345642526953 0 -1.9102416300073011e-05 -0.014750173809108843 0 -3.9015293575308098e-05 -0.01477265536274187 0 7.7823151184515255e-05 -0.0079270087301703904 0 -0.00019000573514512385 -0.0088364698693932844 0 3.8153582060929286e-05 -0.014757600857448754 0 -1.9102416300073011e-05 -0.014750173809108843 0 -3.9015293575308098e-05 -0.01477265536274187 0 -0.00019000573514512385 -0.0088364698693932844 0 -0.00024040270226768592 -0.0092950332991498311 0 -3.9015293575308098e-05 -0.01477265536274187 0 -5.1013190371054005e-05 -0.014765592308655576 0 -4.6909950550491069e-05 -0.014771711719352335 0 -5.1013190371054005e-05 -0.014765592308655576 0 -6.4191453167724926e-05 -0.014770864405540677 0 -4.6909950550491069e-05 -0.014771711719352335 0 0.00044577549577745764 -0.010635483152129898 0 -0.00024040270226768592 -0.0092950332991498311 0 -5.1013190371054005e-05 -0.014765592308655576 0 -5.4696722794823864e-05 -0.014760432586986262 0 -6.4191453167724926e-05 -0.014770864405540677 0 -3.9939773225826342e-05 -0.014750345642526953 0 -5.1013190371054005e-05 -0.014765592308655576 0 -5.4696722794823864e-05 -0.014760432586986262 0 -4.3411510903224588e-05 -0.014739185876745931 0 -3.9939773225826342e-05 -0.014750345642526953 0 -5.4696722794823864e-05 -0.014760432586986262 0 -5.4696722794823864e-05 -0.014760432586986262 0 -5.3589200761440077e-05 -0.014760102082027144 0 -5.8634446589537081e-05 -0.014778416412199845 0 -4.1809189529920416e-05 -0.01472997256773082 0 -4.3411510903224588e-05 -0.014739185876745931 0 -5.3589200761440077e-05 -0.014760102082027144 0 -4.3411510903224588e-05 -0.014739185876745931 0 -5.4696722794823864e-05 -0.014760432586986262 0 -5.3589200761440077e-05 -0.014760102082027144 0 -5.4696722794823864e-05 -0.014760432586986262 0 -5.8634446589537081e-05 -0.014778416412199845 0 -6.4191453167724926e-05 -0.014770864405540677 0 -5.2167243452373729e-05 -0.014786701851872348 0 -5.8634446589537081e-05 -0.014778416412199845 0 -6.4191453167724926e-05 -0.014770864405540677 0 -6.4191453167724926e-05 -0.014770864405540677 0 -6.6796243347217718e-05 -0.014754158443803067 0 -8.8646353316035423e-05 -0.014746780118422027 0 -6.4191453167724926e-05 -0.014770864405540677 0 -6.6796243347217718e-05 -0.014754158443803067 0 -5.523240065348662e-05 -0.014768106735435381 0 -0.00044553254246746619 -0.011483524154177012 0 -3.4097340390785243e-05 -0.012597000027655654 0 -6.6796243347217718e-05 -0.014754158443803067 0 -7.2366097528781144e-05 -0.014737394870657391 0 -5.6084727632092823e-05 -0.014751649893568057 0 -0.00013559429152586245 -0.011929171606136863 0 -0.00044127191638343975 -0.011940555946185316 0 -0.00034538157801594936 -0.012023286698094923 0 -0.00013559429152586245 -0.011929171606136863 0 -0.00028575012267235305 -0.012093697262677137 0 -0.00034538157801594936 -0.012023286698094923 0 -0.00049814187470060298 -0.010103537420632447 0 -0.00054143580931952302 -0.010284412930868892 0 -0.00073785175722663543 -0.010367653300884074 0 -0.00049814187470060298 -0.010103537420632447 0 -0.00054143580931952302 -0.010284412930868892 0 -0.00037225291559783588 -0.010246248019888278 0 -0.00044553254246746619 -0.011483524154177012 0 -0.00024780749445383785 -0.011783298874964491 0 -0.00044553254246746619 -0.011483524154177012 0 -0.00022689401136882407 -0.011134140766391231 0 -0.00051411577303611862 -0.010095374956364532 0 -0.00015534449340693813 -0.010080783978067692 0 -0.0001820044892653538 -0.0097311893371953475 0 -0.00049814187470060298 -0.010103537420632447 0 -0.00037225291559783588 -0.010246248019888278 0 -0.00014919284921014624 -0.010087177536325941 0 -0.00037225291559783588 -0.010246248019888278 0 -0.00014919284921014624 -0.010087177536325941 0 -5.7870427254816758e-05 -0.010293675619326001 0 -6.6796243347217718e-05 -0.014754158443803067 0 -7.2366097528781144e-05 -0.014737394870657391 0 -8.8646353316035423e-05 -0.014746780118422027 0 -0.00044553254246746619 -0.011483524154177012 0 -0.00039992168099332268 -0.0099666733563506076 0 -6.4191453167724926e-05 -0.014770864405540677 0 -8.8646353316035423e-05 -0.014746780118422027 0 -9.3273969479017952e-05 -0.014748878820477323 0 -0.00015534449340693813 -0.010080783978067692 0 -0.0001820044892653538 -0.0097311893371953475 0 -0.00010018768024387743 -0.0096416685912491078 0 -0.00039992168099332268 -0.0099666733563506076 0 -0.00024040270226768592 -0.0092950332991498311 0 -0.00015534449340693813 -0.010080783978067692 0 7.1031230499137414e-05 -0.0098418448687709985 0 -0.00010018768024387743 -0.0096416685912491078 0 -0.00024040270226768592 -0.0092950332991498311 0 9.5274736121021204e-05 -0.0076840519135847642 0 7.1031230499137414e-05 -0.0098418448687709985 0 -0.00010018768024387743 -0.0096416685912491078 0 0.00049461235589301239 -0.0097905268487319553 0 -0.00074314569585833218 -0.0020236019879047639 0 -0.0019303618487427538 -0.0023389286773608849 0 -0.0001473778782813588 -0.0027790322757170203 0 7.1031230499137414e-05 -0.0098418448687709985 0 0.00049461235589301239 -0.0097905268487319553 0 0.00020377042969425295 -0.010066212826756829 0 -0.00074314569585833218 -0.0020236019879047639 0 3.6046019456763485e-05 -0.0018409384665521631 0 -0.0001473778782813588 -0.0027790322757170203 0 0.00049461235589301239 -0.0097905268487319553 0 0.00050821061170544708 -0.010119045281106335 0 0.00020377042969425295 -0.010066212826756829 0 0.00068798195152060054 -0.00899252213858363 0 0.00023672297420149161 -0.010095651748652184 0 0.0011109549047023054 -0.0092066596507943965 0 0.00042708956261557117 -0.0094193299911501209 0 0.00074343844650065602 -0.0095649742223356451 0 0.00050821061170544708 -0.010119045281106335 0 0.00020377042969425295 -0.010066212826756829 0 -5.7870427254816758e-05 -0.010293675619326001 0 -0.00022689401136882407 -0.011134140766391231 0 -0.00011299091185953662 -0.011024039673349839 0 -0.00014919284921014624 -0.010087177536325941 0 0.00020377042969425295 -0.010066212826756829 0 -5.7870427254816758e-05 -0.010293675619326001 0 -0.00015534449340693813 -0.010080783978067692 0 7.1031230499137414e-05 -0.0098418448687709985 0 0.00020377042969425295 -0.010066212826756829 0 0.00042708956261557117 -0.0094193299911501209 0 0.00074343844650065602 -0.0095649742223356451 0 0.00048728538571975898 -0.0097397741459430472 0 0.00074343844650065602 -0.0095649742223356451 0 0.00048728538571975898 -0.0097397741459430472 0 0.00072119541069244858 -0.0098241617452781271 0 0.00042708956261557117 -0.0094193299911501209 0 0.00048728538571975898 -0.0097397741459430472 0 0.00020328360601599253 -0.0097599259006448495 0 0.0011109549047023054 -0.0092066596507943965 0 0.00099063039246614134 -0.0096123070618210991 0 0.0011993953991612891 -0.0094343546757147297 0 0.0011109549047023054 -0.0092066596507943965 0 0.00074343844650065602 -0.0095649742223356451 0 0.00099063039246614134 -0.0096123070618210991 0 0.00099063039246614134 -0.0096123070618210991 0 0.0009582622750019138 -0.0098374472731036552 0 0.00072119541069244858 -0.0098241617452781271 0 0.00074343844650065602 -0.0095649742223356451 0 0.00099063039246614134 -0.0096123070618210991 0 0.00072119541069244858 -0.0098241617452781271 0 0.00099063039246614134 -0.0096123070618210991 0 0.0009582622750019138 -0.0098374472731036552 0 0.0012411848302518733 -0.0097874152565729962 0 0.00099063039246614134 -0.0096123070618210991 0 0.0011993953991612891 -0.0094343546757147297 0 0.0012411848302518733 -0.0097874152565729962 0 0.00085020394400154436 -0.010099929922487908 0 0.0012411848302518733 -0.0097874152565729962 0 0.00098008412324389295 -0.010429397632748997 0 0.00078134696711252454 -0.0092169606068073662 0 0.00058682852639933977 -0.0083347228580235438 0 0.0009582622750019138 -0.0098374472731036552 0 0.00085020394400154436 -0.010099929922487908 0 0.0012411848302518733 -0.0097874152565729962 0 0.0009582622750019138 -0.0098374472731036552 0 0.00085020394400154436 -0.010099929922487908 0 0.00072119541069244858 -0.0098241617452781271 0 0.00085020394400154436 -0.010099929922487908 0 0.00043549303196134179 -0.010020402193264751 0 0.00044902185336705315 -0.010426506614006265 0 0.00085020394400154436 -0.010099929922487908 0 0.00072119541069244858 -0.0098241617452781271 0 0.00043549303196134179 -0.010020402193264751 0 0.00048728538571975898 -0.0097397741459430472 0 0.00072119541069244858 -0.0098241617452781271 0 0.00043549303196134179 -0.010020402193264751 0 0.00048728538571975898 -0.0097397741459430472 0 0.00043549303196134179 -0.010020402193264751 0 0.00020328360601599253 -0.0097599259006448495 0 0.00043549303196134179 -0.010020402193264751 0 3.5267503288771735e-05 -0.010118770309076961 0 0.00044902185336705315 -0.010426506614006265 0 0.00043549303196134179 -0.010020402193264751 0 3.5267503288771735e-05 -0.010118770309076961 0 0.00020328360601599253 -0.0097599259006448495 0 3.5267503288771735e-05 -0.010118770309076961 0 -5.830031729151007e-05 -0.0098614666915625322 0 0.00020328360601599253 -0.0097599259006448495 0 3.5267503288771735e-05 -0.010118770309076961 0 -0.00023123366555438844 -0.0099345257163640649 0 -0.00029497821230061231 -0.010329098742910868 0 -0.00023123366555438844 -0.0099345257163640649 0 -0.00029497821230061231 -0.010329098742910868 0 -0.00058390504095581102 -0.0097358646421140844 0 3.5267503288771735e-05 -0.010118770309076961 0 -0.00023123366555438844 -0.0099345257163640649 0 -5.830031729151007e-05 -0.0098614666915625322 0 -0.00023123366555438844 -0.0099345257163640649 0 -5.830031729151007e-05 -0.0098614666915625322 0 -0.00023943363330936873 -0.0096354576945470675 0 -0.0001516108480975639 -0.011518779626996012 0 -0.00024183070922708215 -0.011492047444464975 0 -0.00030842664891673929 -0.011564681715896983 0 -0.00023123366555438844 -0.0099345257163640649 0 -0.00023943363330936873 -0.0096354576945470675 0 -0.00058390504095581102 -0.0097358646421140844 0 -0.00024000935576258222 -0.011375061016826548 0 -0.00017478436469551712 -0.011824516116796026 0 -0.00054143580931952302 -0.010284412930868892 0 -0.00061441780583324152 -0.010462080616276773 0 -0.00073668630973554544 -0.01036717523462319 0 -0.00023948561030653811 -0.011716965279054333 0 -0.00024780749445383785 -0.011783298874964491 0 -0.00061441780583324152 -0.010462080616276773 0 -0.00073668630973554544 -0.01036717523462319 0 -0.00077904948546485438 -0.010413750902396867 0 -0.00024000935576258222 -0.011375061016826548 0 -0.00023046144884506588 -0.011785374451113641 0 -0.00024780749445383785 -0.011783298874964491 0 -0.00023046144884506588 -0.011785374451113641 0 -0.00054143580931952302 -0.010284412930868892 0 -0.00037225291559783588 -0.010246248019888278 0 -0.00061441780583324152 -0.010462080616276773 0 0.00023672297420149161 -0.010095651748652184 0 -0.00024000935576258222 -0.011375061016826548 0 -5.830031729151007e-05 -0.0098614666915625322 0 -0.00023943363330936873 -0.0096354576945470675 0 0.00020328360601599253 -0.0097599259006448495 0 0.00042708956261557117 -0.0094193299911501209 0 -0.00025434551965064923 -0.0096287215190537217 0 0.00020328360601599253 -0.0097599259006448495 0 -0.00024000935576258222 -0.011375061016826548 0 -0.00025420741870603534 -0.011155951771397192 0 -0.00037225291559783588 -0.010246248019888278 0 -5.7870427254816758e-05 -0.010293675619326001 0 -0.00061441780583324152 -0.010462080616276773 0 0.0017017631481790431 -0.0035487332842281572 0 0.0015719509931540639 -0.0040089517257727181 0 0.0022599690716567662 -0.0036774878224420456 0 0.0017017631481790431 -0.0035487332842281572 0 0.0018239654777446553 -0.003144287904580702 0 0.0022599690716567662 -0.0036774878224420456 0 0.0034113525993694316 -0.0019414924615374397 0 0.0036950338902823976 -0.0027022842102246915 0 0.0025424273203272321 -0.0030418014108877893 0 0.0034113525993694316 -0.0019414924615374397 0 0.0036950338902823976 -0.0027022842102246915 0 0.0048340300155699971 -0.00236947709068204 0 0.0017017631481790431 -0.0035487332842281572 0 0.0018239654777446553 -0.003144287904580702 0 0.0013016104270635949 -0.0032975257730492335 0 0.0026642497983132393 -0.0035146032120655017 0 0.0023918000959919639 -0.005298165164355456 0 0.0021412340343461879 -0.0021160989602863251 0 0.0027019790749026216 -0.0018561622733588887 0 0.0025864407917144889 -0.0029718904630970469 0 0.0030319008299509514 -0.0041858368658567796 0 0.0023918000959919639 -0.005298165164355456 0 0.0027019790749026216 -0.0018561622733588887 0 0.0034113525993694316 -0.0019414924615374397 0 0.0025864407917144889 -0.0029718904630970469 0 0.0021412340343461879 -0.0021160989602863251 0 0.0025864407917144889 -0.0029718904630970469 0 0.0016855437339988722 -0.0025352902523386651 0 0.0023918000959919639 -0.005298165164355456 0 0.0012938381546633447 -0.007378158753193545 0 0.0013016104270635949 -0.0032975257730492335 0 0.00081227332869806786 -0.0039160144125624562 0 0.0015719509931540639 -0.0040089517257727181 0 0.0017017631481790431 -0.0035487332842281572 0 0.0013016104270635949 -0.0032975257730492335 0 0.0015719509931540639 -0.0040089517257727181 0 0.0020231011913458626 -0.0088947078863977087 0 0.0018147431107413494 -0.0090255068682467011 0 0.0016670843756657913 -0.0093080696073880535 0 0.0023918000959919639 -0.005298165164355456 0 0.0014927939227096254 -0.0065215804645587074 0 0.0016984609402579437 -0.0089968776871516259 0 0.0014473602426784589 -0.0091385285757523693 0 0.0016670843756657913 -0.0093080696073880535 0 0.0020231011913458626 -0.0088947078863977087 0 0.0016811427411083614 -0.0089862023033724075 0 0.0018147431107413494 -0.0090255068682467011 0 0.0012938381546633447 -0.007378158753193545 0 0.001339798307193192 -0.0074140320596673848 0 0.0016984609402579437 -0.0089968776871516259 0 0.0018147431107413494 -0.0090255068682467011 0 0.0016670843756657913 -0.0093080696073880535 0 0.0025864407917144889 -0.0029718904630970469 0 0.0015982969778511628 -0.0032582049060532448 0 0.0016855437339988722 -0.0025352902523386651 0 0.0015267358319485853 -0.0018472838128770976 0 0.0016855437339988722 -0.0025352902523386651 0 0.00091750780100947286 -0.002307441707507183 0 0.0015982969778511628 -0.0032582049060532448 0 0.0016855437339988722 -0.0025352902523386651 0 0.00091750780100947286 -0.002307441707507183 0 -0.0001473778782813588 -0.0027790322757170203 0 0.0015982969778511628 -0.0032582049060532448 0 0.00091750780100947286 -0.002307441707507183 0 9.5274736121021204e-05 -0.0076840519135847642 0 0.0012938381546633447 -0.007378158753193545 0 3.6046019456763485e-05 -0.0018409384665521631 0 -0.0001473778782813588 -0.0027790322757170203 0 0.00091750780100947286 -0.002307441707507183 0 0.00049461235589301239 -0.0097905268487319553 0 0.00050821061170544708 -0.010119045281106335 0 0.001076218957319902 -0.009945352719796444 0 0.00068798195152060054 -0.00899252213858363 0 0.0012938381546633447 -0.007378158753193545 0 0.0011109549047023054 -0.0092066596507943965 0 0.0016984609402579437 -0.0089968776871516259 0 0.0014473602426784589 -0.0091385285757523693 0 0.0011109549047023054 -0.0092066596507943965 0 0.0014473602426784589 -0.0091385285757523693 0 0.0011993953991612891 -0.0094343546757147297 0 0.0012944519645036972 -0.009546702994314463 0 0.0013848249385516064 -0.0096204780061418822 0 0.0016670843756657913 -0.0093080696073880535 0 0.0014473602426784589 -0.0091385285757523693 0 0.0012944519645036972 -0.009546702994314463 0 0.0016670843756657913 -0.0093080696073880535 0 0.0014473602426784589 -0.0091385285757523693 0 0.0011993953991612891 -0.0094343546757147297 0 0.0012411848302518733 -0.0097874152565729962 0 0.0009397035843312602 -0.0091950070396769803 0 0.00078134696711252454 -0.0092169606068073662 0 0.0012944519645036972 -0.009546702994314463 0 0.0013848249385516064 -0.0096204780061418822 0 0.0011445616434542958 -0.0098999557053025856 0 0.0010408391995489609 -0.0073027133817576547 0 0.00058682852639933977 -0.0083347228580235438 0 0.00031909654982058131 -0.0045384114674042464 0 0.0009326650928482103 -0.0046158765871064126 0 0.00040021517835246408 -0.0051135841757905219 0 0.00031909654982058131 -0.0045384114674042464 0 0.0009326650928482103 -0.0046158765871064126 0 0.00081227332869806786 -0.0039160144125624562 0 0.0010408391995489609 -0.0073027133817576547 0 0.0014927939227096254 -0.0065215804645587074 0 0.0009326650928482103 -0.0046158765871064126 0 0.00081227332869806786 -0.0039160144125624562 0 0.0015719509931540639 -0.0040089517257727181 0 0.0009326650928482103 -0.0046158765871064126 0 0.0015986526602177788 -0.0048539370743733287 0 0.0015719509931540639 -0.0040089517257727181 0 0.0012033387587903782 -0.0029804097313402499 0 0.0017834349613501253 -0.0021068020194006504 0 0.0015986526602177788 -0.0048539370743733287 0 0.0015719509931540639 -0.0040089517257727181 0 0.002305035537546846 -0.0044405148191086243 0 0.00034167776347703791 -0.002196906003869768 0 -0.00031046203349762027 -0.0015570868710550411 0 -0.00015229986304855732 -0.0030679828239875556 0 0.0013538827825919453 -0.0021024104927428234 0 0.00091036619133938099 -0.0021252708912056261 0 0.0012287345042912171 -0.0024939567694899252 0 0.00091036619133938099 -0.0021252708912056261 0 0.00068807428467278112 -0.0025490540052211116 0 0.0012287345042912171 -0.0024939567694899252 0 0.00091036619133938099 -0.0021252708912056261 0 0.0011960239002602531 -0.0017244342477876055 0 0.00049167986528782757 -0.001654184526104361 0 0.0013538827825919453 -0.0021024104927428234 0 0.00091036619133938099 -0.0021252708912056261 0 0.0011960239002602531 -0.0017244342477876055 0 0.00075589804267045296 -0.00091846569252672199 0 0.0011960239002602531 -0.0017244342477876055 0 0.0017384091928185519 -0.0012229595175233473 0 0.00075589804267045296 -0.00091846569252672199 0 0.0011960239002602531 -0.0017244342477876055 0 0.00049167986528782757 -0.001654184526104361 0 0.0012033387587903782 -0.0029804097313402499 0 0.00058600995266593157 -0.0039368633087130973 0 0.0009326650928482103 -0.0046158765871064126 0 0.0015986526602177788 -0.0048539370743733287 0 0.00088688302368370461 -0.0052710945431675982 0 0.00075589804267045296 -0.00091846569252672199 0 0.00049167986528782757 -0.001654184526104361 0 -0.00031046203349762027 -0.0015570868710550411 0 0.00049167986528782757 -0.001654184526104361 0 0.00034167776347703791 -0.002196906003869768 0 -0.00031046203349762027 -0.0015570868710550411 0 0.00091036619133938099 -0.0021252708912056261 0 0.00049167986528782757 -0.001654184526104361 0 0.00034167776347703791 -0.002196906003869768 0 0.00091036619133938099 -0.0021252708912056261 0 0.00034167776347703791 -0.002196906003869768 0 0.00068807428467278112 -0.0025490540052211116 0 -0.00031046203349762027 -0.0015570868710550411 0 -0.0013479514278407962 -0.0021766556520380811 0 -0.00015229986304855732 -0.0030679828239875556 0 0.0009326650928482103 -0.0046158765871064126 0 0.00088688302368370461 -0.0052710945431675982 0 0.00040021517835246408 -0.0051135841757905219 0 0.00031909654982058131 -0.0045384114674042464 0 0.00040021517835246408 -0.0051135841757905219 0 -0.00017751379021383056 -0.0051658030080482809 0 0.00040021517835246408 -0.0051135841757905219 0 0.00016840964544012868 -0.0056900344786825399 0 -0.00017751379021383056 -0.0051658030080482809 0 0.00088688302368370461 -0.0052710945431675982 0 0.00040021517835246408 -0.0051135841757905219 0 0.00016840964544012868 -0.0056900344786825399 0 0.00058600995266593157 -0.0039368633087130973 0 0.00012435929835755757 -0.0052105690535889431 0 -0.0013479514278407962 -0.0021766556520380811 0 -0.0014070517912082078 -0.0032766304003520215 0 -0.00015229986304855732 -0.0030679828239875556 0 -0.00083164591778844474 -0.0063817815601844401 0 -0.0010074838733252988 -0.0066312284007270525 0 -0.0006818544185749545 -0.0066269517703442995 0 -0.00083164591778844474 -0.0063817815601844401 0 -0.00042400275884510739 -0.0063078543607737337 0 -0.0006818544185749545 -0.0066269517703442995 0 -0.00042400275884510739 -0.0063078543607737337 0 -0.00038399318586749306 -0.0065589554181645429 0 -0.0006818544185749545 -0.0066269517703442995 0 -0.00074674997821962412 -0.0059217542329229053 0 -0.0001355674346773239 -0.0051475906292166446 0 0.00034167776347703791 -0.002196906003869768 0 -0.00015229986304855732 -0.0030679828239875556 0 0.00068807428467278112 -0.0025490540052211116 0 -0.00015229986304855732 -0.0030679828239875556 0 0.0010998857020969167 -0.0028614920067102697 0 0.00068807428467278112 -0.0025490540052211116 0 -0.0001355674346773239 -0.0051475906292166446 0 0.00084837759140893873 -0.004637719924793682 0 -0.00042400275884510739 -0.0063078543607737337 0 -0.00023468546086312392 -0.006445782019442038 0 -3.3842793974806146e-06 -0.0062361995165207285 0 -0.00042400275884510739 -0.0063078543607737337 0 -0.00038399318586749306 -0.0065589554181645429 0 -0.00023468546086312392 -0.006445782019442038 0 -0.00038399318586749306 -0.0065589554181645429 0 -0.00023468546086312392 -0.006445782019442038 0 -0.00016521697371457315 -0.006676009696463538 0 0.0011302204760735813 -0.0034269919376240122 0 0.0010160950656187104 -0.0029438629571882538 0 0.00045085278419301007 -0.0045389066464268848 0 -0.00023468546086312392 -0.006445782019442038 0 -3.3842793974806146e-06 -0.0062361995165207285 0 -0.00016521697371457315 -0.006676009696463538 0 0.00084837759140893873 -0.004637719924793682 0 0.00029550324534312447 -0.0056297921005592196 0 0.0011302204760735813 -0.0034269919376240122 0 0.0014585220720153473 -0.0037621284719690164 0 0.00045085278419301007 -0.0045389066464268848 0 0.0011302204760735813 -0.0034269919376240122 0 0.0014623379152752343 -0.0031511413783685558 0 0.0014585220720153473 -0.0037621284719690164 0 0.0011302204760735813 -0.0034269919376240122 0 0.0010160950656187104 -0.0029438629571882538 0 0.0011046088013473949 -0.002929341330054239 0 0.0011302204760735813 -0.0034269919376240122 0 0.0011046088013473949 -0.002929341330054239 0 0.0014623379152752343 -0.0031511413783685558 0 0.0011046088013473949 -0.002929341330054239 0 0.0014563558221940109 -0.0027446981345737591 0 0.0014623379152752343 -0.0031511413783685558 0 0.00084837759140893873 -0.004637719924793682 0 0.0008498702889314948 -0.0046360071041809184 0 0.0010998857020969167 -0.0028614920067102697 0 0.00068807428467278112 -0.0025490540052211116 0 0.0012287345042912171 -0.0024939567694899252 0 0.00084837759140893873 -0.004637719924793682 0 0.00091139011747801753 -0.0044347375789628675 0 0.0010182221921833526 -0.0029418901081125393 0 0.0011046088013473949 -0.002929341330054239 0 0.0012287345042912171 -0.0024939567694899252 0 0.0011046088013473949 -0.002929341330054239 0 0.0012287345042912171 -0.0024939567694899252 0 0.0014563558221940109 -0.0027446981345737591 0 0.00025931974019598533 -0.010776913590980722 0 2.7247510245017867e-05 -0.010926602594346326 0 0.00010297921193866978 -0.010510709977875888 0 0.00025931974019598533 -0.010776913590980722 0 0.00054500122142663856 -0.010948036307459589 0 0.00018248858614451798 -0.011042808163891424 0 0.00025931974019598533 -0.010776913590980722 0 2.7247510245017867e-05 -0.010926602594346326 0 0.00018248858614451798 -0.011042808163891424 0 2.7247510245017867e-05 -0.010926602594346326 0 -0.00020262284752793925 -0.010850138907487102 0 -4.7445490207280886e-05 -0.011207511228658467 0 -0.00028745677033558694 -0.010856431715909449 0 -0.00036729288072405073 -0.010856724770853031 0 2.7247510245017867e-05 -0.010926602594346326 0 -0.00020262284752793925 -0.010850138907487102 0 -0.00016860138450759603 -0.010580434302224053 0 -0.00020262284752793925 -0.010850138907487102 0 -0.00016860138450759603 -0.010580434302224053 0 -0.00031662462639707499 -0.010580578258935278 0 2.7247510245017867e-05 -0.010926602594346326 0 -0.00029497821230061231 -0.010329098742910868 0 0.00010297921193866978 -0.010510709977875888 0 3.5267503288771735e-05 -0.010118770309076961 0 -0.00029497821230061231 -0.010329098742910868 0 0.00010297921193866978 -0.010510709977875888 0 3.5267503288771735e-05 -0.010118770309076961 0 0.00010297921193866978 -0.010510709977875888 0 0.00044902185336705315 -0.010426506614006265 0 0.00025931974019598533 -0.010776913590980722 0 0.00010297921193866978 -0.010510709977875888 0 0.00044902185336705315 -0.010426506614006265 0 0.00085020394400154436 -0.010099929922487908 0 0.00044902185336705315 -0.010426506614006265 0 0.00098008412324389295 -0.010429397632748997 0 0.00044902185336705315 -0.010426506614006265 0 0.00098008412324389295 -0.010429397632748997 0 0.00054500122142663856 -0.010948036307459589 0 0.00058682852639933977 -0.0083347228580235438 0 0.00034324959501610633 -0.0075981187931826082 0 0.00058682852639933977 -0.0083347228580235438 0 0.00017167976325788885 -0.0092605127958654762 0 0.00012435929835755757 -0.0052105690535889431 0 4.0214199423548338e-05 -0.0072562618155076414 0 0.00064587953701159483 -0.008169873681471743 0 0.00053659007350414882 -0.0084335330923225958 0 0.00034734276693096497 -0.0085397644348802152 0 0.00016840964544012868 -0.0056900344786825399 0 -0.00017751379021383056 -0.0051658030080482809 0 -0.00036699529861044085 -0.0056358709592159301 0 0.00016840964544012868 -0.0056900344786825399 0 -0.00036699529861044085 -0.0056358709592159301 0 -0.00055563953281337895 -0.0061086477759898948 0 0.00025931974019598533 -0.010776913590980722 0 0.00044902185336705315 -0.010426506614006265 0 0.00054500122142663856 -0.010948036307459589 0 0.00034324959501610633 -0.0075981187931826082 0 4.0214199423548338e-05 -0.0072562618155076414 0 0.00053659007350414882 -0.0084335330923225958 0 0.00034734276693096497 -0.0085397644348802152 0 0.00042823326385602354 -0.0086986314526914608 0 4.0214199423548338e-05 -0.0072562618155076414 0 -8.4053325228228425e-05 -0.0094927519142870599 0 0.00034734276693096497 -0.0085397644348802152 0 0.00042823326385602354 -0.0086986314526914608 0 4.7879782233622515e-05 -0.0089144092320186819 0 0.00056744264059929424 -0.0083180916175829185 0 0.00040868513542359367 -0.0087156135303638384 0 -0.00026664985334923707 -0.008798310373867059 0 -0.0023826540911232527 -0.0027918214332019711 0 -0.0021893281623484267 -0.0028995698852651961 0 -0.0025653611592939642 -0.0032610725840772842 0 4.0214199423548338e-05 -0.0072562618155076414 0 -0.00029552724689077385 -0.007193955931859561 0 -0.0002679786186876728 -0.0068880366953363286 0 -0.00029552724689077385 -0.007193955931859561 0 -0.0013479514278407962 -0.0021766556520380811 0 -0.0014070517912082078 -0.0032766304003520215 0 -0.0021893281623484267 -0.0028995698852651961 0 -0.0013479514278407962 -0.0021766556520380811 0 -0.0023826540911232527 -0.0027918214332019711 0 -0.0021893281623484267 -0.0028995698852651961 0 -0.0014070517912082078 -0.0032766304003520215 0 -0.0021893281623484267 -0.0028995698852651961 0 -0.0025597205472106667 -0.0032469071514999305 0 -0.00074674997821962412 -0.0059217542329229053 0 -0.00043802350029622833 -0.0073210667523444205 0 -0.0014070517912082078 -0.0032766304003520215 0 -0.0026522896865236287 -0.0034825958558453822 0 -0.0025597205472106667 -0.0032469071514999305 0 -0.00083164591778844474 -0.0063817815601844401 0 -0.0012354683402168577 -0.006450132546978125 0 -0.0010074838733252988 -0.0066312284007270525 0 -3.5174190548142043e-05 -0.0084727945239358102 0 -0.00018973458880380278 -0.0084969198203459044 0 -0.00030040278914625644 -0.0091367216404561972 0 -0.00043802350029622833 -0.0073210667523444205 0 -0.00040281253628910715 -0.0083239632946945537 0 0.0001573600493287379 -0.0089473251584767516 0 0.00040868513542359367 -0.0087156135303638384 0 -0.00026664985334923707 -0.008798310373867059 0 -0.00043802350029622833 -0.0073210667523444205 0 -0.00033248043209380173 -0.007609961345937678 0 -0.0002360899336119887 -0.0075984556711584245 0 -0.00025143820769725072 -0.0076010645075701338 0 -0.00022860004745624605 -0.0075794715286452439 0 -0.00033248043209380173 -0.007609961345937678 0 -0.00029552724689077385 -0.007193955931859561 0 -0.00043802350029622833 -0.0073210667523444205 0 -0.00029552724689077385 -0.007193955931859561 0 -0.0012354683402168577 -0.006450132546978125 0 -0.0011793554477958763 -0.0066575330422572361 0 -0.0010074838733252988 -0.0066312284007270525 0 -0.00033248043209380173 -0.007609961345937678 0 -0.00037695385121735265 -0.0077751884790267789 0 0.0001573600493287379 -0.0089473251584767516 0 -0.00054018597648994348 -0.0090580051732169851 0 -0.00026664985334923707 -0.008798310373867059 0 0.00015748456488809412 -0.0089477567781830608 0 -0.00054018597648994348 -0.0090580051732169851 0 -0.00070748803577273323 -0.009749307711491061 0 0.00054500122142663856 -0.010948036307459589 0 0.00014177953187591367 -0.01133761096916909 0 0.00018248858614451798 -0.011042808163891424 0 0.00014177953187591367 -0.01133761096916909 0 0.00018248858614451798 -0.011042808163891424 0 -4.7445490207280886e-05 -0.011207511228658467 0 0.00017167976325788885 -0.0092605127958654762 0 -8.4053325228228425e-05 -0.0094927519142870599 0 2.7247510245017867e-05 -0.010926602594346326 0 0.00018248858614451798 -0.011042808163891424 0 -4.7445490207280886e-05 -0.011207511228658467 0 -0.00013130921022022409 -0.011063988083837484 0 -4.7445490207280886e-05 -0.011207511228658467 0 -0.00017711519329760119 -0.011182282943702597 0 -4.7445490207280886e-05 -0.011207511228658467 0 -0.00013949179317378557 -0.011425326374206799 0 -0.00017711519329760119 -0.011182282943702597 0 -0.00026333645104578685 -0.011172268782071821 0 -0.0002315303112871255 -0.011176627963688278 0 0.00014177953187591367 -0.01133761096916909 0 -4.7445490207280886e-05 -0.011207511228658467 0 -0.00013949179317378557 -0.011425326374206799 0 -8.4053325228228425e-05 -0.0094927519142870599 0 -6.4306692233279206e-05 -0.011521253878045184 0 -0.00054018597648994348 -0.0090580051732169851 0 -0.00026664985334923707 -0.008798310373867059 0 -0.0010623025122721004 -0.0092579402035975946 0 -6.4306692233279206e-05 -0.011521253878045184 0 8.0548288709871604e-05 -0.012765357461846738 0 4.9477586301775142e-05 -0.014948536451846703 0 4.6899332577366667e-05 -0.014953829270878674 0 4.9049995388698431e-05 -0.014950307726083967 0 4.6899332577366667e-05 -0.014953829270878674 0 4.4221582236526545e-05 -0.014957307102063062 0 4.4943097845287394e-05 -0.014956096555255998 0 4.6899332577366667e-05 -0.014953829270878674 0 4.4943097845287394e-05 -0.014956096555255998 0 4.9049995388698431e-05 -0.014950307726083967 0 4.4943097845287394e-05 -0.014956096555255998 0 4.9049995388698431e-05 -0.014950307726083967 0 4.1532171067471882e-05 -0.014946849185395416 0 -0.00013949179317378557 -0.011425326374206799 0 -0.00024887924067745282 -0.011180626501588589 0 -0.00017711519329760119 -0.011182282943702597 0 -0.00024887924067745282 -0.011180626501588589 0 -0.00017711519329760119 -0.011182282943702597 0 -0.0002212808873295432 -0.011168330870745941 0 -0.00017711519329760119 -0.011182282943702597 0 -0.00022355715522071583 -0.011159738432944349 0 -0.0002212808873295432 -0.011168330870745941 0 -0.00024258141526992312 -0.01123043114041657 0 -0.00024695414097408036 -0.011256169567928078 0 -0.00013130921022022409 -0.011063988083837484 0 -0.00017711519329760119 -0.011182282943702597 0 -0.00018846564491652816 -0.01104504476763655 0 -0.00022355715522071583 -0.011159738432944349 0 -0.00023184357377593605 -0.011167345730394317 0 -0.00022795164349393075 -0.011165538519622171 0 -0.00022355715522071583 -0.011159738432944349 0 -0.00023184357377593605 -0.011167345730394317 0 -0.0002212808873295432 -0.011168330870745941 0 -0.00024887924067745282 -0.011180626501588589 0 -0.00023184357377593605 -0.011167345730394317 0 -0.0002212808873295432 -0.011168330870745941 0 8.0548288709871604e-05 -0.012765357461846738 0 -8.9431793366099343e-05 -0.013128230631200381 0 -0.00023184357377593605 -0.011167345730394317 0 -0.00022643853362123412 -0.011166599634519507 0 -0.0002222893483629538 -0.011163569484267884 0 -0.00024887924067745282 -0.011180626501588589 0 -0.00023184357377593605 -0.011167345730394317 0 -0.0002222893483629538 -0.011163569484267884 0 4.9049995388698431e-05 -0.014950307726083967 0 4.1532171067471882e-05 -0.014946849185395416 0 4.1052382528046564e-05 -0.014931243143621981 0 -0.00023184357377593605 -0.011167345730394317 0 -0.00022643853362123412 -0.011166599634519507 0 -0.00022795164349393075 -0.011165538519622171 0 -0.00022643853362123412 -0.011166599634519507 0 -0.00022555903640032279 -0.011171477680023729 0 -0.00022795164349393075 -0.011165538519622171 0 -0.00022555903640032279 -0.011171477680023729 0 -0.00021747214232178573 -0.011171426578892127 0 -0.0002282393583808215 -0.011184590922376373 0 -0.00022643853362123412 -0.011166599634519507 0 -0.00022555903640032279 -0.011171477680023729 0 -0.00021843600189528365 -0.01117010445102965 0 -0.00022555903640032279 -0.011171477680023729 0 -0.00021747214232178573 -0.011171426578892127 0 -0.00021843600189528365 -0.01117010445102965 0 -0.00015525328672743785 -0.013037450301331552 0 -8.9431793366099343e-05 -0.013128230631200381 0 -0.00013130921022022409 -0.011063988083837484 0 -0.00018846564491652816 -0.01104504476763655 0 -0.00020241921469394376 -0.010916012839443127 0 -0.00024695414097408036 -0.011256169567928078 0 -0.00025090654102125114 -0.011415192846441255 0 -0.00026333645104578685 -0.011172268782071821 0 -0.00025090654102125114 -0.011415192846441255 0 -0.00022355715522071583 -0.011159738432944349 0 -0.00023215795305149737 -0.011172177598035729 0 -0.00022795164349393075 -0.011165538519622171 0 -0.00022555903640032279 -0.011171477680023729 0 -0.00023215795305149737 -0.011172177598035729 0 -0.00022795164349393075 -0.011165538519622171 0 -4.2234547770195687e-05 -0.013723646650132811 0 -5.4961092588050516e-06 -0.013733542408828743 0 -5.0494341130198289e-05 -0.013750858582460524 0 -2.9659647664275389e-05 -0.013824452877845743 0 -7.3857216351752887e-05 -0.014191758372712693 0 1.7462459033262817e-05 -0.014962156259051311 0 1.6351955671936765e-05 -0.014967301682754177 0 1.3961876423656768e-05 -0.014966609174250111 0 -4.2234547770195687e-05 -0.013723646650132811 0 -6.2020951145322367e-05 -0.013731424757748828 0 -5.0494341130198289e-05 -0.013750858582460524 0 -4.2234547770195687e-05 -0.013723646650132811 0 -6.2020951145322367e-05 -0.013731424757748828 0 -8.180319748482182e-05 -0.013716383897553216 0 1.7462459033262817e-05 -0.014962156259051311 0 2.1638333773292478e-05 -0.014959211425447042 0 1.856135640530239e-05 -0.014965740339192322 0 -2.9659647664275389e-05 -0.013824452877845743 0 -6.581739349397026e-05 -0.01323055698880969 0 -6.581739349397026e-05 -0.01323055698880969 0 -4.0958232232434654e-05 -0.013464991884555409 0 -6.2020951145322367e-05 -0.013731424757748828 0 -8.180319748482182e-05 -0.013716383897553216 0 -5.6295050026270434e-05 -0.013752467530803761 0 3.9703472713401086e-05 -0.014928947725225643 0 4.1052382528046564e-05 -0.014931243143621981 0 3.7331527556317024e-05 -0.014940094202344999 0 -6.581739349397026e-05 -0.01323055698880969 0 -8.9431793366099343e-05 -0.013128230631200381 0 -6.581739349397026e-05 -0.01323055698880969 0 -0.00032482851217538678 -0.014037177094688692 0 4.1532171067471882e-05 -0.014946849185395416 0 4.1052382528046564e-05 -0.014931243143621981 0 3.7331527556317024e-05 -0.014940094202344999 0 3.9703472713401086e-05 -0.014928947725225643 0 3.7331527556317024e-05 -0.014940094202344999 0 2.7307714267915364e-05 -0.014943979029582225 0 4.1532171067471882e-05 -0.014946849185395416 0 3.7331527556317024e-05 -0.014940094202344999 0 3.277684315719757e-05 -0.014955853521439877 0 3.7331527556317024e-05 -0.014940094202344999 0 2.7307714267915364e-05 -0.014943979029582225 0 3.277684315719757e-05 -0.014955853521439877 0 1.7462459033262817e-05 -0.014962156259051311 0 1.856135640530239e-05 -0.014965740339192322 0 1.6351955671936765e-05 -0.014967301682754177 0 -0.00032482851217538678 -0.014037177094688692 0 -0.00036197924738937153 -0.01421726556611148 0 1.856135640530239e-05 -0.014965740339192322 0 1.6351955671936765e-05 -0.014967301682754177 0 1.7424969842051982e-05 -0.014967947141001399 0 1.6351955671936765e-05 -0.014967301682754177 0 1.7424969842051982e-05 -0.014967947141001399 0 1.3472469284876486e-05 -0.014971588209467295 0 1.7424969842051982e-05 -0.014967947141001399 0 3.277684315719757e-05 -0.014955853521439877 0 2.3593561852860141e-05 -0.014978727484246692 0 1.7424969842051982e-05 -0.014967947141001399 0 2.3593561852860141e-05 -0.014978727484246692 0 1.1792069613588514e-05 -0.014978373868843122 0 2.7307714267915364e-05 -0.014943979029582225 0 1.7424969842051982e-05 -0.014967947141001399 0 3.277684315719757e-05 -0.014955853521439877 0 4.4943097845287394e-05 -0.014956096555255998 0 3.277684315719757e-05 -0.014955853521439877 0 2.3593561852860141e-05 -0.014978727484246692 0 4.4943097845287394e-05 -0.014956096555255998 0 4.1532171067471882e-05 -0.014946849185395416 0 3.277684315719757e-05 -0.014955853521439877 0 4.4221582236526545e-05 -0.014957307102063062 0 4.4943097845287394e-05 -0.014956096555255998 0 3.9049339610436397e-05 -0.014956237128198876 0 3.4221460690003523e-05 -0.014967592223711326 0 2.8005263640346283e-05 -0.014971314095476331 0 4.4221582236526545e-05 -0.014957307102063062 0 3.9049339610436397e-05 -0.014956237128198876 0 4.198750283588826e-05 -0.014961878467449206 0 2.8005263640346283e-05 -0.014971314095476331 0 1.7302695058589593e-05 -0.014978272135136939 0 3.9049339610436397e-05 -0.014956237128198876 0 2.1858078063033214e-05 -0.014965043927611785 0 3.7309510429594938e-05 -0.014967109907012584 0 2.3593561852860141e-05 -0.014978727484246692 0 9.8003102520246744e-06 -0.014990827445099364 0 1.1792069613588514e-05 -0.014978373868843122 0 9.8003102520246744e-06 -0.014990827445099364 0 5.0795021775252951e-06 -0.014987517821666742 0 1.1792069613588514e-05 -0.014978373868843122 0 9.8003102520246744e-06 -0.014990827445099364 0 5.0795021775252951e-06 -0.014987517821666742 0 1.3419467811673174e-06 -0.014997498078242707 0 5.0795021775252951e-06 -0.014987517821666742 0 3.1212332182172342e-06 -0.014984937577535558 0 8.5126016229730306e-06 -0.014978387525169751 0 5.0795021775252951e-06 -0.014987517821666742 0 8.5126016229730306e-06 -0.014978387525169751 0 1.1792069613588514e-05 -0.014978373868843122 0 8.5126016229730306e-06 -0.014978387525169751 0 1.1792069613588514e-05 -0.014978373868843122 0 1.3472469284876486e-05 -0.014971588209467295 0 1.7424969842051982e-05 -0.014967947141001399 0 1.1792069613588514e-05 -0.014978373868843122 0 1.3472469284876486e-05 -0.014971588209467295 0 -2.5433366902577776e-09 -0.014999992034781051 0 4.915131729061405e-07 -0.014992744432221707 0 -1.0989739732719185e-07 -0.014998181874590686 0 4.915131729061405e-07 -0.014992744432221707 0 1.3419467811673174e-06 -0.014997498078242707 0 -1.0989739732719185e-07 -0.014998181874590686 0 5.0795021775252951e-06 -0.014987517821666742 0 4.915131729061405e-07 -0.014992744432221707 0 1.3419467811673174e-06 -0.014997498078242707 0 5.0795021775252951e-06 -0.014987517821666742 0 3.1212332182172342e-06 -0.014984937577535558 0 4.915131729061405e-07 -0.014992744432221707 0 3.1212332182172342e-06 -0.014984937577535558 0 4.915131729061405e-07 -0.014992744432221707 0 -1.9739428590755295e-07 -0.014989807685672542 0 -2.5433366902577776e-09 -0.014999992034781051 0 -1.9739428590755295e-07 -0.014989807685672542 0 -1.8790010628604541e-06 -0.014991191198257096 0 -2.5433366902577776e-09 -0.014999992034781051 0 4.915131729061405e-07 -0.014992744432221707 0 -1.9739428590755295e-07 -0.014989807685672542 0 -2.5433366902577776e-09 -0.014999992034781051 0 1.2227589629340253e-09 -0.014999986106957948 0 -1.8790010628604541e-06 -0.014991191198257096 0 1.2227589629340253e-09 -0.014999986106957948 0 -1.8790010628604541e-06 -0.014991191198257096 0 -2.1383818210330069e-06 -0.01499627789164624 0 -0.00012373190466417967 -0.014709902504078894 0 -0.00011302194491444 -0.014660181648862585 0 -1.8790010628604541e-06 -0.014991191198257096 0 -5.1524522417041614e-06 -0.014995287575429202 0 -2.1383818210330069e-06 -0.01499627789164624 0 -1.9739428590755295e-07 -0.014989807685672542 0 -1.8790010628604541e-06 -0.014991191198257096 0 1.620891919204776e-06 -0.014981933204430625 0 3.1212332182172342e-06 -0.014984937577535558 0 -1.9739428590755295e-07 -0.014989807685672542 0 1.620891919204776e-06 -0.014981933204430625 0 1.620891919204776e-06 -0.014981933204430625 0 -3.0258433740948385e-07 -0.014972441741951585 0 4.3804590839954193e-06 -0.014973995577895104 0 -1.8790010628604541e-06 -0.014991191198257096 0 1.620891919204776e-06 -0.014981933204430625 0 -3.0258433740948385e-07 -0.014972441741951585 0 -5.1524522417041614e-06 -0.014995287575429202 0 -4.7841419468119353e-06 -0.014996463004495961 0 -2.1383818210330069e-06 -0.01499627789164624 0 -5.1524522417041614e-06 -0.014995287575429202 0 -4.7841419468119353e-06 -0.014996463004495961 0 -5.9627845601454066e-06 -0.014996297962222462 0 -4.7841419468119353e-06 -0.014996463004495961 0 -3.1510581316048489e-06 -0.014997784149212722 0 -5.8704158367636383e-06 -0.014997704955661559 0 -3.1510581316048489e-06 -0.014997784149212722 0 -2.1383818210330069e-06 -0.01499627789164624 0 -1.0077407956370808e-06 -0.014998721644469802 0 -4.7841419468119353e-06 -0.014996463004495961 0 -3.1510581316048489e-06 -0.014997784149212722 0 -2.1383818210330069e-06 -0.01499627789164624 0 -3.1510581316048489e-06 -0.014997784149212722 0 -1.0077407956370808e-06 -0.014998721644469802 0 -2.0026056486898624e-06 -0.014999691296039699 0 1.2227589629340253e-09 -0.014999986106957948 0 -1.0077407956370808e-06 -0.014998721644469802 0 -1.4949769560181887e-09 -0.015000005349739449 0 1.2227589629340253e-09 -0.014999986106957948 0 -2.1383818210330069e-06 -0.01499627789164624 0 -1.0077407956370808e-06 -0.014998721644469802 0 1.0791244249585202e-05 -0.014970141859075012 0 1.3472469284876486e-05 -0.014971588209467295 0 1.3961876423656768e-05 -0.014966609174250111 0 1.6351955671936765e-05 -0.014967301682754177 0 1.3472469284876486e-05 -0.014971588209467295 0 1.3961876423656768e-05 -0.014966609174250111 0 8.5126016229730306e-06 -0.014978387525169751 0 1.0791244249585202e-05 -0.014970141859075012 0 1.3472469284876486e-05 -0.014971588209467295 0 8.5126016229730306e-06 -0.014978387525169751 0 1.0791244249585202e-05 -0.014970141859075012 0 6.3225839888156379e-06 -0.014976458917351314 0 3.1212332182172342e-06 -0.014984937577535558 0 8.5126016229730306e-06 -0.014978387525169751 0 6.3225839888156379e-06 -0.014976458917351314 0 3.1212332182172342e-06 -0.014984937577535558 0 1.620891919204776e-06 -0.014981933204430625 0 6.3225839888156379e-06 -0.014976458917351314 0 1.620891919204776e-06 -0.014981933204430625 0 6.3225839888156379e-06 -0.014976458917351314 0 4.3804590839954193e-06 -0.014973995577895104 0 6.3225839888156379e-06 -0.014976458917351314 0 4.3804590839954193e-06 -0.014973995577895104 0 7.9429524986419064e-06 -0.014970512903353288 0 1.0791244249585202e-05 -0.014970141859075012 0 6.3225839888156379e-06 -0.014976458917351314 0 7.9429524986419064e-06 -0.014970512903353288 0 1.0791244249585202e-05 -0.014970141859075012 0 1.037158314430062e-05 -0.014967560509031688 0 7.9429524986419064e-06 -0.014970512903353288 0 1.037158314430062e-05 -0.014967560509031688 0 7.9429524986419064e-06 -0.014970512903353288 0 4.8435410709850489e-06 -0.014967190128959631 0 4.8435410709850489e-06 -0.014967190128959631 0 1.2619856164829132e-05 -0.014955795647156071 0 2.7488967494129738e-05 -0.014952107706837213 0 -0.00012627458107465476 -0.014343340347946822 0 -7.3857216351752887e-05 -0.014191758372712693 0 1.037158314430062e-05 -0.014967560509031688 0 4.8435410709850489e-06 -0.014967190128959631 0 1.2898532412490472e-05 -0.014962684526024974 0 -0.00011302194491444 -0.014660181648862585 0 -5.7127455534792712e-05 -0.014482591122022203 0 -3.0258433740948385e-07 -0.014972441741951585 0 4.8435410709850489e-06 -0.014967190128959631 0 1.2619856164829132e-05 -0.014955795647156071 0 -3.0258433740948385e-07 -0.014972441741951585 0 4.3804590839954193e-06 -0.014973995577895104 0 4.8435410709850489e-06 -0.014967190128959631 0 4.3804590839954193e-06 -0.014973995577895104 0 7.9429524986419064e-06 -0.014970512903353288 0 4.8435410709850489e-06 -0.014967190128959631 0 -4.7841419468119353e-06 -0.014996463004495961 0 -5.9627845601454066e-06 -0.014996297962222462 0 -5.8704158367636383e-06 -0.014997704955661559 0 -5.1524522417041614e-06 -0.014995287575429202 0 -5.9627845601454066e-06 -0.014996297962222462 0 -6.9143683042142193e-06 -0.014996144946219779 0 -6.0553352600471289e-05 -0.014492303542777871 0 -5.7127455534792712e-05 -0.014482591122022203 0 1.5921380577850195e-05 -0.014734606913438185 0 9.7579159678040869e-06 -0.014721798270407668 0 -5.9627845601454066e-06 -0.014996297962222462 0 -6.017047027968875e-06 -0.014995853148551846 0 -5.8704158367636383e-06 -0.014997704955661559 0 -5.9627845601454066e-06 -0.014996297962222462 0 -6.017047027968875e-06 -0.014995853148551846 0 -5.721285551627213e-06 -0.014995698971151116 0 -6.017047027968875e-06 -0.014995853148551846 0 -4.3057293187258335e-06 -0.014994450771759218 0 -7.685708685122918e-06 -0.014993350338383416 0 -6.017047027968875e-06 -0.014995853148551846 0 -5.721285551627213e-06 -0.014995698971151116 0 -4.3057293187258335e-06 -0.014994450771759218 0 -5.7127455534792712e-05 -0.014482591122022203 0 -3.3573898839130348e-05 -0.014494841537919929 0 -5.7127455534792712e-05 -0.014482591122022203 0 -4.8574258847817861e-05 -0.014348039542099907 0 -0.00010827825396047808 -0.014346121966705148 0 -6.1438778667548534e-05 -0.014304694434292123 0 -8.6775423017506622e-06 -0.014317161376237625 0 -3.3573898839130348e-05 -0.014494841537919929 0 -4.8574258847817861e-05 -0.014348039542099907 0 1.7462459033262817e-05 -0.014962156259051311 0 1.2898532412490472e-05 -0.014962684526024974 0 1.3961876423656768e-05 -0.014966609174250111 0 1.2619856164829132e-05 -0.014955795647156071 0 2.1173548673967332e-05 -0.014951624123033322 0 2.7488967494129738e-05 -0.014952107706837213 0 -4.8574258847817861e-05 -0.014348039542099907 0 -7.3857216351752887e-05 -0.014191758372712693 0 1.037158314430062e-05 -0.014967560509031688 0 1.2898532412490472e-05 -0.014962684526024974 0 1.3961876423656768e-05 -0.014966609174250111 0 1.0791244249585202e-05 -0.014970141859075012 0 1.037158314430062e-05 -0.014967560509031688 0 1.3961876423656768e-05 -0.014966609174250111 0 -4.8574258847817861e-05 -0.014348039542099907 0 -4.4317775370542948e-05 -0.013629724925219586 0 0.00022351134346035881 -0.014736599657097893 0 0.00019557590450109265 -0.014730091786893728 0 0.00010061814880128502 -0.014847499855866118 0 1.0668267920302531e-05 -0.014963485464445002 0 2.995305477028776e-06 -0.014962658157646472 0 1.2283191690881398e-05 -0.014968574555790605 0 0.00019557590450109265 -0.014730091786893728 0 0.00010061814880128502 -0.014847499855866118 0 -9.2988462162262583e-06 -0.014790767345811726 0 -0.00015275803923664753 -0.014020909893460052 0 -0.00011564194695516111 -0.014029142584201244 0 4.3341131415914755e-05 -0.013960122628199642 0 -3.3573898839130348e-05 -0.014494841537919929 0 -6.5773633718239758e-05 -0.014706226146448752 0 -3.3573898839130348e-05 -0.014494841537919929 0 9.7579159678040869e-06 -0.014721798270407668 0 1.0668267920302531e-05 -0.014963485464445002 0 1.4294358390363538e-05 -0.014964878935958624 0 1.2283191690881398e-05 -0.014968574555790605 0 1.2480899769372496e-05 -0.01497289454007001 0 1.5508557918412121e-05 -0.014982238018888434 0 1.6890193341409183e-05 -0.014983114083186982 0 1.2283191690881398e-05 -0.014968574555790605 0 1.2480899769372496e-05 -0.01497289454007001 0 1.5508557918412121e-05 -0.014982238018888434 0 1.2480899769372496e-05 -0.01497289454007001 0 7.4831312424157907e-06 -0.014971070145804214 0 1.6890193341409183e-05 -0.014983114083186982 0 2.995305477028776e-06 -0.014962658157646472 0 1.2480899769372496e-05 -0.01497289454007001 0 7.4831312424157907e-06 -0.014971070145804214 0 2.995305477028776e-06 -0.014962658157646472 0 1.2283191690881398e-05 -0.014968574555790605 0 1.2480899769372496e-05 -0.01497289454007001 0 7.4831312424157907e-06 -0.014971070145804214 0 4.684056184607454e-06 -0.014976750322532867 0 -9.712882668901858e-07 -0.014965175598894707 0 2.995305477028776e-06 -0.014962658157646472 0 7.4831312424157907e-06 -0.014971070145804214 0 -9.712882668901858e-07 -0.014965175598894707 0 5.389910117981196e-08 -0.014999683756244978 0 1.0826134420003986e-05 -0.014878765725034706 0 -1.0077407956370808e-06 -0.014998721644469802 0 -1.4949769560181887e-09 -0.015000005349739449 0 -2.0026056486898624e-06 -0.014999691296039699 0 5.1008707478539196e-10 -0.014999998609908477 0 -2.5151908739277552e-07 -0.014999038207582896 0 -1.4638587650501518e-07 -0.014999799410754621 0 9.7579159678040869e-06 -0.014721798270407668 0 1.0826134420003986e-05 -0.014878765725034706 0 -3.1510581316048489e-06 -0.014997784149212722 0 -5.8704158367636383e-06 -0.014997704955661559 0 -2.0026056486898624e-06 -0.014999691296039699 0 1.4294358390363538e-05 -0.014964878935958624 0 1.2283191690881398e-05 -0.014968574555790605 0 1.5508557918412121e-05 -0.014982238018888434 0 -9.9742413144597486e-07 -0.014998257367897278 0 -2.5151908739277552e-07 -0.014999038207582896 0 -1.4638587650501518e-07 -0.014999799410754621 0 9.7579159678040869e-06 -0.014721798270407668 0 3.0732941157304227e-05 -0.014926025958000941 0 5.1008707478539196e-10 -0.014999998609908477 0 -1.4638587650501518e-07 -0.014999799410754621 0 -2.91254225209476e-10 -0.015000000026118234 0 -1.4638587650501518e-07 -0.014999799410754621 0 -2.91254225209476e-10 -0.015000000026118234 0 2.1968643283601408e-10 -0.015000000074048021 0 3.0732941157304227e-05 -0.014926025958000941 0 7.2837797514472709e-08 -0.01499990710683727 0 1.5508557918412121e-05 -0.014982238018888434 0 1.9202741282835256e-08 -0.014999968003725059 0 1.0712806530308114e-05 -0.014988304440649282 0 1.5508557918412121e-05 -0.014982238018888434 0 1.0712806530308114e-05 -0.014988304440649282 0 1.6890193341409183e-05 -0.014983114083186982 0 1.0712806530308114e-05 -0.014988304440649282 0 1.4128015400127118e-05 -0.01497946008060947 0 1.6890193341409183e-05 -0.014983114083186982 0 1.0712806530308114e-05 -0.014988304440649282 0 1.4128015400127118e-05 -0.01497946008060947 0 5.0941934501717122e-06 -0.014989079423199695 0 -4.6229860787706061e-10 -0.014999987103520828 0 1.9202741282835256e-08 -0.014999968003725059 0 5.0941934501717122e-06 -0.014989079423199695 0 1.9202741282835256e-08 -0.014999968003725059 0 1.0712806530308114e-05 -0.014988304440649282 0 5.0941934501717122e-06 -0.014989079423199695 0 3.7499419438239262e-05 -0.014064106976614761 0 1.8528649533760124e-05 -0.014219613106839956 0 4.0378155742167567e-05 -0.014979399999125521 0 1.6890193341409183e-05 -0.014983114083186982 0 3.1233043496068269e-05 -0.014972387319153978 0 7.4831312424157907e-06 -0.014971070145804214 0 4.684056184607454e-06 -0.014976750322532867 0 1.6890193341409183e-05 -0.014983114083186982 0 1.4128015400127118e-05 -0.01497946008060947 0 1.6890193341409183e-05 -0.014983114083186982 0 3.1233043496068269e-05 -0.014972387319153978 0 2.578584079787975e-05 -0.014963120885494044 0 1.4128015400127118e-05 -0.01497946008060947 0 3.1233043496068269e-05 -0.014972387319153978 0 4.5452167266654816e-05 -0.014959693989604341 0 3.1233043496068269e-05 -0.014972387319153978 0 4.6050126990276464e-05 -0.014969967106929258 0 4.0378155742167567e-05 -0.014979399999125521 0 3.1233043496068269e-05 -0.014972387319153978 0 4.6050126990276464e-05 -0.014969967106929258 0 0.00021767170641914612 -0.014552673984214658 0 0.00028431219495814826 -0.014198112513365686 0 4.5452167266654816e-05 -0.014959693989604341 0 4.6050126990276464e-05 -0.014969967106929258 0 5.1906899803651796e-05 -0.014966960096923517 0 4.6050126990276464e-05 -0.014969967106929258 0 5.1598431568976522e-05 -0.014968457867662467 0 5.1906899803651796e-05 -0.014966960096923517 0 4.684056184607454e-06 -0.014976750322532867 0 -3.8993299423259893e-05 -0.014982032702332497 0 -2.3016519220381148e-05 -0.014953441235004212 0 4.684056184607454e-06 -0.014976750322532867 0 -9.712882668901858e-07 -0.014965175598894707 0 -2.3016519220381148e-05 -0.014953441235004212 0 4.0378155742167567e-05 -0.014979399999125521 0 4.6050126990276464e-05 -0.014969967106929258 0 4.9535474297521111e-05 -0.014971714815564518 0 3.7499419438239262e-05 -0.014064106976614761 0 0.00014544984239914666 -0.013534105770063009 0 4.0378155742167567e-05 -0.014979399999125521 0 4.9535474297521111e-05 -0.014971714815564518 0 5.4342083673988734e-05 -0.014969849258699338 0 4.6050126990276464e-05 -0.014969967106929258 0 4.9535474297521111e-05 -0.014971714815564518 0 5.1598431568976522e-05 -0.014968457867662467 0 0.00014544984239914666 -0.013534105770063009 0 9.8323104723037981e-05 -0.013140226067368392 0 0.00028431219495814826 -0.014198112513365686 0 9.8323104723037981e-05 -0.013140226067368392 0 -3.8993299423259893e-05 -0.014982032702332497 0 -0.00015647313220264932 -0.014950970180776959 0 -8.4628576120357818e-05 -0.014921695203726664 0 5.1758803656091851e-05 -0.014968731870095949 0 5.1598431568976522e-05 -0.014968457867662467 0 5.431959046634746e-05 -0.01496385103564051 0 0.00014544984239914666 -0.013534105770063009 0 0.00013991950656208138 -0.012873067796604725 0 5.1598431568976522e-05 -0.014968457867662467 0 5.1906899803651796e-05 -0.014966960096923517 0 5.431959046634746e-05 -0.01496385103564051 0 4.9535474297521111e-05 -0.014971714815564518 0 5.1758803656091851e-05 -0.014968731870095949 0 5.1598431568976522e-05 -0.014968457867662467 0 0.00016407572655229485 -0.013575119510924195 0 0.00014544984239914666 -0.013534105770063009 0 -2.9673313087882103e-05 -0.014788946959643801 0 -8.2827165130287318e-06 -0.014777248780193821 0 -3.5645739647246278e-05 -0.014767843391563439 0 -8.2827165130287318e-06 -0.014777248780193821 0 -3.5645739647246278e-05 -0.014767843391563439 0 -3.684632825595278e-05 -0.014742564544342454 0 -4.4267045103004585e-05 -0.014779558832536697 0 -2.9673313087882103e-05 -0.014788946959643801 0 -3.5645739647246278e-05 -0.014767843391563439 0 -4.4267045103004585e-05 -0.014779558832536697 0 -3.5645739647246278e-05 -0.014767843391563439 0 -4.7515971689682304e-05 -0.014762370092130869 0 -3.5645739647246278e-05 -0.014767843391563439 0 -4.7515971689682304e-05 -0.014762370092130869 0 -4.2027540488676861e-05 -0.014753359230763791 0 -4.4267045103004585e-05 -0.014779558832536697 0 -5.523240065348662e-05 -0.014768106735435381 0 -4.7515971689682304e-05 -0.014762370092130869 0 -4.7515971689682304e-05 -0.014762370092130869 0 -5.6084727632092823e-05 -0.014751649893568057 0 -4.8280324286598881e-05 -0.014751500902155825 0 -4.7515971689682304e-05 -0.014762370092130869 0 -4.8280324286598881e-05 -0.014751500902155825 0 -4.2027540488676861e-05 -0.014753359230763791 0 -5.523240065348662e-05 -0.014768106735435381 0 -4.7515971689682304e-05 -0.014762370092130869 0 -5.6084727632092823e-05 -0.014751649893568057 0 -6.6796243347217718e-05 -0.014754158443803067 0 -5.523240065348662e-05 -0.014768106735435381 0 -5.6084727632092823e-05 -0.014751649893568057 0 -7.2366097528781144e-05 -0.014737394870657391 0 -5.6084727632092823e-05 -0.014751649893568057 0 -5.0726825870728123e-05 -0.014744019165757264 0 -5.6084727632092823e-05 -0.014751649893568057 0 -5.0726825870728123e-05 -0.014744019165757264 0 -4.8280324286598881e-05 -0.014751500902155825 0 -3.4097340390785243e-05 -0.012597000027655654 0 5.5080962770529175e-05 -0.012859544319161679 0 -5.0726825870728123e-05 -0.014744019165757264 0 -4.8280324286598881e-05 -0.014751500902155825 0 -4.4678827340997545e-05 -0.01474395817136567 0 -3.4097340390785243e-05 -0.012597000027655654 0 -7.3698279535693568e-05 -0.012371382153393942 0 -6.3132618412869339e-05 -0.012517467588489558 0 -0.00027230171409315653 -0.012524448266531084 0 -0.00013457097869394515 -0.01280763980779521 0 -6.3132618412869339e-05 -0.012517467588489558 0 -2.6354864966415416e-05 -0.012886031885325607 0 -0.00013457097869394515 -0.01280763980779521 0 5.5080962770529175e-05 -0.012859544319161679 0 -2.5450045564836343e-05 -0.012548317775309036 0 -0.00044127191638343975 -0.011940555946185316 0 -0.00034538157801594936 -0.012023286698094923 0 -0.00042798895041538108 -0.012074901895722639 0 0.0002054943295876741 -0.013014638441458249 0 0.00010636302051036009 -0.013016085016170799 0 0.00011719757104505679 -0.013007512756615861 0 0.0002054943295876741 -0.013014638441458249 0 0.00010596903388967022 -0.012982989378454657 0 0.00011719757104505679 -0.013007512756615861 0 -3.5645739647246278e-05 -0.014767843391563439 0 -4.2027540488676861e-05 -0.014753359230763791 0 -3.684632825595278e-05 -0.014742564544342454 0 -4.8280324286598881e-05 -0.014751500902155825 0 -4.2027540488676861e-05 -0.014753359230763791 0 -4.4678827340997545e-05 -0.01474395817136567 0 -4.2027540488676861e-05 -0.014753359230763791 0 -3.684632825595278e-05 -0.014742564544342454 0 -4.7688110189944037e-05 -0.014741712910983928 0 9.3108336757592302e-05 -0.012978219009230168 0 5.5080962770529175e-05 -0.012859544319161679 0 0.00010636302051036009 -0.013016085016170799 0 0.00010578891360908624 -0.012981401787823697 0 0.00011719757104505679 -0.013007512756615861 0 0.00010636302051036009 -0.013016085016170799 0 0.00010578891360908624 -0.012981401787823697 0 5.3192226063488291e-05 -0.012976573044602549 0 -1.5931560410075164e-05 -0.012913512139807371 0 3.1669876886630146e-05 -0.012911588116822151 0 5.8672781833309882e-05 -0.012966913821694324 0 9.8323104723037981e-05 -0.013140226067368392 0 -2.5450045564836343e-05 -0.012548317775309036 0 9.8323104723037981e-05 -0.013140226067368392 0 5.5080962770529175e-05 -0.012859544319161679 0 0.00013991950656208138 -0.012873067796604725 0 0.00014109453017662071 -0.012877815960332221 0 -0.00015647313220264932 -0.014950970180776959 0 -0.00013447995046751577 -0.014901388150290197 0 -8.4628576120357818e-05 -0.014921695203726664 0 -0.00015647313220264932 -0.014950970180776959 0 -0.00018833577386613746 -0.014882501482015285 0 -0.00013447995046751577 -0.014901388150290197 0 -0.00010547064390644495 -0.012315022630098569 0 -1.871969741726772e-05 -0.012503694448209101 0 7.8012504015157421e-05 -0.012369292885974539 0 0.00013991950656208138 -0.012873067796604725 0 -8.3544758412786537e-05 -0.012588745154394622 0 0.00013991950656208138 -0.012873067796604725 0 -6.3002203021719639e-05 -0.012421810971420352 0 0.00014222212729252833 -0.012844281611134942 0 0.00016519178155171142 -0.012894099411480356 0 -5.5254306106023975e-05 -0.012959420621771859 0 -8.3544758412786537e-05 -0.012588745154394622 0 -0.0001226627921143922 -0.012349202019341955 0 -8.3544758412786537e-05 -0.012588745154394622 0 -0.00013136686712219076 -0.013138886491954736 0 -0.00018833577386613746 -0.014882501482015285 0 -0.00013447995046751577 -0.014901388150290197 0 -0.0001076110944348009 -0.014849795868922617 0 -0.00013447995046751577 -0.014901388150290197 0 -0.0001076110944348009 -0.014849795868922617 0 -8.4628576120357818e-05 -0.014921695203726664 0 -0.00024780749445383785 -0.011783298874964491 0 -0.00020409800521280498 -0.011916428444266351 0 -0.00016416844452595662 -0.011709182758419895 0 6.3977547006320979e-06 -0.011760162965336654 0 -0.00050764590961928987 -0.012318601210891698 0 -6.9119270839039645e-05 -0.011923834655530853 0 -0.00035793881057385931 -0.012042952900672168 0 -0.00021725154266028095 -0.01208499787436986 0 -0.00020409800521280498 -0.011916428444266351 0 -0.00023046144884506588 -0.011785374451113641 0 -0.00028575012267235305 -0.012093697262677137 0 -0.00034538157801594936 -0.012023286698094923 0 -0.0003380177576110476 -0.012115487114563167 0 -0.00020409800521280498 -0.011916428444266351 0 -7.3698279535693568e-05 -0.012371382153393942 0 -0.00034538157801594936 -0.012023286698094923 0 -0.0003380177576110476 -0.012115487114563167 0 -0.00042798895041538108 -0.012074901895722639 0 -0.00020409800521280498 -0.011916428444266351 0 -0.00010536624246347831 -0.012168031982989321 0 0.00016480392706311019 -0.011981815355788994 0 -0.00037531035049933378 -0.012145604633491496 0 -0.00041814899571141222 -0.011717477279166727 0 -1.871969741726772e-05 -0.012503694448209101 0 0.00011188057916748615 -0.012438873373832173 0 7.8012504015157421e-05 -0.012369292885974539 0 0.00010578891360908624 -0.012981401787823697 0 4.6452629198737195e-05 -0.012962593974012986 0 5.3192226063488291e-05 -0.012976573044602549 0 -0.00010536624246347831 -0.012168031982989321 0 -7.3698279535693568e-05 -0.012371382153393942 0 -0.00010536624246347831 -0.012168031982989321 0 -6.3002203021719639e-05 -0.012421810971420352 0 -9.2797743935675554e-05 -0.012543098042681583 0 -0.00011870745242969672 -0.012283557105243781 0 -0.00020499607801371901 -0.012312549854867631 0 9.2979925600057881e-05 -0.012434267891853772 0 -9.7013784945024548e-05 -0.012498171539979088 0 -0.00024854433026033699 -0.012186634983440707 0 -6.3002203021719639e-05 -0.012421810971420352 0 -2.5450045564836343e-05 -0.012548317775309036 0 -7.3698279535693568e-05 -0.012371382153393942 0 -2.5450045564836343e-05 -0.012548317775309036 0 -7.3698279535693568e-05 -0.012371382153393942 0 -6.3002203021719639e-05 -0.012421810971420352 0 -8.3544758412786537e-05 -0.012588745154394622 0 -0.00010536624246347831 -0.012168031982989321 0 -0.00039382918912766936 -0.012349800550330239 0 0.00016138829723898586 -0.012075010847474131 0 0.00019820773563580528 -0.012442887244714297 0 -0.00039382918912766936 -0.012349800550330239 0 -0.00028640052231111056 -0.012583114792541615 0 0.00019820773563580528 -0.012442887244714297 0 -0.00039692573969128138 -0.012148823420596802 0 -0.00026881265011174048 -0.012111593431486377 0 -0.00035752251977288146 -0.012234533709708569 0 -0.0001226627921143922 -0.012349202019341955 0 -0.00012779376864822692 -0.011945011185135614 0 -0.00010536624246347831 -0.012168031982989321 0 -0.00012779376864822692 -0.011945011185135614 0 -0.00016416844452595662 -0.011709182758419895 0 -0.00072243440210651702 -0.011878372010120581 0 -0.00050764590961928987 -0.012318601210891698 0 -2.8759809846921291e-05 -0.011692829101499927 0 6.0331970835465512e-06 -0.012041534943180644 0 0.00012476505090865854 -0.012007439015119614 0 -0.00010536624246347831 -0.012168031982989321 0 -0.00017478436469551712 -0.011824516116796026 0 -0.00012779376864822692 -0.011945011185135614 0 -0.00017478436469551712 -0.011824516116796026 0 -0.00023046144884506588 -0.011785374451113641 0 -0.00017478436469551712 -0.011824516116796026 0 -0.00022555903640032279 -0.011171477680023729 0 -0.00023215795305149737 -0.011172177598035729 0 -0.0002282393583808215 -0.011184590922376373 0 -0.00025090654102125114 -0.011415192846441255 0 -0.00014656284292234288 -0.0121789792614927 0 -0.00036729288072405073 -0.010856724770853031 0 -0.00017478436469551712 -0.011824516116796026 0 -0.00016860138450759603 -0.010580434302224053 0 -0.00034434599172783795 -0.010292129154832266 0 -0.00032031692951214321 -0.010285348691244622 0 -0.00023458258557507248 -0.011668282186314105 0 -0.00019085167710845927 -0.012091222025408832 0 -9.8524598638359757e-05 -0.011962424912687631 0 -0.00025090654102125114 -0.011415192846441255 0 -0.00012779376864822692 -0.011945011185135614 0 -0.00016860138450759603 -0.010580434302224053 0 -0.00031662462639707499 -0.010580578258935278 0 -0.00034434599172783795 -0.010292129154832266 0 -0.00012779376864822692 -0.011945011185135614 0 -0.00014656284292234288 -0.0121789792614927 0 -0.0001226627921143922 -0.012349202019341955 0 -0.00014656284292234288 -0.0121789792614927 0 -3.3707439382170371e-05 -0.01279101930290014 0 -1.8190316160344074e-05 -0.012824826592506536 0 -0.00014107142016240491 -0.012823175853271406 0 -6.581739349397026e-05 -0.01323055698880969 0 -0.00014656284292234288 -0.0121789792614927 0 -0.00015876637103722445 -0.012979060727267977 0 -1.8190316160344074e-05 -0.012824826592506536 0 -0.00014107142016240491 -0.012823175853271406 0 0.00014222212729252833 -0.012844281611134942 0 -5.5254306106023975e-05 -0.012959420621771859 0 -6.8097371386298324e-05 -0.012932669607075137 0 -0.0001226627921143922 -0.012349202019341955 0 -8.5862585739030493e-05 -0.01290632639973361 0 -0.00015876637103722445 -0.012979060727267977 0 -0.00014107142016240491 -0.012823175853271406 0 -0.00024815137148201648 -0.012855175895780497 0 -0.00013136686712219076 -0.013138886491954736 0 -4.0958232232434654e-05 -0.013464991884555409 0 -8.5862585739030493e-05 -0.01290632639973361 0 -4.0958232232434654e-05 -0.013464991884555409 0 -5.5254306106023975e-05 -0.012959420621771859 0 -6.8097371386298324e-05 -0.012932669607075137 0 -0.00027274446099445306 -0.013025205790678568 0 -2.4827012964300109e-05 -0.014809635946161559 0 6.8044294474424216e-06 -0.014849694544542932 0 -3.7281964435659377e-05 -0.014858557356394905 0 -0.0001076110944348009 -0.014849795868922617 0 -2.4827012964300109e-05 -0.014809635946161559 0 -3.7281964435659377e-05 -0.014858557356394905 0 -6.2020951145322367e-05 -0.013731424757748828 0 -5.6295050026270434e-05 -0.013752467530803761 0 -5.0494341130198289e-05 -0.013750858582460524 0 -7.3857216351752887e-05 -0.014191758372712693 0 -4.4317775370542948e-05 -0.013629724925219586 0 -4.0958232232434654e-05 -0.013464991884555409 0 -4.4317775370542948e-05 -0.013629724925219586 0 0.00010061814880128502 -0.014847499855866118 0 -9.2988462162262583e-06 -0.014790767345811726 0 6.8044294474424216e-06 -0.014849694544542932 0 -3.1116085988892999e-05 -0.014796679366511216 0 -9.2988462162262583e-06 -0.014790767345811726 0 6.8044294474424216e-06 -0.014849694544542932 0 -4.0958232232434654e-05 -0.013464991884555409 0 1.3965155302873363e-05 -0.013579619316102449 0 6.8044294474424216e-06 -0.014849694544542932 0 -5.5886880277717354e-06 -0.014889445555716229 0 -3.7281964435659377e-05 -0.014858557356394905 0 0.00010061814880128502 -0.014847499855866118 0 -5.5886880277717354e-06 -0.014889445555716229 0 -2.3016519220381148e-05 -0.014953441235004212 0 2.995305477028776e-06 -0.014962658157646472 0 -9.712882668901858e-07 -0.014965175598894707 0 -2.3016519220381148e-05 -0.014953441235004212 0 -6.5773633718239758e-05 -0.014706226146448752 0 -8.2713973311373073e-05 -0.014773248363517779 0 0.00010061814880128502 -0.014847499855866118 0 6.8044294474424216e-06 -0.014849694544542932 0 -5.5886880277717354e-06 -0.014889445555716229 0 -3.8993299423259893e-05 -0.014982032702332497 0 -2.3016519220381148e-05 -0.014953441235004212 0 -8.4628576120357818e-05 -0.014921695203726664 0 -5.5886880277717354e-06 -0.014889445555716229 0 -2.3016519220381148e-05 -0.014953441235004212 0 -5.2201053093884856e-05 -0.014894221790037533 0 -2.3016519220381148e-05 -0.014953441235004212 0 -8.4628576120357818e-05 -0.014921695203726664 0 -5.2201053093884856e-05 -0.014894221790037533 0 -0.0001076110944348009 -0.014849795868922617 0 -8.4628576120357818e-05 -0.014921695203726664 0 -5.2201053093884856e-05 -0.014894221790037533 0 -0.0001076110944348009 -0.014849795868922617 0 -3.7281964435659377e-05 -0.014858557356394905 0 -5.2201053093884856e-05 -0.014894221790037533 0 -5.5886880277717354e-06 -0.014889445555716229 0 -3.7281964435659377e-05 -0.014858557356394905 0 -5.2201053093884856e-05 -0.014894221790037533 0 0.00099379175592422746 0.0023044473136129961 0 0.00090159305122399435 0.0022472341705231671 0 0.00091594697088059006 0.0023103700978752413 0 0.00099379175592422746 0.0023044473136129961 0 0.00091594697088059006 0.0023103700978752413 0 0.00096049081827183933 0.0023552458681811469 0 0.00099379175592422746 0.0023044473136129961 0 0.00096049081827183933 0.0023552458681811469 0 0.0010211094939139036 0.0023712020082886573 0 0.00099379175592422746 0.0023044473136129961 0 0.0010613742294740742 0.0023467471876327463 0 0.001065799792647034 0.0022990442949940358 0 0.00099379175592422746 0.0023044473136129961 0 0.0010613742294740742 0.0023467471876327463 0 0.0010211094939139036 0.0023712020082886573 0 0.0010613742294740742 0.0023467471876327463 0 0.0010211094939139036 0.0023712020082886573 0 0.0010680567456836042 0.0023847973126142189 0 0.0010613742294740742 0.0023467471876327463 0 0.001065799792647034 0.0022990442949940358 0 0.0010938908360670755 0.0023275949534476538 0 0.00099379175592422746 0.0023044473136129961 0 0.001065799792647034 0.0022990442949940358 0 0.001050802740012268 0.0022526196375112742 0 0.001050802740012268 0.0022526196375112742 0 0.0011087130785653377 0.0022696912074016912 0 0.0010764702018414649 0.0022077567315774713 0 0.001065799792647034 0.0022990442949940358 0 0.001050802740012268 0.0022526196375112742 0 0.0011087130785653377 0.0022696912074016912 0 0.001050802740012268 0.0022526196375112742 0 0.00099754827824377851 0.0022272950856638599 0 0.0010764702018414649 0.0022077567315774713 0 0.00099379175592422746 0.0023044473136129961 0 0.00099754827824377851 0.0022272950856638599 0 0.00090159305122399435 0.0022472341705231671 0 0.00099379175592422746 0.0023044473136129961 0 0.001050802740012268 0.0022526196375112742 0 0.00099754827824377851 0.0022272950856638599 0 0.00099754827824377851 0.0022272950856638599 0 0.00090159305122399435 0.0022472341705231671 0 0.00089928006873994334 0.0021587154900296521 0 0.00090159305122399435 0.0022472341705231671 0 0.0007971794959186233 0.0021809925062948464 0 0.00089928006873994334 0.0021587154900296521 0 0.00090159305122399435 0.0022472341705231671 0 0.0007971794959186233 0.0021809925062948464 0 0.00079903696113738955 0.0022525078438287581 0 0.0007971794959186233 0.0021809925062948464 0 0.00065888290397588488 0.0021298475298797354 0 0.00070883331146881707 0.0022139998752795267 0 0.00079903696113738955 0.0022525078438287581 0 0.00072169459188389806 0.0022776108576706426 0 0.00070883331146881707 0.0022139998752795267 0 0.0007971794959186233 0.0021809925062948464 0 0.00079903696113738955 0.0022525078438287581 0 0.00070883331146881707 0.0022139998752795267 0 0.00079903696113738955 0.0022525078438287581 0 0.00072169459188389806 0.0022776108576706426 0 0.00083501472077297475 0.0023042804290148659 0 0.00072169459188389806 0.0022776108576706426 0 0.00083501472077297475 0.0023042804290148659 0 0.0007637684146726717 0.002332082081926199 0 0.00072169459188389806 0.0022776108576706426 0 0.0007637684146726717 0.002332082081926199 0 0.00066958658281426105 0.0023154679646742544 0 0.00091594697088059006 0.0023103700978752413 0 0.00083501472077297475 0.0023042804290148659 0 0.00087354220291948118 0.0023802886993335901 0 0.00090159305122399435 0.0022472341705231671 0 0.00091594697088059006 0.0023103700978752413 0 0.00083501472077297475 0.0023042804290148659 0 0.00090159305122399435 0.0022472341705231671 0 0.00079903696113738955 0.0022525078438287581 0 0.00083501472077297475 0.0023042804290148659 0 0.00091594697088059006 0.0023103700978752413 0 0.00087354220291948118 0.0023802886993335901 0 0.00096049081827183933 0.0023552458681811469 0 0.00083501472077297475 0.0023042804290148659 0 0.00087354220291948118 0.0023802886993335901 0 0.0007637684146726717 0.002332082081926199 0 0.00087354220291948118 0.0023802886993335901 0 0.0007637684146726717 0.002332082081926199 0 0.00075983738477052715 0.0023930048634869792 0 0.0007637684146726717 0.002332082081926199 0 0.00075983738477052715 0.0023930048634869792 0 0.00066958658281426105 0.0023154679646742544 0 0.00075983738477052715 0.0023930048634869792 0 0.00085486436156245618 0.0024641624113695346 0 0.00075285392775130465 0.0025108795350462908 0 0.00087354220291948118 0.0023802886993335901 0 0.00085486436156245618 0.0024641624113695346 0 0.00095521495958741812 0.0024672674220505798 0 0.00087354220291948118 0.0023802886993335901 0 0.00075983738477052715 0.0023930048634869792 0 0.00085486436156245618 0.0024641624113695346 0 0.00095521495958741812 0.0024672674220505798 0 0.00098775116073868238 0.0024079367670501836 0 0.0010349433837050098 0.0024440316631082456 0 0.00087354220291948118 0.0023802886993335901 0 0.00095521495958741812 0.0024672674220505798 0 0.00098775116073868238 0.0024079367670501836 0 0.00087354220291948118 0.0023802886993335901 0 0.00098775116073868238 0.0024079367670501836 0 0.00096049081827183933 0.0023552458681811469 0 0.00098775116073868238 0.0024079367670501836 0 0.00096049081827183933 0.0023552458681811469 0 0.0010211094939139036 0.0023712020082886573 0 0.0010211094939139036 0.0023712020082886573 0 0.0010395590379151168 0.0024056108128940545 0 0.0010680567456836042 0.0023847973126142189 0 0.00098775116073868238 0.0024079367670501836 0 0.0010395590379151168 0.0024056108128940545 0 0.0010349433837050098 0.0024440316631082456 0 0.00098775116073868238 0.0024079367670501836 0 0.0010211094939139036 0.0023712020082886573 0 0.0010395590379151168 0.0024056108128940545 0 0.0010395590379151168 0.0024056108128940545 0 0.0010680567456836042 0.0023847973126142189 0 0.0010756748982696039 0.002420310644598737 0 0.0010395590379151168 0.0024056108128940545 0 0.0010349433837050098 0.0024440316631082456 0 0.0010756748982696039 0.002420310644598737 0 0.00095521495958741812 0.0024672674220505798 0 0.0010349433837050098 0.0024440316631082456 0 0.0010361119964442951 0.0025102814736041655 0 0.0010349433837050098 0.0024440316631082456 0 0.0010792058031435059 0.0024485864369679288 0 0.0010361119964442951 0.0025102814736041655 0 0.0010792058031435059 0.0024485864369679288 0 0.0011098809379382144 0.0024529694080531374 0 0.0010361119964442951 0.0025102814736041655 0 -0.00031294291548659357 0.0037589077205346117 0 -0.00030133161395301333 0.0036762642622928435 0 -0.00017990765181189825 0.0038612647598256552 0 0.0010792058031435059 0.0024485864369679288 0 0.0010996537227115472 0.0024307111002079104 0 0.0010756748982696039 0.002420310644598737 0 0.0010349433837050098 0.0024440316631082456 0 0.0010792058031435059 0.0024485864369679288 0 0.0010756748982696039 0.002420310644598737 0 0.0010792058031435059 0.0024485864369679288 0 0.0010996537227115472 0.0024307111002079104 0 0.0011022063298834896 0.0024422948302392756 0 0.0010792058031435059 0.0024485864369679288 0 0.0011022063298834896 0.0024422948302392756 0 0.0011098809379382144 0.0024529694080531374 0 -0.00031294291548659357 0.0037589077205346117 0 -0.00030133161395301333 0.0036762642622928435 0 0.00015958701603136958 0.0034577146686407493 0 0.0011109085205146289 0.0024395111329427051 0 0.0011132100121050224 0.0024336827905366469 0 0.0011113265791803254 0.002434397241607573 0 0.00054688736175914784 0.0028931890810824754 0 0.00076427857094924759 0.0027763860329427532 0 0.0011098809379382144 0.0024529694080531374 0 0.0011109085205146289 0.0024395111329427051 0 0.0011113265791803254 0.002434397241607573 0 -0.00033773512590443795 0.0039047687028236694 0 -0.00024398607750180913 0.0039450826468830991 0 0.0011022063298834896 0.0024422948302392756 0 0.0011098809379382144 0.0024529694080531374 0 0.0011109085205146289 0.0024395111329427051 0 0.0010996537227115472 0.0024307111002079104 0 0.0011022063298834896 0.0024422948302392756 0 0.0011109085205146289 0.0024395111329427051 0 0.0010996537227115472 0.0024307111002079104 0 0.0011109085205146289 0.0024395111329427051 0 0.0011111243904822746 0.002424630087970316 0 0.0010996537227115472 0.0024307111002079104 0 0.0011111243904822746 0.002424630087970316 0 0.0010988144068936646 0.002405423649248453 0 0.0011111243904822746 0.002424630087970316 0 0.0011132100121050224 0.0024336827905366469 0 0.0011153315390760746 0.0024331977314203065 0 0.0011109085205146289 0.0024395111329427051 0 0.0011111243904822746 0.002424630087970316 0 0.0011132100121050224 0.0024336827905366469 0 0.0011119382667072295 0.0024091501000650627 0 0.0011153315390760746 0.0024331977314203065 0 0.0011159170781353737 0.0024070335671279044 0 0.0011111243904822746 0.002424630087970316 0 0.0011119382667072295 0.0024091501000650627 0 0.0011153315390760746 0.0024331977314203065 0 0.0011111243904822746 0.002424630087970316 0 0.0011119382667072295 0.0024091501000650627 0 0.0010988144068936646 0.002405423649248453 0 0.0011119382667072295 0.0024091501000650627 0 0.0010988144068936646 0.002405423649248453 0 0.0011114306709385003 0.0023733512314680692 0 0.0010988144068936646 0.002405423649248453 0 0.0010680567456836042 0.0023847973126142189 0 0.0010756748982696039 0.002420310644598737 0 0.0010988144068936646 0.002405423649248453 0 0.0010680567456836042 0.0023847973126142189 0 0.0010902691729788893 0.0023677019791360412 0 0.0010996537227115472 0.0024307111002079104 0 0.0010988144068936646 0.002405423649248453 0 0.0010756748982696039 0.002420310644598737 0 0.00095147506537424662 0.0032658845222614864 0 0.0002466639047769529 0.0030334779266851923 0 0.0010571317030119156 0.0025792733437140763 0 -0.00015738504222968553 0.0041043372088882596 0 -0.00024398607750180913 0.0039450826468830991 0 0.00095147506537424662 0.0032658845222614864 0 0.0002466639047769529 0.0030334779266851923 0 0.00015958701603136958 0.0034577146686407493 0 -0.00030133161395301333 0.0036762642622928435 0 0.0002466639047769529 0.0030334779266851923 0 0.00015958701603136958 0.0034577146686407493 0 0.0011132100121050224 0.0024336827905366469 0 0.0011113265791803254 0.002434397241607573 0 0.0011153315390760746 0.0024331977314203065 0 0.0011153315390760746 0.0024331977314203065 0 0.0011103806570118176 0.0024267219413221693 0 0.0011159170781353737 0.0024070335671279044 0 0.0011153315390760746 0.0024331977314203065 0 0.0010985380166214889 0.0024687662233241823 0 0.0011103806570118176 0.0024267219413221693 0 0.0010985380166214889 0.0024687662233241823 0 0.0010972160404938594 0.0024641584525846969 0 0.0011103806570118176 0.0024267219413221693 0 0.0011113265791803254 0.002434397241607573 0 0.0011153315390760746 0.0024331977314203065 0 0.0010985380166214889 0.0024687662233241823 0 0.0010985380166214889 0.0024687662233241823 0 0.0010972160404938594 0.0024641584525846969 0 0.0010571317030119156 0.0025792733437140763 0 0.0011113265791803254 0.002434397241607573 0 0.0010985380166214889 0.0024687662233241823 0 0.0010571317030119156 0.0025792733437140763 0 0.0010972160404938594 0.0024641584525846969 0 0.0010571317030119156 0.0025792733437140763 0 0.0011266507210315336 0.0024434988946651567 0 0.00076427857094924759 0.0027763860329427532 0 0.000916143471392828 0.0027036840559729663 0 0.0010972160404938594 0.0024641584525846969 0 0.0011202710467877095 0.0023957822547936297 0 0.0011266507210315336 0.0024434988946651567 0 0.0010972160404938594 0.0024641584525846969 0 0.0011103806570118176 0.0024267219413221693 0 0.0011202710467877095 0.0023957822547936297 0 0.0011103806570118176 0.0024267219413221693 0 0.0011269555495040946 0.002361410886620991 0 0.0011202710467877095 0.0023957822547936297 0 0.0011103806570118176 0.0024267219413221693 0 0.0011269555495040946 0.002361410886620991 0 0.001120459684396919 0.0023739370180399298 0 0.0011103806570118176 0.0024267219413221693 0 0.0011159170781353737 0.0024070335671279044 0 0.001120459684396919 0.0023739370180399298 0 0.0011269555495040946 0.002361410886620991 0 0.0011202710467877095 0.0023957822547936297 0 0.0011377877612459197 0.0023381045783693378 0 0.0011269555495040946 0.002361410886620991 0 0.0011377877612459197 0.0023381045783693378 0 0.0011412140438861477 0.0023109530585192265 0 0.0011202710467877095 0.0023957822547936297 0 0.0011266507210315336 0.0024434988946651567 0 0.0011446234162441093 0.0023678227531617698 0 0.0011202710467877095 0.0023957822547936297 0 0.0011377877612459197 0.0023381045783693378 0 0.0011446234162441093 0.0023678227531617698 0 0.0010938908360670755 0.0023275949534476538 0 0.0011114306709385003 0.0023733512314680692 0 0.0011173963707940132 0.0023258638641095236 0 0.0010938908360670755 0.0023275949534476538 0 0.0010902691729788893 0.0023677019791360412 0 0.0011114306709385003 0.0023733512314680692 0 0.0010613742294740742 0.0023467471876327463 0 0.0010938908360670755 0.0023275949534476538 0 0.0010902691729788893 0.0023677019791360412 0 0.0010613742294740742 0.0023467471876327463 0 0.0010680567456836042 0.0023847973126142189 0 0.0010902691729788893 0.0023677019791360412 0 0.0010988144068936646 0.002405423649248453 0 0.0010902691729788893 0.0023677019791360412 0 0.0011114306709385003 0.0023733512314680692 0 0.0011119382667072295 0.0024091501000650627 0 0.0011114306709385003 0.0023733512314680692 0 0.0011159170781353737 0.0024070335671279044 0 0.0011114306709385003 0.0023733512314680692 0 0.0011159170781353737 0.0024070335671279044 0 0.001120459684396919 0.0023739370180399298 0 0.0011114306709385003 0.0023733512314680692 0 0.001120459684396919 0.0023739370180399298 0 0.0011173963707940132 0.0023258638641095236 0 0.001120459684396919 0.0023739370180399298 0 0.0011299134187623251 0.0023313521812444531 0 0.0011173963707940132 0.0023258638641095236 0 0.0011269555495040946 0.002361410886620991 0 0.001120459684396919 0.0023739370180399298 0 0.0011299134187623251 0.0023313521812444531 0 0.0011269555495040946 0.002361410886620991 0 0.0011299134187623251 0.0023313521812444531 0 0.0011412140438861477 0.0023109530585192265 0 0.0011299134187623251 0.0023313521812444531 0 0.0011393264794027028 0.0022875037944167917 0 0.0011412140438861477 0.0023109530585192265 0 0.0011299134187623251 0.0023313521812444531 0 0.0011173963707940132 0.0023258638641095236 0 0.0011393264794027028 0.0022875037944167917 0 0.0011173963707940132 0.0023258638641095236 0 0.0011087130785653377 0.0022696912074016912 0 0.0011393264794027028 0.0022875037944167917 0 0.0010938908360670755 0.0023275949534476538 0 0.0011173963707940132 0.0023258638641095236 0 0.0011087130785653377 0.0022696912074016912 0 0.001065799792647034 0.0022990442949940358 0 0.0010938908360670755 0.0023275949534476538 0 0.0011087130785653377 0.0022696912074016912 0 0.0011087130785653377 0.0022696912074016912 0 0.0011525191793789599 0.0022395276393402182 0 0.0011214274057871391 0.002221877941831033 0 0.0011087130785653377 0.0022696912074016912 0 0.0011525191793789599 0.0022395276393402182 0 0.0011393264794027028 0.0022875037944167917 0 0.0011525191793789599 0.0022395276393402182 0 0.0011456936244345448 0.0021783992910642722 0 0.0011214274057871391 0.002221877941831033 0 0.0011393264794027028 0.0022875037944167917 0 0.0011568689741158235 0.002263341588728535 0 0.0011412140438861477 0.0023109530585192265 0 0.0011525191793789599 0.0022395276393402182 0 0.0011393264794027028 0.0022875037944167917 0 0.0011568689741158235 0.002263341588728535 0 0.0011568689741158235 0.002263341588728535 0 0.0011852309937772415 0.0022050934558370578 0 0.0011650186099756265 0.0022760589802758519 0 0.0011852309937772415 0.0022050934558370578 0 0.0012118303273288566 0.0022605932917578418 0 0.0011650186099756265 0.0022760589802758519 0 0.0011568689741158235 0.002263341588728535 0 0.0011486513827029606 0.0023060083451232642 0 0.0011650186099756265 0.0022760589802758519 0 0.0011852309937772415 0.0022050934558370578 0 0.0012230695446688521 0.0021538307886571277 0 0.0012118303273288566 0.0022605932917578418 0 0.0011852309937772415 0.0022050934558370578 0 0.0012230695446688521 0.0021538307886571277 0 0.0011456936244345448 0.0021783992910642722 0 0.0011525191793789599 0.0022395276393402182 0 0.0011852309937772415 0.0022050934558370578 0 0.0011456936244345448 0.0021783992910642722 0 0.0011525191793789599 0.0022395276393402182 0 0.0011568689741158235 0.002263341588728535 0 0.0011852309937772415 0.0022050934558370578 0 0.0011377877612459197 0.0023381045783693378 0 0.0011486513827029606 0.0023060083451232642 0 0.0011445739885497866 0.0023331605899876064 0 0.0011377877612459197 0.0023381045783693378 0 0.0011445739885497866 0.0023331605899876064 0 0.0011446234162441093 0.0023678227531617698 0 0.0011568689741158235 0.002263341588728535 0 0.0011412140438861477 0.0023109530585192265 0 0.0011486513827029606 0.0023060083451232642 0 0.0011377877612459197 0.0023381045783693378 0 0.0011412140438861477 0.0023109530585192265 0 0.0011486513827029606 0.0023060083451232642 0 0.0011486513827029606 0.0023060083451232642 0 0.001147939771205835 0.002335639899697704 0 0.0011650186099756265 0.0022760589802758519 0 0.0011486513827029606 0.0023060083451232642 0 0.0011445739885497866 0.0023331605899876064 0 0.001147939771205835 0.002335639899697704 0 0.001147939771205835 0.002335639899697704 0 0.0011687026968514162 0.0023605054891765393 0 0.0011446276694565157 0.0023808720248704169 0 0.001147939771205835 0.002335639899697704 0 0.0011446276694565157 0.0023808720248704169 0 0.001129300474381219 0.0023776376538702567 0 0.001147939771205835 0.002335639899697704 0 0.0011687026968514162 0.0023605054891765393 0 0.0011650186099756265 0.0022760589802758519 0 0.0011220046119503541 0.0024257339738695881 0 0.0011514699000755237 0.0023741253105779734 0 0.0010995548082801832 0.0023991048731398482 0 0.00098117668176809819 0.0025790106529604544 0 0.0011700141205059297 0.0025227942403389606 0 0.0010995548082801832 0.0023991048731398482 0 0.0012080611362615267 0.0023942822132592685 0 0.0011700141205059297 0.0025227942403389606 0 0.0011687026968514162 0.0023605054891765393 0 0.0011446276694565157 0.0023808720248704169 0 0.0011508245883892979 0.0024220959441294378 0 0.0011220046119503541 0.0024257339738695881 0 0.0010461228979819403 0.0025530775973404344 0 0.0012118303273288566 0.0022605932917578418 0 0.0012080611362615267 0.0023942822132592685 0 0.0013134489927277204 0.0023427243768827186 0 0.0013947764748338039 0.0021088207930653503 0 0.001409165897671795 0.0020797978717961869 0 0.0012230695446688521 0.0021538307886571277 0 0.0012118303273288566 0.0022605932917578418 0 0.0013134489927277204 0.0023427243768827186 0 0.0012118303273288566 0.0022605932917578418 0 0.0011650186099756265 0.0022760589802758519 0 0.0012080611362615267 0.0023942822132592685 0 0.0010995548082801832 0.0023991048731398482 0 0.0011650186099756265 0.0022760589802758519 0 0.0012080611362615267 0.0023942822132592685 0 0.0012080611362615267 0.0023942822132592685 0 0.0012531418295975772 0.0025566552280107953 0 0.0013423309871504574 0.0024654039547874983 0 0.0012080611362615267 0.0023942822132592685 0 0.0013134489927277204 0.0023427243768827186 0 0.0013423309871504574 0.0024654039547874983 0 0.001409165897671795 0.0020797978717961869 0 0.0014501585371407139 0.0019827688404713694 0 0.0014419757934513299 0.0015203610805497845 0 0.0014669210635826497 0.001167334129412253 0 0.0018690002724143315 0.0012895762919847224 0 0.0013014768024627598 0.0018803605338165866 0 0.0014501585371407139 0.0019827688404713694 0 0.0012224414480892537 0.0019365993017744435 0 0.0010421848752592546 0.0018931604759877014 0 0.0012188157115314686 0.0018149810924663185 0 0.0014419757934513299 0.0015203610805497845 0 0.0011586403444690256 0.001242998274703929 0 0.0014669210635826497 0.001167334129412253 0 0.0010421848752592546 0.0018931604759877014 0 0.0010200064774256576 0.0019591799080139988 0 0.00095231914006207476 0.001792655917868158 0 0.0010421848752592546 0.0018931604759877014 0 0.0010200064774256576 0.0019591799080139988 0 0.001093991543503985 0.0020130397512072582 0 0.0012224414480892537 0.0019365993017744435 0 0.0010421848752592546 0.0018931604759877014 0 0.001093991543503985 0.0020130397512072582 0 0.0012230695446688521 0.0021538307886571277 0 0.0012224414480892537 0.0019365993017744435 0 0.001093991543503985 0.0020130397512072582 0 0.0012230695446688521 0.0021538307886571277 0 0.001093991543503985 0.0020130397512072582 0 0.0010744927488025033 0.0021025622772081168 0 0.0012230695446688521 0.0021538307886571277 0 0.0011456936244345448 0.0021783992910642722 0 0.0010744927488025033 0.0021025622772081168 0 0.0010200064774256576 0.0019591799080139988 0 0.001093991543503985 0.0020130397512072582 0 0.0010744927488025033 0.0021025622772081168 0 0.0010200064774256576 0.0019591799080139988 0 0.0010744927488025033 0.0021025622772081168 0 0.00095659063807837128 0.0020778563081153083 0 0.0010744927488025033 0.0021025622772081168 0 0.0010149700000180078 0.0021528956988179286 0 0.0010764702018414649 0.0022077567315774713 0 0.0010744927488025033 0.0021025622772081168 0 0.0010149700000180078 0.0021528956988179286 0 0.00095659063807837128 0.0020778563081153083 0 0.00099754827824377851 0.0022272950856638599 0 0.0010149700000180078 0.0021528956988179286 0 0.00089928006873994334 0.0021587154900296521 0 0.00099754827824377851 0.0022272950856638599 0 0.0010149700000180078 0.0021528956988179286 0 0.0010764702018414649 0.0022077567315774713 0 0.0011456936244345448 0.0021783992910642722 0 0.0010744927488025033 0.0021025622772081168 0 0.0010764702018414649 0.0022077567315774713 0 0.0011087130785653377 0.0022696912074016912 0 0.0010764702018414649 0.0022077567315774713 0 0.0011214274057871391 0.002221877941831033 0 0.0011456936244345448 0.0021783992910642722 0 0.0010764702018414649 0.0022077567315774713 0 0.0011214274057871391 0.002221877941831033 0 0.0007971794959186233 0.0021809925062948464 0 0.0007932305712594999 0.0020472071001328305 0 0.00089928006873994334 0.0021587154900296521 0 0.0007971794959186233 0.0021809925062948464 0 0.0007932305712594999 0.0020472071001328305 0 0.00065888290397588488 0.0021298475298797354 0 0.0007932305712594999 0.0020472071001328305 0 0.00089928006873994334 0.0021587154900296521 0 0.00095659063807837128 0.0020778563081153083 0 0.0010149700000180078 0.0021528956988179286 0 0.00089928006873994334 0.0021587154900296521 0 0.00095659063807837128 0.0020778563081153083 0 0.0007932305712594999 0.0020472071001328305 0 0.00095659063807837128 0.0020778563081153083 0 0.00095231914006207476 0.001792655917868158 0 0.0010200064774256576 0.0019591799080139988 0 0.00095659063807837128 0.0020778563081153083 0 0.00095231914006207476 0.001792655917868158 0 0.0007932305712594999 0.0020472071001328305 0 0.00095231914006207476 0.001792655917868158 0 0.00060718682366302115 0.0018070560172941401 0 0.00095231914006207476 0.001792655917868158 0 0.00065804781803563753 0.001503615563406241 0 0.00060718682366302115 0.0018070560172941401 0 0.0013014768024627598 0.0018803605338165866 0 0.0011650467742201618 0.0018955052968737368 0 0.00095231914006207476 0.001792655917868158 0 0.00082828871504598894 0.0012179434458448135 0 0.0011586403444690256 0.001242998274703929 0 0.0014419757934513299 0.0015203610805497845 0 0.00095231914006207476 0.001792655917868158 0 0.0011586403444690256 0.001242998274703929 0 0.00095231914006207476 0.001792655917868158 0 0.00065804781803563753 0.001503615563406241 0 0.00082828871504598894 0.0012179434458448135 0 0.00065804781803563753 0.001503615563406241 0 0.00032830384668417351 0.0015177655501278353 0 0.00047362015985796444 0.00091539907371109106 0 0.00065804781803563753 0.001503615563406241 0 0.00047362015985796444 0.00091539907371109106 0 0.00082828871504598894 0.0012179434458448135 0 0.00065804781803563753 0.001503615563406241 0 0.00060718682366302115 0.0018070560172941401 0 0.00032830384668417351 0.0015177655501278353 0 0.0006837057042770611 0.00063032195582973403 0 0.00087541621089141182 0.00045476330606756236 0 0.00060718682366302115 0.0018070560172941401 0 0.00032830384668417351 0.0015177655501278353 0 0.00033383848828341098 0.0018697509494762536 0 0.0006837057042770611 0.00063032195582973403 0 0.00062362426022714607 0.00071382066924906046 0 0.00053570840757271427 -0.00011437706932588 0 0.00083057306921222171 0.00054583147343324366 0 0.00047362015985796444 0.00091539907371109106 0 0.00053570840757271427 -0.00011437706932588 0 0.0016678965305253375 0.00033769856183954954 0 0.00083057306921222171 0.00054583147343324366 0 0.00053570840757271427 -0.00011437706932588 0 0.0016678965305253375 0.00033769856183954954 0 0.0017126735556195094 -0.00092249545366512766 0 0.0033256828788699078 -0.0020995496742501197 0 0.0032006463652035555 -0.0018611207813546741 0 0.0016678965305253375 0.00033769856183954954 0 0.0017126735556195094 -0.00092249545366512766 0 0.0025275544936991475 -0.00065329040015453586 0 0.00053570840757271427 -0.00011437706932588 0 0.0017126735556195094 -0.00092249545366512766 0 0.00086914877619557183 -0.0011163740743393431 0 0.00087541621089141182 0.00045476330606756236 0 0.0011880165395249031 0.00034938218714704566 0 0.0017126735556195094 -0.00092249545366512766 0 0.00086914877619557183 -0.0011163740743393431 0 0.0012344484854962512 -0.0020003201602555279 0 0.0017126735556195094 -0.00092249545366512766 0 0.0020842053004097344 -0.0016714489169952799 0 0.0022420161024959812 -0.0011518403393646832 0 0.0017126735556195094 -0.00092249545366512766 0 0.0020842053004097344 -0.0016714489169952799 0 0.0012344484854962512 -0.0020003201602555279 0 0.0020842053004097344 -0.0016714489169952799 0 0.0012344484854962512 -0.0020003201602555279 0 0.0018319748553327507 -0.0022197927338232365 0 0.00033383848828341098 0.0018697509494762536 0 0.00033824523612698514 0.0020794966477590696 0 0.0004999005566288698 0.0021181182913439676 0 0.00033383848828341098 0.0018697509494762536 0 0.0004999005566288698 0.0021181182913439676 0 0.0005794974614469025 0.001999839499486864 0 0.0007932305712594999 0.0020472071001328305 0 0.0005794974614469025 0.001999839499486864 0 0.00065888290397588488 0.0021298475298797354 0 0.0004999005566288698 0.0021181182913439676 0 0.0005794974614469025 0.001999839499486864 0 0.00065888290397588488 0.0021298475298797354 0 0.0007932305712594999 0.0020472071001328305 0 0.00060718682366302115 0.0018070560172941401 0 0.0005794974614469025 0.001999839499486864 0 0.00060718682366302115 0.0018070560172941401 0 0.00033383848828341098 0.0018697509494762536 0 0.0005794974614469025 0.001999839499486864 0 0.0012287345042912171 -0.0024939567694899252 0 0.0014563558221940109 -0.0027446981345737591 0 0.0016837698570486253 -0.0023487786706851508 0 0.0014563558221940109 -0.0027446981345737591 0 0.0017851547244317778 -0.0028264763038030943 0 0.0016837698570486253 -0.0023487786706851508 0 0.0021086810762507057 -0.0025337993750311188 0 0.0017851547244317778 -0.0028264763038030943 0 0.0023105058843631487 -0.0030478335266832905 0 0.0021086810762507057 -0.0025337993750311188 0 0.0017851547244317778 -0.0028264763038030943 0 0.0016837698570486253 -0.0023487786706851508 0 0.0017851547244317778 -0.0028264763038030943 0 0.0018765348846147302 -0.0032770387972799243 0 0.0023105058843631487 -0.0030478335266832905 0 0.0017851547244317778 -0.0028264763038030943 0 0.0018765348846147302 -0.0032770387972799243 0 0.0014623379152752343 -0.0031511413783685558 0 0.0014563558221940109 -0.0027446981345737591 0 0.0017851547244317778 -0.0028264763038030943 0 0.0014623379152752343 -0.0031511413783685558 0 0.0018765348846147302 -0.0032770387972799243 0 0.0014623379152752343 -0.0031511413783685558 0 0.0014585220720153473 -0.0037621284719690164 0 0.0014585220720153473 -0.0037621284719690164 0 0.0020682483946584088 -0.0037381335994374604 0 0.0017192241623372219 -0.0045270447971485555 0 0.0018765348846147302 -0.0032770387972799243 0 0.0020682483946584088 -0.0037381335994374604 0 0.0023105058843631487 -0.0030478335266832905 0 0.0018765348846147302 -0.0032770387972799243 0 0.0014585220720153473 -0.0037621284719690164 0 0.0020682483946584088 -0.0037381335994374604 0 0.0020682483946584088 -0.0037381335994374604 0 0.0030226476267457424 -0.003802321280459142 0 0.002427611553602597 -0.0043988248983844744 0 0.0020682483946584088 -0.0037381335994374604 0 0.0030226476267457424 -0.003802321280459142 0 0.0023105058843631487 -0.0030478335266832905 0 0.0030226476267457424 -0.003802321280459142 0 0.0023105058843631487 -0.0030478335266832905 0 0.0030161554812301161 -0.0028104014481596042 0 0.0021086810762507057 -0.0025337993750311188 0 0.0023105058843631487 -0.0030478335266832905 0 0.0025926049134567721 -0.0023898517761446517 0 0.0023105058843631487 -0.0030478335266832905 0 0.0030161554812301161 -0.0028104014481596042 0 0.0025926049134567721 -0.0023898517761446517 0 0.0030226476267457424 -0.003802321280459142 0 0.0030161554812301161 -0.0028104014481596042 0 0.0041946813855936634 -0.0030194941534944461 0 0.0030161554812301161 -0.0028104014481596042 0 0.0041946813855936634 -0.0030194941534944461 0 0.002995652798082673 -0.0017222819796893244 0 0.0030226476267457424 -0.003802321280459142 0 0.0041946813855936634 -0.0030194941534944461 0 0.0040782138015178849 -0.0044309062362655775 0 0.0052699738946460984 -0.0041794153254778206 0 0.0041946813855936634 -0.0030194941534944461 0 0.0040782138015178849 -0.0044309062362655775 0 0.0017126735556195094 -0.00092249545366512766 0 0.0025275544936991475 -0.00065329040015453586 0 0.0022420161024959812 -0.0011518403393646832 0 0.0025275544936991475 -0.00065329040015453586 0 0.0022420161024959812 -0.0011518403393646832 0 0.0026065793140342066 -0.0014845961165606792 0 0.0020842053004097344 -0.0016714489169952799 0 0.0022420161024959812 -0.0011518403393646832 0 0.0026065793140342066 -0.0014845961165606792 0 0.0020842053004097344 -0.0016714489169952799 0 0.0025730731234525029 -0.0020173232861978706 0 0.0018319748553327507 -0.0022197927338232365 0 0.0020842053004097344 -0.0016714489169952799 0 0.0026065793140342066 -0.0014845961165606792 0 0.0025730731234525029 -0.0020173232861978706 0 0.0025730731234525029 -0.0020173232861978706 0 0.0029608593328254882 -0.0016589823317609256 0 0.0030708755186495611 -0.0022777289294862862 0 0.0026065793140342066 -0.0014845961165606792 0 0.0025730731234525029 -0.0020173232861978706 0 0.0029608593328254882 -0.0016589823317609256 0 0.0021161673123699437 -0.0010816845083149017 0 0.0019493208400831981 -0.00069294991621617953 0 0.0029608593328254882 -0.0016589823317609256 0 0.0027817375257850863 -0.0015299358714480757 0 0.0030042300396472517 -0.00088635152550440991 0 0.0032006463652035555 -0.0018611207813546741 0 0.0030765242694314799 -0.001735470392043001 0 0.0025275544936991475 -0.00065329040015453586 0 0.0026065793140342066 -0.0014845961165606792 0 0.002995652798082673 -0.0017222819796893244 0 0.0026065793140342066 -0.0014845961165606792 0 0.0029608593328254882 -0.0016589823317609256 0 0.002995652798082673 -0.0017222819796893244 0 0.0029608593328254882 -0.0016589823317609256 0 0.002995652798082673 -0.0017222819796893244 0 0.0027817375257850863 -0.0015299358714480757 0 0.0030161554812301161 -0.0028104014481596042 0 0.0025926049134567721 -0.0023898517761446517 0 0.002995652798082673 -0.0017222819796893244 0 0.0025926049134567721 -0.0023898517761446517 0 0.002995652798082673 -0.0017222819796893244 0 0.0025906121264800959 -0.0018648978184687113 0 0.0025926049134567721 -0.0023898517761446517 0 0.0025906121264800959 -0.0018648978184687113 0 0.0021817021809414413 -0.0020729845782541311 0 0.0021086810762507057 -0.0025337993750311188 0 0.0025926049134567721 -0.0023898517761446517 0 0.0021817021809414413 -0.0020729845782541311 0 0.0025906121264800959 -0.0018648978184687113 0 0.0023956487975856353 -0.001435638482933436 0 0.0021817021809414413 -0.0020729845782541311 0 0.002995652798082673 -0.0017222819796893244 0 0.0025906121264800959 -0.0018648978184687113 0 0.0027817375257850863 -0.0015299358714480757 0 0.0025906121264800959 -0.0018648978184687113 0 0.0027817375257850863 -0.0015299358714480757 0 0.0023956487975856353 -0.001435638482933436 0 0.002029009160961129 -0.00079953554862130668 0 0.0019493208400831981 -0.00069294991621617953 0 0.0027817375257850863 -0.0015299358714480757 0 0.0023956487975856353 -0.001435638482933436 0 0.0030042300396472517 -0.00088635152550440991 0 0.0023956487975856353 -0.001435638482933436 0 0.0017384091928185519 -0.0012229595175233473 0 0.0030042300396472517 -0.00088635152550440991 0 0.0023956487975856353 -0.001435638482933436 0 0.0017384091928185519 -0.0012229595175233473 0 0.001782030638019438 -0.0017648901368372124 0 0.0011960239002602531 -0.0017244342477876055 0 0.0017384091928185519 -0.0012229595175233473 0 0.001782030638019438 -0.0017648901368372124 0 0.0013538827825919453 -0.0021024104927428234 0 0.0011960239002602531 -0.0017244342477876055 0 0.001782030638019438 -0.0017648901368372124 0 0.0023956487975856353 -0.001435638482933436 0 0.001782030638019438 -0.0017648901368372124 0 0.0021817021809414413 -0.0020729845782541311 0 0.0021086810762507057 -0.0025337993750311188 0 0.0021817021809414413 -0.0020729845782541311 0 0.0016837698570486253 -0.0023487786706851508 0 0.001782030638019438 -0.0017648901368372124 0 0.0021817021809414413 -0.0020729845782541311 0 0.0016837698570486253 -0.0023487786706851508 0 0.0013538827825919453 -0.0021024104927428234 0 0.0012287345042912171 -0.0024939567694899252 0 0.0016837698570486253 -0.0023487786706851508 0 0.0013538827825919453 -0.0021024104927428234 0 0.001782030638019438 -0.0017648901368372124 0 0.0016837698570486253 -0.0023487786706851508 0 0.002305035537546846 -0.0044405148191086243 0 0.0026295734660042622 -0.0038630084915413478 0 0.0022599690716567662 -0.0036774878224420456 0 0.0015719509931540639 -0.0040089517257727181 0 0.002305035537546846 -0.0044405148191086243 0 0.0022599690716567662 -0.0036774878224420456 0 0.00075589804267045296 -0.00091846569252672199 0 0.0017384091928185519 -0.0012229595175233473 0 0.0018361527241820257 -0.00031832734802719 0 0.0017384091928185519 -0.0012229595175233473 0 0.0018361527241820257 -0.00031832734802719 0 0.0025206965432081397 -0.00032536619369415729 0 0.0017384091928185519 -0.0012229595175233473 0 0.0025206965432081397 -0.00032536619369415729 0 0.0030168252987312011 -0.00079436960487470508 0 0.0025206965432081397 -0.00032536619369415729 0 0.0028648057982781474 0.00026019262195410044 0 0.0030168252987312011 -0.00079436960487470508 0 0.0018361527241820257 -0.00031832734802719 0 0.0025206965432081397 -0.00032536619369415729 0 0.0028648057982781474 0.00026019262195410044 0 0.0017834349613501253 -0.0021068020194006504 0 0.0019525112505671229 -0.0012122579009146101 0 0.002305035537546846 -0.0044405148191086243 0 0.003006426809936701 -0.0040310442145852152 0 0.0026295734660042622 -0.0038630084915413478 0 0.0017632839227169795 0.00078033891867766042 0 0.0018157561776646271 0.00078096673050513784 0 0.0017726190477803765 0.00067890469131219057 0 0.0017632839227169795 0.00078033891867766042 0 0.0017832041857250703 0.00078968034127524067 0 0.0018157561776646271 0.00078096673050513784 0 0.0019525112505671229 -0.0012122579009146101 0 0.0019737023338450032 -0.001177202862987785 0 0.0019525112505671229 -0.0012122579009146101 0 0.0019493208400831981 -0.00069294991621617953 0 0.0025730731234525029 -0.0020173232861978706 0 0.0030708755186495611 -0.0022777289294862862 0 0.0023414488691394396 -0.002540945696356036 0 0.0019493208400831981 -0.00069294991621617953 0 0.001835620210203484 -0.00016449059168823635 0 0.0018157561776646271 0.00078096673050513784 0 0.0017726190477803765 0.00067890469131219057 0 0.0018671237184667263 0.00071096133464024517 0 0.0025730731234525029 -0.0020173232861978706 0 0.0023414488691394396 -0.002540945696356036 0 0.0018319748553327507 -0.0022197927338232365 0 0.0018157561776646271 0.00078096673050513784 0 0.0018671237184667263 0.00071096133464024517 0 0.0018906830147856211 0.00078032138835605277 0 0.0018157561776646271 0.00078096673050513784 0 0.0018906830147856211 0.00078032138835605277 0 0.0018571161773972432 0.00082483566844163375 0 0.0018906830147856211 0.00078032138835605277 0 0.0018571161773972432 0.00082483566844163375 0 0.0019236186071680706 0.0008458358935293142 0 0.0018157561776646271 0.00078096673050513784 0 0.0018571161773972432 0.00082483566844163375 0 0.0018165209434382024 0.0008426924575989181 0 0.0018571161773972432 0.00082483566844163375 0 0.0018466281268592203 0.00087455640195731202 0 0.0018165209434382024 0.0008426924575989181 0 0.0018571161773972432 0.00082483566844163375 0 0.0018466281268592203 0.00087455640195731202 0 0.0019236186071680706 0.0008458358935293142 0 0.0015989530124023567 0.0011537909644538298 0 0.0016565682376189111 0.001126270000792303 0 0.0018466281268592203 0.00087455640195731202 0 0.0018389348472052549 0.00089407755564394954 0 0.0018336611011895391 0.0010101238160086404 0 0.0018466281268592203 0.00087455640195731202 0 0.0019236186071680706 0.0008458358935293142 0 0.0018336611011895391 0.0010101238160086404 0 0.0018466281268592203 0.00087455640195731202 0 0.0018049591481191225 0.00083719478569418753 0 0.0018389348472052549 0.00089407755564394954 0 0.0018389348472052549 0.00089407755564394954 0 0.0017860194550457034 0.00078105351783144719 0 0.0018933010391580334 0.00094513867098156067 0 0.0017746184416465728 0.00061943437414048235 0 0.0017376811486649755 0.00051195625867238878 0 0.0017860194550457034 0.00078105351783144719 0 0.0018881194322835839 0.000473751313575641 0 0.0015623235072176785 0.00026167630671251793 0 0.0018049591481191225 0.00083719478569418753 0 0.0018389348472052549 0.00089407755564394954 0 0.0017860194550457034 0.00078105351783144719 0 0.0018049591481191225 0.00083719478569418753 0 0.0018069353038447629 0.00089422478043787101 0 0.0017860194550457034 0.00078105351783144719 0 0.0018049591481191225 0.00083719478569418753 0 0.0018165209434382024 0.0008426924575989181 0 0.0018069353038447629 0.00089422478043787101 0 0.0018466281268592203 0.00087455640195731202 0 0.0018049591481191225 0.00083719478569418753 0 0.0018165209434382024 0.0008426924575989181 0 0.0017832041857250703 0.00078968034127524067 0 0.0018157561776646271 0.00078096673050513784 0 0.0017599048620440801 0.00082283609588764924 0 0.0017692536683478128 0.00078059345806377289 0 0.0017832041857250703 0.00078968034127524067 0 0.0017599048620440801 0.00082283609588764924 0 0.0017216521472071683 -0.0002297793897422268 0 0.0020609807798143121 -0.00078951572258043577 0 0.0018157561776646271 0.00078096673050513784 0 0.0018165209434382024 0.0008426924575989181 0 0.0018069353038447629 0.00089422478043787101 0 0.0026295734660042622 -0.0038630084915413478 0 0.0029433349585401667 -0.0035900856469034655 0 0.0022599690716567662 -0.0036774878224420456 0 0.0019525112505671229 -0.0012122579009146101 0 0.0020609807798143121 -0.00078951572258043577 0 0.003006426809936701 -0.0040310442145852152 0 0.0026295734660042622 -0.0038630084915413478 0 0.0029433349585401667 -0.0035900856469034655 0 0.0020609807798143121 -0.00078951572258043577 0 0.0026985483533061836 -0.0019395247683787603 0 0.0018365200114720587 0.00082159135822308812 0 0.0018881194322835839 0.000473751313575641 0 0.0020845395201005575 0.00045953003923786842 0 0.0018365200114720587 0.00082159135822308812 0 0.0021726910332855649 0.00048379818652510549 0 0.0020845395201005575 0.00045953003923786842 0 0.0020609807798143121 -0.00078951572258043577 0 0.0019657210696772173 -0.00011960717295885985 0 0.0018069353038447629 0.00089422478043787101 0 0.0017860194550457034 0.00078105351783144719 0 0.0018881194322835839 0.000473751313575641 0 0.0018239654777446553 -0.003144287904580702 0 0.0023439746911664079 -0.0029912005552014055 0 0.0022599690716567662 -0.0036774878224420456 0 0.0026642497983132393 -0.0035146032120655017 0 0.0026985483533061836 -0.0019395247683787603 0 0.0026985483533061836 -0.0019395247683787603 0 0.0026951299052890621 -0.0019124378850481764 0 0.0029433349585401667 -0.0035900856469034655 0 0.0023439746911664079 -0.0029912005552014055 0 0.0022599690716567662 -0.0036774878224420456 0 0.00056038359432248675 0.0023427820239299035 0 0.00062408703895096079 0.0022905576112092294 0 0.00054786439435911883 0.0022497767639275404 0 0.00056038359432248675 0.0023427820239299035 0 0.00054786439435911883 0.0022497767639275404 0 0.00044812931298608206 0.0022140299521852414 0 0.00056038359432248675 0.0023427820239299035 0 0.00088388123612749038 0.002253956971778394 0 0.00058059466926676097 0.0021941194085892735 0 0.00056038359432248675 0.0023427820239299035 0 0.00062408703895096079 0.0022905576112092294 0 0.00059620703078858475 0.0022853651891505218 0 0.00062408703895096079 0.0022905576112092294 0 0.00066958658281426105 0.0023154679646742544 0 0.00059620703078858475 0.0022853651891505218 0 0.00072169459188389806 0.0022776108576706426 0 0.00062408703895096079 0.0022905576112092294 0 0.00066958658281426105 0.0023154679646742544 0 0.00072169459188389806 0.0022776108576706426 0 0.00062408703895096079 0.0022905576112092294 0 0.00061788510828583558 0.0022242135053256906 0 0.00062408703895096079 0.0022905576112092294 0 0.00061788510828583558 0.0022242135053256906 0 0.00054786439435911883 0.0022497767639275404 0 0.0004999005566288698 0.0021181182913439676 0 0.00065888290397588488 0.0021298475298797354 0 0.00061788510828583558 0.0022242135053256906 0 0.00072169459188389806 0.0022776108576706426 0 0.00061788510828583558 0.0022242135053256906 0 0.00070883331146881707 0.0022139998752795267 0 0.00065888290397588488 0.0021298475298797354 0 0.00061788510828583558 0.0022242135053256906 0 0.00070883331146881707 0.0022139998752795267 0 0.0004999005566288698 0.0021181182913439676 0 0.00061788510828583558 0.0022242135053256906 0 0.00054786439435911883 0.0022497767639275404 0 0.00033824523612698514 0.0020794966477590696 0 0.0004999005566288698 0.0021181182913439676 0 0.00044812931298608206 0.0022140299521852414 0 0.0004999005566288698 0.0021181182913439676 0 0.00054786439435911883 0.0022497767639275404 0 0.00044812931298608206 0.0022140299521852414 0 0.0011880165395249031 0.00034938218714704566 0 0.0015917990085254346 0.00067521062966726503 0 0.00033824523612698514 0.0020794966477590696 0 0.00044812931298608206 0.0022140299521852414 0 0.0002781146760249573 0.0022784753125216499 0 0.001835620210203484 -0.00016449059168823635 0 0.0015917990085254346 0.00067521062966726503 0 0.0012344484854962512 -0.0020003201602555279 0 0.0018319748553327507 -0.0022197927338232365 0 0.0015727092023360228 -0.0028056234146098327 0 0.0023414488691394396 -0.002540945696356036 0 0.0018319748553327507 -0.0022197927338232365 0 0.0015727092023360228 -0.0028056234146098327 0 0.0018671237184667263 0.00071096133464024517 0 0.0018906830147856211 0.00078032138835605277 0 0.0019586074603779079 0.00074179794233891847 0 0.0015917990085254346 0.00067521062966726503 0 0.0015989530124023567 0.0011537909644538298 0 0.0018906830147856211 0.00078032138835605277 0 0.0019586074603779079 0.00074179794233891847 0 0.0019236186071680706 0.0008458358935293142 0 0.0012140938662979581 0.0010576949491751524 0 0.0015917990085254346 0.00067521062966726503 0 0.0013204283878441179 0.0026701632334313781 0 0.00088388123612749038 0.002253956971778394 0 0.0011293511100448313 0.0021052509075432128 0 0.00056038359432248675 0.0023427820239299035 0 0.0013204283878441179 0.0026701632334313781 0 0.00088388123612749038 0.002253956971778394 0 0.00056038359432248675 0.0023427820239299035 0 0.00044812931298608206 0.0022140299521852414 0 0.0002781146760249573 0.0022784753125216499 0 0.00088388123612749038 0.002253956971778394 0 0.0011293511100448313 0.0021052509075432128 0 0.00088764424487355745 0.0020009366472368293 0 0.0011293511100448313 0.0021052509075432128 0 0.0016379239360440022 0.001889201295772131 0 0.0010039288373972063 0.0016351156970632974 0 0.0011293511100448313 0.0021052509075432128 0 0.00088764424487355745 0.0020009366472368293 0 0.0010039288373972063 0.0016351156970632974 0 0.0013204283878441179 0.0026701632334313781 0 0.0011293511100448313 0.0021052509075432128 0 0.0016379239360440022 0.001889201295772131 0 0.0016379239360440022 0.001889201295772131 0 0.0013941082648130604 0.001396677734480762 0 0.0010039288373972063 0.0016351156970632974 0 0.0016379239360440022 0.001889201295772131 0 0.0013941082648130604 0.001396677734480762 0 0.0018336611011895391 0.0010101238160086404 0 0.00088764424487355745 0.0020009366472368293 0 0.0010039288373972063 0.0016351156970632974 0 0.0005287738714229122 0.0014727161564355108 0 0.0013941082648130604 0.001396677734480762 0 0.0010039288373972063 0.0016351156970632974 0 0.0010351357909878936 0.0012088521331842033 0 0.0010039288373972063 0.0016351156970632974 0 0.00065925365084173483 0.0014673043353936662 0 0.0010351357909878936 0.0012088521331842033 0 0.00077794558570271879 0.0019804844229062827 0 0.00077782706323470971 0.0020161367672922076 0 0.00088764424487355745 0.0020009366472368293 0 0.0005287738714229122 0.0014727161564355108 0 0.00058059466926676097 0.0021941194085892735 0 0.00077782706323470971 0.0020161367672922076 0 0.00075304409013108925 0.0020520164104307985 0 0.00054865616287096174 0.0024177385689953803 0 0.00058059466926676097 0.0021941194085892735 0 0.00063487733893449272 0.0023426834612244925 0 0.00056038359432248675 0.0023427820239299035 0 0.00058059466926676097 0.0021941194085892735 0 0.00059620703078858475 0.0022853651891505218 0 0.00058059466926676097 0.0021941194085892735 0 0.00059620703078858475 0.0022853651891505218 0 0.00063487733893449272 0.0023426834612244925 0 0.00088388123612749038 0.002253956971778394 0 0.00088764424487355745 0.0020009366472368293 0 0.00058059466926676097 0.0021941194085892735 0 0.00075983738477052715 0.0023930048634869792 0 0.00066958658281426105 0.0023154679646742544 0 0.00063487733893449272 0.0023426834612244925 0 0.00066958658281426105 0.0023154679646742544 0 0.00059620703078858475 0.0022853651891505218 0 0.00063487733893449272 0.0023426834612244925 0 0.00075983738477052715 0.0023930048634869792 0 0.00063487733893449272 0.0023426834612244925 0 0.00075285392775130465 0.0025108795350462908 0 0.00054865616287096174 0.0024177385689953803 0 0.00063487733893449272 0.0023426834612244925 0 0.00075285392775130465 0.0025108795350462908 0 0.00077782706323470971 0.0020161367672922076 0 0.00075268849251701963 0.0023623244176207464 0 0.0007988936271808221 0.0022349311507952009 0 0.00077877302791813088 0.0022506124955040951 0 0.00077798664083048659 0.0022204887371206627 0 0.00082015023939003813 0.0022649003699687482 0 0.0007988936271808221 0.0022349311507952009 0 0.00077877302791813088 0.0022506124955040951 0 0.0010323382992920714 0.0018051011163976833 0 0.00077479129981693022 0.002457858459730647 0 0.0007988936271808221 0.0022349311507952009 0 0.00081965842026329901 0.002204678973786324 0 0.00077798664083048659 0.0022204887371206627 0 0.00069094351839969358 0.00092288559041611847 0 0.00094002569433255471 0.00053598478619033135 0 0.00070559570403576854 0.00042737029029654944 0 0.0007988936271808221 0.0022349311507952009 0 0.00081978927274560629 0.0022351342001765973 0 0.00081965842026329901 0.002204678973786324 0 0.00088085124884098589 0.0017674342722834115 0 0.0010323382992920714 0.0018051011163976833 0 0.00077782706323470971 0.0020161367672922076 0 0.00088085124884098589 0.0017674342722834115 0 0.00065925365084173483 0.0014673043353936662 0 0.00069094351839969358 0.00092288559041611847 0 0.0010351357909878936 0.0012088521331842033 0 0.00082015023939003813 0.0022649003699687482 0 0.0007988936271808221 0.0022349311507952009 0 0.00081978927274560629 0.0022351342001765973 0 0.0013941082648130604 0.001396677734480762 0 0.0010351357909878936 0.0012088521331842033 0 0.0013880182603921681 0.0010281732325411756 0 0.0010351357909878936 0.0012088521331842033 0 0.0013880182603921681 0.0010281732325411756 0 0.0010890166691391301 0.0008139904446925044 0 0.0013880182603921681 0.0010281732325411756 0 0.0013336538850510515 0.00071091978386468666 0 0.0010890166691391301 0.0008139904446925044 0 0.00069094351839969358 0.00092288559041611847 0 0.0010351357909878936 0.0012088521331842033 0 0.0010890166691391301 0.0008139904446925044 0 0.0013941082648130604 0.001396677734480762 0 0.0013880182603921681 0.0010281732325411756 0 0.0018336611011895391 0.0010101238160086404 0 0.0013880182603921681 0.0010281732325411756 0 0.0015948195965302058 0.00081923039071590267 0 0.0018336611011895391 0.0010101238160086404 0 0.0013880182603921681 0.0010281732325411756 0 0.0015948195965302058 0.00081923039071590267 0 0.0013336538850510515 0.00071091978386468666 0 0.0015948195965302058 0.00081923039071590267 0 0.0015109472161726496 0.00064519731837233373 0 0.0016627200609401504 0.00061870931663833117 0 0.0015948195965302058 0.00081923039071590267 0 0.0015109472161726496 0.00064519731837233373 0 0.0013336538850510515 0.00071091978386468666 0 0.0015109472161726496 0.00064519731837233373 0 0.0013336538850510515 0.00071091978386468666 0 0.0014031987795450375 0.00045260080127684641 0 0.0015109472161726496 0.00064519731837233373 0 0.0015431078934862066 0.00047705738750795766 0 0.0014031987795450375 0.00045260080127684641 0 0.0013336538850510515 0.00071091978386468666 0 0.0012047236270678538 0.00054146272948992088 0 0.0014031987795450375 0.00045260080127684641 0 0.0015109472161726496 0.00064519731837233373 0 0.0015431078934862066 0.00047705738750795766 0 0.0016627200609401504 0.00061870931663833117 0 0.0015431078934862066 0.00047705738750795766 0 0.0016458459644390023 0.00039145981653280955 0 0.0016627200609401504 0.00061870931663833117 0 0.00069094351839969358 0.00092288559041611847 0 0.0010890166691391301 0.0008139904446925044 0 0.00094002569433255471 0.00053598478619033135 0 0.0013336538850510515 0.00071091978386468666 0 0.0010890166691391301 0.0008139904446925044 0 0.0012047236270678538 0.00054146272948992088 0 0.0012047236270678538 0.00054146272948992088 0 0.00094002569433255471 0.00053598478619033135 0 0.0011835565768725438 0.00033253986854249993 0 0.0010890166691391301 0.0008139904446925044 0 0.0012047236270678538 0.00054146272948992088 0 0.00094002569433255471 0.00053598478619033135 0 0.00094002569433255471 0.00053598478619033135 0 0.0011835565768725438 0.00033253986854249993 0 0.0011651413718058229 0.00028534359663761786 0 0.0011884690942534791 0.0012677840595515962 0 0.0010323382992920714 0.0018051011163976833 0 0.00094002569433255471 0.00053598478619033135 0 0.0011651413718058229 0.00028534359663761786 0 0.00070559570403576854 0.00042737029029654944 0 0.0013081334719889431 0.00038925150593913717 0 0.0011835565768725438 0.00033253986854249993 0 0.0014444301525481447 0.00023210755778801289 0 0.0012047236270678538 0.00054146272948992088 0 0.0013081334719889431 0.00038925150593913717 0 0.0011835565768725438 0.00033253986854249993 0 0.0011835565768725438 0.00033253986854249993 0 0.0011668537568554139 0.00028648245264170717 0 0.0014444301525481447 0.00023210755778801289 0 0.0012047236270678538 0.00054146272948992088 0 0.0013081334719889431 0.00038925150593913717 0 0.0014031987795450375 0.00045260080127684641 0 0.0011870520115338677 0.0012625151447513336 0 0.0011884690942534791 0.0012677840595515962 0 0.0013547227542593612 0.000250933824741179 0 0.0014444301525481447 0.00023210755778801289 0 0.0014405648451355025 8.4887306837996528e-05 0 0.0011884690942534791 0.0012677840595515962 0 0.0012513870515376265 0.0012044666412364476 0 0.0015431078934862066 0.00047705738750795766 0 0.0016458459644390023 0.00039145981653280955 0 0.0014444301525481447 0.00023210755778801289 0 0.0015431078934862066 0.00047705738750795766 0 0.0014031987795450375 0.00045260080127684641 0 0.0014444301525481447 0.00023210755778801289 0 0.0013081334719889431 0.00038925150593913717 0 0.0014031987795450375 0.00045260080127684641 0 0.0014444301525481447 0.00023210755778801289 0 0.0016458459644390023 0.00039145981653280955 0 0.0014444301525481447 0.00023210755778801289 0 0.0016431050392376617 0.00010812451584163026 0 0.0015853120175051403 8.8588503344787115e-05 0 0.0015469867705453669 3.5360279053776967e-06 0 0.0014405648451355025 8.4887306837996528e-05 0 0.0016431050392376617 0.00010812451584163026 0 0.0014886335823514941 -0.00010527543347001941 0 0.0014444301525481447 0.00023210755778801289 0 0.0014405648451355025 8.4887306837996528e-05 0 0.0016431050392376617 0.00010812451584163026 0 0.0011884690942534791 0.0012677840595515962 0 0.001199510955934436 0.00079069918198502423 0 0.0013320646214709409 0.0014217032653058655 0 0.0011916955084521385 0.0012452859568112965 0 0.0012599697686783006 0.0012208495284495645 0 0.0013547227542593612 0.000250933824741179 0 0.0014405648451355025 8.4887306837996528e-05 0 0.0013254219029159443 -3.3766075857203645e-05 0 0.0017400147581300379 0.0026968372333793498 0 0.0011900604996451089 0.0032225653715428396 0 0.00096233203095845812 0.0027410572328666694 0 0.0011900604996451089 0.0032225653715428396 0 0.0016931570847382295 0.003469776361146894 0 0.00094525483206566276 0.0036814705154032592 0 0.0017400147581300379 0.0026968372333793498 0 0.0011900604996451089 0.0032225653715428396 0 0.0016931570847382295 0.003469776361146894 0 0.0012553581569189128 0.0017505606037383453 0 0.0010323382992920714 0.0018051011163976833 0 0.0013320646214709409 0.0014217032653058655 0 0.0011916955084521385 0.0012452859568112965 0 0.0011959894976865655 0.0014702565168012239 0 0.0024559762343215499 0.00011889545713473377 0 0.0022530721396589824 -0.00014281320862765101 0 0.0021580075953109091 0.00022093897507041854 0 0.0022530721396589824 -0.00014281320862765101 0 0.0021580075953109091 0.00022093897507041854 0 0.0019721531318809384 0.00012219383467084954 0 0.0024559762343215499 0.00011889545713473377 0 0.0021876894114038047 0.00047961080382561495 0 0.0021580075953109091 0.00022093897507041854 0 0.00263052012316082 -0.0012380328480352811 0 0.0026985483533061836 -0.0019395247683787603 0 0.0020845395201005575 0.00045953003923786842 0 0.0021580075953109091 0.00022093897507041854 0 0.0019769795679261642 0.00030739884751799368 0 0.0021876894114038047 0.00047961080382561495 0 0.0020845395201005575 0.00045953003923786842 0 0.0021580075953109091 0.00022093897507041854 0 0.0021580075953109091 0.00022093897507041854 0 0.0019721531318809384 0.00012219383467084954 0 0.0019769795679261642 0.00030739884751799368 0 0.0018881194322835839 0.000473751313575641 0 0.0020845395201005575 0.00045953003923786842 0 0.0019769795679261642 0.00030739884751799368 0 0.0018881194322835839 0.000473751313575641 0 0.0019769795679261642 0.00030739884751799368 0 0.0017845169198983937 0.00024269534273738637 0 0.0019721531318809384 0.00012219383467084954 0 0.0019769795679261642 0.00030739884751799368 0 0.0017845169198983937 0.00024269534273738637 0 0.0019721531318809384 0.00012219383467084954 0 0.0017845169198983937 0.00024269534273738637 0 0.0016421311087985266 -1.4649141116490361e-05 0 0.0018156468873725016 -0.0013166130654137531 0 0.0017133392510457611 -0.00093814499301917559 0 0.0017054802062750228 -6.5414011686134856e-05 0 0.0016421311087985266 -1.4649141116490361e-05 0 0.001660351842191388 -8.9081743016728097e-05 0 0.0022530721396589824 -0.00014281320862765101 0 0.0019721531318809384 0.00012219383467084954 0 0.0016421311087985266 -1.4649141116490361e-05 0 0.0016421311087985266 -1.4649141116490361e-05 0 0.0015623235072176785 0.00026167630671251793 0 0.00152270619910269 -4.4209965874197392e-05 0 0.0017376811486649755 0.00051195625867238878 0 0.001663011056694916 0.00028840066619168696 0 0.0017845169198983937 0.00024269534273738637 0 0.0016421311087985266 -1.4649141116490361e-05 0 0.0015623235072176785 0.00026167630671251793 0 0.0018881194322835839 0.000473751313575641 0 0.0017845169198983937 0.00024269534273738637 0 0.0015623235072176785 0.00026167630671251793 0 0.0018389348472052549 0.00089407755564394954 0 0.0018933010391580334 0.00094513867098156067 0 0.0018336611011895391 0.0010101238160086404 0 0.0018933010391580334 0.00094513867098156067 0 0.0018336611011895391 0.0010101238160086404 0 0.0017936171015612526 0.00081083859409956699 0 0.0015948195965302058 0.00081923039071590267 0 0.0018336611011895391 0.0010101238160086404 0 0.0017936171015612526 0.00081083859409956699 0 0.0018933010391580334 0.00094513867098156067 0 0.0017936171015612526 0.00081083859409956699 0 0.0018741164657346996 0.0005551481109309916 0 0.0017936171015612526 0.00081083859409956699 0 0.0018741164657346996 0.0005551481109309916 0 0.0016627200609401504 0.00061870931663833117 0 0.0015948195965302058 0.00081923039071590267 0 0.0017936171015612526 0.00081083859409956699 0 0.0016627200609401504 0.00061870931663833117 0 0.0016458459644390023 0.00039145981653280955 0 0.0018741164657346996 0.0005551481109309916 0 0.0016627200609401504 0.00061870931663833117 0 0.0016458459644390023 0.00039145981653280955 0 0.0018741164657346996 0.0005551481109309916 0 0.0016431050392376617 0.00010812451584163026 0 0.00152270619910269 -4.4209965874197392e-05 0 0.0015234083700740439 -0.00010079446449034432 0 0.0015860739629553922 -9.1616074824514733e-05 0 0.001663011056694916 0.00028840066619168696 0 0.0015853120175051403 8.8588503344787115e-05 0 0.0015234083700740439 -0.00010079446449034432 0 0.0015624055108771785 -0.00011687399151965092 0 0.0015860739629553922 -9.1616074824514733e-05 0 0.0015234083700740439 -0.00010079446449034432 0 0.0015624055108771785 -0.00011687399151965092 0 0.0015282133212160857 -0.00011648329543628307 0 0.0015624055108771785 -0.00011687399151965092 0 0.0015860739629553922 -9.1616074824514733e-05 0 0.001640472216779423 -0.00014357097317538645 0 0.0016421311087985266 -1.4649141116490361e-05 0 0.00152270619910269 -4.4209965874197392e-05 0 0.0015860739629553922 -9.1616074824514733e-05 0 0.0016421311087985266 -1.4649141116490361e-05 0 0.0015860739629553922 -9.1616074824514733e-05 0 0.001660351842191388 -8.9081743016728097e-05 0 0.0015860739629553922 -9.1616074824514733e-05 0 0.001660351842191388 -8.9081743016728097e-05 0 0.001640472216779423 -0.00014357097317538645 0 0.001660351842191388 -8.9081743016728097e-05 0 0.001640472216779423 -0.00014357097317538645 0 0.001713565074505775 -0.00013324174196359352 0 0.0016839801011336137 -0.00012770015099287387 0 0.001713565074505775 -0.00013324174196359352 0 0.0017260330387300661 -0.00017406430942291552 0 0.0016359031150740768 -0.00012465869469709923 0 0.0016637714969335875 -0.00011720383957867711 0 0.0017054802062750228 -6.5414011686134856e-05 0 0.001660351842191388 -8.9081743016728097e-05 0 0.001713565074505775 -0.00013324174196359352 0 0.0017366350530943009 -0.00012380095307758541 0 0.0017054802062750228 -6.5414011686134856e-05 0 0.001713565074505775 -0.00013324174196359352 0 0.0017682439339179929 -0.0001797901369930066 0 0.0017260330387300661 -0.00017406430942291552 0 0.0016859311849634221 -0.00017957000547257968 0 0.0017315689105362622 -0.00018388038802070599 0 0.001713565074505775 -0.00013324174196359352 0 0.0017260330387300661 -0.00017406430942291552 0 0.0016839801011336137 -0.00012770015099287387 0 0.0017260330387300661 -0.00017406430942291552 0 0.0016859311849634221 -0.00017957000547257968 0 0.0016859311849634221 -0.00017957000547257968 0 0.0015988089496233953 -0.00011953489439827208 0 0.0015638224711519285 -0.00018120918825911245 0 0.0016359031150740768 -0.00012465869469709923 0 0.0015757745186413107 -0.00013979326543324391 0 0.0015624055108771785 -0.00011687399151965092 0 0.001640472216779423 -0.00014357097317538645 0 0.0015654655239949269 -0.00014743714715318842 0 0.0016839801011336137 -0.00012770015099287387 0 0.0016859311849634221 -0.00017957000547257968 0 0.0015988089496233953 -0.00011953489439827208 0 0.0015654655239949269 -0.00014743714715318842 0 0.0015282133212160857 -0.00011648329543628307 0 0.0015010120815400756 -0.00015047759626611701 0 0.0015624055108771785 -0.00011687399151965092 0 0.0015654655239949269 -0.00014743714715318842 0 0.0015282133212160857 -0.00011648329543628307 0 0.0015638224711519285 -0.00018120918825911245 0 0.0014807060198010744 -0.00014749034212587801 0 0.0014615272018474101 -0.00022839010544639939 0 0.0015988089496233953 -0.00011953489439827208 0 0.0015638224711519285 -0.00018120918825911245 0 0.0014807060198010744 -0.00014749034212587801 0 0.0015757745186413107 -0.00013979326543324391 0 0.001509569839306319 -0.00015879364882396749 0 0.0015638224711519285 -0.00018120918825911245 0 0.0015559440455312384 -0.00026711477912759549 0 0.0014615272018474101 -0.00022839010544639939 0 0.0014852672596334449 -0.00032121538588321234 0 0.001498535942302719 -0.00045487944839975422 0 0.00144923220079146 -0.00033322889774048777 0 0.0014852672596334449 -0.00032121538588321234 0 0.0015559440455312384 -0.00026711477912759549 0 0.001498535942302719 -0.00045487944839975422 0 0.0014852672596334449 -0.00032121538588321234 0 0.0015559440455312384 -0.00026711477912759549 0 0.0014615272018474101 -0.00022839010544639939 0 0.0015559440455312384 -0.00026711477912759549 0 0.0017600049574399707 -0.00025864493394711727 0 0.0016360190794464276 -0.00050365939034762016 0 0.0015559440455312384 -0.00026711477912759549 0 0.0016360190794464276 -0.00050365939034762016 0 0.001498535942302719 -0.00045487944839975422 0 0.0016859311849634221 -0.00017957000547257968 0 0.0015638224711519285 -0.00018120918825911245 0 0.0015559440455312384 -0.00026711477912759549 0 0.0016859311849634221 -0.00017957000547257968 0 0.0015559440455312384 -0.00026711477912759549 0 0.0017600049574399707 -0.00025864493394711727 0 0.0022413335701299748 -0.00036016511046726112 0 0.0017600049574399707 -0.00025864493394711727 0 0.0019775227702040891 -0.00061864565451613923 0 0.0022413335701299748 -0.00036016511046726112 0 0.0022187616599604835 0.00017324272725152386 0 0.0017600049574399707 -0.00025864493394711727 0 0.0017682439339179929 -0.0001797901369930066 0 0.0016859311849634221 -0.00017957000547257968 0 0.0017600049574399707 -0.00025864493394711727 0 0.0028585307913567594 -0.002063451534264698 0 0.0027470188531912862 -0.0014134381232424828 0 0.0013636112575698244 -0.00015215946722568259 0 0.0013254219029159443 -3.3766075857203645e-05 0 0.0013755308345845734 -0.00013700404589803708 0 0.0013755308345845734 -0.00013700404589803708 0 0.0013944318424945201 -0.00016551688691811249 0 0.0013719690802811949 -0.00015554496962235203 0 0.0013636112575698244 -0.00015215946722568259 0 0.0013755308345845734 -0.00013700404589803708 0 0.0013719690802811949 -0.00015554496962235203 0 0.0012884698897709409 0.00084136259456141194 0 0.0012886102657965416 0.00080671204417683776 0 0.0012356453660699535 0.0021659315179120286 0 0.0012076888392876298 0.0010804655525949035 0 0.00074412708877799995 0.0018107847635740275 0 0.0019148675236728475 0.0015703467650481403 0 0.0012356453660699535 0.0021659315179120286 0 0.0012076888392876298 0.0010804655525949035 0 0.0017400147581300379 0.0026968372333793498 0 0.0012356453660699535 0.0021659315179120286 0 0.00096233203095845812 0.0027410572328666694 0 0.0012884698897709409 0.00084136259456141194 0 0.001199510955934436 0.00079069918198502423 0 0.0011916955084521385 0.0012452859568112965 0 0.0011890632550331814 0.0010177912380613331 0 0.0012599697686783006 0.0012208495284495645 0 0.0012553581569189128 0.0017505606037383453 0 0.0012884698897709409 0.00084136259456141194 0 0.0017400147581300379 0.0026968372333793498 0 0.0019148675236728475 0.0015703467650481403 0 0.0012356453660699535 0.0021659315179120286 0 0.0014405648451355025 8.4887306837996528e-05 0 0.0013254219029159443 -3.3766075857203645e-05 0 0.0014886335823514941 -0.00010527543347001941 0 0.0013254219029159443 -3.3766075857203645e-05 0 0.0014886335823514941 -0.00010527543347001941 0 0.001423558603046685 -0.00012869961800937319 0 0.0013254219029159443 -3.3766075857203645e-05 0 0.001423558603046685 -0.00012869961800937319 0 0.0013755308345845734 -0.00013700404589803708 0 0.0015282133212160857 -0.00011648329543628307 0 0.0014886335823514941 -0.00010527543347001941 0 0.0015010120815400756 -0.00015047759626611701 0 0.0015234083700740439 -0.00010079446449034432 0 0.0015282133212160857 -0.00011648329543628307 0 0.0014886335823514941 -0.00010527543347001941 0 0.001509569839306319 -0.00015879364882396749 0 0.0014721753668958011 -0.000171274675506121 0 0.0015010120815400756 -0.00015047759626611701 0 0.001423558603046685 -0.00012869961800937319 0 0.0013944318424945201 -0.00016551688691811249 0 0.0014886335823514941 -0.00010527543347001941 0 0.0015010120815400756 -0.00015047759626611701 0 0.001423558603046685 -0.00012869961800937319 0 0.001423558603046685 -0.00012869961800937319 0 0.0013755308345845734 -0.00013700404589803708 0 0.0013944318424945201 -0.00016551688691811249 0 0.0013944318424945201 -0.00016551688691811249 0 0.0014141682096983626 -0.00022606296401065607 0 0.0013737344414491621 -0.00013108730895661507 0 0.0013944318424945201 -0.00016551688691811249 0 0.0014615272018474101 -0.00022839010544639939 0 0.0014141682096983626 -0.00022606296401065607 0 0.0014807060198010744 -0.00014749034212587801 0 0.0013944318424945201 -0.00016551688691811249 0 0.0014615272018474101 -0.00022839010544639939 0 0.0014615272018474101 -0.00022839010544639939 0 0.0014141682096983626 -0.00022606296401065607 0 0.00144923220079146 -0.00033322889774048777 0 0.0014852672596334449 -0.00032121538588321234 0 0.0014615272018474101 -0.00022839010544639939 0 0.00144923220079146 -0.00033322889774048777 0 0.0014141682096983626 -0.00022606296401065607 0 0.00144923220079146 -0.00033322889774048777 0 0.0014225065295324396 -0.00034402966114038163 0 0.0014141682096983626 -0.00022606296401065607 0 0.0013992267917673578 -0.00022138953645362352 0 0.0014225065295324396 -0.00034402966114038163 0 0.0014141682096983626 -0.00022606296401065607 0 0.0013992267917673578 -0.00022138953645362352 0 0.0013737344414491621 -0.00013108730895661507 0 0.0013992267917673578 -0.00022138953645362352 0 0.0013729455416690438 6.0894669408372941e-05 0 0.0013722181439691601 -0.00029766674417495303 0 0.0013992267917673578 -0.00022138953645362352 0 0.0013737344414491621 -0.00013108730895661507 0 0.0013729455416690438 6.0894669408372941e-05 0 0.0013869224017211562 -0.00020547169303177575 0 0.0013719690802811949 -0.00015554496962235203 0 0.0013729455416690438 6.0894669408372941e-05 0 0.0013944318424945201 -0.00016551688691811249 0 0.0013737344414491621 -0.00013108730895661507 0 0.0013719690802811949 -0.00015554496962235203 0 0.0012884698897709409 0.00084136259456141194 0 0.001257613363590525 0.00050728882731805797 0 0.0013737344414491621 -0.00013108730895661507 0 0.0013719690802811949 -0.00015554496962235203 0 0.0013729455416690438 6.0894669408372941e-05 0 0.0019148675236728475 0.0015703467650481403 0 0.0012076888392876298 0.0010804655525949035 0 0.0013729455416690438 6.0894669408372941e-05 0 0.0012076888392876298 0.0010804655525949035 0 0.0013729455416690438 6.0894669408372941e-05 0 0.00060313440882824119 0.00036694229570003492 0 0.0013729455416690438 6.0894669408372941e-05 0 0.00060313440882824119 0.00036694229570003492 0 0.001027451966506937 -0.00017422534649554462 0 0.00067482906663290942 0.001564707747539294 0 0.00049880494293610966 0.0013951268612396085 0 0.00067098996138433595 0.0012524246661961059 0 0.00056958318277151908 0.00091688149811387863 0 0.00050046505238955771 0.00033407861017443195 0 0.00060313440882824119 0.00036694229570003492 0 0.0007456167420293717 -0.00046488693517972941 0 0.001027451966506937 -0.00017422534649554462 0 0.00067482906663290942 0.001564707747539294 0 0.00049880494293610966 0.0013951268612396085 0 0.00049496352023478164 0.001555117888803511 0 0.00032297163348098611 0.001514507239370716 0 0.00049496352023478164 0.001555117888803511 0 0.00047916454158071763 0.0017156059789225583 0 0.00049880494293610966 0.0013951268612396085 0 0.00032297163348098611 0.001514507239370716 0 0.00031500344141175031 0.0013006802181077329 0 0.00049880494293610966 0.0013951268612396085 0 0.00032297163348098611 0.001514507239370716 0 0.00049496352023478164 0.001555117888803511 0 0.00047916454158071763 0.0017156059789225583 0 0.00020267997309629217 0.0017096378205758414 0 0.00027786541144441643 0.0020803485580493755 0 0.00032297163348098611 0.001514507239370716 0 0.00047916454158071763 0.0017156059789225583 0 0.00020267997309629217 0.0017096378205758414 0 0.0012076888392876298 0.0010804655525949035 0 0.00060313440882824119 0.00036694229570003492 0 0.00074412708877799995 0.0018107847635740275 0 0.00056958318277151908 0.00091688149811387863 0 0.00059398100647248806 0.0012454058305212028 0 0.00067482906663290942 0.001564707747539294 0 0.00049496352023478164 0.001555117888803511 0 0.00047916454158071763 0.0017156059789225583 0 0.00067482906663290942 0.001564707747539294 0 0.00047916454158071763 0.0017156059789225583 0 0.00074412708877799995 0.0018107847635740275 0 -5.9049937099556119e-05 0.0014699644008891299 0 -4.0807561419244675e-05 0.0016618437401131735 0 -0.00016281626541211861 0.0015584876741435356 0 -5.9049937099556119e-05 0.0014699644008891299 0 0.00011616590827574401 0.0015589313914682042 0 0.00014110964531940492 0.0013881164716875729 0 -5.9049937099556119e-05 0.0014699644008891299 0 0.00011616590827574401 0.0015589313914682042 0 -4.0807561419244675e-05 0.0016618437401131735 0 0.00032297163348098611 0.001514507239370716 0 0.00014110964531940492 0.0013881164716875729 0 0.00031500344141175031 0.0013006802181077329 0 0.00032297163348098611 0.001514507239370716 0 0.00011616590827574401 0.0015589313914682042 0 0.00014110964531940492 0.0013881164716875729 0 0.00032297163348098611 0.001514507239370716 0 0.00011616590827574401 0.0015589313914682042 0 0.00020267997309629217 0.0017096378205758414 0 8.7239751918300243e-05 0.0018459097194314475 0 0.00020267997309629217 0.0017096378205758414 0 -4.0807561419244675e-05 0.0016618437401131735 0 0.00011616590827574401 0.0015589313914682042 0 0.00020267997309629217 0.0017096378205758414 0 -4.0807561419244675e-05 0.0016618437401131735 0 8.7239751918300243e-05 0.0018459097194314475 0 0.00020267997309629217 0.0017096378205758414 0 0.00027786541144441643 0.0020803485580493755 0 -4.0807561419244675e-05 0.0016618437401131735 0 -7.3818154199625782e-05 0.0019515618168442263 0 -0.00044970791151990966 0.0018735492452791793 0 8.7239751918300243e-05 0.0018459097194314475 0 -4.0807561419244675e-05 0.0016618437401131735 0 -7.3818154199625782e-05 0.0019515618168442263 0 -4.0807561419244675e-05 0.0016618437401131735 0 -0.00019246328996020922 0.0016614015968450246 0 -0.00016281626541211861 0.0015584876741435356 0 -0.00059273107939317767 0.0022925326034023536 0 -0.00036359276523581665 0.0019811800139231425 0 -0.00017458753476590273 0.0023243340692184465 0 -0.00036359276523581665 0.0019811800139231425 0 0.00027786541144441643 0.0020803485580493755 0 -0.00017458753476590273 0.0023243340692184465 0 -0.00022422021447183137 0.0020536562970887851 0 -3.030430908555366e-05 0.0020784110269071862 0 8.7239751918300243e-05 0.0018459097194314475 0 -7.3818154199625782e-05 0.0019515618168442263 0 0.00027786541144441643 0.0020803485580493755 0 0.00027786541144441643 0.0020803485580493755 0 -3.9363725492010721e-05 0.0027784803715059751 0 -0.00017458753476590273 0.0023243340692184465 0 0.00027786541144441643 0.0020803485580493755 0 -3.9363725492010721e-05 0.0027784803715059751 0 0.00037131231989230871 0.0027766328043175915 0 -0.00059273107939317767 0.0022925326034023536 0 -3.9363725492010721e-05 0.0027784803715059751 0 -0.00017458753476590273 0.0023243340692184465 0 -0.0002844237745684941 0.0023441668532838862 0 -0.00016819632118512788 0.0024889186177097151 0 -0.00020893847632683356 0.0027642785139072056 0 -3.9363725492010721e-05 0.0027784803715059751 0 -0.00024479499435331041 0.0029739069307124404 0 0.00047916454158071763 0.0017156059789225583 0 0.00074412708877799995 0.0018107847635740275 0 0.0005633724053847462 0.0022774933354824324 0 0.0012356453660699535 0.0021659315179120286 0 0.00074412708877799995 0.0018107847635740275 0 0.0005633724053847462 0.0022774933354824324 0 0.00047916454158071763 0.0017156059789225583 0 0.00027786541144441643 0.0020803485580493755 0 0.0005633724053847462 0.0022774933354824324 0 0.00027786541144441643 0.0020803485580493755 0 0.0005633724053847462 0.0022774933354824324 0 0.00037131231989230871 0.0027766328043175915 0 0.0012356453660699535 0.0021659315179120286 0 0.0005633724053847462 0.0022774933354824324 0 0.00096233203095845812 0.0027410572328666694 0 0.0005633724053847462 0.0022774933354824324 0 0.00096233203095845812 0.0027410572328666694 0 0.00037131231989230871 0.0027766328043175915 0 0.0011900604996451089 0.0032225653715428396 0 0.00096233203095845812 0.0027410572328666694 0 0.00067889702309698995 0.0032096935469113079 0 0.00096233203095845812 0.0027410572328666694 0 0.00067889702309698995 0.0032096935469113079 0 0.00037131231989230871 0.0027766328043175915 0 0.0011900604996451089 0.0032225653715428396 0 0.00067889702309698995 0.0032096935469113079 0 0.00094525483206566276 0.0036814705154032592 0 0.00067889702309698995 0.0032096935469113079 0 0.00030614887153899208 0.0032461169127865502 0 0.00036807350642244793 0.0035369265933006587 0 0.00067889702309698995 0.0032096935469113079 0 0.00030614887153899208 0.0032461169127865502 0 0.00037131231989230871 0.0027766328043175915 0 0.00030614887153899208 0.0032461169127865502 0 0.00037131231989230871 0.0027766328043175915 0 -3.0672847129276219e-05 0.0031404031189017799 0 -3.9363725492010721e-05 0.0027784803715059751 0 0.00037131231989230871 0.0027766328043175915 0 -3.0672847129276219e-05 0.0031404031189017799 0 -3.9363725492010721e-05 0.0027784803715059751 0 -3.0672847129276219e-05 0.0031404031189017799 0 -0.00024479499435331041 0.0029739069307124404 0 -3.0672847129276219e-05 0.0031404031189017799 0 -0.00029796193844857082 0.0032908051779099801 0 -0.00024479499435331041 0.0029739069307124404 0 -3.0672847129276219e-05 0.0031404031189017799 0 -0.00015369428705729071 0.0034731185157736164 0 -0.00029796193844857082 0.0032908051779099801 0 -3.0672847129276219e-05 0.0031404031189017799 0 9.9522122286829778e-05 0.0034765069068890828 0 -0.00015369428705729071 0.0034731185157736164 0 0.00030614887153899208 0.0032461169127865502 0 -3.0672847129276219e-05 0.0031404031189017799 0 9.9522122286829778e-05 0.0034765069068890828 0 0.00030614887153899208 0.0032461169127865502 0 9.9522122286829778e-05 0.0034765069068890828 0 0.00036807350642244793 0.0035369265933006587 0 9.9522122286829778e-05 0.0034765069068890828 0 -6.1581423786275527e-05 0.0036720555450412687 0 0.0002176676502356514 0.0037789603423584337 0 9.9522122286829778e-05 0.0034765069068890828 0 0.0002176676502356514 0.0037789603423584337 0 0.00036807350642244793 0.0035369265933006587 0 0.0002911487925270863 0.0038192055593876876 0 0.0002176676502356514 0.0037789603423584337 0 0.00036807350642244793 0.0035369265933006587 0 9.9522122286829778e-05 0.0034765069068890828 0 -0.00015369428705729071 0.0034731185157736164 0 -6.1581423786275527e-05 0.0036720555450412687 0 -0.00015369428705729071 0.0034731185157736164 0 -6.1581423786275527e-05 0.0036720555450412687 0 -0.00025727605901050836 0.0037344570026860932 0 -6.1581423786275527e-05 0.0036720555450412687 0 -0.00017990765181189825 0.0038612647598256552 0 -0.00025727605901050836 0.0037344570026860932 0 0.00048940317379752825 0.0028950041163521875 0 0.00065564076210986998 0.0026722306019624944 0 -0.00017990765181189825 0.0038612647598256552 0 0.00028069740590220047 0.0038101160118935778 0 0.0002176676502356514 0.0037789603423584337 0 0.00095521495958741812 0.0024672674220505798 0 0.0010361119964442951 0.0025102814736041655 0 0.00091697536190964656 0.002566966191621496 0 -6.1581423786275527e-05 0.0036720555450412687 0 -0.00017990765181189825 0.0038612647598256552 0 0.0002176676502356514 0.0037789603423584337 0 0.00065564076210986998 0.0026722306019624944 0 0.00065372377941160713 0.0026780939698073012 0 0.00085486436156245618 0.0024641624113695346 0 0.00091697536190964656 0.002566966191621496 0 0.00075285392775130465 0.0025108795350462908 0 0.00065564076210986998 0.0026722306019624944 0 0.00075268849251701963 0.0023623244176207464 0 0.00085486436156245618 0.0024641624113695346 0 0.00095521495958741812 0.0024672674220505798 0 0.00091697536190964656 0.002566966191621496 0 0.00073644556167684746 0.0022364603840555369 0 0.00077877302791813088 0.0022506124955040951 0 0.00077798664083048659 0.0022204887371206627 0 0.00067889702309698995 0.0032096935469113079 0 0.00094525483206566276 0.0036814705154032592 0 0.00036807350642244793 0.0035369265933006587 0 0.0002911487925270863 0.0038192055593876876 0 0.00094525483206566276 0.0036814705154032592 0 0.00036807350642244793 0.0035369265933006587 0 0.00065564076210986998 0.0026722306019624944 0 0.00077479129981693022 0.002457858459730647 0 -0.00057174429884266752 0.0037558746142807909 0 -0.00098647106708395671 0.003568126922568964 0 -0.00075222794313105574 0.0034590397490056064 0 -0.00063951795284484787 0.0038446405934317489 0 -0.00076693065081162939 0.0038342269260012631 0 -0.00057174429884266752 0.0037558746142807909 0 -0.00053699531801102687 0.003908720426197089 0 -0.00045092969885418983 0.0038161469262360174 0 -0.00057271881112918482 0.0040953746874990392 0 -0.00055102200988803296 0.0040509364264854977 0 -0.00058744435024404775 0.0042165612628036692 0 -0.00057174429884266752 0.0037558746142807909 0 -0.00057271881112918482 0.0040953746874990392 0 -0.00055102200988803296 0.0040509364264854977 0 -0.0005214610253654725 0.0040366297628483929 0 -0.00054731441432426698 0.0039808702055673393 0 -0.00055102200988803296 0.0040509364264854977 0 -0.00057084640319807678 0.0043663181007465779 0 -0.00055102200988803296 0.0040509364264854977 0 -0.00058744435024404775 0.0042165612628036692 0 -0.00015738504222968553 0.0041043372088882596 0 -0.00028268322811859215 0.0041639081044897892 0 -0.00054731441432426698 0.0039808702055673393 0 -0.00055102200988803296 0.0040509364264854977 0 -0.00053699531801102687 0.003908720426197089 0 -0.00057174429884266752 0.0037558746142807909 0 -0.00055102200988803296 0.0040509364264854977 0 -0.00053699531801102687 0.003908720426197089 0 -0.00054731441432426698 0.0039808702055673393 0 -0.00053699531801102687 0.003908720426197089 0 -0.00045092969885418983 0.0038161469262360174 0 -0.00031294291548659357 0.0037589077205346117 0 -0.00054731441432426698 0.0039808702055673393 0 -0.00040850252966999394 0.0038261651310314247 0 -0.00054731441432426698 0.0039808702055673393 0 -0.00040850252966999394 0.0038261651310314247 0 -0.00045092969885418983 0.0038161469262360174 0 -0.00031294291548659357 0.0037589077205346117 0 -0.00040850252966999394 0.0038261651310314247 0 -0.00033800472670799845 0.003762423851554677 0 -0.00040850252966999394 0.0038261651310314247 0 -0.00045092969885418983 0.0038161469262360174 0 -0.00033800472670799845 0.003762423851554677 0 -0.00045092969885418983 0.0038161469262360174 0 -0.00033800472670799845 0.003762423851554677 0 -0.00034423558238937899 0.0036465279653385431 0 -0.00031294291548659357 0.0037589077205346117 0 -0.00017990765181189825 0.0038612647598256552 0 -0.00025727605901050836 0.0037344570026860932 0 0.00054688736175914784 0.0028931890810824754 0 0.00048940317379752825 0.0028950041163521875 0 -0.00031294291548659357 0.0037589077205346117 0 -0.00033800472670799845 0.003762423851554677 0 -0.00025727605901050836 0.0037344570026860932 0 -0.00015369428705729071 0.0034731185157736164 0 -0.00025727605901050836 0.0037344570026860932 0 -0.00034423558238937899 0.0036465279653385431 0 -0.00033800472670799845 0.003762423851554677 0 -0.00025727605901050836 0.0037344570026860932 0 -0.00034423558238937899 0.0036465279653385431 0 -0.00057174429884266752 0.0037558746142807909 0 -0.00034423558238937899 0.0036465279653385431 0 -0.00050943547893402463 0.0034183237100002101 0 -0.00057174429884266752 0.0037558746142807909 0 -0.00045092969885418983 0.0038161469262360174 0 -0.00034423558238937899 0.0036465279653385431 0 -0.00034423558238937899 0.0036465279653385431 0 -0.00050943547893402463 0.0034183237100002101 0 -0.00029796193844857082 0.0032908051779099801 0 -0.00050943547893402463 0.0034183237100002101 0 -0.00029796193844857082 0.0032908051779099801 0 -0.00045592443874869002 0.0031268676976412405 0 -0.00015369428705729071 0.0034731185157736164 0 -0.00034423558238937899 0.0036465279653385431 0 -0.00029796193844857082 0.0032908051779099801 0 -0.00029796193844857082 0.0032908051779099801 0 -0.00024479499435331041 0.0029739069307124404 0 -0.00045592443874869002 0.0031268676976412405 0 -0.00024479499435331041 0.0029739069307124404 0 -0.00045592443874869002 0.0031268676976412405 0 -0.00043183509306337199 0.0028763116316011307 0 -0.00050943547893402463 0.0034183237100002101 0 -0.00045592443874869002 0.0031268676976412405 0 -0.00072842668715248705 0.0032262035305076391 0 -0.00045592443874869002 0.0031268676976412405 0 -0.00072842668715248705 0.0032262035305076391 0 -0.00062910853396952601 0.0029998721008570712 0 -0.00072842668715248705 0.0032262035305076391 0 -0.00082756791625327678 0.0030207887391239716 0 -0.00062910853396952601 0.0029998721008570712 0 -0.00057174429884266752 0.0037558746142807909 0 -0.00050943547893402463 0.0034183237100002101 0 -0.00075222794313105574 0.0034590397490056064 0 -0.00050943547893402463 0.0034183237100002101 0 -0.00072842668715248705 0.0032262035305076391 0 -0.00075222794313105574 0.0034590397490056064 0 -0.00072842668715248705 0.0032262035305076391 0 -0.00075222794313105574 0.0034590397490056064 0 -0.00093599823431744712 0.003355133575463473 0 -0.00098647106708395671 0.003568126922568964 0 -0.00093599823431744712 0.003355133575463473 0 -0.0011266697225416642 0.0033221477753907283 0 -0.00098647106708395671 0.003568126922568964 0 -0.00075222794313105574 0.0034590397490056064 0 -0.00093599823431744712 0.003355133575463473 0 -0.00093599823431744712 0.003355133575463473 0 -0.00094867369405141273 0.0031739125699426409 0 -0.0011266697225416642 0.0033221477753907283 0 -0.00072842668715248705 0.0032262035305076391 0 -0.00093599823431744712 0.003355133575463473 0 -0.00094867369405141273 0.0031739125699426409 0 -0.00072842668715248705 0.0032262035305076391 0 -0.00094867369405141273 0.0031739125699426409 0 -0.00082756791625327678 0.0030207887391239716 0 -0.00094867369405141273 0.0031739125699426409 0 -0.00082756791625327678 0.0030207887391239716 0 -0.0010582238288777135 0.0029538387575349869 0 -0.0006707375309013522 0.0023228370768280516 0 -0.00079442864902148837 0.0022951908157516146 0 -0.0008214358704739758 0.0024037973982333379 0 -0.00082756791625327678 0.0030207887391239716 0 -0.00071073412405590344 0.0027603264187014069 0 -0.0010582238288777135 0.0029538387575349869 0 -0.00072022564605616181 0.0024424468000323941 0 -0.00096673441516063104 0.0026942113521286975 0 -0.00086121593504937053 0.0023547801708347885 0 -0.00096673441516063104 0.0026942113521286975 0 -0.00082756791625327678 0.0030207887391239716 0 -0.00062910853396952601 0.0029998721008570712 0 -0.00071073412405590344 0.0027603264187014069 0 -0.0006707375309013522 0.0023228370768280516 0 -0.00071996495845423744 0.0022542777942611112 0 -0.00064723960640964253 0.0022120466206914475 0 -0.00073458103074271609 0.0024511136701075844 0 -0.00064331930921714912 0.0020722481269978077 0 -0.0010024951871753101 0.0023202037679901349 0 -0.00079442864902148837 0.0022951908157516146 0 -0.00071996495845423744 0.0022542777942611112 0 -0.00076753785161041402 0.0021870555566056004 0 -0.0006707375309013522 0.0023228370768280516 0 -0.00079442864902148837 0.0022951908157516146 0 -0.00071996495845423744 0.0022542777942611112 0 -0.00086121593504937053 0.0023547801708347885 0 -0.00078067379616818949 0.0020130366202050988 0 -0.00020893847632683356 0.0027642785139072056 0 -0.00024479499435331041 0.0029739069307124404 0 -0.00043183509306337199 0.0028763116316011307 0 -0.00045592443874869002 0.0031268676976412405 0 -0.00062910853396952601 0.0029998721008570712 0 -0.00043183509306337199 0.0028763116316011307 0 -0.00062910853396952601 0.0029998721008570712 0 -0.00071073412405590344 0.0027603264187014069 0 -0.00043183509306337199 0.0028763116316011307 0 -0.00072022564605616181 0.0024424468000323941 0 -0.00040808630563629356 0.0020723354457479089 0 -0.0006707375309013522 0.0023228370768280516 0 -0.00051440560372641793 0.0022391826890362965 0 -0.00052682799361055386 0.00223665625709633 0 -0.00071073412405590344 0.0027603264187014069 0 -0.00043183509306337199 0.0028763116316011307 0 -0.00039076609281558824 0.0025882935072533133 0 -0.0006707375309013522 0.0023228370768280516 0 -0.00052682799361055386 0.00223665625709633 0 -0.00064723960640964253 0.0022120466206914475 0 -0.00022422021447183137 0.0020536562970887851 0 -0.00040808630563629356 0.0020723354457479089 0 -0.00059273107939317767 0.0022925326034023536 0 -0.00036359276523581665 0.0019811800139231425 0 -0.0010627137224263877 0.0018345594005134756 0 -0.00020893847632683356 0.0027642785139072056 0 -0.00043183509306337199 0.0028763116316011307 0 -0.00039076609281558824 0.0025882935072533133 0 -0.0002844237745684941 0.0023441668532838862 0 -0.00040808630563629356 0.0020723354457479089 0 -4.0807561419244675e-05 0.0016618437401131735 0 -0.00029394971164834643 0.0017872282713819292 0 -0.00019246328996020922 0.0016614015968450246 0 -0.00019818516075842312 0.0019061691009333427 0 -0.00040808630563629356 0.0020723354457479089 0 -0.00029394971164834643 0.0017872282713819292 0 -0.00019246328996020922 0.0016614015968450246 0 -0.00029828479488420951 0.0017258911154348297 0 -0.00019246328996020922 0.0016614015968450246 0 -0.00026840507917043653 0.0016495225913426301 0 -0.00025783687181051593 0.0015763424123297178 0 -0.00019246328996020922 0.0016614015968450246 0 -0.00029828479488420951 0.0017258911154348297 0 -0.00026840507917043653 0.0016495225913426301 0 -0.00031986387439285493 0.0017820162824508444 0 -0.00044867705625397151 0.0016670812181700525 0 -0.00050441393742967305 0.0017426595260886866 0 -0.0004312078296055072 0.0020506229822075351 0 -0.00059653027841246686 0.0020255703076914031 0 -0.00029828479488420951 0.0017258911154348297 0 -0.00026840507917043653 0.0016495225913426301 0 -0.00035701902872937346 0.0016169328148973167 0 -0.00029828479488420951 0.0017258911154348297 0 -0.0004471976641218855 0.0016647467693813936 0 -0.00035701902872937346 0.0016169328148973167 0 -0.00029828479488420951 0.0017258911154348297 0 -0.00031339083658544895 0.001783060702838314 0 -0.0004471976641218855 0.0016647467693813936 0 -0.00029394971164834643 0.0017872282713819292 0 -0.00029828479488420951 0.0017258911154348297 0 -0.00031339083658544895 0.001783060702838314 0 -0.00040808630563629356 0.0020723354457479089 0 -0.0004312078296055072 0.0020506229822075351 0 -0.0004312078296055072 0.0020506229822075351 0 -0.00051621772823517997 0.0018750002329326447 0 -0.0004471976641218855 0.0016647467693813936 0 -0.00035701902872937346 0.0016169328148973167 0 -0.00046880503309863829 0.0015575583900614711 0 -0.00041046011669005478 0.0014922348079047139 0 -0.00035701902872937346 0.0016169328148973167 0 -0.00046880503309863829 0.0015575583900614711 0 -0.00041046011669005478 0.0014922348079047139 0 -0.00032292385265915495 0.0015321977622093038 0 -0.00035701902872937346 0.0016169328148973167 0 -0.00041046011669005478 0.0014922348079047139 0 -0.00032292385265915495 0.0015321977622093038 0 -0.00025085304260755349 0.001437766381147785 0 -0.00032292385265915495 0.0015321977622093038 0 -0.00035701902872937346 0.0016169328148973167 0 -0.00025783687181051593 0.0015763424123297178 0 -5.9049937099556119e-05 0.0014699644008891299 0 -0.00016281626541211861 0.0015584876741435356 0 -0.00025085304260755349 0.001437766381147785 0 -0.00026840507917043653 0.0016495225913426301 0 -0.00035701902872937346 0.0016169328148973167 0 -0.00025783687181051593 0.0015763424123297178 0 -0.00025783687181051593 0.0015763424123297178 0 -0.00016281626541211861 0.0015584876741435356 0 -0.00025085304260755349 0.001437766381147785 0 -0.00032292385265915495 0.0015321977622093038 0 -0.00025783687181051593 0.0015763424123297178 0 -0.00025085304260755349 0.001437766381147785 0 -0.00019246328996020922 0.0016614015968450246 0 -0.00025783687181051593 0.0015763424123297178 0 -0.00016281626541211861 0.0015584876741435356 0 -0.00071996495845423744 0.0022542777942611112 0 -0.00076753785161041402 0.0021870555566056004 0 -0.00064723960640964253 0.0022120466206914475 0 -0.00068950894505805116 0.0017036296520079386 0 -0.00050441393742967305 0.0017426595260886866 0 -0.0005497091464876046 0.0016505466567240759 0 -0.00078067379616818949 0.0020130366202050988 0 -0.00059653027841246686 0.0020255703076914031 0 -0.00044867705625397151 0.0016670812181700525 0 -0.00050441393742967305 0.0017426595260886866 0 -0.0005497091464876046 0.0016505466567240759 0 -0.00068950894505805116 0.0017036296520079386 0 -0.0005497091464876046 0.0016505466567240759 0 -0.00057800897334736774 0.0015515187039410489 0 -0.0004471976641218855 0.0016647467693813936 0 -0.00046880503309863829 0.0015575583900614711 0 -0.00057800897334736774 0.0015515187039410489 0 -0.00044867705625397151 0.0016670812181700525 0 -0.0005497091464876046 0.0016505466567240759 0 -0.00057800897334736774 0.0015515187039410489 0 -0.00051621772823517997 0.0018750002329326447 0 -0.00055783505189968042 0.0018073941966401492 0 -0.00041046011669005478 0.0014922348079047139 0 -0.00046880503309863829 0.0015575583900614711 0 -0.0005289301222473862 0.0014409835210037775 0 -0.00046880503309863829 0.0015575583900614711 0 -0.00057800897334736774 0.0015515187039410489 0 -0.0005289301222473862 0.0014409835210037775 0 -0.00057800897334736774 0.0015515187039410489 0 -0.00063615660432481537 0.0014937479363180408 0 -0.0005289301222473862 0.0014409835210037775 0 -0.00073792375236747716 0.0020453012167927632 0 -0.00065729591695624261 0.001674808766591892 0 -0.00093267972666023476 0.0017158658894084267 0 -0.00068950894505805116 0.0017036296520079386 0 -0.00057800897334736774 0.0015515187039410489 0 -0.00063615660432481537 0.0014937479363180408 0 -0.00078067379616818949 0.0020130366202050988 0 -0.0006901881299902911 0.0016786243952964376 0 -0.00065729591695624261 0.001674808766591892 0 -0.00081551109998441733 0.0014768358566961098 0 -0.00093267972666023476 0.0017158658894084267 0 -0.00065729591695624261 0.001674808766591892 0 -0.00081551109998441733 0.0014768358566961098 0 -0.00060118009162665243 0.0013018479091759187 0 -0.0006901881299902911 0.0016786243952964376 0 -0.00065436222101197524 0.0015366121629853834 0 -0.0005289301222473862 0.0014409835210037775 0 -0.00060118009162665243 0.0013018479091759187 0 -0.00038776649958041485 0.0013579744859388342 0 -0.00063615660432481537 0.0014937479363180408 0 -0.0005289301222473862 0.0014409835210037775 0 -0.00060118009162665243 0.0013018479091759187 0 -0.00060118009162665243 0.0013018479091759187 0 -0.00042616137050993246 0.0010435159919176078 0 -0.0003774075628268407 0.0012138898070802239 0 -0.00081551109998441733 0.0014768358566961098 0 -0.00060118009162665243 0.0013018479091759187 0 -0.00086228547468332679 0.0012594493691211958 0 -0.00060118009162665243 0.0013018479091759187 0 -0.00086228547468332679 0.0012594493691211958 0 -0.00077348210932055449 0.0010897796275793484 0 -0.00077348210932055449 0.0010897796275793484 0 -0.00059407019737067518 0.00095204364433096821 0 -0.00083560888704349372 0.00087419416031796551 0 -0.00077348210932055449 0.0010897796275793484 0 -0.00083560888704349372 0.00087419416031796551 0 -0.00097997594768286936 0.0010691462439789247 0 -0.00086228547468332679 0.0012594493691211958 0 -0.00077348210932055449 0.0010897796275793484 0 -0.00097997594768286936 0.0010691462439789247 0 -0.00060118009162665243 0.0013018479091759187 0 -0.00077348210932055449 0.0010897796275793484 0 -0.00059407019737067518 0.00095204364433096821 0 -0.00060118009162665243 0.0013018479091759187 0 -0.00059407019737067518 0.00095204364433096821 0 -0.00042616137050993246 0.0010435159919176078 0 -0.00059407019737067518 0.00095204364433096821 0 -0.00042616137050993246 0.0010435159919176078 0 -0.00037871283107052524 0.00066645991144128778 0 -0.00059407019737067518 0.00095204364433096821 0 -0.00067034167070348231 0.00071103882383979379 0 -0.00037871283107052524 0.00066645991144128778 0 -0.00059407019737067518 0.00095204364433096821 0 -0.00083560888704349372 0.00087419416031796551 0 -0.00067034167070348231 0.00071103882383979379 0 -0.00020520595221337667 0.00077006572899546459 0 -0.00021050579070320838 0.00079858036145813156 0 -5.8896668477748111e-05 0.00071832836218909465 0 -0.00020520595221337667 0.00077006572899546459 0 -0.00027698330205812131 0.00084553159686320248 0 -0.00025132785447070499 0.00068271596488150724 0 -0.00020520595221337667 0.00077006572899546459 0 -0.00021050579070320838 0.00079858036145813156 0 -0.00027698330205812131 0.00084553159686320248 0 -0.0002958147625530083 0.00018121041912069877 0 -0.00026373377954830817 -7.4779419391817493e-06 0 -0.00020520595221337667 0.00077006572899546459 0 -0.0001386955923126155 0.00069270041363760668 0 -0.00017394516043050452 0.00065585365587640654 0 -0.00020520595221337667 0.00077006572899546459 0 -0.00025132785447070499 0.00068271596488150724 0 -0.00016183570684376097 0.00065616057097278287 0 -0.00026320948414478403 0.00094936968396316381 0 -0.00031670241428588829 0.00082267680183864024 0 -0.00027698330205812131 0.00084553159686320248 0 -0.00037871283107052524 0.00066645991144128778 0 -0.00025132785447070499 0.00068271596488150724 0 -0.00042616137050993246 0.0010435159919176078 0 -0.00025186592326684496 0.0009923753271324253 0 -0.00037871283107052524 0.00066645991144128778 0 -0.00042616137050993246 0.0010435159919176078 0 -0.00025186592326684496 0.0009923753271324253 0 -0.0003774075628268407 0.0012138898070802239 0 -0.00026320948414478403 0.00094936968396316381 0 -0.00017235464761309086 0.001170457125823809 0 -0.00027698330205812131 0.00084553159686320248 0 -0.00013064546882764932 0.00092845171248466323 0 -0.00017590588557132419 0.0011275850821237104 0 -0.00021050579070320838 0.00079858036145813156 0 -0.00013064546882764932 0.00092845171248466323 0 -3.5491657225520428e-05 0.0008190660832758243 0 -0.00021050579070320838 0.00079858036145813156 0 -0.00027698330205812131 0.00084553159686320248 0 -0.00013064546882764932 0.00092845171248466323 0 -0.00025186592326684496 0.0009923753271324253 0 -0.00016267332377775545 0.0012634938002942376 0 -0.0003774075628268407 0.0012138898070802239 0 -0.00060118009162665243 0.0013018479091759187 0 -0.0003774075628268407 0.0012138898070802239 0 -0.00038776649958041485 0.0013579744859388342 0 -0.00016267332377775545 0.0012634938002942376 0 -0.0003774075628268407 0.0012138898070802239 0 -0.00038776649958041485 0.0013579744859388342 0 -0.00041046011669005478 0.0014922348079047139 0 -0.00038776649958041485 0.0013579744859388342 0 -0.00025085304260755349 0.001437766381147785 0 -0.00041046011669005478 0.0014922348079047139 0 -0.0005289301222473862 0.0014409835210037775 0 -0.00038776649958041485 0.0013579744859388342 0 -0.00016267332377775545 0.0012634938002942376 0 -0.00038776649958041485 0.0013579744859388342 0 -0.00025085304260755349 0.001437766381147785 0 -5.9049937099556119e-05 0.0014699644008891299 0 -0.00016267332377775545 0.0012634938002942376 0 -0.00025085304260755349 0.001437766381147785 0 -5.9049937099556119e-05 0.0014699644008891299 0 -0.00017590588557132419 0.0011275850821237104 0 1.3315932125475063e-05 0.001255651495408646 0 -0.00011736052504248968 0.0013030796973314057 0 -0.00017235464761309086 0.001170457125823809 0 -5.9049937099556119e-05 0.0014699644008891299 0 1.3315932125475063e-05 0.001255651495408646 0 0.00014110964531940492 0.0013881164716875729 0 0.00014110964531940492 0.0013881164716875729 0 0.00015593366507212275 0.0012065373609243494 0 0.00031500344141175031 0.0013006802181077329 0 0.00015593366507212275 0.0012065373609243494 0 0.00031500344141175031 0.0013006802181077329 0 0.00029964097570882488 0.0011369774008073974 0 1.3315932125475063e-05 0.001255651495408646 0 0.00014110964531940492 0.0013881164716875729 0 0.00015593366507212275 0.0012065373609243494 0 0.00015593366507212275 0.0012065373609243494 0 0.00017849401524301219 0.0010510235460996725 0 1.2881493248020621e-05 0.0010802330107058673 0 0.00015593366507212275 0.0012065373609243494 0 0.00017849401524301219 0.0010510235460996725 0 0.00029964097570882488 0.0011369774008073974 0 0.00017849401524301219 0.0010510235460996725 0 0.00029964097570882488 0.0011369774008073974 0 0.00035757139065558242 0.00097458403955786742 0 0.00017849401524301219 0.0010510235460996725 0 1.2881493248020621e-05 0.0010802330107058673 0 4.699032711660985e-05 0.00092817358397594087 0 -0.00013064546882764932 0.00092845171248466323 0 -0.00017590588557132419 0.0011275850821237104 0 1.2881493248020621e-05 0.0010802330107058673 0 -0.00017590588557132419 0.0011275850821237104 0 1.3315932125475063e-05 0.001255651495408646 0 1.2881493248020621e-05 0.0010802330107058673 0 1.3315932125475063e-05 0.001255651495408646 0 0.00015593366507212275 0.0012065373609243494 0 1.2881493248020621e-05 0.0010802330107058673 0 0.00049880494293610966 0.0013951268612396085 0 0.00067098996138433595 0.0012524246661961059 0 0.00047168227499245921 0.0011819877703931067 0 0.00049880494293610966 0.0013951268612396085 0 0.00047168227499245921 0.0011819877703931067 0 0.00031500344141175031 0.0013006802181077329 0 0.00047168227499245921 0.0011819877703931067 0 0.00031500344141175031 0.0013006802181077329 0 0.00029964097570882488 0.0011369774008073974 0 0.00047168227499245921 0.0011819877703931067 0 0.00052571376121125324 0.00099530372205617994 0 0.00034811096379439027 0.0009089069571395741 0 0.00047168227499245921 0.0011819877703931067 0 0.00029964097570882488 0.0011369774008073974 0 0.00035757139065558242 0.00097458403955786742 0 0.00039272469259632697 0.00079997861777043704 0 0.00032418228041123477 0.00061160547888141801 0 0.0007456167420293717 -0.00046488693517972941 0 0.00075841446055455685 -0.0010853991419940113 0 0.0010302503362796967 -0.00062819442040510883 0 0.00067098996138433595 0.0012524246661961059 0 0.00052571376121125324 0.00099530372205617994 0 0.00068310258798839874 0.00088493386353458755 0 0.00050046505238955771 0.00033407861017443195 0 0.00033836903284206635 -0.00047368205127275504 0 0.00067098996138433595 0.0012524246661961059 0 0.00047168227499245921 0.0011819877703931067 0 0.00052571376121125324 0.00099530372205617994 0 0.00033836903284206635 -0.00047368205127275504 0 7.8199800984311065e-05 -0.0012368500150824375 0 0.00016783553406141341 -0.00060017377690506975 0 9.6086768195578371e-05 -0.00063923856549189765 0 0.00016937161274726721 -0.00072483657524454142 0 0.00052571376121125324 0.00099530372205617994 0 0.00068310258798839874 0.00088493386353458755 0 0.00045863493807484721 0.00075811802138278932 0 0.00033836903284206635 -0.00047368205127275504 0 0.00026676953788302673 -0.00017973465589627704 0 0.00045863493807484721 0.00075811802138278932 0 0.00034811096379439027 0.0009089069571395741 0 0.00022747936953026806 0.00063055096100263425 0 0.00032418228041123477 0.00061160547888141801 0 0.00011283084624896958 1.9131454004663291e-05 0 0.00052571376121125324 0.00099530372205617994 0 0.00045863493807484721 0.00075811802138278932 0 0.00034811096379439027 0.0009089069571395741 0 0.00026676953788302673 -0.00017973465589627704 0 0.00011283084624896958 1.9131454004663291e-05 0 8.4682994222814686e-05 -0.00071831528325624872 0 2.4588448993221003e-05 -0.00067806044036103591 0 -8.5238115066740159e-06 -0.00075416755043464755 0 9.6086768195578371e-05 -0.00063923856549189765 0 8.4682994222814686e-05 -0.00071831528325624872 0 2.4588448993221003e-05 -0.00067806044036103591 0 -0.00075491230312793535 -0.001456842069482328 0 -0.00074756052821840291 -0.0020637143174719375 0 -0.00054089365758812845 -0.0018980841884664033 0 9.6086768195578371e-05 -0.00063923856549189765 0 8.4682994222814686e-05 -0.00071831528325624872 0 0.00016937161274726721 -0.00072483657524454142 0 -3.5491657225520428e-05 0.0008190660832758243 0 4.699032711660985e-05 0.00092817358397594087 0 9.9790550113779987e-05 0.00081683376479852507 0 -0.00013064546882764932 0.00092845171248466323 0 -3.5491657225520428e-05 0.0008190660832758243 0 4.699032711660985e-05 0.00092817358397594087 0 -0.00013064546882764932 0.00092845171248466323 0 1.2881493248020621e-05 0.0010802330107058673 0 4.699032711660985e-05 0.00092817358397594087 0 0.00017849401524301219 0.0010510235460996725 0 4.699032711660985e-05 0.00092817358397594087 0 0.00019860518348063376 0.00091749858703932578 0 0.00035757139065558242 0.00097458403955786742 0 0.00019860518348063376 0.00091749858703932578 0 0.00025611891716239297 0.00076597958020796692 0 0.00017849401524301219 0.0010510235460996725 0 0.00035757139065558242 0.00097458403955786742 0 0.00019860518348063376 0.00091749858703932578 0 0.00019860518348063376 0.00091749858703932578 0 9.9790550113779987e-05 0.00081683376479852507 0 0.00025611891716239297 0.00076597958020796692 0 4.699032711660985e-05 0.00092817358397594087 0 0.00019860518348063376 0.00091749858703932578 0 9.9790550113779987e-05 0.00081683376479852507 0 9.9790550113779987e-05 0.00081683376479852507 0 0.00025611891716239297 0.00076597958020796692 0 3.2344512737742429e-05 0.00065114155010551457 0 0.00011283084624896958 1.9131454004663291e-05 0 -0.0001303340304692613 -5.6214946915602198e-05 0 -0.00016453894482348382 -0.0001372695721256919 0 1.8745067084470392e-05 -3.8141602369426833e-05 0 -9.5937235450984691e-05 2.1087951700819693e-05 0 0.00011283084624896958 1.9131454004663291e-05 0 -7.1465617867862445e-05 -0.00037019738040000995 0 -0.0001303340304692613 -5.6214946915602198e-05 0 -7.1465617867862445e-05 -0.00037019738040000995 0 -0.00020520595221337667 0.00077006572899546459 0 -5.8896668477748111e-05 0.00071832836218909465 0 -0.0001386955923126155 0.00069270041363760668 0 -0.00021050579070320838 0.00079858036145813156 0 -3.5491657225520428e-05 0.0008190660832758243 0 3.2344512737742429e-05 0.00065114155010551457 0 -0.0001303340304692613 -5.6214946915602198e-05 0 -0.00021424000367762226 -8.2364898348828011e-05 0 -0.0002459695665531738 0.00013968523538254035 0 -0.0001303340304692613 -5.6214946915602198e-05 0 -3.5491657225520428e-05 0.0008190660832758243 0 9.9790550113779987e-05 0.00081683376479852507 0 3.2344512737742429e-05 0.00065114155010551457 0 -5.8896668477748111e-05 0.00071832836218909465 0 -0.0001386955923126155 0.00069270041363760668 0 -0.00012223206580166761 0.00068412206379166065 0 -0.00021571029884798849 -7.9805073104230879e-05 0 -0.00021424000367762226 -8.2364898348828011e-05 0 -0.00021424000367762226 -8.2364898348828011e-05 0 -0.00010485368936028876 -0.00039885752761485981 0 -0.00017561784396994079 -0.00023458038884030001 0 -0.00021395775921038965 -0.00021514016547838219 0 -0.00016509179095445289 -0.00020877540794549281 0 -0.0001386955923126155 0.00069270041363760668 0 -0.00012168286986523681 0.00068381717849025987 0 -0.00017394516043050452 0.00065585365587640654 0 -0.00011337970130132085 -0.00029611561093135233 0 -4.3716494276466368e-05 -0.00025818430807805591 0 -0.00018145871344839927 -0.00018777375407102849 0 -0.00021424000367762226 -8.2364898348828011e-05 0 -0.00026373377954830817 -7.4779419391817493e-06 0 -0.00017561784396994079 -0.00023458038884030001 0 -0.00016006158025599085 -0.00022616811613134191 0 -0.00016509179095445289 -0.00020877540794549281 0 -0.00010485368936028876 -0.00039885752761485981 0 -4.5185787426193729e-05 -0.00087543102002519242 0 -0.00011337970130132085 -0.00029611561093135233 0 -0.00020744729379571899 -0.00024768618921585886 0 -0.00018145871344839927 -0.00018777375407102849 0 -0.00021840199457163041 -0.0007918250584223219 0 -0.00025400978471955315 -0.00087390931787562456 0 -7.7319024070149488e-06 -0.00090214304871768895 0 -7.1465617867862445e-05 -0.00037019738040000995 0 -0.00010485368936028876 -0.00039885752761485981 0 -0.00013986250785695981 6.3101299783209832e-06 0 -2.7200142826310556e-05 -0.00024966814168919557 0 0.00017276324646154677 -0.00015230079355347523 0 -0.00013986250785695981 6.3101299783209832e-06 0 -2.7200142826310556e-05 -0.00024966814168919557 0 -0.00031004378155028041 -0.00038530099639782708 0 -0.00021395775921038965 -0.00021514016547838219 0 -0.00018845613355943517 -0.00015607504645612214 0 -0.00016509179095445289 -0.00020877540794549281 0 -0.00017997269721812184 -0.00015747817952406568 0 -0.00018845613355943517 -0.00015607504645612214 0 -0.00016509179095445289 -0.00020877540794549281 0 -0.00027233913892460172 -0.00013580766757512416 0 -0.00026641094715894618 3.0845009053180499e-06 0 -0.00010485368936028876 -0.00039885752761485981 0 -0.00022420481294512784 -0.00019042668951257868 0 0.00016937161274726721 -0.00072483657524454142 0 8.0865211434105662e-05 -0.00080184542059273157 0 0.00017104727892941628 -0.00085007491889717843 0 7.8199800984311065e-05 -0.0012368500150824375 0 3.509472142457579e-06 -0.0015749557512657068 0 -0.00074756052821840291 -0.0020637143174719375 0 -0.00064772816498060988 -0.0023573273871777133 0 -0.00073741505877655139 -0.0026582368192827944 0 8.4682994222814686e-05 -0.00071831528325624872 0 0.00016937161274726721 -0.00072483657524454142 0 8.0865211434105662e-05 -0.00080184542059273157 0 -2.1732249773244186e-05 -0.0009562156258027363 0 3.509472142457579e-06 -0.0015749557512657068 0 -0.00011177839660704457 -0.0019489135827889797 0 -6.6491529500427687e-05 -0.0017539890960379303 0 8.4682994222814686e-05 -0.00071831528325624872 0 -8.5238115066740159e-06 -0.00075416755043464755 0 8.0865211434105662e-05 -0.00080184542059273157 0 -0.00025400978471955315 -0.00087390931787562456 0 -7.7319024070149488e-06 -0.00090214304871768895 0 -2.4943169788434802e-05 -0.00099313448781992671 0 -7.1465617867862445e-05 -0.00037019738040000995 0 -2.1732249773244186e-05 -0.0009562156258027363 0 -7.7319024070149488e-06 -0.00090214304871768895 0 -2.4943169788434802e-05 -0.00099313448781992671 0 0.00020368057310154043 -0.0010127091223144995 0 -2.7200142826310556e-05 -0.00024966814168919557 0 0.00017276324646154677 -0.00015230079355347523 0 0.0001691135486777626 -0.00046770789607615868 0 0.00017276324646154677 -0.00015230079355347523 0 0.00034204197802923975 -0.0004257956786511596 0 0.0001691135486777626 -0.00046770789607615868 0 -4.5185787426193729e-05 -0.00087543102002519242 0 9.617348340854972e-06 -0.0014958767263530356 0 -2.4943169788434802e-05 -0.00099313448781992671 0 0.00020493552835469024 -0.0011126460636533906 0 0.00020368057310154043 -0.0010127091223144995 0 0.00017276324646154677 -0.00015230079355347523 0 0.00049235837260135486 -0.00031317945895683176 0 0.00034204197802923975 -0.0004257956786511596 0 -3.741432363525788e-05 -0.0015854016301658353 0 -1.9411664583343033e-05 -0.0015946357918600826 0 -3.7491108553467333e-05 -0.0016264135381855471 0 9.617348340854972e-06 -0.0014958767263530356 0 3.509472142457579e-06 -0.0015749557512657068 0 -2.4804443725202376e-05 -0.0017104305928496437 0 -6.6491529500427687e-05 -0.0017539890960379303 0 -2.4804443725202376e-05 -0.0017104305928496437 0 9.617348340854972e-06 -0.0014958767263530356 0 -0.00064772816498060988 -0.0023573273871777133 0 -0.0006457599318966243 -0.0027050975937069521 0 -0.00073741505877655139 -0.0026582368192827944 0 -1.9411664583343033e-05 -0.0015946357918600826 0 -3.7491108553467333e-05 -0.0016264135381855471 0 -1.897495149942469e-05 -0.0016359832301353543 0 -6.6491529500427687e-05 -0.0017539890960379303 0 3.509472142457579e-06 -0.0015749557512657068 0 0.00055040450303675472 -0.00034733799946702582 0 0.00049855925716123207 -0.00053688809729265084 0 0.00056473658811960752 -0.00077769293111592814 0 -2.4804443725202376e-05 -0.0017104305928496437 0 6.5743068434449768e-05 -0.0021648784912342736 0 9.617348340854972e-06 -0.0014958767263530356 0 4.1152906233813071e-05 -0.0012448548862252673 0 0.00049235837260135486 -0.00031317945895683176 0 0.00049855925716123207 -0.00053688809729265084 0 0.00034204197802923975 -0.0004257956786511596 0 0.00055040450303675472 -0.00034733799946702582 0 0.0004905455731605326 -0.00031727440939980452 0 0.00049855925716123207 -0.00053688809729265084 0 0.00049855925716123207 -0.00053688809729265084 0 0.00034204197802923975 -0.0004257956786511596 0 0.00035054582645496145 -0.00066647598169249837 0 0.00034204197802923975 -0.0004257956786511596 0 0.0001691135486777626 -0.00046770789607615868 0 0.00035054582645496145 -0.00066647598169249837 0 0.00014178980469607241 -0.00085514283092853359 0 0.00035054582645496145 -0.00066647598169249837 0 0.00035701375247560303 -0.00095134244637471452 0 0.0001691135486777626 -0.00046770789607615868 0 0.00014178980469607241 -0.00085514283092853359 0 -5.9898689325114982e-05 -0.00074751780707782607 0 0.0001691135486777626 -0.00046770789607615868 0 0.00014178980469607241 -0.00085514283092853359 0 0.00035054582645496145 -0.00066647598169249837 0 0.00035054582645496145 -0.00066647598169249837 0 0.00056473658811960752 -0.00077769293111592814 0 0.00035701375247560303 -0.00095134244637471452 0 0.00049855925716123207 -0.00053688809729265084 0 0.00035054582645496145 -0.00066647598169249837 0 0.00056473658811960752 -0.00077769293111592814 0 -0.00035440891757794062 -0.00045984961076438028 0 -0.00016540660607487846 -0.0005670938078085147 0 -0.00026354984093336414 -0.00076142675567360827 0 -0.00023050678862816058 0.00011303575312927097 0 -0.00042227770250921663 -0.00034559071329322381 0 -0.00045959025109225052 -2.7761807311619777e-05 0 -0.00026010317871420687 -0.00023820457910944009 0 -0.00021446938877937817 -0.00055639733231417805 0 -0.00026010317871420687 -0.00023820457910944009 0 -0.00037630231369869041 -0.00042836288992949186 0 -0.00023050678862816058 0.00011303575312927097 0 -0.00027394011121204573 0.00025816874376690036 0 -0.00045959025109225052 -2.7761807311619777e-05 0 -0.00026010317871420687 -0.00023820457910944009 0 -0.00027233913892460172 -0.00013580766757512416 0 -0.00020455859658645981 3.4164081733438512e-06 0 -0.00010188924258517443 -0.00034719089748271438 0 -0.00033920954439914749 -0.00030699183073040965 0 -0.00026010317871420687 -0.00023820457910944009 0 -0.00022420481294512784 -0.00019042668951257868 0 -0.00035440891757794062 -0.00045984961076438028 0 -0.00032214789645662703 -0.00038391350993867565 0 -0.00016540660607487846 -0.0005670938078085147 0 -0.00027233913892460172 -0.00013580766757512416 0 -0.00022420481294512784 -0.00019042668951257868 0 0.0001691135486777626 -0.00046770789607615868 0 -0.00016540660607487846 -0.0005670938078085147 0 -5.9898689325114982e-05 -0.00074751780707782607 0 0.0001691135486777626 -0.00046770789607615868 0 -0.00032214789645662703 -0.00038391350993867565 0 -0.00016540660607487846 -0.0005670938078085147 0 -2.7200142826310556e-05 -0.00024966814168919557 0 0.0001691135486777626 -0.00046770789607615868 0 -0.00031004378155028041 -0.00038530099639782708 0 -3.7936560357607365e-05 -0.00028339877391004182 0 -0.00022420481294512784 -0.00019042668951257868 0 -5.9898689325114982e-05 -0.00074751780707782607 0 -0.00026354984093336414 -0.00076142675567360827 0 -0.00018733958538970095 -0.0010458699119434318 0 -0.00016540660607487846 -0.0005670938078085147 0 -5.9898689325114982e-05 -0.00074751780707782607 0 -0.00026354984093336414 -0.00076142675567360827 0 -0.00039490547913467982 -0.000263786195736231 0 -0.00028836806372705261 -0.00062447450081853874 0 -0.0005326458308547306 -0.00058159701259651248 0 -0.00028836806372705261 -0.00062447450081853874 0 -0.0005326458308547306 -0.00058159701259651248 0 -0.00044076977546876329 -0.00085065420567957098 0 -0.00042227770250921663 -0.00034559071329322381 0 -0.00079912126763314435 -0.00048755337352001299 0 -0.00066050397713131922 -0.00085440304101685766 0 -0.00037630231369869041 -0.00042836288992949186 0 -0.00043834568977955751 -0.00054642822735169612 0 -0.00079912126763314435 -0.00048755337352001299 0 -0.00066613851373992911 -0.00022115886056438974 0 -0.0010409706923615162 -0.00026110609287390826 0 -0.00042227770250921663 -0.00034559071329322381 0 -0.00066613851373992911 -0.00022115886056438974 0 -0.00045959025109225052 -2.7761807311619777e-05 0 -0.00042227770250921663 -0.00034559071329322381 0 -0.00079912126763314435 -0.00048755337352001299 0 -0.00066613851373992911 -0.00022115886056438974 0 -0.00066613851373992911 -0.00022115886056438974 0 -0.00045959025109225052 -2.7761807311619777e-05 0 -0.00070718734771581552 5.1044574609567753e-05 0 -0.00027394011121204573 0.00025816874376690036 0 -0.00070718734771581552 5.1044574609567753e-05 0 -0.0010426593610795105 0.00038964564363569079 0 -0.00066613851373992911 -0.00022115886056438974 0 -0.00070718734771581552 5.1044574609567753e-05 0 -0.0010409706923615162 -0.00026110609287390826 0 -0.00027394011121204573 0.00025816874376690036 0 -0.00045959025109225052 -2.7761807311619777e-05 0 -0.00070718734771581552 5.1044574609567753e-05 0 -0.00070718734771581552 5.1044574609567753e-05 0 -0.0012179692447266094 5.4021992759845688e-05 0 -0.0010409706923615162 -0.00026110609287390826 0 -0.00070718734771581552 5.1044574609567753e-05 0 -0.0012179692447266094 5.4021992759845688e-05 0 -0.0010426593610795105 0.00038964564363569079 0 -0.0012179692447266094 5.4021992759845688e-05 0 -0.001540448723181058 0.00022361788942082479 0 -0.0010426593610795105 0.00038964564363569079 0 -0.0012179692447266094 5.4021992759845688e-05 0 -0.0010409706923615162 -0.00026110609287390826 0 -0.0013329934652594902 -0.00019647452445996889 0 -0.0010409706923615162 -0.00026110609287390826 0 -0.0013327718970095933 -0.00044599886446368002 0 -0.0013329934652594902 -0.00019647452445996889 0 -0.00079912126763314435 -0.00048755337352001299 0 -0.0010409706923615162 -0.00026110609287390826 0 -0.0011079382012267897 -0.00056868083965986682 0 -0.0010409706923615162 -0.00026110609287390826 0 -0.0011079382012267897 -0.00056868083965986682 0 -0.0013327718970095933 -0.00044599886446368002 0 -0.0011079382012267897 -0.00056868083965986682 0 -0.0013327718970095933 -0.00044599886446368002 0 -0.0013691909178918215 -0.00065151048928263795 0 -0.0013327718970095933 -0.00044599886446368002 0 -0.0015012566533602436 -0.00055336278220033321 0 -0.0013691909178918215 -0.00065151048928263795 0 -0.0013327718970095933 -0.00044599886446368002 0 -0.0015012566533602436 -0.00055336278220033321 0 -0.0015136609185894148 -0.00035190516284704185 0 -0.0015012566533602436 -0.00055336278220033321 0 -0.0016446737935498486 -0.00062780592039154482 0 -0.0015136609185894148 -0.00035190516284704185 0 -0.0016446737935498486 -0.00062780592039154482 0 -0.0015136609185894148 -0.00035190516284704185 0 -0.0016473789318106082 -0.00013346812865640704 0 -0.0015136609185894148 -0.00035190516284704185 0 -0.0016473789318106082 -0.00013346812865640704 0 -0.0015186371043060191 -4.7714340905663722e-05 0 -0.0015136609185894148 -0.00035190516284704185 0 -0.0013329934652594902 -0.00019647452445996889 0 -0.0015186371043060191 -4.7714340905663722e-05 0 -0.0013327718970095933 -0.00044599886446368002 0 -0.0015136609185894148 -0.00035190516284704185 0 -0.0013329934652594902 -0.00019647452445996889 0 -0.0016446737935498486 -0.00062780592039154482 0 -0.0016473789318106082 -0.00013346812865640704 0 -0.0019027420915233117 0.00025145400766921164 0 -0.0019328437339050804 0.00031256210115517588 0 -0.0019132336923964326 0.00027551245759411939 0 -0.0019027420915233117 0.00025145400766921164 0 -0.00176125750439566 -2.5105345355012838e-05 0 -0.0018083488365465924 7.1594365452353498e-05 0 -0.0019043528541640203 0.00030947208869225751 0 -0.0019142978995418415 0.00030006585759748204 0 -0.0019057645019035945 0.00029525916311607168 0 -0.0019043528541640203 0.00030947208869225751 0 -0.0019148931365830907 0.00031286779410438591 0 -0.0019043197547295027 0.00032029505555186699 0 -0.0019043528541640203 0.00030947208869225751 0 -0.0019148931365830907 0.00031286779410438591 0 -0.0019142978995418415 0.00030006585759748204 0 -0.0019328437339050804 0.00031256210115517588 0 -0.0019142978995418415 0.00030006585759748204 0 -0.0019132336923964326 0.00027551245759411939 0 -0.0019328437339050804 0.00031256210115517588 0 -0.0019148931365830907 0.00031286779410438591 0 -0.0019142978995418415 0.00030006585759748204 0 -0.0019142978995418415 0.00030006585759748204 0 -0.0019132336923964326 0.00027551245759411939 0 -0.0019057645019035945 0.00029525916311607168 0 -0.0019132336923964326 0.00027551245759411939 0 -0.0019057645019035945 0.00029525916311607168 0 -0.0019025088966329077 0.00028502629561662793 0 -0.0019132336923964326 0.00027551245759411939 0 -0.0019181524614968455 0.00024640431171395102 0 -0.0019027420915233117 0.00025145400766921164 0 -0.0019132336923964326 0.00027551245759411939 0 -0.0019074940843068499 0.00027008264019170932 0 -0.0019025088966329077 0.00028502629561662793 0 -0.0019132336923964326 0.00027551245759411939 0 -0.0019074940843068499 0.00027008264019170932 0 -0.0019181524614968455 0.00024640431171395102 0 -0.0016473789318106082 -0.00013346812865640704 0 -0.0019027420915233117 0.00025145400766921164 0 -0.0016762479877012076 0.00010107846586645629 0 -0.0019027420915233117 0.00025145400766921164 0 -0.0017332954923950283 0.00026369077323345363 0 -0.0016762479877012076 0.00010107846586645629 0 -0.0012179692447266094 5.4021992759845688e-05 0 -0.0013329934652594902 -0.00019647452445996889 0 -0.0015186371043060191 -4.7714340905663722e-05 0 -0.0012179692447266094 5.4021992759845688e-05 0 -0.0015186371043060191 -4.7714340905663722e-05 0 -0.001540448723181058 0.00022361788942082479 0 -0.0015186371043060191 -4.7714340905663722e-05 0 -0.0016762479877012076 0.00010107846586645629 0 -0.001540448723181058 0.00022361788942082479 0 -0.0016473789318106082 -0.00013346812865640704 0 -0.0015186371043060191 -4.7714340905663722e-05 0 -0.0016762479877012076 0.00010107846586645629 0 -0.0017332954923950283 0.00026369077323345363 0 -0.0016762479877012076 0.00010107846586645629 0 -0.001540448723181058 0.00022361788942082479 0 -0.0006924306919994127 0.00044553201319776255 0 -0.00037871283107052524 0.00066645991144128778 0 -0.00035580756189995769 0.00040151796205829137 0 -0.001189281853135002 0.00036581563666358342 0 -0.00073002754746772194 0.00018837355086763751 0 -0.001540448723181058 0.00022361788942082479 0 -0.0017805454461887159 0.00049393877671074777 0 -0.0010426593610795105 0.00038964564363569079 0 -0.0017332954923950283 0.00026369077323345363 0 -0.001540448723181058 0.00022361788942082479 0 -0.0017805454461887159 0.00049393877671074777 0 -0.0006924306919994127 0.00044553201319776255 0 -0.00085301194832270908 0.00063821949734684761 0 -0.0010620465259933718 0.00050026293756416532 0 -0.0019027420915233117 0.00025145400766921164 0 -0.0017805454461887159 0.00049393877671074777 0 -0.0022186009466527027 0.00052623734819446657 0 -0.0019027420915233117 0.00025145400766921164 0 -0.0017332954923950283 0.00026369077323345363 0 -0.0017805454461887159 0.00049393877671074777 0 -0.00083560888704349372 0.00087419416031796551 0 -0.00067034167070348231 0.00071103882383979379 0 -0.00085301194832270908 0.00063821949734684761 0 -0.0006924306919994127 0.00044553201319776255 0 -0.00067034167070348231 0.00071103882383979379 0 -0.00085301194832270908 0.00063821949734684761 0 -0.0006924306919994127 0.00044553201319776255 0 -0.00067034167070348231 0.00071103882383979379 0 -0.00037871283107052524 0.00066645991144128778 0 -0.00037871283107052524 0.00066645991144128778 0 -0.00025670333037737292 0.00055139593613945479 0 -0.00035580756189995769 0.00040151796205829137 0 -0.00037871283107052524 0.00066645991144128778 0 -0.00025132785447070499 0.00068271596488150724 0 -0.00025670333037737292 0.00055139593613945479 0 -0.00025132785447070499 0.00068271596488150724 0 -0.00016183570684376097 0.00065616057097278287 0 -0.00013546588844058743 0.00058368566234125467 0 -0.00026373377954830817 -7.4779419391817493e-06 0 -0.00026641094715894618 3.0845009053180499e-06 0 -0.00013546588844058743 0.00058368566234125467 0 -0.00025670333037737292 0.00055139593613945479 0 -0.00020199194878526395 0.00047530827945315205 0 -0.00025132785447070499 0.00068271596488150724 0 -0.00013546588844058743 0.00058368566234125467 0 -0.00025670333037737292 0.00055139593613945479 0 -6.4592438590308393e-05 0.00036065768572910871 0 -0.00013546588844058743 0.00058368566234125467 0 -0.00020199194878526395 0.00047530827945315205 0 -6.4592438590308393e-05 0.00036065768572910871 0 -0.00020199194878526395 0.00047530827945315205 0 -0.00035580756189995769 0.00040151796205829137 0 -0.00025670333037737292 0.00055139593613945479 0 -0.00020199194878526395 0.00047530827945315205 0 -0.00035580756189995769 0.00040151796205829137 0 -0.00027233913892460172 -0.00013580766757512416 0 -0.00073002754746772194 0.00018837355086763751 0 0.0023222771519952131 -0.0013291541829751089 0 0.0020678452549847321 -0.0017185796897407218 0 0.0019475582296211002 -0.0013220923073353206 0 0.0020678452549847321 -0.0017185796897407218 0 0.0017277004200556591 -0.0017240786263775219 0 0.0019475582296211002 -0.0013220923073353206 0 0.0017277004200556591 -0.0017240786263775219 0 0.0015380630607172931 -0.0013039375196496326 0 0.0012184874114954342 -0.0018505490810403339 0 0.0017277004200556591 -0.0017240786263775219 0 0.0015380630607172931 -0.0013039375196496326 0 0.0019475582296211002 -0.0013220923073353206 0 0.0015380630607172931 -0.0013039375196496326 0 0.0019475582296211002 -0.0013220923073353206 0 0.0018284980769769997 -0.0009327890434478889 0 0.0015380630607172931 -0.0013039375196496326 0 0.0018284980769769997 -0.0009327890434478889 0 0.0015193722842775546 -0.00075807241399540419 0 0.0023222771519952131 -0.0013291541829751089 0 0.0019475582296211002 -0.0013220923073353206 0 0.0021552459555702827 -0.00098174502044091698 0 0.0019475582296211002 -0.0013220923073353206 0 0.0021552459555702827 -0.00098174502044091698 0 0.0018284980769769997 -0.0009327890434478889 0 0.0021552459555702827 -0.00098174502044091698 0 0.0019775227702040891 -0.00061864565451613923 0 0.0018284980769769997 -0.0009327890434478889 0 0.0023072907618172092 -0.00072904891621182813 0 0.0021552459555702827 -0.00098174502044091698 0 0.0019775227702040891 -0.00061864565451613923 0 0.0019775227702040891 -0.00061864565451613923 0 0.0016360190794464276 -0.00050365939034762016 0 0.0018284980769769997 -0.0009327890434478889 0 0.0017600049574399707 -0.00025864493394711727 0 0.0019775227702040891 -0.00061864565451613923 0 0.0016360190794464276 -0.00050365939034762016 0 0.0016360190794464276 -0.00050365939034762016 0 0.0018284980769769997 -0.0009327890434478889 0 0.0015193722842775546 -0.00075807241399540419 0 0.0015193722842775546 -0.00075807241399540419 0 0.001498535942302719 -0.00045487944839975422 0 0.0014811589145661342 -0.00055290164905810952 0 0.0013078004756506313 -0.00082702514244487513 0 0.0011324204484237672 -0.00087151795789750322 0 0.0016360190794464276 -0.00050365939034762016 0 0.0015193722842775546 -0.00075807241399540419 0 0.001498535942302719 -0.00045487944839975422 0 0.001498535942302719 -0.00045487944839975422 0 0.0014811589145661342 -0.00055290164905810952 0 0.0014521715929328065 -0.00044103475601967501 0 0.00078270558554630238 -0.000874372026588131 0 0.0010324918218228534 -0.0013294876771202894 0 0.0005100552697509845 -0.0013255863688938843 0 0.0015193722842775546 -0.00075807241399540419 0 0.00078270558554630238 -0.000874372026588131 0 0.0010324918218228534 -0.0013294876771202894 0 0.0015380630607172931 -0.0013039375196496326 0 0.0015193722842775546 -0.00075807241399540419 0 0.0010324918218228534 -0.0013294876771202894 0 0.0015380630607172931 -0.0013039375196496326 0 0.0010324918218228534 -0.0013294876771202894 0 0.0012184874114954342 -0.0018505490810403339 0 0.0010324918218228534 -0.0013294876771202894 0 0.00070655418836457337 -0.0016935567529151533 0 0.0005100552697509845 -0.0013255863688938843 0 0.0010324918218228534 -0.0013294876771202894 0 0.00070655418836457337 -0.0016935567529151533 0 0.0012184874114954342 -0.0018505490810403339 0 0.00036155508738474452 -0.0016447756850201693 0 4.5513514533040452e-05 -0.0014045477791682259 0 0.0005100552697509845 -0.0013255863688938843 0 0.00070655418836457337 -0.0016935567529151533 0 0.00036155508738474452 -0.0016447756850201693 0 0.0005100552697509845 -0.0013255863688938843 0 0.00070655418836457337 -0.0016935567529151533 0 0.00036155508738474452 -0.0016447756850201693 0 0.00046865631525729083 -0.0018985372588443624 0 0.00036155508738474452 -0.0016447756850201693 0 6.6314457793754649e-05 -0.0018263087827018597 0 4.5513514533040452e-05 -0.0014045477791682259 0 0.00036155508738474452 -0.0016447756850201693 0 6.6314457793754649e-05 -0.0018263087827018597 0 0.00046865631525729083 -0.0018985372588443624 0 0.00016112390695275844 -0.0020104370075146698 0 -0.00018679350698605474 -0.0016340296881241069 0 -2.7031972797912437e-05 -0.0020717244771266611 0 0.00029792426457417672 -0.0018725136686343297 0 0.00024133646252679376 -0.0015825673449437196 0 6.6314457793754649e-05 -0.0018263087827018597 0 4.5513514533040452e-05 -0.0014045477791682259 0 -0.00037177661152771788 -0.001354561298937554 0 0.00079730005018398807 -0.0010087853029352484 0 0.0003604212969177696 -0.0012861037447667904 0 4.5513514533040452e-05 -0.0014045477791682259 0 0.0001523906638641306 -0.00099448490067407104 0 -0.00037177661152771788 -0.001354561298937554 0 0.0001523906638641306 -0.00099448490067407104 0 -0.00046577522051800141 -0.0010986204069535549 0 -0.00037177661152771788 -0.001354561298937554 0 0.00078270558554630238 -0.000874372026588131 0 0.0001523906638641306 -0.00099448490067407104 0 0.0005100552697509845 -0.0013255863688938843 0 4.5513514533040452e-05 -0.0014045477791682259 0 0.0001523906638641306 -0.00099448490067407104 0 0.0005100552697509845 -0.0013255863688938843 0 0.0011324204484237672 -0.00087151795789750322 0 0.00079730005018398807 -0.0010087853029352484 0 0.0014811589145661342 -0.00055290164905810952 0 0.0014316714418287236 -0.00047864236063618947 0 0.0014521715929328065 -0.00044103475601967501 0 0.0014521715929328065 -0.00044103475601967501 0 0.00144923220079146 -0.00033322889774048777 0 0.0014225065295324396 -0.00034402966114038163 0 0.001498535942302719 -0.00045487944839975422 0 0.0014521715929328065 -0.00044103475601967501 0 0.00144923220079146 -0.00033322889774048777 0 0.0014521715929328065 -0.00044103475601967501 0 0.0014225065295324396 -0.00034402966114038163 0 0.0014086289525535322 -0.00041574634137077864 0 0.0013992267917673578 -0.00022138953645362352 0 0.0014225065295324396 -0.00034402966114038163 0 0.0013943325066401312 -0.0003521187255722974 0 0.0014225065295324396 -0.00034402966114038163 0 0.0013943325066401312 -0.0003521187255722974 0 0.0014086289525535322 -0.00041574634137077864 0 0.0014316714418287236 -0.00047864236063618947 0 0.0013686484052779729 -0.00044362362359914978 0 0.0013511784481500223 -0.00048083779952507073 0 0.0014316714418287236 -0.00047864236063618947 0 0.0014521715929328065 -0.00044103475601967501 0 0.0014086289525535322 -0.00041574634137077864 0 0.0013943325066401312 -0.0003521187255722974 0 0.0014086289525535322 -0.00041574634137077864 0 0.0013621024394630224 -0.00040055952279948934 0 0.0014316714418287236 -0.00047864236063618947 0 0.0014086289525535322 -0.00041574634137077864 0 0.0013686484052779729 -0.00044362362359914978 0 0.0013686484052779729 -0.00044362362359914978 0 0.0013273510968951441 -0.00042175158290985016 0 0.0013511784481500223 -0.00048083779952507073 0 -0.00018268957964938579 -0.0011461926084167828 0 -0.00022014983848652473 -0.0015308709837308313 0 -5.0806713767471357e-05 -0.0015035348419314522 0 0.00039681090486142271 -0.00069467132707395787 0 0.0003604212969177696 -0.0012861037447667904 0 0.0013126616494009836 -0.0004300197144829489 0 0.0013621024394630224 -0.00040055952279948934 0 0.0012758603699026694 -0.00036472949932662014 0 0.00039681090486142271 -0.00069467132707395787 0 0.00048559356278385 -0.00065266583308782168 0 0.0013686484052779729 -0.00044362362359914978 0 0.0013273510968951441 -0.00042175158290985016 0 0.0013621024394630224 -0.00040055952279948934 0 0.0014086289525535322 -0.00041574634137077864 0 0.0013686484052779729 -0.00044362362359914978 0 0.0013621024394630224 -0.00040055952279948934 0 0.0013729455416690438 6.0894669408372941e-05 0 0.0013722181439691601 -0.00029766674417495303 0 0.0012758603699026694 -0.00036472949932662014 0 0.0013943325066401312 -0.0003521187255722974 0 0.0013621024394630224 -0.00040055952279948934 0 0.0013722181439691601 -0.00029766674417495303 0 0.00039681090486142271 -0.00069467132707395787 0 0.00045957663488624737 -0.00068724989209241862 0 0.0013621024394630224 -0.00040055952279948934 0 0.0013722181439691601 -0.00029766674417495303 0 0.0012758603699026694 -0.00036472949932662014 0 0.0013992267917673578 -0.00022138953645362352 0 0.0013943325066401312 -0.0003521187255722974 0 0.0013722181439691601 -0.00029766674417495303 0 0.0007456167420293717 -0.00046488693517972941 0 0.001027451966506937 -0.00017422534649554462 0 0.0010302503362796967 -0.00062819442040510883 0 0.001027451966506937 -0.00017422534649554462 0 0.0012758603699026694 -0.00036472949932662014 0 0.0010302503362796967 -0.00062819442040510883 0 0.0013729455416690438 6.0894669408372941e-05 0 0.001027451966506937 -0.00017422534649554462 0 0.0012758603699026694 -0.00036472949932662014 0 0.00075841446055455685 -0.0010853991419940113 0 0.0014046525066215376 -0.00074377687306892795 0 0.0010302503362796967 -0.00062819442040510883 0 -0.00075491230312793535 -0.001456842069482328 0 -0.00018268957964938579 -0.0011461926084167828 0 -0.00040780331370039464 -0.0014937768301261096 0 0.00033836903284206635 -0.00047368205127275504 0 0.00039681090486142271 -0.00069467132707395787 0 0.0014046525066215376 -0.00074377687306892795 0 0.0012758603699026694 -0.00036472949932662014 0 0.0010302503362796967 -0.00062819442040510883 0 -0.00018268957964938579 -0.0011461926084167828 0 -0.00040780331370039464 -0.0014937768301261096 0 -0.00022014983848652473 -0.0015308709837308313 0 -0.00075491230312793535 -0.001456842069482328 0 -0.00040988934246893996 -0.0017372249897946027 0 -0.00040780331370039464 -0.0014937768301261096 0 -0.00075491230312793535 -0.001456842069482328 0 -0.00040988934246893996 -0.0017372249897946027 0 -0.00054089365758812845 -0.0018980841884664033 0 -0.00040988934246893996 -0.0017372249897946027 0 -0.00029956920807572361 -0.0016465278478686141 0 -0.00040780331370039464 -0.0014937768301261096 0 -0.00027489027899551703 -0.001778298476266907 0 -0.00040988934246893996 -0.0017372249897946027 0 -0.00029956920807572361 -0.0016465278478686141 0 -0.00029956920807572361 -0.0016465278478686141 0 -0.00040780331370039464 -0.0014937768301261096 0 -0.00022014983848652473 -0.0015308709837308313 0 0.00032124941304488683 -0.0012952465736840648 0 0.0003604212969177696 -0.0012861037447667904 0 -0.00022014983848652473 -0.0015308709837308313 0 -5.2848763895146987e-05 -0.0015044982409638304 0 -0.00012067057747264076 -0.0015992789781769062 0 -5.2848763895146987e-05 -0.0015044982409638304 0 -2.8862626508542489e-05 -0.0016708829091928816 0 -0.00012067057747264076 -0.0015992789781769062 0 -5.2848763895146987e-05 -0.0015044982409638304 0 -2.8862626508542489e-05 -0.0016708829091928816 0 3.2919416794282763e-05 -0.0017376939928028525 0 0.0003604212969177696 -0.0012861037447667904 0 0.00024133646252679376 -0.0015825673449437196 0 -2.8862626508542489e-05 -0.0016708829091928816 0 3.2775670882657212e-05 -0.0017380196467066463 0 -7.6972556210681619e-05 -0.0017684692886183904 0 0.00023901346202428783 -0.0015821169766871983 0 0.00024133646252679376 -0.0015825673449437196 0 -0.00029956920807572361 -0.0016465278478686141 0 -0.00022014983848652473 -0.0015308709837308313 0 -0.00018533220079992155 -0.0016920903540973448 0 -0.00022014983848652473 -0.0015308709837308313 0 -0.00012067057747264076 -0.0015992789781769062 0 -0.00018533220079992155 -0.0016920903540973448 0 -2.8862626508542489e-05 -0.0016708829091928816 0 -0.00012067057747264076 -0.0015992789781769062 0 -0.00018533220079992155 -0.0016920903540973448 0 -7.6972556210681619e-05 -0.0017684692886183904 0 -0.00018533220079992155 -0.0016920903540973448 0 -0.00015898354361221871 -0.0018525577397470537 0 -2.8862626508542489e-05 -0.0016708829091928816 0 -7.6972556210681619e-05 -0.0017684692886183904 0 -0.00018533220079992155 -0.0016920903540973448 0 -0.00027489027899551703 -0.001778298476266907 0 -0.00029956920807572361 -0.0016465278478686141 0 -0.00018533220079992155 -0.0016920903540973448 0 -0.00027489027899551703 -0.001778298476266907 0 -0.00018533220079992155 -0.0016920903540973448 0 -0.00015898354361221871 -0.0018525577397470537 0 -0.00015898354361221871 -0.0018525577397470537 0 -0.00010549516477499515 -0.0020014315853165879 0 -0.00030376905545271968 -0.0019766450427506238 0 3.2775670882657212e-05 -0.0017380196467066463 0 4.122077739450689e-05 -0.0020181869818523216 0 0.00021425453007688827 -0.0022370705279832659 0 0.00024133646252679376 -0.0015825673449437196 0 0.00026869107772453145 -0.00211392824870258 0 -0.00027489027899551703 -0.001778298476266907 0 -0.00015898354361221871 -0.0018525577397470537 0 -0.00030376905545271968 -0.0019766450427506238 0 -7.6972556210681619e-05 -0.0017684692886183904 0 -0.00015898354361221871 -0.0018525577397470537 0 -5.135884890983682e-05 -0.0018766995524832767 0 -0.00015898354361221871 -0.0018525577397470537 0 -5.135884890983682e-05 -0.0018766995524832767 0 -0.00010549516477499515 -0.0020014315853165879 0 3.2775670882657212e-05 -0.0017380196467066463 0 -5.135884890983682e-05 -0.0018766995524832767 0 4.122077739450689e-05 -0.0020181869818523216 0 3.2775670882657212e-05 -0.0017380196467066463 0 -7.6972556210681619e-05 -0.0017684692886183904 0 -5.135884890983682e-05 -0.0018766995524832767 0 -5.135884890983682e-05 -0.0018766995524832767 0 4.122077739450689e-05 -0.0020181869818523216 0 -0.00010549516477499515 -0.0020014315853165879 0 4.122077739450689e-05 -0.0020181869818523216 0 6.5781462303606298e-05 -0.0021654688394807486 0 0.00021425453007688827 -0.0022370705279832659 0 4.122077739450689e-05 -0.0020181869818523216 0 -2.4570515124490813e-05 -0.0021302074646735569 0 -0.00010549516477499515 -0.0020014315853165879 0 4.122077739450689e-05 -0.0020181869818523216 0 -2.4570515124490813e-05 -0.0021302074646735569 0 6.5781462303606298e-05 -0.0021654688394807486 0 -0.00015450094211244097 -0.0021734791073038029 0 -0.00030860715739798258 -0.0021727682095201081 0 -0.00030376905545271968 -0.0019766450427506238 0 -0.00010549516477499515 -0.0020014315853165879 0 -0.00015450094211244097 -0.0021734791073038029 0 -0.00030376905545271968 -0.0019766450427506238 0 -2.4570515124490813e-05 -0.0021302074646735569 0 -0.00010549516477499515 -0.0020014315853165879 0 -0.00015450094211244097 -0.0021734791073038029 0 -0.00054089365758812845 -0.0018980841884664033 0 -0.00030376905545271968 -0.0019766450427506238 0 -0.00047890641246340097 -0.0021804200505809342 0 -0.00030860715739798258 -0.0021727682095201081 0 -0.00030376905545271968 -0.0019766450427506238 0 -0.00047890641246340097 -0.0021804200505809342 0 -0.00074756052821840291 -0.0020637143174719375 0 -0.00054089365758812845 -0.0018980841884664033 0 -0.00047890641246340097 -0.0021804200505809342 0 -0.00027489027899551703 -0.001778298476266907 0 -0.00040988934246893996 -0.0017372249897946027 0 -0.00030376905545271968 -0.0019766450427506238 0 -0.00040988934246893996 -0.0017372249897946027 0 -0.00054089365758812845 -0.0018980841884664033 0 -0.00030376905545271968 -0.0019766450427506238 0 -0.00042664998531216706 -0.0024250849952556293 0 -0.00029403075898580306 -0.0023238305291354961 0 -0.00026260191387575003 -0.0024856464169347322 0 -0.00042664998531216706 -0.0024250849952556293 0 -0.00026260191387575003 -0.0024856464169347322 0 -0.00035379049760723091 -0.0026189755059588199 0 -0.00042664998531216706 -0.0024250849952556293 0 -0.00052736454620774895 -0.0025576847113530344 0 -0.00035379049760723091 -0.0026189755059588199 0 -0.00064772816498060988 -0.0023573273871777133 0 -0.00064952835619327281 -0.0027149308124417011 0 -0.00052736454620774895 -0.0025576847113530344 0 -0.00064772816498060988 -0.0023573273871777133 0 -0.00042664998531216706 -0.0024250849952556293 0 -0.00052736454620774895 -0.0025576847113530344 0 -0.00064772816498060988 -0.0023573273871777133 0 -0.00042664998531216706 -0.0024250849952556293 0 -0.00047890641246340097 -0.0021804200505809342 0 -0.00074756052821840291 -0.0020637143174719375 0 -0.00064772816498060988 -0.0023573273871777133 0 -0.00047890641246340097 -0.0021804200505809342 0 -0.00042664998531216706 -0.0024250849952556293 0 -0.00047890641246340097 -0.0021804200505809342 0 -0.00029403075898580306 -0.0023238305291354961 0 -0.00030860715739798258 -0.0021727682095201081 0 -0.00047890641246340097 -0.0021804200505809342 0 -0.00029403075898580306 -0.0023238305291354961 0 -0.00015450094211244097 -0.0021734791073038029 0 -0.00030860715739798258 -0.0021727682095201081 0 -0.00029403075898580306 -0.0023238305291354961 0 -0.00015450094211244097 -0.0021734791073038029 0 -0.00029403075898580306 -0.0023238305291354961 0 -0.00015407530247435325 -0.0023847469288897213 0 -0.00015450094211244097 -0.0021734791073038029 0 3.0272124184045057e-05 -0.0022929838489106568 0 -0.00015407530247435325 -0.0023847469288897213 0 6.5781462303606298e-05 -0.0021654688394807486 0 3.0272124184045057e-05 -0.0022929838489106568 0 0.00021425453007688827 -0.0022370705279832659 0 -2.4570515124490813e-05 -0.0021302074646735569 0 -0.00015450094211244097 -0.0021734791073038029 0 3.0272124184045057e-05 -0.0022929838489106568 0 -2.4570515124490813e-05 -0.0021302074646735569 0 6.5781462303606298e-05 -0.0021654688394807486 0 3.0272124184045057e-05 -0.0022929838489106568 0 -0.00015407530247435325 -0.0023847469288897213 0 -0.00026260191387575003 -0.0024856464169347322 0 -9.3799728203508291e-05 -0.0026196707357915901 0 3.0272124184045057e-05 -0.0022929838489106568 0 -0.00015407530247435325 -0.0023847469288897213 0 -9.3799728203508291e-05 -0.0026196707357915901 0 -0.00029403075898580306 -0.0023238305291354961 0 -0.00015407530247435325 -0.0023847469288897213 0 -0.00026260191387575003 -0.0024856464169347322 0 -9.3799728203508291e-05 -0.0026196707357915901 0 0.00011452338249601061 -0.0028138798448945528 0 -0.00028854420315628965 -0.0029036879501290764 0 -0.00026260191387575003 -0.0024856464169347322 0 -9.3799728203508291e-05 -0.0026196707357915901 0 -0.00035379049760723091 -0.0026189755059588199 0 3.0272124184045057e-05 -0.0022929838489106568 0 -9.3799728203508291e-05 -0.0026196707357915901 0 0.00011452338249601061 -0.0028138798448945528 0 -9.3799728203508291e-05 -0.0026196707357915901 0 -0.00028854420315628965 -0.0029036879501290764 0 -0.00035379049760723091 -0.0026189755059588199 0 0.00011452338249601061 -0.0028138798448945528 0 -0.00028854420315628965 -0.0029036879501290764 0 6.8373280748511804e-05 -0.0030922982426964695 0 -0.00028854420315628965 -0.0029036879501290764 0 -0.00045474354739480946 -0.0026989140498134244 0 -0.00035379049760723091 -0.0026189755059588199 0 -0.00052736454620774895 -0.0025576847113530344 0 -0.00045474354739480946 -0.0026989140498134244 0 -0.00035379049760723091 -0.0026189755059588199 0 -0.00064952835619327281 -0.0027149308124417011 0 -0.00052736454620774895 -0.0025576847113530344 0 -0.00045474354739480946 -0.0026989140498134244 0 -6.6491529500427687e-05 -0.0017539890960379303 0 1.1243991662185509e-05 -0.0021058415929888158 0 -0.00062725848003691398 -0.0029213001226920826 0 -0.00062712999101991504 -0.0027221820410806611 0 -0.00027807238885690146 -0.0029065388093710755 0 -0.00064952835619327281 -0.0027149308124417011 0 -0.00028854420315628965 -0.0029036879501290764 0 -0.00045474354739480946 -0.0026989140498134244 0 -2.4804443725202376e-05 -0.0017104305928496437 0 0.00023969922059966607 -0.0025075276224072935 0 -0.00030593231262220663 -0.0031034854286945929 0 -0.00017003466429076224 -0.0033286825157105744 0 6.4622165354234298e-05 -0.0032985360709511108 0 -0.00062725848003691398 -0.0029213001226920826 0 -0.00027807238885690146 -0.0029065388093710755 0 -9.7612775712822115e-05 -0.0032002118486964544 0 -0.00030593231262220663 -0.0031034854286945929 0 -0.00030399669436239376 -0.0035479712914486729 0 -0.00017003466429076224 -0.0033286825157105744 0 -0.00017003466429076224 -0.0033286825157105744 0 -2.8694230147184083e-05 -0.0034764467564936479 0 6.4622165354234298e-05 -0.0032985360709511108 0 -0.00030399669436239376 -0.0035479712914486729 0 -0.00017003466429076224 -0.0033286825157105744 0 -2.8694230147184083e-05 -0.0034764467564936479 0 -0.00030399669436239376 -0.0035479712914486729 0 -2.8694230147184083e-05 -0.0034764467564936479 0 9.6427975140216937e-05 -0.0036956008194820368 0 0.00017665928401181848 -0.003524198489600111 0 0.00028929142535367714 -0.0036759530386311608 0 9.6427975140216937e-05 -0.0036956008194820368 0 0.00017665928401181848 -0.003524198489600111 0 -2.8694230147184083e-05 -0.0034764467564936479 0 9.6427975140216937e-05 -0.0036956008194820368 0 0.00017665928401181848 -0.003524198489600111 0 -2.8694230147184083e-05 -0.0034764467564936479 0 6.4622165354234298e-05 -0.0032985360709511108 0 -9.7612775712822115e-05 -0.0032002118486964544 0 6.8373280748511804e-05 -0.0030922982426964695 0 0.00025108581052507811 -0.0032114374110670534 0 1.1243991662185509e-05 -0.0021058415929888158 0 8.2568214180484884e-05 -0.0022395456649347903 0 -0.00027807238885690146 -0.0029065388093710755 0 -9.7612775712822115e-05 -0.0032002118486964544 0 6.8373280748511804e-05 -0.0030922982426964695 0 0.00011452338249601061 -0.0028138798448945528 0 6.8373280748511804e-05 -0.0030922982426964695 0 0.00027860935577945161 -0.0030211711400821256 0 0.00027860935577945161 -0.0030211711400821256 0 0.0005592707890327809 -0.003306692693461428 0 0.00038594190365882425 -0.0027399071872529659 0 6.8373280748511804e-05 -0.0030922982426964695 0 0.00027860935577945161 -0.0030211711400821256 0 0.00025108581052507811 -0.0032114374110670534 0 -9.7612775712822115e-05 -0.0032002118486964544 0 0.00025108581052507811 -0.0032114374110670534 0 0.00042882283382338201 -0.0034697775353775919 0 0.00046586993813630155 -0.0029317938047243573 0 0.0003757542247217107 -0.0026610113805967412 0 0.00027860935577945161 -0.0030211711400821256 0 0.00025108581052507811 -0.0032114374110670534 0 0.0005592707890327809 -0.003306692693461428 0 0.00025108581052507811 -0.0032114374110670534 0 0.00042882283382338201 -0.0034697775353775919 0 0.0005592707890327809 -0.003306692693461428 0 0.00023969922059966607 -0.0025075276224072935 0 0.00040188806406112331 -0.0027767909406620694 0 0.00017665928401181848 -0.003524198489600111 0 6.4622165354234298e-05 -0.0032985360709511108 0 0.00042882283382338201 -0.0034697775353775919 0 0.00017665928401181848 -0.003524198489600111 0 0.00042882283382338201 -0.0034697775353775919 0 0.00028929142535367714 -0.0036759530386311608 0 0.00064663545634129592 -0.0035422879320143076 0 0.00068269453000107359 -0.0032340618556733554 0 0.00094867731035694922 -0.0035780688577422715 0 0.00042882283382338201 -0.0034697775353775919 0 0.00064663545634129592 -0.0035422879320143076 0 0.00047304268028354192 -0.0037998622451996399 0 0.00064663545634129592 -0.0035422879320143076 0 0.00068269453000107359 -0.0032340618556733554 0 0.0005592707890327809 -0.003306692693461428 0 0.00042882283382338201 -0.0034697775353775919 0 0.00064663545634129592 -0.0035422879320143076 0 0.0005592707890327809 -0.003306692693461428 0 0.00062241511961870814 -0.0030501860563912188 0 0.0003757542247217107 -0.0026610113805967412 0 0.00068269453000107359 -0.0032340618556733554 0 0.0005592707890327809 -0.003306692693461428 0 0.00040951397006948678 -0.0029046182853347483 0 0.00047661853557865575 -0.0029407425800090101 0 0.00051646461320696828 -0.0023908652409159754 0 0.00013302386620057924 -0.0025159106480048361 0 3.0272124184045057e-05 -0.0022929838489106568 0 0.00011452338249601061 -0.0028138798448945528 0 0.00038594190365882425 -0.0027399071872529659 0 0.00011452338249601061 -0.0028138798448945528 0 0.00027860935577945161 -0.0030211711400821256 0 0.00038594190365882425 -0.0027399071872529659 0 0.00026072340488796992 -0.0025322980406627007 0 0.0003757542247217107 -0.0026610113805967412 0 3.0272124184045057e-05 -0.0022929838489106568 0 0.0003980423841659228 -0.002735451724414804 0 0.00021425453007688827 -0.0022370705279832659 0 0.00016112390695275844 -0.0020104370075146698 0 0.00013302386620057924 -0.0025159106480048361 0 -2.7031972797912437e-05 -0.0020717244771266611 0 0.0003757542247217107 -0.0026610113805967412 0 0.00026869107772453145 -0.00211392824870258 0 6.6314457793754649e-05 -0.0018263087827018597 0 0.0005009911230637609 -0.0022842630616005635 0 0.00046865631525729083 -0.0018985372588443624 0 0.00029792426457417672 -0.0018725136686343297 0 0.00057169922345627914 -0.0022800694852676304 0 0.00016112390695275844 -0.0020104370075146698 0 0.00051646461320696828 -0.0023908652409159754 0 0.00013302386620057924 -0.0025159106480048361 0 0.0005009911230637609 -0.0022842630616005635 0 0.00046865631525729083 -0.0018985372588443624 0 0.00070660111972049616 -0.0020382879628282552 0 0.00070655418836457337 -0.0016935567529151533 0 0.00070660111972049616 -0.0020382879628282552 0 0.0012184874114954342 -0.0018505490810403339 0 0.0005009911230637609 -0.0022842630616005635 0 0.00070660111972049616 -0.0020382879628282552 0 0.00098892754050296998 -0.0021842531138954635 0 0.00070660111972049616 -0.0020382879628282552 0 0.0012184874114954342 -0.0018505490810403339 0 0.00098892754050296998 -0.0021842531138954635 0 0.00070655418836457337 -0.0016935567529151533 0 0.00046865631525729083 -0.0018985372588443624 0 0.00070660111972049616 -0.0020382879628282552 0 0.0012184874114954342 -0.0018505490810403339 0 0.00098892754050296998 -0.0021842531138954635 0 0.0013737541250751269 -0.0023494224595844672 0 0.0013737541250751269 -0.0023494224595844672 0 0.00090320229829901752 -0.0027271234539807199 0 0.0014929528290754798 -0.0027872709061290738 0 0.00098892754050296998 -0.0021842531138954635 0 0.0013737541250751269 -0.0023494224595844672 0 0.00090320229829901752 -0.0027271234539807199 0 0.00047661853557865575 -0.0029407425800090101 0 0.00051646461320696828 -0.0023908652409159754 0 0.00088547208627968923 -0.0027798873104683173 0 0.0005009911230637609 -0.0022842630616005635 0 0.00098892754050296998 -0.0021842531138954635 0 0.00090320229829901752 -0.0027271234539807199 0 0.00057169922345627914 -0.0022800694852676304 0 0.00087779952303887433 -0.0026619133236585667 0 0.00047661853557865575 -0.0029407425800090101 0 0.0008656459594158822 -0.0030743706769926398 0 0.00088547208627968923 -0.0027798873104683173 0 0.00062241511961870814 -0.0030501860563912188 0 0.00088229691988798097 -0.0034081790039861689 0 0.00047661853557865575 -0.0029407425800090101 0 0.0008656459594158822 -0.0030743706769926398 0 0.00083241821398974034 -0.003396476516342613 0 0.00083241821398974034 -0.003396476516342613 0 0.0012816391435247218 -0.0031830475741418812 0 0.0014179902042996278 -0.0035424034107343003 0 0.0008656459594158822 -0.0030743706769926398 0 0.00083241821398974034 -0.003396476516342613 0 0.0012816391435247218 -0.0031830475741418812 0 0.00090320229829901752 -0.0027271234539807199 0 0.0012816391435247218 -0.0031830475741418812 0 0.0014929528290754798 -0.0027872709061290738 0 0.00087779952303887433 -0.0026619133236585667 0 0.0010506897381557707 -0.002863998644364452 0 0.0008656459594158822 -0.0030743706769926398 0 0.00088547208627968923 -0.0027798873104683173 0 0.0012816391435247218 -0.0031830475741418812 0 0.0014929528290754798 -0.0027872709061290738 0 0.0016901225903580266 -0.0032753894108559717 0 0.0019927276543878453 -0.0028889781423347208 0 0.0012816391435247218 -0.0031830475741418812 0 0.0016901225903580266 -0.0032753894108559717 0 0.0014179902042996278 -0.0035424034107343003 0 0.0012816391435247218 -0.0031830475741418812 0 0.0014929528290754798 -0.0027872709061290738 0 0.0016901225903580266 -0.0032753894108559717 0 0.0021920688198889902 -0.0034651186286959799 0 0.0016901225903580266 -0.0032753894108559717 0 0.0019927276543878453 -0.0028889781423347208 0 0.0014929528290754798 -0.0027872709061290738 0 0.0019927276543878453 -0.0028889781423347208 0 0.0018008267912342525 -0.0024395648808499038 0 0.0022252118461879317 -0.0024509295647279807 0 0.0018008267912342525 -0.0024395648808499038 0 0.0020151392931783739 -0.0020886439526157548 0 0.0022252118461879317 -0.0024509295647279807 0 0.0019927276543878453 -0.0028889781423347208 0 0.0018008267912342525 -0.0024395648808499038 0 0.0013737541250751269 -0.0023494224595844672 0 0.0018008267912342525 -0.0024395648808499038 0 0.001644611165948116 -0.0020900475470876224 0 0.0013737541250751269 -0.0023494224595844672 0 0.0014929528290754798 -0.0027872709061290738 0 0.0018008267912342525 -0.0024395648808499038 0 0.0017277004200556591 -0.0017240786263775219 0 0.0012184874114954342 -0.0018505490810403339 0 0.001644611165948116 -0.0020900475470876224 0 0.0012184874114954342 -0.0018505490810403339 0 0.0013737541250751269 -0.0023494224595844672 0 0.001644611165948116 -0.0020900475470876224 0 0.0020678452549847321 -0.0017185796897407218 0 0.0017277004200556591 -0.0017240786263775219 0 0.0020151392931783739 -0.0020886439526157548 0 0.0017277004200556591 -0.0017240786263775219 0 0.001644611165948116 -0.0020900475470876224 0 0.0020151392931783739 -0.0020886439526157548 0 0.0023405502050116364 -0.0020303410058549092 0 0.0020678452549847321 -0.0017185796897407218 0 0.0020151392931783739 -0.0020886439526157548 0 0.0018008267912342525 -0.0024395648808499038 0 0.001644611165948116 -0.0020900475470876224 0 0.0020151392931783739 -0.0020886439526157548 0 0.0017007584864736573 -0.0055006299616223858 0 0.001108898185723379 -0.005067630363513001 0 0.001742687617154377 -0.0048150171601525809 0 0.0017007584864736573 -0.0055006299616223858 0 0.001108898185723379 -0.005067630363513001 0 0.001003728179316026 -0.0056064589186843785 0 0.001108898185723379 -0.005067630363513001 0 0.00041391758872568417 -0.0047985633610969783 0 0.00069529108384667223 -0.0052973436241750896 0 0.001108898185723379 -0.005067630363513001 0 0.00069529108384667223 -0.0052973436241750896 0 0.001003728179316026 -0.0056064589186843785 0 0.00069529108384667223 -0.0052973436241750896 0 0.00062973503002447496 -0.0056229539296747772 0 0.001003728179316026 -0.0056064589186843785 0 0.0013413922236441772 -0.0043569177472455312 0 0.00082920740888768856 -0.0045410707720670816 0 0.001108898185723379 -0.005067630363513001 0 0.0011481186957420847 -0.0044498510699181541 0 0.00041391758872568417 -0.0047985633610969783 0 0.0021066777080688413 -0.0040904805390716325 0 0.001742687617154377 -0.0048150171601525809 0 0.0011481186957420847 -0.0044498510699181541 0 0.001108898185723379 -0.005067630363513001 0 0.001742687617154377 -0.0048150171601525809 0 0.0011481186957420847 -0.0044498510699181541 0 0.0021066777080688413 -0.0040904805390716325 0 0.0017385885312212581 -0.0037638613811210356 0 0.0016129245852300302 -0.0042141361650721229 0 0.0016430196313288509 -0.0042495241762008961 0 0.0013413922236441772 -0.0043569177472455312 0 0.0021920688198889902 -0.0034651186286959799 0 0.0016901225903580266 -0.0032753894108559717 0 0.0017385885312212581 -0.0037638613811210356 0 0.0021920688198889902 -0.0034651186286959799 0 0.0021066777080688413 -0.0040904805390716325 0 0.0017385885312212581 -0.0037638613811210356 0 0.0016901225903580266 -0.0032753894108559717 0 0.0017385885312212581 -0.0037638613811210356 0 0.0014179902042996278 -0.0035424034107343003 0 0.0017385885312212581 -0.0037638613811210356 0 0.0014179902042996278 -0.0035424034107343003 0 0.0012261130525583165 -0.0038838419757598764 0 0.0017385885312212581 -0.0037638613811210356 0 0.0016129245852300302 -0.0042141361650721229 0 0.0012261130525583165 -0.0038838419757598764 0 0.0012261130525583165 -0.0038838419757598764 0 0.00089275192460229751 -0.0041383866337392937 0 0.0011433560469336162 -0.0043487989341615893 0 0.0016129245852300302 -0.0042141361650721229 0 0.0012261130525583165 -0.0038838419757598764 0 0.0011433560469336162 -0.0043487989341615893 0 0.00088229691988798097 -0.0034081790039861689 0 0.0010312307429068211 -0.0036002859146432079 0 0.00083241821398974034 -0.003396476516342613 0 0.0014179902042996278 -0.0035424034107343003 0 0.0012261130525583165 -0.0038838419757598764 0 0.00064663545634129592 -0.0035422879320143076 0 0.00094867731035694922 -0.0035780688577422715 0 0.00078091302961081103 -0.003843108671519446 0 0.00094867731035694922 -0.0035780688577422715 0 0.0012261130525583165 -0.0038838419757598764 0 0.00078091302961081103 -0.003843108671519446 0 0.00078091302961081103 -0.003843108671519446 0 0.00089275192460229751 -0.0041383866337392937 0 0.00059981895079387832 -0.0041322626111275585 0 0.0012261130525583165 -0.0038838419757598764 0 0.00078091302961081103 -0.003843108671519446 0 0.00089275192460229751 -0.0041383866337392937 0 0.00082920740888768856 -0.0045410707720670816 0 0.00037314204956416595 -0.0046991842149191913 0 0.00089275192460229751 -0.0041383866337392937 0 0.0011433560469336162 -0.0043487989341615893 0 0.00073031949116310715 -0.0044832848671986728 0 0.00041391758872568417 -0.0047985633610969783 0 0.00069529108384667223 -0.0052973436241750896 0 0.00033540152592529716 -0.0053709963318652977 0 0.00069529108384667223 -0.0052973436241750896 0 0.00033540152592529716 -0.0053709963318652977 0 0.00062973503002447496 -0.0056229539296747772 0 0.00037314204956416595 -0.0046991842149191913 0 0.00036611233382806164 -0.0052143295955405138 0 0.00041391758872568417 -0.0047985633610969783 0 0.00033540152592529716 -0.0053709963318652977 0 -0.00024384243925047185 -0.005075583146519692 0 0.00033540152592529716 -0.0053709963318652977 0 -0.00024384243925047185 -0.005075583146519692 0 9.0016852449383665e-05 -0.0057818220984184199 0 -1.4597733395742732e-05 -0.0045755068599315834 0 -0.00010685903860063579 -0.0047979386318775302 0 0.00022566161521116591 -0.0049751179662227019 0 0.00037314204956416595 -0.0046991842149191913 0 0.0002387251295986288 -0.0046901801197114052 0 -1.4597733395742732e-05 -0.0045755068599315834 0 -0.00010057925159929198 -0.0047118784379302711 0 -0.00010685903860063579 -0.0047979386318775302 0 -0.00010057925159929198 -0.0047118784379302711 0 2.8035831080519997e-05 -0.0046302839706156406 0 -4.1038803135887021e-05 -0.0046643234013024693 0 0.0002387251295986288 -0.0046901801197114052 0 0.00017199034009905993 -0.0046959374467898185 0 0.00037849789421439247 -0.0045425198499294828 0 0.00034442785736166296 -0.0042740140437510701 0 8.839710680405391e-05 -0.0044115243023549969 0 0.00069825149960712433 -0.00443321585841584 0 0.00037849789421439247 -0.0045425198499294828 0 0.00034442785736166296 -0.0042740140437510701 0 0.00089275192460229751 -0.0041383866337392937 0 0.00073031949116310715 -0.0044832848671986728 0 0.00059981895079387832 -0.0041322626111275585 0 0.00037314204956416595 -0.0046991842149191913 0 0.00037511407142084381 -0.0043291911679246417 0 0.00069825149960712433 -0.00443321585841584 0 0.00034442785736166296 -0.0042740140437510701 0 0.00058098908100052613 -0.0041213165620612975 0 0.00078091302961081103 -0.003843108671519446 0 0.00059981895079387832 -0.0041322626111275585 0 0.00047304268028354192 -0.0037998622451996399 0 0.00037511407142084381 -0.0043291911679246417 0 0.00035592145253050041 -0.0041669248735065403 0 0.00064663545634129592 -0.0035422879320143076 0 0.00078091302961081103 -0.003843108671519446 0 0.00047304268028354192 -0.0037998622451996399 0 0.00042882283382338201 -0.0034697775353775919 0 0.00047304268028354192 -0.0037998622451996399 0 0.00028929142535367714 -0.0036759530386311608 0 0.00047304268028354192 -0.0037998622451996399 0 0.00028929142535367714 -0.0036759530386311608 0 0.00024437450143592338 -0.0039441873142919952 0 0.00058098908100052613 -0.0041213165620612975 0 0.00047304268028354192 -0.0037998622451996399 0 0.00024437450143592338 -0.0039441873142919952 0 0.00034442785736166296 -0.0042740140437510701 0 0.00024437450143592338 -0.0039441873142919952 0 2.8128953016018382e-05 -0.0041820918516967849 0 0.00034442785736166296 -0.0042740140437510701 0 0.00058098908100052613 -0.0041213165620612975 0 0.00024437450143592338 -0.0039441873142919952 0 0.00024437450143592338 -0.0039441873142919952 0 -3.2882058764068537e-05 -0.0039387752251654248 0 2.8128953016018382e-05 -0.0041820918516967849 0 0.00024437450143592338 -0.0039441873142919952 0 -3.2882058764068537e-05 -0.0039387752251654248 0 9.6427975140216937e-05 -0.0036956008194820368 0 0.00028929142535367714 -0.0036759530386311608 0 0.00024437450143592338 -0.0039441873142919952 0 9.6427975140216937e-05 -0.0036956008194820368 0 -0.00030399669436239376 -0.0035479712914486729 0 -3.2882058764068537e-05 -0.0039387752251654248 0 9.6427975140216937e-05 -0.0036956008194820368 0 -0.00030399669436239376 -0.0035479712914486729 0 -3.2882058764068537e-05 -0.0039387752251654248 0 -0.00028344691153510632 -0.0040021741096616485 0 -3.2882058764068537e-05 -0.0039387752251654248 0 2.8128953016018382e-05 -0.0041820918516967849 0 -0.00028344691153510632 -0.0040021741096616485 0 2.8128953016018382e-05 -0.0041820918516967849 0 -0.00028344691153510632 -0.0040021741096616485 0 -0.00020388226984244628 -0.0044372374238635008 0 2.8128953016018382e-05 -0.0041820918516967849 0 8.839710680405391e-05 -0.0044115243023549969 0 -0.00020388226984244628 -0.0044372374238635008 0 0.00034442785736166296 -0.0042740140437510701 0 2.8128953016018382e-05 -0.0041820918516967849 0 8.839710680405391e-05 -0.0044115243023549969 0 8.839710680405391e-05 -0.0044115243023549969 0 2.8035831080519997e-05 -0.0046302839706156406 0 -0.00020388226984244628 -0.0044372374238635008 0 0.00037849789421439247 -0.0045425198499294828 0 8.839710680405391e-05 -0.0044115243023549969 0 2.8035831080519997e-05 -0.0046302839706156406 0 2.8035831080519997e-05 -0.0046302839706156406 0 -0.00020388226984244628 -0.0044372374238635008 0 -4.8860410655171316e-05 -0.0046394025012337445 0 2.8035831080519997e-05 -0.0046302839706156406 0 -2.0075682420802345e-05 -0.004628113988899364 0 -4.8860410655171316e-05 -0.0046394025012337445 0 2.8035831080519997e-05 -0.0046302839706156406 0 -2.0075682420802345e-05 -0.004628113988899364 0 -4.1038803135887021e-05 -0.0046643234013024693 0 -2.0075682420802345e-05 -0.004628113988899364 0 -5.1987844661879681e-05 -0.0046007948240214301 0 -4.1038803135887021e-05 -0.0046643234013024693 0 -2.0075682420802345e-05 -0.004628113988899364 0 -9.1852110383406884e-05 -0.0044796335506518568 0 -5.1987844661879681e-05 -0.0046007948240214301 0 -2.0075682420802345e-05 -0.004628113988899364 0 -4.8860410655171316e-05 -0.0046394025012337445 0 9.4047872302782716e-05 -0.0045296898548677928 0 -4.3491422769636662e-05 -0.0042396709007572093 0 -9.1852110383406884e-05 -0.0044796335506518568 0 9.4047872302782716e-05 -0.0045296898548677928 0 -2.0075682420802345e-05 -0.004628113988899364 0 -9.1852110383406884e-05 -0.0044796335506518568 0 9.4047872302782716e-05 -0.0045296898548677928 0 -4.3491422769636662e-05 -0.0042396709007572093 0 -2.9903925974672934e-07 -0.0042977576675018152 0 5.2803036409306753e-07 -0.0037503783889396769 0 -4.3491422769636662e-05 -0.0042396709007572093 0 9.4047872302782716e-05 -0.0045296898548677928 0 5.2803036409306753e-07 -0.0037503783889396769 0 -2.9903925974672934e-07 -0.0042977576675018152 0 -9.1852110383406884e-05 -0.0044796335506518568 0 -5.8921450231390601e-08 -0.0048440690887121083 0 -4.3491422769636662e-05 -0.0042396709007572093 0 -2.9903925974672934e-07 -0.0042977576675018152 0 -9.1852110383406884e-05 -0.0044796335506518568 0 -9.1852110383406884e-05 -0.0044796335506518568 0 -2.3221726386451101e-05 -0.0045886567149671879 0 -5.1987844661879681e-05 -0.0046007948240214301 0 -2.3221726386451101e-05 -0.0045886567149671879 0 -5.8921450231390601e-08 -0.0048440690887121083 0 6.7620182777883115e-06 -0.0046495880413337963 0 3.2964988207867305e-08 -0.0048463844893321005 0 -1.4945094645018671e-05 -0.0052848992906901621 0 -9.1852110383406884e-05 -0.0044796335506518568 0 -2.3221726386451101e-05 -0.0045886567149671879 0 -5.8921450231390601e-08 -0.0048440690887121083 0 3.1877992089965484e-07 -0.0048459023850025802 0 -3.1908164926688157e-07 -0.0055859575335180153 0 -1.8474632312192348e-05 -0.0056432847036822437 0 -3.1908164926688157e-07 -0.0055859575335180153 0 -1.8474632312192348e-05 -0.0056432847036822437 0 -2.2977998335866558e-05 -0.0057909345726030468 0 -2.3221726386451101e-05 -0.0045886567149671879 0 6.7620182777883115e-06 -0.0046495880413337963 0 -4.1094558736113633e-05 -0.0046184281316069128 0 -2.3221726386451101e-05 -0.0045886567149671879 0 -4.1094558736113633e-05 -0.0046184281316069128 0 -5.4700776678634907e-05 -0.0046386763257441057 0 -4.1094558736113633e-05 -0.0046184281316069128 0 -5.4700776678634907e-05 -0.0046386763257441057 0 -9.1673106873256164e-05 -0.0046476857974023806 0 -2.3221726386451101e-05 -0.0045886567149671879 0 -5.4700776678634907e-05 -0.0046386763257441057 0 -5.1987844661879681e-05 -0.0046007948240214301 0 -5.4700776678634907e-05 -0.0046386763257441057 0 -5.1987844661879681e-05 -0.0046007948240214301 0 -4.1038803135887021e-05 -0.0046643234013024693 0 -0.00010057925159929198 -0.0047118784379302711 0 -4.1038803135887021e-05 -0.0046643234013024693 0 -0.00010685903860063579 -0.0047979386318775302 0 -5.4700776678634907e-05 -0.0046386763257441057 0 -4.1038803135887021e-05 -0.0046643234013024693 0 -0.00010685903860063579 -0.0047979386318775302 0 -5.4700776678634907e-05 -0.0046386763257441057 0 -0.00010685903860063579 -0.0047979386318775302 0 -9.1673106873256164e-05 -0.0046476857974023806 0 -9.2986279579862293e-05 -0.0052640648954322836 0 -5.2383902630166082e-05 -0.0054018101957571648 0 -0.00010685903860063579 -0.0047979386318775302 0 0.00022566161521116591 -0.0049751179662227019 0 -5.7448812954637279e-05 -0.0056639369280028036 0 0.00033540152592529716 -0.0053709963318652977 0 9.0016852449383665e-05 -0.0057818220984184199 0 0.00038399590482847027 -0.005729232203589384 0 0.00033540152592529716 -0.0053709963318652977 0 0.00038399590482847027 -0.005729232203589384 0 0.00062973503002447496 -0.0056229539296747772 0 0.00038399590482847027 -0.005729232203589384 0 0.00062973503002447496 -0.0056229539296747772 0 0.00054047602399343454 -0.0059047390547900995 0 0.00054047602399343454 -0.0059047390547900995 0 0.0006436948027269422 -0.0061044177010213304 0 0.00076937013403266942 -0.0059296600385931944 0 0.00062973503002447496 -0.0056229539296747772 0 0.00054047602399343454 -0.0059047390547900995 0 0.00076937013403266942 -0.0059296600385931944 0 9.0016852449383665e-05 -0.0057818220984184199 0 0.00038399590482847027 -0.005729232203589384 0 0.00038843318251185625 -0.0059435534051649813 0 0.00038399590482847027 -0.005729232203589384 0 0.00054047602399343454 -0.0059047390547900995 0 0.00038843318251185625 -0.0059435534051649813 0 0.00038843318251185625 -0.0059435534051649813 0 0.00051418779143236673 -0.0060672587117920956 0 0.00044227862413120348 -0.0061584307716843452 0 0.00054047602399343454 -0.0059047390547900995 0 0.00038843318251185625 -0.0059435534051649813 0 0.00051418779143236673 -0.0060672587117920956 0 0.00054047602399343454 -0.0059047390547900995 0 0.00051418779143236673 -0.0060672587117920956 0 0.0006436948027269422 -0.0061044177010213304 0 0.00051418779143236673 -0.0060672587117920956 0 0.0006436948027269422 -0.0061044177010213304 0 0.00060494694624946483 -0.006176406910596715 0 0.00051418779143236673 -0.0060672587117920956 0 0.00060494694624946483 -0.006176406910596715 0 0.00044227862413120348 -0.0061584307716843452 0 0.00022566161521116591 -0.0049751179662227019 0 0.00044227862413120348 -0.0061584307716843452 0 -5.7448812954637279e-05 -0.0056639369280028036 0 9.0016852449383665e-05 -0.0057818220984184199 0 0.00038843318251185625 -0.0059435534051649813 0 0.00044227862413120348 -0.0061584307716843452 0 -5.2383902630166082e-05 -0.0054018101957571648 0 5.2080612410506011e-05 -0.0057505625152480091 0 0.00036611233382806164 -0.0052143295955405138 0 0.00042684936715470646 -0.0055190658983042522 0 0.00044227862413120348 -0.0061584307716843452 0 -5.7448812954637279e-05 -0.0056639369280028036 0 0.00028060975212762008 -0.0064330323060935298 0 -4.1094558736113633e-05 -0.0046184281316069128 0 -9.1673106873256164e-05 -0.0046476857974023806 0 -5.9072815813166492e-05 -0.0046166799498963155 0 6.7620182777883115e-06 -0.0046495880413337963 0 -4.1094558736113633e-05 -0.0046184281316069128 0 -5.9072815813166492e-05 -0.0046166799498963155 0 -1.4945094645018671e-05 -0.0052848992906901621 0 5.2080612410506011e-05 -0.0057505625152480091 0 2.2242613865121307e-05 -0.0056684218231622466 0 -2.2977998335866558e-05 -0.0057909345726030468 0 3.1843325190800716e-07 -0.006324716703448266 0 -1.8474632312192348e-05 -0.0056432847036822437 0 2.2242613865121307e-05 -0.0056684218231622466 0 -2.2977998335866558e-05 -0.0057909345726030468 0 -3.1908164926688157e-07 -0.0055859575335180153 0 -2.2977998335866558e-05 -0.0057909345726030468 0 3.1843325190800716e-07 -0.006324716703448266 0 1.1417125833598349e-06 -0.0063276388308537842 0 0.00018839008430448131 -0.0070616030312452014 0 0.00030162732412327862 -0.0073957038345635259 0 5.2080612410506011e-05 -0.0057505625152480091 0 3.7299324749258225e-07 -0.006325294411226502 0 0.00049606325840561823 -0.0071611506046823838 0 1.1417125833598349e-06 -0.0063276388308537842 0 0.00018839008430448131 -0.0070616030312452014 0 8.807775445729608e-05 -0.0070519035979357799 0 0.00049606325840561823 -0.0071611506046823838 0 0.00018839008430448131 -0.0070616030312452014 0 0.00022927342215660275 -0.0059288352654735931 0 5.2080612410506011e-05 -0.0057505625152480091 0 0.00060494694624946483 -0.006176406910596715 0 0.00044227862413120348 -0.0061584307716843452 0 0.00028060975212762008 -0.0064330323060935298 0 8.807775445729608e-05 -0.0070519035979357799 0 0.00018839008430448131 -0.0070616030312452014 0 0.00030162732412327862 -0.0073957038345635259 0 8.807775445729608e-05 -0.0070519035979357799 0 0.00030162732412327862 -0.0073957038345635259 0 0.00056041025944536603 -0.0067810911223389111 0 0.00030162732412327862 -0.0073957038345635259 0 9.7988131290277679e-05 -0.0078595605006093246 0 0.00027335819944515453 -0.0083841709966715194 0 1.1417125833598349e-06 -0.0063276388308537842 0 0.00030162732412327862 -0.0073957038345635259 0 8.411265122878399e-05 -0.0074501345017627214 0 1.1417125833598349e-06 -0.0063276388308537842 0 -1.1702802386854794e-07 -0.0072045322975850768 0 8.411265122878399e-05 -0.0074501345017627214 0 -4.6760532013105736e-05 -0.0079826005883508969 0 -1.1702802386854794e-07 -0.0072045322975850768 0 8.411265122878399e-05 -0.0074501345017627214 0 -4.6760532013105736e-05 -0.0079826005883508969 0 9.7988131290277679e-05 -0.0078595605006093246 0 2.1706811132522516e-05 -0.0082615526258717209 0 -4.6760532013105736e-05 -0.0079826005883508969 0 8.411265122878399e-05 -0.0074501345017627214 0 9.7988131290277679e-05 -0.0078595605006093246 0 0.00030162732412327862 -0.0073957038345635259 0 8.411265122878399e-05 -0.0074501345017627214 0 9.7988131290277679e-05 -0.0078595605006093246 0 9.7988131290277679e-05 -0.0078595605006093246 0 2.1706811132522516e-05 -0.0082615526258717209 0 0.00027335819944515453 -0.0083841709966715194 0 2.1706811132522516e-05 -0.0082615526258717209 0 0.00027335819944515453 -0.0083841709966715194 0 7.9637524526102331e-05 -0.0085165251262994193 0 0.00030162732412327862 -0.0073957038345635259 0 0.0012482422945740313 -0.0062418942158314087 0 0.00056041025944536603 -0.0067810911223389111 0 0.00074924644815418137 -0.0074468088728653981 0 0.00087199252075376263 -0.0073654918595829327 0 0.00022927342215660275 -0.0059288352654735931 0 0.00035951340902389657 -0.0059327347217843262 0 0.0006436948027269422 -0.0061044177010213304 0 0.00060494694624946483 -0.006176406910596715 0 0.00081945445782486824 -0.0062876244897867627 0 8.807775445729608e-05 -0.0070519035979357799 0 0.00056041025944536603 -0.0067810911223389111 0 0.00081945445782486824 -0.0062876244897867627 0 0.0006436948027269422 -0.0061044177010213304 0 0.00081945445782486824 -0.0062876244897867627 0 0.00076937013403266942 -0.0059296600385931944 0 0.0012482422945740313 -0.0062418942158314087 0 0.00056041025944536603 -0.0067810911223389111 0 0.00081945445782486824 -0.0062876244897867627 0 0.0012482422945740313 -0.0062418942158314087 0 0.00081945445782486824 -0.0062876244897867627 0 0.001117077602984825 -0.0058993116039836582 0 0.00081945445782486824 -0.0062876244897867627 0 0.001117077602984825 -0.0058993116039836582 0 0.00076937013403266942 -0.0059296600385931944 0 0.001117077602984825 -0.0058993116039836582 0 0.00076937013403266942 -0.0059296600385931944 0 0.001003728179316026 -0.0056064589186843785 0 0.00062973503002447496 -0.0056229539296747772 0 0.00076937013403266942 -0.0059296600385931944 0 0.001003728179316026 -0.0056064589186843785 0 0.0017007584864736573 -0.0055006299616223858 0 0.001117077602984825 -0.0058993116039836582 0 0.001003728179316026 -0.0056064589186843785 0 7.0246479305117844e-05 -0.0087747921872889066 0 0.00027335819944515453 -0.0083841709966715194 0 7.9637524526102331e-05 -0.0085165251262994193 0 0.0017007584864736573 -0.0055006299616223858 0 0.0012482422945740313 -0.0062418942158314087 0 0.001117077602984825 -0.0058993116039836582 0 0.0011033892893988499 -0.0072610491798722346 0 0.00087199252075376263 -0.0073654918595829327 0 -0.0015033249312904834 -0.00029012213996804212 0 -0.001464241764401083 -9.3531471606694976e-05 0 -0.001481001025627527 -0.00054085744852679627 0 -0.0015033249312904834 -0.00029012213996804212 0 -0.0015554734316242987 -0.00010948795872818197 0 -0.0015052796664944332 -0.00051948308063061725 0 -0.0011583964663001438 -0.00098234660116340252 0 -0.0013035083798132948 -0.00087749558525824242 0 -0.0010331708254094211 -0.0015260545866890344 0 -0.0010097457198543615 -0.001829833046917065 0 -0.0013118943519684386 -0.0013331742036127531 0 -0.00089947627488099727 -0.0016804716100640774 0 -0.0010331708254094211 -0.0015260545866890344 0 -0.0010097457198543615 -0.001829833046917065 0 -0.0015033249312904834 -0.00029012213996804212 0 -0.0015554734316242987 -0.00010948795872818197 0 -0.0015152507177176775 -0.00012853634344287777 0 -0.0010331708254094211 -0.0015260545866890344 0 -0.00092039685090902388 -0.0013856662235741471 0 -0.001090496137202378 -0.0013377496946795006 0 -0.00089947627488099727 -0.0016804716100640774 0 -0.0010331708254094211 -0.0015260545866890344 0 -0.000870037461075517 -0.0015414339645003325 0 -0.0010331708254094211 -0.0015260545866890344 0 -0.000870037461075517 -0.0015414339645003325 0 -0.00092039685090902388 -0.0013856662235741471 0 -0.000870037461075517 -0.0015414339645003325 0 -0.00092039685090902388 -0.0013856662235741471 0 -0.00071809430464277418 -0.001414277210965782 0 -0.000870037461075517 -0.0015414339645003325 0 -0.00073322068047397397 -0.0016980060639543045 0 -0.00071809430464277418 -0.001414277210965782 0 -0.00073322068047397397 -0.0016980060639543045 0 -0.00071809430464277418 -0.001414277210965782 0 -0.00052748300106498147 -0.0015717248847966706 0 -0.00073322068047397397 -0.0016980060639543045 0 -0.00052748300106498147 -0.0015717248847966706 0 -0.00047271548113958544 -0.0018814464174462357 0 -0.00089947627488099727 -0.0016804716100640774 0 -0.000870037461075517 -0.0015414339645003325 0 -0.00073322068047397397 -0.0016980060639543045 0 -0.00089947627488099727 -0.0016804716100640774 0 -0.00073322068047397397 -0.0016980060639543045 0 -0.00084553888633360998 -0.0017931275397409933 0 -0.00084553888633360998 -0.0017931275397409933 0 -0.00074241498029040218 -0.0019625350556707511 0 -0.0010097457198543615 -0.001829833046917065 0 -0.00073322068047397397 -0.0016980060639543045 0 -0.00084553888633360998 -0.0017931275397409933 0 -0.00074241498029040218 -0.0019625350556707511 0 -0.00074241498029040218 -0.0019625350556707511 0 -0.0010097457198543615 -0.001829833046917065 0 -0.00073677772838729653 -0.0022643044328605941 0 -0.00073322068047397397 -0.0016980060639543045 0 -0.00074241498029040218 -0.0019625350556707511 0 -0.00047271548113958544 -0.0018814464174462357 0 -0.00074241498029040218 -0.0019625350556707511 0 -0.00047271548113958544 -0.0018814464174462357 0 -0.00050980723828833018 -0.0021217846022855251 0 -0.001532024658959589 -8.4325860892611623e-05 0 -0.0015217716284717069 -6.0112056534342078e-05 0 -0.0015300213380858429 -4.7944431206122425e-05 0 -0.0015554734316242987 -0.00010948795872818197 0 -0.001532024658959589 -8.4325860892611623e-05 0 -0.0015300213380858429 -4.7944431206122425e-05 0 -0.0011583964663001438 -0.00098234660116340252 0 -0.00091776872689422364 -0.0011509890184956929 0 -0.00089947627488099727 -0.0016804716100640774 0 -0.00084553888633360998 -0.0017931275397409933 0 -0.0010097457198543615 -0.001829833046917065 0 -0.0015033249312904834 -0.00029012213996804212 0 -0.0015152507177176775 -0.00012853634344287777 0 -0.001464241764401083 -9.3531471606694976e-05 0 -0.0015554734316242987 -0.00010948795872818197 0 -0.0015152507177176775 -0.00012853634344287777 0 -0.001532024658959589 -8.4325860892611623e-05 0 -0.0016722978766143368 5.0212395881237493e-05 0 -0.0016763355476677175 5.2192632348800619e-05 0 -0.0015152507177176775 -0.00012853634344287777 0 -0.001532024658959589 -8.4325860892611623e-05 0 -0.001464241764401083 -9.3531471606694976e-05 0 -0.001532024658959589 -8.4325860892611623e-05 0 -0.0015160814161576202 -6.5460175952243105e-05 0 -0.0015173872383896136 -6.252199611903118e-05 0 -0.001532024658959589 -8.4325860892611623e-05 0 -0.0015173872383896136 -6.252199611903118e-05 0 -0.0015217716284717069 -6.0112056534342078e-05 0 -0.0015173872383896136 -6.252199611903118e-05 0 -0.0015217716284717069 -6.0112056534342078e-05 0 -0.0015184437857331539 -5.3273085433614206e-05 0 -0.0015160814161576202 -6.5460175952243105e-05 0 -0.0015204748730201362 -3.9162125642846945e-05 0 -0.0015324023695765406 4.0231428806627503e-05 0 -0.0016763355476677175 5.2192632348800619e-05 0 -0.0017576061340880702 0.00015608886189913719 0 -0.0015217716284717069 -6.0112056534342078e-05 0 -0.0015184437857331539 -5.3273085433614206e-05 0 -0.0015201552122287184 -5.1511230484408416e-05 0 -0.0015173872383896136 -6.252199611903118e-05 0 -0.0015184437857331539 -5.3273085433614206e-05 0 -0.0015204748730201362 -3.9162125642846945e-05 0 -0.0015208837181688911 -4.4891507112029826e-05 0 -0.0015201552122287184 -5.1511230484408416e-05 0 -0.0015251256065031795 -3.4488016767485531e-05 0 -0.0015184437857331539 -5.3273085433614206e-05 0 -0.0015208837181688911 -4.4891507112029826e-05 0 -0.0015204748730201362 -3.9162125642846945e-05 0 -0.0015184437857331539 -5.3273085433614206e-05 0 -0.0015208837181688911 -4.4891507112029826e-05 0 -0.0015201552122287184 -5.1511230484408416e-05 0 -0.0015251256065031795 -3.4488016767485531e-05 0 -0.0015335728730855754 -3.5669884538979904e-05 0 -0.001528149708580807 -4.8400789910216803e-05 0 -0.0015201552122287184 -5.1511230484408416e-05 0 -0.0015251256065031795 -3.4488016767485531e-05 0 -0.001528149708580807 -4.8400789910216803e-05 0 -0.0015208837181688911 -4.4891507112029826e-05 0 -0.0015251256065031795 -3.4488016767485531e-05 0 -0.0015204748730201362 -3.9162125642846945e-05 0 -0.0015251256065031795 -3.4488016767485531e-05 0 -0.0015204748730201362 -3.9162125642846945e-05 0 -0.0015324023695765406 4.0231428806627503e-05 0 -0.0015160814161576202 -6.5460175952243105e-05 0 -0.0015173872383896136 -6.252199611903118e-05 0 -0.0015204748730201362 -3.9162125642846945e-05 0 -0.0015471779952811976 -4.1761924238725451e-05 0 -0.0015411558377086173 -1.2835702232865775e-05 0 -0.0015932219335943183 1.7547309495717638e-05 0 -0.0015251256065031795 -3.4488016767485531e-05 0 -0.0015335728730855754 -3.5669884538979904e-05 0 -0.0015411558377086173 -1.2835702232865775e-05 0 -0.0015471779952811976 -4.1761924238725451e-05 0 -0.0015335728730855754 -3.5669884538979904e-05 0 -0.001528149708580807 -4.8400789910216803e-05 0 -0.0015471779952811976 -4.1761924238725451e-05 0 -0.0015335728730855754 -3.5669884538979904e-05 0 -0.0015411558377086173 -1.2835702232865775e-05 0 -0.0015251256065031795 -3.4488016767485531e-05 0 -0.0015411558377086173 -1.2835702232865775e-05 0 -0.0015324023695765406 4.0231428806627503e-05 0 -0.0015411558377086173 -1.2835702232865775e-05 0 -0.0015324023695765406 4.0231428806627503e-05 0 -0.0015932219335943183 1.7547309495717638e-05 0 -0.0019141974646498959 0.00036391290928637236 0 -0.0019233480043163169 0.00035543976139436919 0 -0.0019182803757733433 0.00034478215187884567 0 -0.0019141974646498959 0.00036391290928637236 0 -0.0019014278114717939 0.00034715472133651961 0 -0.0019182803757733433 0.00034478215187884567 0 -0.0019373761339958378 0.00037094509919027515 0 -0.0019141974646498959 0.00036391290928637236 0 -0.0019233480043163169 0.00035543976139436919 0 -0.0019373761339958378 0.00037094509919027515 0 -0.0019233480043163169 0.00035543976139436919 0 -0.0019302580958039754 0.00034600024400173712 0 -0.0016763355476677175 5.2192632348800619e-05 0 -0.0017163991029658953 -1.4009762144284636e-05 0 -0.0015033249312904834 -0.00029012213996804212 0 -0.001481001025627527 -0.00054085744852679627 0 -0.0015052796664944332 -0.00051948308063061725 0 -0.001481001025627527 -0.00054085744852679627 0 -0.0015052796664944332 -0.00051948308063061725 0 -0.0016028068729703328 -0.00062317068447181553 0 -0.0013035083798132948 -0.00087749558525824242 0 -0.0013797112546846935 -0.00078661989102254341 0 -0.0019233480043163169 0.00035543976139436919 0 -0.0019302580958039754 0.00034600024400173712 0 -0.0019182803757733433 0.00034478215187884567 0 -0.0019302580958039754 0.00034600024400173712 0 -0.0019182803757733433 0.00034478215187884567 0 -0.0019230179891194478 0.0003301490010554383 0 -0.0019014278114717939 0.00034715472133651961 0 -0.0019182803757733433 0.00034478215187884567 0 -0.0019033388209824629 0.00033829079386224405 0 -0.0019182803757733433 0.00034478215187884567 0 -0.0019033388209824629 0.00033829079386224405 0 -0.0019131652882420293 0.00033373305353239375 0 -0.0019182803757733433 0.00034478215187884567 0 -0.0019131652882420293 0.00033373305353239375 0 -0.0019230179891194478 0.0003301490010554383 0 -0.0019033388209824629 0.00033829079386224405 0 -0.0019054883918229609 0.00032892653252643793 0 -0.0019131652882420293 0.00033373305353239375 0 -0.0019054883918229609 0.00032892653252643793 0 -0.0019159611092203967 0.00032627399494167286 0 -0.0019131652882420293 0.00033373305353239375 0 -0.0019159611092203967 0.00032627399494167286 0 -0.0019230179891194478 0.0003301490010554383 0 -0.0019209468981436237 0.00031968982385285189 0 -0.0019159611092203967 0.00032627399494167286 0 -0.0019131652882420293 0.00033373305353239375 0 -0.0019230179891194478 0.0003301490010554383 0 -0.0019328437339050804 0.00031256210115517588 0 -0.0019148931365830907 0.00031286779410438591 0 -0.0019209468981436237 0.00031968982385285189 0 -0.0019328437339050804 0.00031256210115517588 0 -0.0019230179891194478 0.0003301490010554383 0 -0.0019209468981436237 0.00031968982385285189 0 -0.0019148931365830907 0.00031286779410438591 0 -0.0019209468981436237 0.00031968982385285189 0 -0.0019121240354295062 0.00032131241502475559 0 -0.0019159611092203967 0.00032627399494167286 0 -0.0019209468981436237 0.00031968982385285189 0 -0.0019121240354295062 0.00032131241502475559 0 -0.0019054883918229609 0.00032892653252643793 0 -0.0019159611092203967 0.00032627399494167286 0 -0.0019121240354295062 0.00032131241502475559 0 -0.0019148931365830907 0.00031286779410438591 0 -0.0019121240354295062 0.00032131241502475559 0 -0.0019043197547295027 0.00032029505555186699 0 -0.0019054883918229609 0.00032892653252643793 0 -0.0019121240354295062 0.00032131241502475559 0 -0.0019043197547295027 0.00032029505555186699 0 -0.0019328437339050804 0.00031256210115517588 0 -0.0019302580958039754 0.00034600024400173712 0 -0.0019230179891194478 0.0003301490010554383 0 -0.0013118943519684386 -0.0013331742036127531 0 -0.0013359307570638523 -0.00089456185529902278 0 -0.0016028068729703328 -0.00062317068447181553 0 -0.0016446737935498486 -0.00062780592039154482 0 -0.001481001025627527 -0.00054085744852679627 0 -0.0016028068729703328 -0.00062317068447181553 0 -0.00176125750439566 -2.5105345355012838e-05 0 -0.0017163991029658953 -1.4009762144284636e-05 0 -0.0015012566533602436 -0.00055336278220033321 0 -0.0016446737935498486 -0.00062780592039154482 0 -0.0016028068729703328 -0.00062317068447181553 0 -0.0015012566533602436 -0.00055336278220033321 0 -0.0016028068729703328 -0.00062317068447181553 0 -0.0013691909178918215 -0.00065151048928263795 0 -0.0013359307570638523 -0.00089456185529902278 0 -0.0016028068729703328 -0.00062317068447181553 0 -0.0013691909178918215 -0.00065151048928263795 0 -0.0011079382012267897 -0.00056868083965986682 0 -0.0013691909178918215 -0.00065151048928263795 0 -0.0011661380315754449 -0.00081781257864995901 0 -0.0011079382012267897 -0.00056868083965986682 0 -0.00093456545871526732 -0.00074238333107578603 0 -0.0011661380315754449 -0.00081781257864995901 0 -0.00079912126763314435 -0.00048755337352001299 0 -0.0011079382012267897 -0.00056868083965986682 0 -0.00093456545871526732 -0.00074238333107578603 0 -0.00093456545871526732 -0.00074238333107578603 0 -0.00093528149857112931 -0.00098325091590496252 0 -0.0011661380315754449 -0.00081781257864995901 0 -0.00093528149857112931 -0.00098325091590496252 0 -0.0011661380315754449 -0.00081781257864995901 0 -0.0012110637662602584 -0.0010866898084961655 0 -0.0013359307570638523 -0.00089456185529902278 0 -0.0011661380315754449 -0.00081781257864995901 0 -0.0012110637662602584 -0.0010866898084961655 0 -0.0013359307570638523 -0.00089456185529902278 0 -0.0013691909178918215 -0.00065151048928263795 0 -0.0011661380315754449 -0.00081781257864995901 0 -0.0013118943519684386 -0.0013331742036127531 0 -0.0013359307570638523 -0.00089456185529902278 0 -0.0012110637662602584 -0.0010866898084961655 0 -0.0012110637662602584 -0.0010866898084961655 0 -0.001009053594261688 -0.0011980151457545367 0 -0.0011715706851243264 -0.0012404896709059133 0 -0.00093528149857112931 -0.00098325091590496252 0 -0.0012110637662602584 -0.0010866898084961655 0 -0.001009053594261688 -0.0011980151457545367 0 -0.001009053594261688 -0.0011980151457545367 0 -0.00092039685090902388 -0.0013856662235741471 0 -0.001090496137202378 -0.0013377496946795006 0 -0.001009053594261688 -0.0011980151457545367 0 -0.001090496137202378 -0.0013377496946795006 0 -0.0011715706851243264 -0.0012404896709059133 0 -0.0013118943519684386 -0.0013331742036127531 0 -0.0012110637662602584 -0.0010866898084961655 0 -0.0011715706851243264 -0.0012404896709059133 0 -0.0010331708254094211 -0.0015260545866890344 0 -0.0013118943519684386 -0.0013331742036127531 0 -0.001090496137202378 -0.0013377496946795006 0 -0.0013118943519684386 -0.0013331742036127531 0 -0.001090496137202378 -0.0013377496946795006 0 -0.0011715706851243264 -0.0012404896709059133 0 -0.00071809430464277418 -0.001414277210965782 0 -0.00051071000302373181 -0.0011818039025568948 0 -0.00052748300106498147 -0.0015717248847966706 0 -0.00071809430464277418 -0.001414277210965782 0 -0.00075161824145566667 -0.0011398499705676797 0 -0.00051071000302373181 -0.0011818039025568948 0 -0.00092039685090902388 -0.0013856662235741471 0 -0.00071809430464277418 -0.001414277210965782 0 -0.00075161824145566667 -0.0011398499705676797 0 -0.001009053594261688 -0.0011980151457545367 0 -0.00092039685090902388 -0.0013856662235741471 0 -0.00075161824145566667 -0.0011398499705676797 0 -0.00093528149857112931 -0.00098325091590496252 0 -0.001009053594261688 -0.0011980151457545367 0 -0.00075161824145566667 -0.0011398499705676797 0 -0.00075161824145566667 -0.0011398499705676797 0 -0.00066050397713131922 -0.00085440304101685766 0 -0.00051071000302373181 -0.0011818039025568948 0 -0.0005326458308547306 -0.00058159701259651248 0 -0.00066050397713131922 -0.00085440304101685766 0 -0.00044076977546876329 -0.00085065420567957098 0 -0.00093528149857112931 -0.00098325091590496252 0 -0.00075161824145566667 -0.0011398499705676797 0 -0.00066050397713131922 -0.00085440304101685766 0 -0.00093456545871526732 -0.00074238333107578603 0 -0.00093528149857112931 -0.00098325091590496252 0 -0.00066050397713131922 -0.00085440304101685766 0 -0.00079912126763314435 -0.00048755337352001299 0 -0.00093456545871526732 -0.00074238333107578603 0 -0.00066050397713131922 -0.00085440304101685766 0 -0.00028836806372705261 -0.00062447450081853874 0 -0.00044076977546876329 -0.00085065420567957098 0 -0.00018733958538970095 -0.0010458699119434318 0 -0.00044076977546876329 -0.00085065420567957098 0 -0.00018733958538970095 -0.0010458699119434318 0 -0.00051071000302373181 -0.0011818039025568948 0 -0.00066050397713131922 -0.00085440304101685766 0 -0.00044076977546876329 -0.00085065420567957098 0 -0.00051071000302373181 -0.0011818039025568948 0 0.00014178980469607241 -0.00085514283092853359 0 -5.9898689325114982e-05 -0.00074751780707782607 0 -0.00018733958538970095 -0.0010458699119434318 0 -0.00021446938877937817 -0.00055639733231417805 0 -0.00018632314685019041 -0.00070381233629031661 0 -9.417345398683663e-05 -0.0013222787696512541 0 0.00014666442742830495 -0.0012265123470291586 0 -3.0761647621877213e-05 -0.0016013549061974853 0 -0.00018733958538970095 -0.0010458699119434318 0 -9.417345398683663e-05 -0.0013222787696512541 0 -0.00032042318013102833 -0.0014663882988379194 0 -0.00018733958538970095 -0.0010458699119434318 0 -9.417345398683663e-05 -0.0013222787696512541 0 0.00014666442742830495 -0.0012265123470291586 0 -0.00018733958538970095 -0.0010458699119434318 0 -0.00051071000302373181 -0.0011818039025568948 0 -0.00032042318013102833 -0.0014663882988379194 0 -0.00051071000302373181 -0.0011818039025568948 0 -0.00052748300106498147 -0.0015717248847966706 0 -0.00032042318013102833 -0.0014663882988379194 0 0.00056473658811960752 -0.00077769293111592814 0 0.00035701375247560303 -0.00095134244637471452 0 0.0005827278949236146 -0.0012479401015145484 0 6.5743068434449768e-05 -0.0021648784912342736 0 0.00011605667037639703 -0.0026079682197862907 0 0.00035701375247560303 -0.00095134244637471452 0 0.00014666442742830495 -0.0012265123470291586 0 0.0005827278949236146 -0.0012479401015145484 0 0.00014178980469607241 -0.00085514283092853359 0 -0.00018733958538970095 -0.0010458699119434318 0 0.00014666442742830495 -0.0012265123470291586 0 0.00014178980469607241 -0.00085514283092853359 0 0.00035701375247560303 -0.00095134244637471452 0 0.00014666442742830495 -0.0012265123470291586 0 0.00014666442742830495 -0.0012265123470291586 0 0.0005827278949236146 -0.0012479401015145484 0 0.00029084587551854728 -0.0015661352228055897 0 0.00057259184874792427 -0.0017687983784065043 0 0.00029084587551854728 -0.0015661352228055897 0 0.00018712118216012525 -0.0019962434680405507 0 0.00011605667037639703 -0.0026079682197862907 0 0.00014448562950195807 -0.0030208047711316917 0 0.0005827278949236146 -0.0012479401015145484 0 0.00057259184874792427 -0.0017687983784065043 0 0.00029084587551854728 -0.0015661352228055897 0 0.00014666442742830495 -0.0012265123470291586 0 0.00029084587551854728 -0.0015661352228055897 0 -3.0761647621877213e-05 -0.0016013549061974853 0 0.00029084587551854728 -0.0015661352228055897 0 0.00018712118216012525 -0.0019962434680405507 0 -3.0761647621877213e-05 -0.0016013549061974853 0 0.00057259184874792427 -0.0017687983784065043 0 0.00018712118216012525 -0.0019962434680405507 0 0.00050671840430825243 -0.0022791325210902973 0 0.00014448562950195807 -0.0030208047711316917 0 0.00014778285653651424 -0.0033472298406639484 0 -0.00029204208159131162 -0.0017339522369226304 0 -0.00052748300106498147 -0.0015717248847966706 0 -0.00047271548113958544 -0.0018814464174462357 0 -0.00029204208159131162 -0.0017339522369226304 0 -0.00052748300106498147 -0.0015717248847966706 0 -0.00032042318013102833 -0.0014663882988379194 0 -0.00029204208159131162 -0.0017339522369226304 0 -0.00032042318013102833 -0.0014663882988379194 0 -3.0761647621877213e-05 -0.0016013549061974853 0 -9.417345398683663e-05 -0.0013222787696512541 0 -0.00032042318013102833 -0.0014663882988379194 0 -3.0761647621877213e-05 -0.0016013549061974853 0 -0.00029204208159131162 -0.0017339522369226304 0 -3.0761647621877213e-05 -0.0016013549061974853 0 -0.00016064499408560077 -0.001948880363772216 0 0.00018712118216012525 -0.0019962434680405507 0 -3.0761647621877213e-05 -0.0016013549061974853 0 -0.00016064499408560077 -0.001948880363772216 0 0.00018712118216012525 -0.0019962434680405507 0 -0.00016064499408560077 -0.001948880363772216 0 -6.5972180877125043e-05 -0.0023110814906430709 0 -0.00016064499408560077 -0.001948880363772216 0 -0.00047271548113958544 -0.0018814464174462357 0 -0.0002999289839427853 -0.0021246403725212709 0 -0.00029204208159131162 -0.0017339522369226304 0 -0.00016064499408560077 -0.001948880363772216 0 -0.00047271548113958544 -0.0018814464174462357 0 -0.00047271548113958544 -0.0018814464174462357 0 -0.00050980723828833018 -0.0021217846022855251 0 -0.0002999289839427853 -0.0021246403725212709 0 -0.00050980723828833018 -0.0021217846022855251 0 -0.00032890866166220955 -0.0023369883040372979 0 -0.0002999289839427853 -0.0021246403725212709 0 -0.00016064499408560077 -0.001948880363772216 0 -0.0002999289839427853 -0.0021246403725212709 0 -6.5972180877125043e-05 -0.0023110814906430709 0 -0.00032890866166220955 -0.0023369883040372979 0 -0.0002999289839427853 -0.0021246403725212709 0 -6.5972180877125043e-05 -0.0023110814906430709 0 -0.00032890866166220955 -0.0023369883040372979 0 -6.5972180877125043e-05 -0.0023110814906430709 0 -0.00018392335924518336 -0.002586638551556508 0 -6.5972180877125043e-05 -0.0023110814906430709 0 -0.00018392335924518336 -0.002586638551556508 0 -5.6207496382547342e-05 -0.0027465991628221648 0 -0.00018392335924518336 -0.002586638551556508 0 -0.00032571747576756548 -0.0025398652266071489 0 -0.00022802537200069885 -0.0026873355348327813 0 -0.00032890866166220955 -0.0023369883040372979 0 -0.00032571747576756548 -0.0025398652266071489 0 -0.00073677772838729653 -0.0022643044328605941 0 -0.00032571747576756548 -0.0025398652266071489 0 -0.00022802537200069885 -0.0026873355348327813 0 -0.00045026089376207944 -0.0026525370037254522 0 -0.00032890866166220955 -0.0023369883040372979 0 -0.00018392335924518336 -0.002586638551556508 0 -0.00032571747576756548 -0.0025398652266071489 0 0.00018712118216012525 -0.0019962434680405507 0 0.00050671840430825243 -0.0022791325210902973 0 0.00016287515242684151 -0.0025203446593118381 0 0.00018712118216012525 -0.0019962434680405507 0 -6.5972180877125043e-05 -0.0023110814906430709 0 0.00016287515242684151 -0.0025203446593118381 0 -6.5972180877125043e-05 -0.0023110814906430709 0 0.00016287515242684151 -0.0025203446593118381 0 -5.6207496382547342e-05 -0.0027465991628221648 0 0.00014778285653651424 -0.0033472298406639484 0 0.00010436731235734271 -0.003566168899753518 0 0.00050671840430825243 -0.0022791325210902973 0 0.00016287515242684151 -0.0025203446593118381 0 0.00040528019907436918 -0.002794218373309561 0 0.00016287515242684151 -0.0025203446593118381 0 0.00040528019907436918 -0.002794218373309561 0 1.6360126282081694e-05 -0.0030019901223200876 0 0.00016287515242684151 -0.0025203446593118381 0 1.6360126282081694e-05 -0.0030019901223200876 0 -5.6207496382547342e-05 -0.0027465991628221648 0 1.6360126282081694e-05 -0.0030019901223200876 0 -5.6207496382547342e-05 -0.0027465991628221648 0 -8.8841026617985999e-05 -0.002817085891807822 0 1.6360126282081694e-05 -0.0030019901223200876 0 -4.8323909863538645e-07 -0.0030166560502385051 0 -8.8841026617985999e-05 -0.002817085891807822 0 0.00040528019907436918 -0.002794218373309561 0 1.6360126282081694e-05 -0.0030019901223200876 0 9.8404040330923452e-07 -0.0037481927954854549 0 1.6360126282081694e-05 -0.0030019901223200876 0 -4.8323909863538645e-07 -0.0030166560502385051 0 9.8404040330923452e-07 -0.0037481927954854549 0 0.00010436731235734271 -0.003566168899753518 0 2.2424895317416631e-07 -0.0037492324047471671 0 -0.00022802537200069885 -0.0026873355348327813 0 -0.00013024627103636968 -0.0027214853963083681 0 -9.2257277937110157e-05 -0.0026948372463880977 0 -0.00013024627103636968 -0.0027214853963083681 0 -8.8107749560630688e-05 -0.0026482438269522803 0 -9.2257277937110157e-05 -0.0026948372463880977 0 -0.00019559607460881682 -0.0019773129499021003 0 -0.00046486210024304457 -0.0015286651595970309 0 -2.2248303154443363e-07 -0.0017047533913058606 0 -3.2236864898690598e-05 -0.0016050579237616919 0 -6.8989964997584878e-05 -0.0015947815673795383 0 -0.00022802537200069885 -0.0026873355348327813 0 -9.2257277937110157e-05 -0.0026948372463880977 0 -0.00026397026822866512 -0.002684113286198329 0 -0.00041704618890506641 -0.0015795393573893957 0 -0.00046486210024304457 -0.0015286651595970309 0 -0.00018392335924518336 -0.002586638551556508 0 -0.00022802537200069885 -0.0026873355348327813 0 -0.00013024627103636968 -0.0027214853963083681 0 -0.00018392335924518336 -0.002586638551556508 0 -5.6207496382547342e-05 -0.0027465991628221648 0 -0.00013024627103636968 -0.0027214853963083681 0 -5.6207496382547342e-05 -0.0027465991628221648 0 -0.00013024627103636968 -0.0027214853963083681 0 -8.8841026617985999e-05 -0.002817085891807822 0 -4.8323909863538645e-07 -0.0030166560502385051 0 -8.8841026617985999e-05 -0.002817085891807822 0 1.5788557815880129e-08 -0.0022848013019285511 0 -8.8107749560630688e-05 -0.0026482438269522803 0 -8.8841026617985999e-05 -0.002817085891807822 0 1.5788557815880129e-08 -0.0022848013019285511 0 -0.00013024627103636968 -0.0027214853963083681 0 -8.8107749560630688e-05 -0.0026482438269522803 0 -8.8841026617985999e-05 -0.002817085891807822 0 -3.7365987141408109e-07 -0.0022832995138438025 0 -0.00019559607460881682 -0.0019773129499021003 0 5.1996872343914142e-07 -0.0022829380220105965 0 -2.2248303154443363e-07 -0.0017047533913058606 0 -4.9880625303997002e-07 -0.0016522407225873059 0 -8.8107749560630688e-05 -0.0026482438269522803 0 1.5788557815880129e-08 -0.0022848013019285511 0 -9.2257277937110157e-05 -0.0026948372463880977 0 -2.2248303154443363e-07 -0.0017047533913058606 0 -4.9880625303997002e-07 -0.0016522407225873059 0 -3.2236864898690598e-05 -0.0016050579237616919 0 -4.9880625303997002e-07 -0.0016522407225873059 0 -3.9614635806375509e-05 -0.0015038526018127142 0 -3.2236864898690598e-05 -0.0016050579237616919 0 -4.9880625303997002e-07 -0.0016522407225873059 0 4.6320574963159511e-07 -0.001022289479567177 0 -3.9614635806375509e-05 -0.0015038526018127142 0 4.6320574963159511e-07 -0.001022289479567177 0 -3.9614635806375509e-05 -0.0015038526018127142 0 0.00013464195221488728 -0.0014441590721347821 0 -3.9614635806375509e-05 -0.0015038526018127142 0 5.9779939506694431e-05 -0.0017071155660859038 0 0.00013464195221488728 -0.0014441590721347821 0 -3.9614635806375509e-05 -0.0015038526018127142 0 -6.8989964997584878e-05 -0.0015947815673795383 0 5.9779939506694431e-05 -0.0017071155660859038 0 -3.9614635806375509e-05 -0.0015038526018127142 0 -3.2236864898690598e-05 -0.0016050579237616919 0 -6.8989964997584878e-05 -0.0015947815673795383 0 -0.0015213121484302266 -5.8289504770945613e-05 0 -0.0015235245344585725 -5.255900125271093e-05 0 -0.0015300213380858429 -4.7944431206122425e-05 0 -0.00046486210024304457 -0.0015286651595970309 0 -0.00070470602784377312 -0.00089417154364450401 0 -0.00032571747576756548 -0.0025398652266071489 0 -0.00045026089376207944 -0.0026525370037254522 0 -0.00073677772838729653 -0.0022643044328605941 0 -0.00046486210024304457 -0.0015286651595970309 0 -0.00091776872689422364 -0.0011509890184956929 0 -0.0015217716284717069 -6.0112056534342078e-05 0 -0.0015222708930737522 -5.3529603660187682e-05 0 -0.0015300213380858429 -4.7944431206122425e-05 0 -0.0015235245344585725 -5.255900125271093e-05 0 -0.0015222708930737522 -5.3529603660187682e-05 0 -0.0015300213380858429 -4.7944431206122425e-05 0 -0.0015235245344585725 -5.255900125271093e-05 0 -0.0015222708930737522 -5.3529603660187682e-05 0 -0.0015240356189238557 -5.2386361886812857e-05 0 -0.0015217716284717069 -6.0112056534342078e-05 0 -0.0015201552122287184 -5.1511230484408416e-05 0 -0.0015222708930737522 -5.3529603660187682e-05 0 -0.00050980723828833018 -0.0021217846022855251 0 -0.00032890866166220955 -0.0023369883040372979 0 -0.00073677772838729653 -0.0022643044328605941 0 -0.00074241498029040218 -0.0019625350556707511 0 -0.00050980723828833018 -0.0021217846022855251 0 -0.00073677772838729653 -0.0022643044328605941 0 -0.0015471779952811976 -4.1761924238725451e-05 0 -0.0015356104757443608 -0.00010163094781215301 0 -0.001652099920471611 -5.1122424334660525e-05 0 -0.0015471779952811976 -4.1761924238725451e-05 0 -0.0015337580361922316 -5.6136607220893799e-05 0 -0.001528149708580807 -4.8400789910216803e-05 0 -0.00093896717339218339 -0.00023260872645902012 0 -0.00090466485067633418 -0.00028126029695394844 0 -0.0015201552122287184 -5.1511230484408416e-05 0 -0.001528149708580807 -4.8400789910216803e-05 0 -0.0015240356189238557 -5.2386361886812857e-05 0 -0.0015235245344585725 -5.255900125271093e-05 0 -0.0015337580361922316 -5.6136607220893799e-05 0 -0.0015240356189238557 -5.2386361886812857e-05 0 -0.00070470602784377312 -0.00089417154364450401 0 -0.00090466485067633418 -0.00028126029695394844 0 -0.0015337580361922316 -5.6136607220893799e-05 0 -0.001528149708580807 -4.8400789910216803e-05 0 -0.0015240356189238557 -5.2386361886812857e-05 0 -0.0015201552122287184 -5.1511230484408416e-05 0 -0.0015222708930737522 -5.3529603660187682e-05 0 -0.0015240356189238557 -5.2386361886812857e-05 0 5.9779939506694431e-05 -0.0017071155660859038 0 0.00037386568824074703 -0.001850409110747262 0 0.00033234505684775307 -0.0015664926214576979 0 -0.00090466485067633418 -0.00028126029695394844 0 -0.00039764386064255558 -0.00055433740152639949 0 -0.00071255639858231335 0.0004826866175973427 0 -0.00068506727915654622 0.00034370791869556792 0 -0.00079063371119245844 0.00040547975070025905 0 -0.00068506727915654622 0.00034370791869556792 0 -0.00075535268315889842 0.00030370184743526229 0 -0.00079063371119245844 0.00040547975070025905 0 -0.00068506727915654622 0.00034370791869556792 0 -0.00075535268315889842 0.00030370184743526229 0 -0.00065719243387678901 0.00020168888984411427 0 -0.00039764386064255558 -0.00055433740152639949 0 -5.4710443876665116e-05 -0.00060689182608599055 0 0.00033234505684775307 -0.0015664926214576979 0 0.00013464195221488728 -0.0014441590721347821 0 0.00032212539530136107 -0.0011417233384980242 0 5.9779939506694431e-05 -0.0017071155660859038 0 0.00033234505684775307 -0.0015664926214576979 0 0.00013464195221488728 -0.0014441590721347821 0 4.6320574963159511e-07 -0.001022289479567177 0 0.00013464195221488728 -0.0014441590721347821 0 0.00032212539530136107 -0.0011417233384980242 0 -5.4710443876665116e-05 -0.00060689182608599055 0 -8.1146195662407772e-07 -0.00058921973455607741 0 -2.2348386153236181e-08 -0.0010197916443927275 0 -5.4710443876665116e-05 -0.00060689182608599055 0 -1.0574127912953772e-10 -0.0010207829520530475 0 -1.9265676238421029e-08 -0.0005714912485826945 0 -3.9090448412403403e-11 -0.00058932014365302822 0 -0.00075535268315889842 0.00030370184743526229 0 -0.00065719243387678901 0.00020168888984411427 0 -0.00078746961966088581 0.00023256829370225986 0 -5.4710443876665116e-05 -0.00060689182608599055 0 -0.00046460617459821821 5.5653037407825986e-05 0 1.050988179331988e-05 -0.00050594416959674315 0 1.6882098769436127e-07 -0.0005882294687762792 0 6.5768312005307523e-07 0.0002097402463940168 0 1.6882098769436127e-07 -0.0005882294687762792 0 6.5768312005307523e-07 0.0002097402463940168 0 -1.144271666627226e-07 0.00027860950630201152 0 -0.00046460617459821821 5.5653037407825986e-05 0 -0.00059680483096320226 0.00057803158922238595 0 6.5768312005307523e-07 0.0002097402463940168 0 -1.144271666627226e-07 0.00027860950630201152 0 -3.1826205169623943e-06 0.00071897616492267282 0 1.7449110756676855e-07 0.00027944826024116489 0 -5.6754184481256273e-08 0.001083559220691889 0 1.7432279853504335e-05 0.0011172730245019753 0 -6.4339170091058264e-08 0.00027983909535549931 0 -8.5374010057323138e-05 0.00061949768466612002 0 -1.144271666627226e-07 0.00027860950630201152 0 -3.1826205169623943e-06 0.00071897616492267282 0 -3.1697478850859319e-05 0.00073456289333190304 0 -0.00091542412179155673 0.00026430112000364091 0 -0.00085487690696062278 0.00033319461577598254 0 -0.00094016205092450737 0.00036713556420244669 0 -0.00078746961966088581 0.00023256829370225986 0 -0.00091542412179155673 0.00026430112000364091 0 -0.00085487690696062278 0.00033319461577598254 0 -0.00075535268315889842 0.00030370184743526229 0 -0.00078746961966088581 0.00023256829370225986 0 -0.00085487690696062278 0.00033319461577598254 0 -0.00075535268315889842 0.00030370184743526229 0 -0.00085487690696062278 0.00033319461577598254 0 -0.00079063371119245844 0.00040547975070025905 0 -4.0937918309943385e-05 0.0013920764094237912 0 -5.6754184481256273e-08 0.001083559220691889 0 -3.1302109009908688e-07 0.0018874357914186234 0 -4.0937918309943385e-05 0.0013920764094237912 0 -9.1852026163480928e-05 0.0015939994920381732 0 -3.1302109009908688e-07 0.0018874357914186234 0 -3.1697478850859319e-05 0.00073456289333190304 0 -9.7359123491962954e-05 0.0015269564498173289 0 -9.1852026163480928e-05 0.0015939994920381732 0 -3.1826205169623943e-06 0.00071897616492267282 0 -3.1697478850859319e-05 0.00073456289333190304 0 -9.7359123491962954e-05 0.0015269564498173289 0 -8.5374010057323138e-05 0.00061949768466612002 0 -0.00011187212597607389 0.00077658505450026356 0 -4.0937918309943385e-05 0.0013920764094237912 0 1.7432279853504335e-05 0.0011172730245019753 0 -9.1852026163480928e-05 0.0015939994920381732 0 -4.0937918309943385e-05 0.0013920764094237912 0 -5.6754184481256273e-08 0.001083559220691889 0 1.7432279853504335e-05 0.0011172730245019753 0 -0.0010440104930490802 0.00029653796106207599 0 -0.001007465117291598 0.00039282219290453114 0 -0.00094016205092450737 0.00036713556420244669 0 -0.00059680483096320226 0.00057803158922238595 0 -0.0006599658177030641 0.0011009267735691598 0 -0.00091542412179155673 0.00026430112000364091 0 -0.0010440104930490802 0.00029653796106207599 0 -0.00094016205092450737 0.00036713556420244669 0 -0.0010440104930490802 0.00029653796106207599 0 -0.0010764683980687344 0.00043233210935375105 0 -0.0011710494053227749 0.00032840524362090962 0 -9.7359123491962954e-05 0.0015269564498173289 0 -9.1852026163480928e-05 0.0015939994920381732 0 3.6343238720362672e-05 0.0017828878330270891 0 -0.0006599658177030641 0.0011009267735691598 0 -0.00074797057846456112 0.0017308024486440972 0 -0.0010440104930490802 0.00029653796106207599 0 -0.0010764683980687344 0.00043233210935375105 0 -0.001007465117291598 0.00039282219290453114 0 -0.0010764683980687344 0.00043233210935375105 0 -0.001007465117291598 0.00039282219290453114 0 -0.00096021930415178297 0.00045501631981217157 0 -0.001007465117291598 0.00039282219290453114 0 -0.00094016205092450737 0.00036713556420244669 0 -0.00096021930415178297 0.00045501631981217157 0 -0.0012352070414407407 0.0004270099239172223 0 -0.0012713155672974066 0.00046207955692698907 0 -0.0010764683980687344 0.00043233210935375105 0 -0.00096021930415178297 0.00045501631981217157 0 -0.00098031358646710992 0.00054029817989344978 0 -0.0012713155672974066 0.00046207955692698907 0 -0.0013819371467680801 0.00055285568565420463 0 -0.00095873210390691401 0.00044752421666083845 0 -0.00097822634653213069 0.00052962697267853998 0 -0.00091654836369746515 0.00050165808846448562 0 -0.0019152108901020245 0.0011108490822308754 0 -0.0020789502917953999 0.00093303666481618804 0 -0.0019205662920634913 0.00087906250267991159 0 -0.0013149692543101817 0.00088875047009875116 0 -0.0013819371467680801 0.00055285568565420463 0 -0.0019152108901020245 0.0011108490822308754 0 -0.0019205662920634913 0.00087906250267991159 0 -0.0017742634194395856 0.00093959378599582123 0 -0.00085487690696062278 0.00033319461577598254 0 -0.00079063371119245844 0.00040547975070025905 0 -0.00088109342381011981 0.00043113703747381295 0 -0.00085487690696062278 0.00033319461577598254 0 -0.00094016205092450737 0.00036713556420244669 0 -0.00088109342381011981 0.00043113703747381295 0 -0.00094016205092450737 0.00036713556420244669 0 -0.00095873210390691401 0.00044752421666083845 0 -0.00088109342381011981 0.00043113703747381295 0 -0.00088109342381011981 0.00043113703747381295 0 -0.00091654836369746515 0.00050165808846448562 0 -0.00082343609792743253 0.00053168560243646741 0 -0.00095873210390691401 0.00044752421666083845 0 -0.00088109342381011981 0.00043113703747381295 0 -0.00091654836369746515 0.00050165808846448562 0 -0.00079063371119245844 0.00040547975070025905 0 -0.00088109342381011981 0.00043113703747381295 0 -0.00082343609792743253 0.00053168560243646741 0 -0.00071255639858231335 0.0004826866175973427 0 -0.00079063371119245844 0.00040547975070025905 0 -0.00082343609792743253 0.00053168560243646741 0 -0.00090466485067633418 -0.00028126029695394844 0 -0.0012177087595832328 0.00011662090378822712 0 -0.0015471779952811976 -4.1761924238725451e-05 0 -0.001652099920471611 -5.1122424334660525e-05 0 -0.0015932219335943183 1.7547309495717638e-05 0 -0.001652099920471611 -5.1122424334660525e-05 0 -0.0016776932294960628 5.526675453831234e-05 0 -0.0015932219335943183 1.7547309495717638e-05 0 -0.0017576061340880702 0.00015608886189913719 0 -0.0018107376061123211 0.00021779724561650071 0 -0.0019141974646498959 0.00036391290928637236 0 -0.0019014278114717939 0.00034715472133651961 0 -0.0018830166219565862 0.00035053844545956248 0 -0.0016776932294960628 5.526675453831234e-05 0 -0.0015932219335943183 1.7547309495717638e-05 0 -0.0016642788307536733 0.00016667877484994315 0 -0.0015324023695765406 4.0231428806627503e-05 0 -0.0015932219335943183 1.7547309495717638e-05 0 -0.0016642788307536733 0.00016667877484994315 0 -0.0016642788307536733 0.00016667877484994315 0 -0.0017530461243126822 0.00013283252349739197 0 -0.0018738471457150352 0.00030801172340877761 0 -0.0017530461243126822 0.00013283252349739197 0 -0.0018447190591999653 0.00015518615583187957 0 -0.0018738471457150352 0.00030801172340877761 0 -0.0016776932294960628 5.526675453831234e-05 0 -0.0017530461243126822 0.00013283252349739197 0 -0.0017808248721918633 4.6868390616763245e-05 0 -0.0016776932294960628 5.526675453831234e-05 0 -0.0016642788307536733 0.00016667877484994315 0 -0.0017530461243126822 0.00013283252349739197 0 -0.0017530461243126822 0.00013283252349739197 0 -0.0018038141110533628 0.00010393778654644991 0 -0.0018447190591999653 0.00015518615583187957 0 -0.0017530461243126822 0.00013283252349739197 0 -0.0018038141110533628 0.00010393778654644991 0 -0.0017808248721918633 4.6868390616763245e-05 0 -0.0018038141110533628 0.00010393778654644991 0 -0.0017808248721918633 4.6868390616763245e-05 0 -0.0018394138275092886 8.1615922753299657e-05 0 -0.0017808248721918633 4.6868390616763245e-05 0 -0.0018112981957589059 1.2508628675251813e-05 0 -0.0018394138275092886 8.1615922753299657e-05 0 -0.00091654836369746515 0.00050165808846448562 0 -0.00082343609792743253 0.00053168560243646741 0 -0.00093324613044146393 0.00057982142821840703 0 -0.001652099920471611 -5.1122424334660525e-05 0 -0.0016776932294960628 5.526675453831234e-05 0 -0.0017808248721918633 4.6868390616763245e-05 0 -0.0012177087595832328 0.00011662090378822712 0 -0.0014142259537848472 0.00041612003351034084 0 -0.001652099920471611 -5.1122424334660525e-05 0 -0.0017808248721918633 4.6868390616763245e-05 0 -0.0018057255999127996 1.9196640673359698e-05 0 -0.0014275814495208498 0.00040164405580650849 0 -0.0014142259537848472 0.00041612003351034084 0 -0.00097822634653213069 0.00052962697267853998 0 -0.00091654836369746515 0.00050165808846448562 0 -0.00093324613044146393 0.00057982142821840703 0 -0.0014385329746093548 0.00043932400442860874 0 -0.0014567909766427416 0.00041900268420787246 0 -0.001431646962054379 0.00040792346655009985 0 -0.0020789502917953999 0.00093303666481618804 0 -0.0020503753982736334 0.0007969671181113023 0 -0.0019205662920634913 0.00087906250267991159 0 -0.0013819371467680801 0.00055285568565420463 0 -0.0014142259537848472 0.00041612003351034084 0 -0.0013819371467680801 0.00055285568565420463 0 -0.0015621775787583306 0.00053807431269665778 0 -0.0018112981957589059 1.2508628675251813e-05 0 -0.0019264414528944041 6.6428269105056674e-05 0 -0.0018394138275092886 8.1615922753299657e-05 0 -0.0014142259537848472 0.00041612003351034084 0 -0.0015621775787583306 0.00053807431269665778 0 -0.0020503753982736334 0.0007969671181113023 0 -0.0019205662920634913 0.00087906250267991159 0 -0.0019243618909861786 0.00073843558157254149 0 -0.0019205662920634913 0.00087906250267991159 0 -0.0019243618909861786 0.00073843558157254149 0 -0.0018136705967551003 0.00073738508956619074 0 -0.0020406474333373396 0.00078957911031447543 0 -0.0019243618909861786 0.00073843558157254149 0 -0.0019901216426557846 0.00059556426567049518 0 -0.0019243618909861786 0.00073843558157254149 0 -0.0018927735508371089 0.00064038084782159252 0 -0.0018136705967551003 0.00073738508956619074 0 -0.0015621775787583306 0.00053807431269665778 0 -0.0016703738670262769 0.00058896318690105937 0 -0.0019243618909861786 0.00073843558157254149 0 -0.0018927735508371089 0.00064038084782159252 0 -0.0019901216426557846 0.00059556426567049518 0 -0.0015621775787583306 0.00053807431269665778 0 -0.0016951084560646707 0.00048877442752061763 0 -0.0019264414528944041 6.6428269105056674e-05 0 -0.0018962532845407897 0.00020488478051841743 0 -0.0019426381709486454 0.00028686998999795577 0 -0.0019264414528944041 6.6428269105056674e-05 0 -0.0018447190591999653 0.00015518615583187957 0 -0.0018394138275092886 8.1615922753299657e-05 0 -0.0019264414528944041 6.6428269105056674e-05 0 -0.0018447190591999653 0.00015518615583187957 0 -0.0018962532845407897 0.00020488478051841743 0 -0.0018038141110533628 0.00010393778654644991 0 -0.0018447190591999653 0.00015518615583187957 0 -0.0018394138275092886 8.1615922753299657e-05 0 -0.0018447190591999653 0.00015518615583187957 0 -0.0018962532845407897 0.00020488478051841743 0 -0.0018738471457150352 0.00030801172340877761 0 -0.0019426381709486454 0.00028686998999795577 0 -0.0018963698026277257 0.00040627800075942848 0 -0.0018847442023664188 0.00036449103836944341 0 -0.0018962532845407897 0.00020488478051841743 0 -0.0018738471457150352 0.00030801172340877761 0 -0.0019426381709486454 0.00028686998999795577 0 -0.0018738471457150352 0.00030801172340877761 0 -0.0019426381709486454 0.00028686998999795577 0 -0.0018847442023664188 0.00036449103836944341 0 -0.0018738471457150352 0.00030801172340877761 0 -0.0018847442023664188 0.00036449103836944341 0 -0.0018751463000578551 0.00034538819073813305 0 -0.0016951084560646707 0.00048877442752061763 0 -0.0017291288600210946 0.00046816516411311089 0 -0.0019901216426557846 0.00059556426567049518 0 -0.0018811320884505902 0.00054001473690340604 0 -0.0018963698026277257 0.00040627800075942848 0 -0.0018927735508371089 0.00064038084782159252 0 -0.0018811320884505902 0.00054001473690340604 0 -0.0018171489002861111 0.00058871879563882079 0 -0.0018927735508371089 0.00064038084782159252 0 -0.0019901216426557846 0.00059556426567049518 0 -0.0018811320884505902 0.00054001473690340604 0 -0.0018963698026277257 0.00040627800075942848 0 -0.0018193860508510567 0.00047217942615430377 0 -0.0018350437063306779 0.00039269129358841619 0 -0.0018811320884505902 0.00054001473690340604 0 -0.0018963698026277257 0.00040627800075942848 0 -0.0018193860508510567 0.00047217942615430377 0 -0.0018847442023664188 0.00036449103836944341 0 -0.0018792729656849998 0.00035477031941803881 0 -0.0018751463000578551 0.00034538819073813305 0 -0.0018963698026277257 0.00040627800075942848 0 -0.0018847442023664188 0.00036449103836944341 0 -0.001880766134544081 0.00037678328568286712 0 -0.0018847442023664188 0.00036449103836944341 0 -0.0018792729656849998 0.00035477031941803881 0 -0.001880766134544081 0.00037678328568286712 0 -0.0018792729656849998 0.00035477031941803881 0 -0.0018786697069522857 0.00034175238899366857 0 -0.0018822583399440772 0.00033906223948403959 0 -0.0018792729656849998 0.00035477031941803881 0 -0.0018751463000578551 0.00034538819073813305 0 -0.0018786697069522857 0.00034175238899366857 0 -0.0018751463000578551 0.00034538819073813305 0 -0.0018786697069522857 0.00034175238899366857 0 -0.0018756679692401314 0.00033535451581389377 0 -0.0018786697069522857 0.00034175238899366857 0 -0.0018841702917191494 0.00033550870283047691 0 -0.0018756679692401314 0.00033535451581389377 0 -0.0018786697069522857 0.00034175238899366857 0 -0.0018858352093151229 0.00033185989926248224 0 -0.0018841702917191494 0.00033550870283047691 0 -0.0018786697069522857 0.00034175238899366857 0 -0.0018858352093151229 0.00033185989926248224 0 -0.0018822583399440772 0.00033906223948403959 0 -0.0018858352093151229 0.00033185989926248224 0 -0.0018942309122369982 0.00032822507638634519 0 -0.0018841702917191494 0.00033550870283047691 0 -0.0018858352093151229 0.00033185989926248224 0 -0.0018942309122369982 0.00032822507638634519 0 -0.0018942576265520321 0.00032079570982191427 0 -0.0019043197547295027 0.00032029505555186699 0 -0.0018942309122369982 0.00032822507638634519 0 -0.0018942576265520321 0.00032079570982191427 0 -0.0019054883918229609 0.00032892653252643793 0 -0.0019043197547295027 0.00032029505555186699 0 -0.0018942309122369982 0.00032822507638634519 0 -0.0019054883918229609 0.00032892653252643793 0 -0.0018942309122369982 0.00032822507638634519 0 -0.0018934448515788651 0.00033427092377143051 0 -0.0019033388209824629 0.00033829079386224405 0 -0.0019054883918229609 0.00032892653252643793 0 -0.0018934448515788651 0.00033427092377143051 0 -0.0018934448515788651 0.00033427092377143051 0 -0.0018841702917191494 0.00033550870283047691 0 -0.001889053279595877 0.00033951924873913773 0 -0.0018942309122369982 0.00032822507638634519 0 -0.0018934448515788651 0.00033427092377143051 0 -0.0018841702917191494 0.00033550870283047691 0 -0.0018841702917191494 0.00033550870283047691 0 -0.001889053279595877 0.00033951924873913773 0 -0.0018756679692401314 0.00033535451581389377 0 -0.0019033388209824629 0.00033829079386224405 0 -0.0018934448515788651 0.00033427092377143051 0 -0.001889053279595877 0.00033951924873913773 0 -0.0019014278114717939 0.00034715472133651961 0 -0.0019033388209824629 0.00033829079386224405 0 -0.001889053279595877 0.00033951924873913773 0 -0.0019014278114717939 0.00034715472133651961 0 -0.0018830166219565862 0.00035053844545956248 0 -0.001889053279595877 0.00033951924873913773 0 -0.0018830166219565862 0.00035053844545956248 0 -0.001889053279595877 0.00033951924873913773 0 -0.0018756679692401314 0.00033535451581389377 0 -0.0018830166219565862 0.00035053844545956248 0 -0.0018738471457150352 0.00030801172340877761 0 -0.0018756679692401314 0.00033535451581389377 0 -0.0018107376061123211 0.00021779724561650071 0 -0.0018502583283455231 0.00024625996798340364 0 -0.0018738471457150352 0.00030801172340877761 0 -0.0018751463000578551 0.00034538819073813305 0 -0.0018756679692401314 0.00033535451581389377 0 -0.0016053908081771324 0.00067503895935184187 0 -0.0017229271678109008 0.00077295899391664682 0 -0.0015343022324611887 0.00082222872004455451 0 -0.0014917286111163718 0.00068445386790365033 0 -0.0015343022324611887 0.00082222872004455451 0 -0.0013763943243740022 0.0007327976291592607 0 -0.0014917286111163718 0.00068445386790365033 0 -0.0016053908081771324 0.00067503895935184187 0 -0.0015343022324611887 0.00082222872004455451 0 -0.0014917286111163718 0.00068445386790365033 0 -0.0016053908081771324 0.00067503895935184187 0 -0.0015110571765447358 0.00055735113809920632 0 -0.0016053908081771324 0.00067503895935184187 0 -0.0016194438258568592 0.00056199905133804621 0 -0.0015110571765447358 0.00055735113809920632 0 -0.0017401369797292155 0.00056713553892444963 0 -0.001712479059152253 0.00069019480131581631 0 -0.0016053908081771324 0.00067503895935184187 0 -0.0017586060657307947 0.00062078176762838538 0 -0.0017229271678109008 0.00077295899391664682 0 -0.0016053908081771324 0.00067503895935184187 0 -0.0017586060657307947 0.00062078176762838538 0 -0.0016194438258568592 0.00056199905133804621 0 -0.0017609303842167775 0.00042657211650111426 0 -0.0018193860508510567 0.00047217942615430377 0 -0.0018350437063306779 0.00039269129358841619 0 -0.0017609303842167775 0.00042657211650111426 0 -0.0018193860508510567 0.00047217942615430377 0 -0.0016922965510674454 0.00058189740528650656 0 -0.0018193860508510567 0.00047217942615430377 0 -0.0018171489002861111 0.00058871879563882079 0 -0.0016922965510674454 0.00058189740528650656 0 -0.0018811320884505902 0.00054001473690340604 0 -0.0018193860508510567 0.00047217942615430377 0 -0.0018171489002861111 0.00058871879563882079 0 -0.001712479059152253 0.00069019480131581631 0 -0.0016848186767634572 0.00082438945448182123 0 -0.0017229271678109008 0.00077295899391664682 0 -0.0016832838995071678 0.00091318865033817166 0 -0.0015343022324611887 0.00082222872004455451 0 -0.0018171489002861111 0.00058871879563882079 0 -0.0016922965510674454 0.00058189740528650656 0 -0.0018136705967551003 0.00073738508956619074 0 -0.0016922965510674454 0.00058189740528650656 0 -0.0018136705967551003 0.00073738508956619074 0 -0.001651587072705516 0.00080517202783924192 0 -0.0018927735508371089 0.00064038084782159252 0 -0.0018171489002861111 0.00058871879563882079 0 -0.0018136705967551003 0.00073738508956619074 0 -0.0018136705967551003 0.00073738508956619074 0 -0.001651587072705516 0.00080517202783924192 0 -0.0017742634194395856 0.00093959378599582123 0 -0.0019205662920634913 0.00087906250267991159 0 -0.0018136705967551003 0.00073738508956619074 0 -0.0017742634194395856 0.00093959378599582123 0 -0.0016848186767634572 0.00082438945448182123 0 -0.0016711283562661063 0.00089843990472599194 0 -0.001651587072705516 0.00080517202783924192 0 -0.0017742634194395856 0.00093959378599582123 0 -0.0016446968483693663 0.0010351355388154297 0 -0.0016832838995071678 0.00091318865033817166 0 -0.0015577109016558499 0.00094474070645067672 0 -0.0016446968483693663 0.0010351355388154297 0 -0.0016832838995071678 0.00091318865033817166 0 -0.0015577109016558499 0.00094474070645067672 0 -0.0015343022324611887 0.00082222872004455451 0 -0.0017515591130166049 0.0017897566990613676 0 -0.001209256323382279 0.0031381268770198892 0 -0.0015577109016558499 0.00094474070645067672 0 -0.0015343022324611887 0.00082222872004455451 0 -0.0014303335566478188 0.00097052873563807955 0 -0.0015577109016558499 0.00094474070645067672 0 -0.0015084872860619584 0.0010675853922351231 0 -0.0014303335566478188 0.00097052873563807955 0 -0.0015084872860619584 0.0010675853922351231 0 -0.0014164792495756624 0.0010994636529803475 0 -0.0014067225567830502 0.0009670646009636172 0 -0.00094506060156865736 0.0024366375015695122 0 -0.001209256323382279 0.0031381268770198892 0 -0.0015577109016558499 0.00094474070645067672 0 -0.0015084872860619584 0.0010675853922351231 0 -0.0016446968483693663 0.0010351355388154297 0 -0.0015084872860619584 0.0010675853922351231 0 -0.0016446968483693663 0.0010351355388154297 0 -0.0015955707996750438 0.0012172192203931337 0 -0.0005422538368280883 0.0032380622871729112 0 -0.00069088170261061613 0.002489326567796912 0 -0.0015084872860619584 0.0010675853922351231 0 -0.0014460498992117541 0.0011885569041103577 0 -0.0015955707996750438 0.0012172192203931337 0 -0.0015084872860619584 0.0010675853922351231 0 -0.0014164792495756624 0.0010994636529803475 0 -0.0014460498992117541 0.0011885569041103577 0 -0.0019152108901020245 0.0011108490822308754 0 -0.0017742634194395856 0.00093959378599582123 0 -0.0017646381979643058 0.0010980924037488913 0 -0.0017742634194395856 0.00093959378599582123 0 -0.0016446968483693663 0.0010351355388154297 0 -0.0017646381979643058 0.0010980924037488913 0 -0.0016446968483693663 0.0010351355388154297 0 -0.0017646381979643058 0.0010980924037488913 0 -0.0015955707996750438 0.0012172192203931337 0 -0.0017646381979643058 0.0010980924037488913 0 -0.0017678796265740543 0.0012608534657419033 0 -0.0015955707996750438 0.0012172192203931337 0 -0.0013149692543101817 0.00088875047009875116 0 -0.00074797057846456112 0.0017308024486440972 0 -0.0019152108901020245 0.0011108490822308754 0 -0.0017646381979643058 0.0010980924037488913 0 -0.0017678796265740543 0.0012608534657419033 0 -9.1852026163480928e-05 0.0015939994920381732 0 3.6343238720362672e-05 0.0017828878330270891 0 1.486060931815948e-06 0.0021331171887854425 0 0.00083970056440819908 0.0036368536306739482 0 0.000155007203875104 0.0033960828303722444 0 5.6962649000324891e-05 0.0037126999199160343 0 -0.00074797057846456112 0.0017308024486440972 0 -0.00069088170261061613 0.002489326567796912 0 -0.00074797057846456112 0.0017308024486440972 0 -0.00018523234610288403 0.0023558343321437212 0 6.211790617467481e-07 0.0026919026319057082 0 3.9802770778369748e-05 0.0027753598254290617 0 1.486060931815948e-06 0.0021331171887854425 0 0.00083970056440819908 0.0036368536306739482 0 0.000155007203875104 0.0033960828303722444 0 3.9802770778369748e-05 0.0027753598254290617 0 3.6343238720362672e-05 0.0017828878330270891 0 3.9802770778369748e-05 0.0027753598254290617 0 1.486060931815948e-06 0.0021331171887854425 0 6.211790617467481e-07 0.0026919026319057082 0 -3.1302109009908688e-07 0.0018874357914186234 0 1.486060931815948e-06 0.0021331171887854425 0 -9.1852026163480928e-05 0.0015939994920381732 0 -3.1302109009908688e-07 0.0018874357914186234 0 1.486060931815948e-06 0.0021331171887854425 0 -0.00015570642711736812 0.0039002494848171553 0 -4.9654666852262011e-05 0.0034749706341636582 0 -8.5929080605520465e-05 0.0038330501677963889 0 -0.00015570642711736812 0.0039002494848171553 0 5.6962649000324891e-05 0.0037126999199160343 0 -4.9654666852262011e-05 0.0034749706341636582 0 0.000155007203875104 0.0033960828303722444 0 5.6962649000324891e-05 0.0037126999199160343 0 -4.9654666852262011e-05 0.0034749706341636582 0 6.211790617467481e-07 0.0026919026319057082 0 3.9802770778369748e-05 0.0027753598254290617 0 -3.8091146772934933e-07 0.0034962826326361924 0 3.9802770778369748e-05 0.0027753598254290617 0 -4.9654666852262011e-05 0.0034749706341636582 0 -3.8091146772934933e-07 0.0034962826326361924 0 0.000155007203875104 0.0033960828303722444 0 3.9802770778369748e-05 0.0027753598254290617 0 -4.9654666852262011e-05 0.0034749706341636582 0 -4.9654666852262011e-05 0.0034749706341636582 0 -3.8091146772934933e-07 0.0034962826326361924 0 -8.5929080605520465e-05 0.0038330501677963889 0 -3.8091146772934933e-07 0.0034962826326361924 0 -8.5929080605520465e-05 0.0038330501677963889 0 -3.3625876635658403e-08 0.0043003304429967727 0 -8.5929080605520465e-05 0.0038330501677963889 0 -6.9723287633003864e-05 0.0041565184616155406 0 -3.3625876635658403e-08 0.0043003304429967727 0 -0.00015570642711736812 0.0039002494848171553 0 -8.5929080605520465e-05 0.0038330501677963889 0 -6.9723287633003864e-05 0.0041565184616155406 0 -0.00015570642711736812 0.0039002494848171553 0 -6.9723287633003864e-05 0.0041565184616155406 0 -6.592540720513204e-06 0.0039480349574711159 0 3.6299068045393124e-05 0.0046742520676205553 0 -6.369563233363373e-05 0.0050488167018228024 0 0.00034101694313640375 0.0051731042862535395 0 2.5915715189566022e-05 0.0044669683409381961 0 -6.7028877837028758e-05 0.004288244431367755 0 -6.9723287633003864e-05 0.0041565184616155406 0 3.6299068045393124e-05 0.0046742520676205553 0 -6.592540720513204e-06 0.0039480349574711159 0 -6.9723287633003864e-05 0.0041565184616155406 0 -3.3625876635658403e-08 0.0043003304429967727 0 3.6299068045393124e-05 0.0046742520676205553 0 3.6299068045393124e-05 0.0046742520676205553 0 -4.3587040062493725e-08 0.0051043396880441818 0 -4.9448351682497426e-05 0.0052592874528868778 0 -3.3625876635658403e-08 0.0043003304429967727 0 3.6299068045393124e-05 0.0046742520676205553 0 -4.3587040062493725e-08 0.0051043396880441818 0 3.6299068045393124e-05 0.0046742520676205553 0 -4.9448351682497426e-05 0.0052592874528868778 0 -9.3746347381559492e-05 0.0051826452522074897 0 -4.3587040062493725e-08 0.0051043396880441818 0 -4.9448351682497426e-05 0.0052592874528868778 0 -1.9584188789931746e-07 0.00590862086908806 0 -4.9448351682497426e-05 0.0052592874528868778 0 -9.3746347381559492e-05 0.0051826452522074897 0 -2.3199487091117453e-05 0.0055055156220191756 0 0.0001356163815687615 0.0066621266969594476 0 7.415182123112053e-05 0.0068635182660083116 0 -9.3746347381559492e-05 0.0051826452522074897 0 -6.2400030243466638e-05 0.0051190636034589123 0 -2.6603768052361358e-05 0.00515354033997852 0 -9.3746347381559492e-05 0.0051826452522074897 0 -9.1415140150878158e-05 0.0051097824254270081 0 -6.369563233363373e-05 0.0050488167018228024 0 -9.3746347381559492e-05 0.0051826452522074897 0 -9.1415140150878158e-05 0.0051097824254270081 0 -9.844519898276879e-05 0.0051142903845567255 0 -9.3746347381559492e-05 0.0051826452522074897 0 -6.2400030243466638e-05 0.0051190636034589123 0 -9.844519898276879e-05 0.0051142903845567255 0 3.6299068045393124e-05 0.0046742520676205553 0 -9.3746347381559492e-05 0.0051826452522074897 0 -6.369563233363373e-05 0.0050488167018228024 0 -0.00011893071867079958 0.0056103706038859334 0 -0.00015360330705058942 0.0067690690236424291 0 -6.369563233363373e-05 0.0050488167018228024 0 6.9442757779654987e-05 0.0052194415419758175 0 0.00034101694313640375 0.0051731042862535395 0 6.9442757779654987e-05 0.0052194415419758175 0 -8.3592735888500454e-05 0.0051315074397788908 0 -9.5678097158631673e-05 0.0052012844778248531 0 -9.1415140150878158e-05 0.0051097824254270081 0 -6.369563233363373e-05 0.0050488167018228024 0 -8.3592735888500454e-05 0.0051315074397788908 0 -6.369563233363373e-05 0.0050488167018228024 0 6.9442757779654987e-05 0.0052194415419758175 0 -8.3592735888500454e-05 0.0051315074397788908 0 -0.00012523534490173658 0.0051084617351329527 0 -9.844519898276879e-05 0.0051142903845567255 0 -9.5678097158631673e-05 0.0052012844778248531 0 4.9803937556829194e-05 0.0069510880972096217 0 3.6436815712657429e-05 0.0069227822971238851 0 -9.1415140150878158e-05 0.0051097824254270081 0 -9.844519898276879e-05 0.0051142903845567255 0 -8.3592735888500454e-05 0.0051315074397788908 0 -9.844519898276879e-05 0.0051142903845567255 0 -8.3592735888500454e-05 0.0051315074397788908 0 -9.5678097158631673e-05 0.0052012844778248531 0 4.9803937556829194e-05 0.0069510880972096217 0 -0.00015360330705058942 0.0067690690236424291 0 2.5127690974683851e-05 0.0074155617736880002 0 0.00011059258980307585 0.0072846685893132599 0 0.00026935259826646398 0.0073498749390192913 0 2.5127690974683851e-05 0.0074155617736880002 0 0.00011059258980307585 0.0072846685893132599 0 -0.00011478350604513145 0.0072901067490583433 0 -0.0001450721197801746 0.0074394298457618122 0 -0.00011478350604513145 0.0072901067490583433 0 -0.00024104630391089151 0.0073284760334086955 0 -0.0001450721197801746 0.0074394298457618122 0 7.0094745639684049e-06 0.0074051697877896491 0 -0.00011478350604513145 0.0072901067490583433 0 -0.00015360330705058942 0.0067690690236424291 0 -5.9485826632130683e-05 0.0069140635988784987 0 -0.00011478350604513145 0.0072901067490583433 0 -0.00024104630391089151 0.0073284760334086955 0 -0.00016165137699592839 0.0071894654729840485 0 -0.00024104630391089151 0.0073284760334086955 0 -0.00031465921841546362 0.0072345303703476478 0 -0.00016165137699592839 0.0071894654729840485 0 -0.00024104630391089151 0.0073284760334086955 0 -0.00039603792898562314 0.0073300121654192385 0 -0.00030500568736978729 0.0074718003553549978 0 -0.00024104630391089151 0.0073284760334086955 0 -0.00039603792898562314 0.0073300121654192385 0 -0.00031465921841546362 0.0072345303703476478 0 -0.0014164792495756624 0.0010994636529803475 0 -0.0013461280257717951 0.0010613662352626353 0 -0.0014067225567830502 0.0009670646009636172 0 -0.00039603792898562314 0.0073300121654192385 0 -0.00048602487296887345 0.0071853710015163507 0 -0.00031465921841546362 0.0072345303703476478 0 -0.00062596740614607137 0.0038210949311857723 0 -0.001209256323382279 0.0031381268770198892 0 -0.0014164792495756624 0.0010994636529803475 0 -0.0013461280257717951 0.0010613662352626353 0 -0.001283390799732209 0.0011617182621239954 0 -0.0005422538368280883 0.0032380622871729112 0 -6.7028877837028758e-05 0.004288244431367755 0 -0.0014164792495756624 0.0010994636529803475 0 -0.0014460498992117541 0.0011885569041103577 0 -0.001283390799732209 0.0011617182621239954 0 -0.00062596740614607137 0.0038210949311857723 0 -6.7028877837028758e-05 0.004288244431367755 0 -0.00011893071867079958 0.0056103706038859334 0 -6.7028877837028758e-05 0.004288244431367755 0 -0.0001450721197801746 0.0074394298457618122 0 -0.00024104630391089151 0.0073284760334086955 0 -0.00030500568736978729 0.0074718003553549978 0 0.00019557522790033342 0.0079349179565138123 0 9.4753276940100781e-05 0.0080314144932173252 0 0.00015157133655694803 0.0080915639664495605 0 0.00045164870969257139 0.0084311949570053009 0 -9.5352042181144297e-05 0.0083759329498588019 0 0.00015157133655694803 0.0080915639664495605 0 0.00070485413629936674 0.0080068811077730895 0 0.00045164870969257139 0.0084311949570053009 0 0.00015157133655694803 0.0080915639664495605 0 8.3982484464812844e-07 0.0073853863883933434 0 0.00070485413629936674 0.0080068811077730895 0 1.3813404359003342e-07 0.0073840888480873655 0 0.00015300134342734716 0.0074823370153741181 0 2.7330718922584127e-09 0.0067144540386267102 0 -1.0626790399635236e-05 0.0068247409023941309 0 0.00010338100407345253 0.0068073991454834001 0 -2.5339062248598955e-09 0.0073826205829900611 0 2.7330718922584127e-09 0.0067144540386267102 0 -1.0626790399635236e-05 0.0068247409023941309 0 0.00089153596575591691 0.0083434810195758234 0 0.0011895619435111728 0.0084734855347923937 0 0.00045164870969257139 0.0084311949570053009 0 0.00070485413629936674 0.0080068811077730895 0 0.00089153596575591691 0.0083434810195758234 0 0.0012326982536842172 0.0084756091174800988 0 0.00070485413629936674 0.0080068811077730895 0 0.00089153596575591691 0.0083434810195758234 0 0.00045164870969257139 0.0084311949570053009 0 0.00015300134342734716 0.0074823370153741181 0 8.3574368949270857e-05 0.0074913328214003322 0 0.00010338100407345253 0.0068073991454834001 0 0.00019365623857938138 0.0068931217312882837 0 0.00010853228187810779 0.0069293797109239112 0 -1.0626790399635236e-05 0.0068247409023941309 0 0.00010338100407345253 0.0068073991454834001 0 0.00010853228187810779 0.0069293797109239112 0 5.5653853885501848e-07 0.0067121417760350778 0 8.617891807182245e-05 0.0058220215356762422 0 -1.9584188789931746e-07 0.00590862086908806 0 -1.8211265770694631e-07 0.0067126917308268389 0 -6.6172881541789371e-05 0.0066228387664347835 0 8.617891807182245e-05 0.0058220215356762422 0 -1.9584188789931746e-07 0.00590862086908806 0 -2.3199487091117453e-05 0.0055055156220191756 0 -4.9448351682497426e-05 0.0052592874528868778 0 -1.9584188789931746e-07 0.00590862086908806 0 -2.3199487091117453e-05 0.0055055156220191756 0 8.617891807182245e-05 0.0058220215356762422 0 -2.3199487091117453e-05 0.0055055156220191756 0 1.1087493762570639e-05 0.0053631447682190667 0 -9.3746347381559492e-05 0.0051826452522074897 0 -2.3199487091117453e-05 0.0055055156220191756 0 1.1087493762570639e-05 0.0053631447682190667 0 -6.6172881541789371e-05 0.0066228387664347835 0 7.415182123112053e-05 0.0068635182660083116 0 7.415182123112053e-05 0.0068635182660083116 0 8.3574368949270857e-05 0.0074913328214003322 0 4.9803937556829194e-05 0.0069510880972096217 0 7.415182123112053e-05 0.0068635182660083116 0 8.1294027911793534e-05 0.0083521803123192094 0 4.2661020756321091e-05 0.0083707142855507129 0 1.9710456028752818e-05 0.0083496295150641154 0 8.1294027911793534e-05 0.0083521803123192094 0 0.00011728349485236927 0.0083840799179678901 0 4.3079155241374381e-05 0.0084057937350421608 0 8.1294027911793534e-05 0.0083521803123192094 0 4.2661020756321091e-05 0.0083707142855507129 0 4.3079155241374381e-05 0.0084057937350421608 0 -6.9668066681188523e-06 0.0072528634039278851 0 4.8156037124934377e-05 0.0073048920381665206 0 0.00015032792760018106 0.0072624389839565512 0 4.9803937556829194e-05 0.0069510880972096217 0 8.3574368949270857e-05 0.0074913328214003322 0 -0.00015360330705058942 0.0067690690236424291 0 3.4852260033315333e-05 0.0073688345494079431 0 4.3079155241374381e-05 0.0084057937350421608 0 1.0152365853398021e-05 0.0083919872720567626 0 -2.781664286228126e-05 0.0084277746178910498 0 3.4852260033315333e-05 0.0073688345494079431 0 0.00015338706633865633 0.007648684056538538 0 0.00026935259826646398 0.0073498749390192913 0 0.00044429272445120296 0.0073064694176469451 0 0.00037818360682005745 0.0071771067612923659 0 -5.9311879043678751e-06 0.0083814006101215061 0 1.0152365853398021e-05 0.0083919872720567626 0 1.7307286804870586e-05 0.008369594787303241 0 -5.9311879043678751e-06 0.0083814006101215061 0 1.0152365853398021e-05 0.0083919872720567626 0 -1.9364945719142181e-05 0.0083974995860599377 0 4.2661020756321091e-05 0.0083707142855507129 0 1.0152365853398021e-05 0.0083919872720567626 0 1.7307286804870586e-05 0.008369594787303241 0 4.2661020756321091e-05 0.0083707142855507129 0 4.3079155241374381e-05 0.0084057937350421608 0 1.0152365853398021e-05 0.0083919872720567626 0 4.2661020756321091e-05 0.0083707142855507129 0 1.7307286804870586e-05 0.008369594787303241 0 2.1615685137793771e-05 0.0083547213645114634 0 0.00012622368708963976 0.0075657791754948937 0 8.3574368949270857e-05 0.0074913328214003322 0 1.7307286804870586e-05 0.008369594787303241 0 2.1615685137793771e-05 0.0083547213645114634 0 1.7168745150402792e-05 0.0083544039166456707 0 8.3574368949270857e-05 0.0074913328214003322 0 0.00010366638631593935 0.0075628940965848492 0 0.00089153596575591691 0.0083434810195758234 0 0.0012326982536842172 0.0084756091174800988 0 0.0011895619435111728 0.0084734855347923937 0 -5.9311879043678751e-06 0.0083814006101215061 0 1.7307286804870586e-05 0.008369594787303241 0 1.7168745150402792e-05 0.0083544039166456707 0 0.00010366638631593935 0.0075628940965848492 0 -0.0001060788862558328 0.0080367295147788457 0 5.3635370939592523e-05 0.0083745970456673702 0 -2.7181756298096553e-05 0.0084086725032541266 0 -2.2695316584765312e-05 0.0083748617824943115 0 -5.9311879043678751e-06 0.0083814006101215061 0 1.7168745150402792e-05 0.0083544039166456707 0 -5.4221444076760608e-05 0.0083939855592829182 0 -5.9311879043678751e-06 0.0083814006101215061 0 -1.9364945719142181e-05 0.0083974995860599377 0 -5.4221444076760608e-05 0.0083939855592829182 0 0.00010366638631593935 0.0075628940965848492 0 0.00019557522790033342 0.0079349179565138123 0 1.0152365853398021e-05 0.0083919872720567626 0 -1.9364945719142181e-05 0.0083974995860599377 0 -2.781664286228126e-05 0.0084277746178910498 0 -1.9364945719142181e-05 0.0083974995860599377 0 -2.781664286228126e-05 0.0084277746178910498 0 -5.4221444076760608e-05 0.0083939855592829182 0 0.00015338706633865633 0.007648684056538538 0 0.00022953575616443391 0.0077932451416234056 0 -2.781664286228126e-05 0.0084277746178910498 0 -5.4221444076760608e-05 0.0083939855592829182 0 -8.8719916628646591e-05 0.0084477428435830709 0 -2.7181756298096553e-05 0.0084086725032541266 0 -2.2695316584765312e-05 0.0083748617824943115 0 -9.5352042181144297e-05 0.0083759329498588019 0 0.00050354923494119166 0.0071773630226281806 0 0.00052141110957315692 0.0070998966183671913 0 0.00059570017152669075 0.0071574746726953296 0 0.00050354923494119166 0.0071773630226281806 0 0.00044769688520589435 0.0071077876578674393 0 0.00052141110957315692 0.0070998966183671913 0 0.00050354923494119166 0.0071773630226281806 0 0.00059161215458575613 0.0072790347434416383 0 0.00059570017152669075 0.0071574746726953296 0 0.00044429272445120296 0.0073064694176469451 0 0.00050354923494119166 0.0071773630226281806 0 0.00059161215458575613 0.0072790347434416383 0 0.00044429272445120296 0.0073064694176469451 0 0.00050354923494119166 0.0071773630226281806 0 0.00037818360682005745 0.0071771067612923659 0 0.00050354923494119166 0.0071773630226281806 0 0.00044769688520589435 0.0071077876578674393 0 0.00037818360682005745 0.0071771067612923659 0 0.00044769688520589435 0.0071077876578674393 0 0.00037818360682005745 0.0071771067612923659 0 0.00035730682045601009 0.0070781706372583068 0 0.00037818360682005745 0.0071771067612923659 0 0.00020705775634061893 0.0071164057859116952 0 0.00035730682045601009 0.0070781706372583068 0 0.00026935259826646398 0.0073498749390192913 0 0.00037818360682005745 0.0071771067612923659 0 0.00020705775634061893 0.0071164057859116952 0 0.00011059258980307585 0.0072846685893132599 0 0.00026935259826646398 0.0073498749390192913 0 0.00020705775634061893 0.0071164057859116952 0 0.00017248405353568306 0.0068253856063459767 0 0.0002373041599980501 0.0066832461014940713 0 0.00020705775634061893 0.0071164057859116952 0 0.00027321996185037268 0.0068838662445999286 0 0.00013283500384407367 0.006890487242688822 0 0.00020705775634061893 0.0071164057859116952 0 0.00027321996185037268 0.0068838662445999286 0 0.00045843491675419054 0.006920563816076768 0 0.00027321996185037268 0.0068838662445999286 0 0.00021484193860443545 0.0067718931324678823 0 0.00013283500384407367 0.006890487242688822 0 0.00027321996185037268 0.0068838662445999286 0 0.00021484193860443545 0.0067718931324678823 0 0.00038556319810513961 0.006781955232735986 0 -8.5198791858770388e-05 0.0048991463451576317 0 -0.00050162831287801609 0.0039582118575796884 0 -0.00043223985461254334 0.0041866296127158415 0 -0.00054239985895593833 0.0041654082521821543 0 -0.00045563534266906584 0.0040878768356734279 0 -0.00043223985461254334 0.0041866296127158415 0 -0.0003816408886809752 0.0041227034312467112 0 -0.00045563534266906584 0.0040878768356734279 0 0.00021484193860443545 0.0067718931324678823 0 0.00031780378802488598 0.0066687617761683948 0 0.00010432855354246717 0.0066332796221601669 0 0.00021484193860443545 0.0067718931324678823 0 0.00031780378802488598 0.0066687617761683948 0 0.00038556319810513961 0.006781955232735986 0 -8.5198791858770388e-05 0.0048991463451576317 0 0.00019143938265609538 0.0056623495673970639 0 -0.00032077693628810287 0.0042091545698475803 0 -0.00030748191424377939 0.0040879965861016707 0 -0.0003816408886809752 0.0041227034312467112 0 0.00031780378802488598 0.0066687617761683948 0 0.00038556319810513961 0.006781955232735986 0 0.00053651836450161557 0.0067066662154321912 0 -0.00043223985461254334 0.0041866296127158415 0 -0.00032077693628810287 0.0042091545698475803 0 -0.0003816408886809752 0.0041227034312467112 0 0.00053130383076338897 0.0067527016633822535 0 0.00038556319810513961 0.006781955232735986 0 0.00053651836450161557 0.0067066662154321912 0 0.00053130383076338897 0.0067527016633822535 0 0.00038556319810513961 0.006781955232735986 0 0.00045843491675419054 0.006920563816076768 0 0.00027321996185037268 0.0068838662445999286 0 0.00038556319810513961 0.006781955232735986 0 0.00045843491675419054 0.006920563816076768 0 0.00044769688520589435 0.0071077876578674393 0 0.00047524978120199617 0.0070220889253461861 0 0.00052141110957315692 0.0070998966183671913 0 0.00053130383076338897 0.0067527016633822535 0 0.00045843491675419054 0.006920563816076768 0 0.00069661972210045614 0.0067352853209621194 0 0.00044769688520589435 0.0071077876578674393 0 0.00035730682045601009 0.0070781706372583068 0 0.00047524978120199617 0.0070220889253461861 0 0.0002373041599980501 0.0066832461014940713 0 0.00035520283429784884 0.0062505450002391487 0 0.00019143938265609538 0.0056623495673970639 0 0.00035520283429784884 0.0062505450002391487 0 0.00019143938265609538 0.0056623495673970639 0 -0.00013368703141153481 0.0048042404309908797 0 0.00053130383076338897 0.0067527016633822535 0 0.00053653742568734889 0.0067070500892517301 0 0.00069661972210045614 0.0067352853209621194 0 0.00043271884021173803 0.0062488884995883232 0 0.00041090714496315104 0.0062837943265269224 0 0.00042213729387015678 0.0063303642053578954 0 0.00043271884021173803 0.0062488884995883232 0 0.00041090714496315104 0.0062837943265269224 0 0.00037425329847902823 0.0062377168714315518 0 0.0001913347518798657 0.0056867101284100692 0 0.00019143938265609538 0.0056623495673970639 0 0.00034964891465838759 0.0063062062290709956 0 0.00028735408175387101 0.0063204755344816567 0 0.00031007491143934221 0.0063277559399273443 0 0.0002617128337232907 0.0063192821540926404 0 0.00026268910158841761 0.0063633654612607095 0 0.00041090714496315104 0.0062837943265269224 0 0.00037425329847902823 0.0062377168714315518 0 0.00028656575011202237 0.0063039153123219732 0 0.00035520283429784884 0.0062505450002391487 0 0.00028735408175387101 0.0063204755344816567 0 0.00052141110957315692 0.0070998966183671913 0 0.00059570017152669075 0.0071574746726953296 0 0.0005853132796768707 0.0070600348834814284 0 0.00035520283429784884 0.0062505450002391487 0 0.00041726435549561291 0.0065772645359204688 0 0.00047524978120199617 0.0070220889253461861 0 0.00052141110957315692 0.0070998966183671913 0 0.0005853132796768707 0.0070600348834814284 0 -0.00033280961644567558 0.0070105979519807377 0 -0.00020735926945918826 0.0070162150233787288 0 -0.00028075121882594357 0.0071223855940722889 0 -0.00020735926945918826 0.0070162150233787288 0 -0.00028075121882594357 0.0071223855940722889 0 -0.00015867323537148661 0.007079165486330548 0 -0.00033280961644567558 0.0070105979519807377 0 -0.00020735926945918826 0.0070162150233787288 0 -0.00017726785910139812 0.0068860672023227038 0 -0.0015343022324611887 0.00082222872004455451 0 -0.001340124318550294 0.00086933586374133263 0 -0.0014404976657479652 0.00098727574678847125 0 -0.00033280961644567558 0.0070105979519807377 0 -0.00048602487296887345 0.0071853710015163507 0 -0.00028075121882594357 0.0071223855940722889 0 -0.00048602487296887345 0.0071853710015163507 0 -0.00031465921841546362 0.0072345303703476478 0 -0.00028075121882594357 0.0071223855940722889 0 -0.0011439529684295349 0.0034669601731693298 0 -0.001209256323382279 0.0031381268770198892 0 -0.00028075121882594357 0.0071223855940722889 0 -0.00016165137699592839 0.0071894654729840485 0 -0.00015867323537148661 0.007079165486330548 0 -0.00031465921841546362 0.0072345303703476478 0 -0.00028075121882594357 0.0071223855940722889 0 -0.00016165137699592839 0.0071894654729840485 0 -0.00016165137699592839 0.0071894654729840485 0 2.5891392943531622e-05 0.0071767006004546134 0 -6.407770124599472e-05 0.0070876136632092761 0 -0.00011478350604513145 0.0072901067490583433 0 -0.00016165137699592839 0.0071894654729840485 0 2.5891392943531622e-05 0.0071767006004546134 0 -0.00016165137699592839 0.0071894654729840485 0 -0.00015867323537148661 0.007079165486330548 0 -6.407770124599472e-05 0.0070876136632092761 0 0.00011059258980307585 0.0072846685893132599 0 -0.00011478350604513145 0.0072901067490583433 0 2.5891392943531622e-05 0.0071767006004546134 0 0.00011059258980307585 0.0072846685893132599 0 0.00020705775634061893 0.0071164057859116952 0 2.5891392943531622e-05 0.0071767006004546134 0 0.00020705775634061893 0.0071164057859116952 0 2.5891392943531622e-05 0.0071767006004546134 0 2.7115856120478147e-05 0.0069952232701815187 0 0.00020705775634061893 0.0071164057859116952 0 2.7115856120478147e-05 0.0069952232701815187 0 0.00013283500384407367 0.006890487242688822 0 2.5891392943531622e-05 0.0071767006004546134 0 2.7115856120478147e-05 0.0069952232701815187 0 -6.407770124599472e-05 0.0070876136632092761 0 -0.00020735926945918826 0.0070162150233787288 0 -0.00015867323537148661 0.007079165486330548 0 -0.00010189376048374005 0.0069913266013042321 0 -0.00015867323537148661 0.007079165486330548 0 -6.407770124599472e-05 0.0070876136632092761 0 -0.00010189376048374005 0.0069913266013042321 0 2.7115856120478147e-05 0.0069952232701815187 0 -6.407770124599472e-05 0.0070876136632092761 0 -0.00010189376048374005 0.0069913266013042321 0 2.7115856120478147e-05 0.0069952232701815187 0 -0.00010189376048374005 0.0069913266013042321 0 -5.2686456969928332e-05 0.0068984073636574952 0 -0.00010189376048374005 0.0069913266013042321 0 -5.2686456969928332e-05 0.0068984073636574952 0 -0.00017726785910139812 0.0068860672023227038 0 -0.00020735926945918826 0.0070162150233787288 0 -0.00010189376048374005 0.0069913266013042321 0 -0.00017726785910139812 0.0068860672023227038 0 -0.00076177800153891272 0.0050737256149917843 0 -0.00082482594953130976 0.0054010156777596031 0 -5.2686456969928332e-05 0.0068984073636574952 0 -4.1345246537472808e-05 0.0067719064872952487 0 2.9615177565855188e-05 0.0068616780758840243 0 -5.2686456969928332e-05 0.0068984073636574952 0 -4.1345246537472808e-05 0.0067719064872952487 0 -0.00017726785910139812 0.0068860672023227038 0 2.5359727716879635e-06 0.0067139479482244604 0 -0.0001620263720258784 0.0067858805013194991 0 -0.00017726785910139812 0.0068860672023227038 0 0.00013283500384407367 0.006890487242688822 0 2.9615177565855188e-05 0.0068616780758840243 0 8.1770233460896053e-05 0.0067741716602235519 0 2.7115856120478147e-05 0.0069952232701815187 0 0.00013283500384407367 0.006890487242688822 0 2.9615177565855188e-05 0.0068616780758840243 0 2.7115856120478147e-05 0.0069952232701815187 0 -5.2686456969928332e-05 0.0068984073636574952 0 2.9615177565855188e-05 0.0068616780758840243 0 -4.1345246537472808e-05 0.0067719064872952487 0 2.9615177565855188e-05 0.0068616780758840243 0 8.1770233460896053e-05 0.0067741716602235519 0 0.00021484193860443545 0.0067718931324678823 0 0.00013283500384407367 0.006890487242688822 0 8.1770233460896053e-05 0.0067741716602235519 0 0.00021484193860443545 0.0067718931324678823 0 8.1770233460896053e-05 0.0067741716602235519 0 0.00010432855354246717 0.0066332796221601669 0 -0.00076177800153891272 0.0050737256149917843 0 -0.00050162831287801609 0.0039582118575796884 0 -4.1345246537472808e-05 0.0067719064872952487 0 8.1770233460896053e-05 0.0067741716602235519 0 0.00010432855354246717 0.0066332796221601669 0 2.5359727716879635e-06 0.0067139479482244604 0 6.0301816554190824e-05 0.0065055240087172192 0 0.00019668388243685979 0.0065282219256782596 0 -0.00095907764730620985 0.0028606902109901042 0 -0.00050162831287801609 0.0039582118575796884 0 -0.00067387349600713333 0.0028464760624000462 0 -0.00067871712143242403 0.0028460425480216151 0 -0.0006770416845275453 0.0028498761584374549 0 -0.0010177274727895963 0.0025533405729851986 0 -0.00084738445928822146 0.0024581841346789242 0 -0.0010455052374915962 0.0023271346021007727 0 -0.00092991628664117058 0.0023483940586671434 0 -0.0011929266572884786 0.0024917328885709321 0 -0.00095907764730620985 0.0028606902109901042 0 -0.00084738445928822146 0.0024581841346789242 0 -0.0012400686016668144 0.00075585890776634038 0 -0.0011424050800629257 0.00064866006048961105 0 -0.001208993080570668 0.00066292066587419725 0 -0.0011679396842130567 0.00064323813426452156 0 -0.001208993080570668 0.00066292066587419725 0 -0.0013301401132694425 0.00060146914443038138 0 -0.0010314566126406115 0.0033397159042263471 0 -0.00095907764730620985 0.0028606902109901042 0 2.5359727716879635e-06 0.0067139479482244604 0 -0.0001620263720258784 0.0067858805013194991 0 6.0301816554190824e-05 0.0065055240087172192 0 -0.0012400686016668144 0.00075585890776634038 0 -0.001208993080570668 0.00066292066587419725 0 -0.0012913011516739704 0.00068372948373621417 0 -0.0011424050800629257 0.00064866006048961105 0 -0.001169606697503987 0.00064329124857131711 0 -0.001208993080570668 0.00066292066587419725 0 -0.0010177274727895963 0.0025533405729851986 0 -0.00098142967649157069 0.0024909179330236141 0 -0.00095907764730620985 0.0028606902109901042 0 -0.0010177274727895963 0.0025533405729851986 0 -0.0012913011516739704 0.00068372948373621417 0 -0.0013763943243740022 0.0007327976291592607 0 -0.0013301401132694425 0.00060146914443038138 0 -0.001208993080570668 0.00066292066587419725 0 -0.0012913011516739704 0.00068372948373621417 0 -0.0013301401132694425 0.00060146914443038138 0 -0.0010177274727895963 0.0025533405729851986 0 -0.0014390231684556158 0.0016175041359114204 0 -0.0012400686016668144 0.00075585890776634038 0 -0.0012913011516739704 0.00068372948373621417 0 -0.0013763943243740022 0.0007327976291592607 0 -0.001340124318550294 0.00086933586374133263 0 -0.0012400686016668144 0.00075585890776634038 0 -0.0013763943243740022 0.0007327976291592607 0 -0.00033280961644567558 0.0070105979519807377 0 -0.0001620263720258784 0.0067858805013194991 0 -0.00017726785910139812 0.0068860672023227038 0 -0.0011439529684295349 0.0034669601731693298 0 -0.0010314566126406115 0.0033397159042263471 0 -0.0015343022324611887 0.00082222872004455451 0 -0.001340124318550294 0.00086933586374133263 0 -0.0013763943243740022 0.0007327976291592607 0 -0.0014917286111163718 0.00068445386790365033 0 -0.0013301401132694425 0.00060146914443038138 0 -0.0015110571765447358 0.00055735113809920632 0 -0.0014917286111163718 0.00068445386790365033 0 -0.0013763943243740022 0.0007327976291592607 0 -0.0013301401132694425 0.00060146914443038138 0 -0.0014561646665418977 0.0005209695423484599 0 -0.0014311274264382958 0.00057518540862851891 0 -0.0015110571765447358 0.00055735113809920632 0 -0.0014390231684556158 0.0016175041359114204 0 -0.0015319613262566158 0.0013608348531707435 0 -0.0014561646665418977 0.0005209695423484599 0 -0.0014698480081090845 0.0004690712637950522 0 -0.0015304462936867424 0.00047821548898538288 0 -0.0014561646665418977 0.0005209695423484599 0 -0.0014698480081090845 0.0004690712637950522 0 -0.0014096241319372649 0.00049669250493037168 0 -0.0014561646665418977 0.0005209695423484599 0 -0.0014096241319372649 0.00049669250493037168 0 -0.0014016976598345201 0.00053970091537906438 0 -0.0014096241319372649 0.00049669250493037168 0 -0.0013755204845985409 0.00049937639848822511 0 -0.0014168653726376926 0.00045600385978401836 0 -0.0014096241319372649 0.00049669250493037168 0 -0.0014016976598345201 0.00053970091537906438 0 -0.0013801107387695288 0.00052328703325981807 0 -0.0014561646665418977 0.0005209695423484599 0 -0.0014016976598345201 0.00053970091537906438 0 -0.0014311274264382958 0.00057518540862851891 0 -0.0013542786989267877 0.00059375482844827195 0 -0.0014016976598345201 0.00053970091537906438 0 -0.0014311274264382958 0.00057518540862851891 0 -0.0013542786989267877 0.00059375482844827195 0 -0.0014016976598345201 0.00053970091537906438 0 -0.0013602996075852238 0.00054730444551125156 0 -0.0013542786989267877 0.00059375482844827195 0 -0.0013602996075852238 0.00054730444551125156 0 -0.0013415472088677809 0.00056870352240537118 0 -0.0014016976598345201 0.00053970091537906438 0 -0.0013602996075852238 0.00054730444551125156 0 -0.0013801107387695288 0.00052328703325981807 0 -0.00067871712143242403 0.0028460425480216151 0 -0.0006770416845275453 0.0028498761584374549 0 -0.00068553839342660951 0.0028520087004809008 0 -0.00084738445928822146 0.0024581841346789242 0 -0.00067581498283794249 0.0025207853945031769 0 -0.00084738445928822146 0.0024581841346789242 0 -0.00074907625120174245 0.0021755832741184905 0 -0.0013542786989267877 0.00059375482844827195 0 -0.0013415472088677809 0.00056870352240537118 0 -0.0013275238659957089 0.00057783413592061357 0 -0.0013415472088677809 0.00056870352240537118 0 -0.0013275238659957089 0.00057783413592061357 0 -0.001327295156685476 0.00055600054915669599 0 -0.0013602996075852238 0.00054730444551125156 0 -0.0013415472088677809 0.00056870352240537118 0 -0.001327295156685476 0.00055600054915669599 0 -0.0013602996075852238 0.00054730444551125156 0 -0.001327295156685476 0.00055600054915669599 0 -0.0013321019534178389 0.00053344327981177204 0 -0.001327295156685476 0.00055600054915669599 0 -0.001315323705435653 0.00054149614356021236 0 -0.0013321019534178389 0.00053344327981177204 0 -0.001327295156685476 0.00055600054915669599 0 -0.001315323705435653 0.00054149614356021236 0 -0.0013051892469017189 0.0005562649986393393 0 -0.0013275238659957089 0.00057783413592061357 0 -0.001327295156685476 0.00055600054915669599 0 -0.0013051892469017189 0.0005562649986393393 0 -0.001315323705435653 0.00054149614356021236 0 -0.0013321019534178389 0.00053344327981177204 0 -0.0013101878768444161 0.00052262825830794602 0 -0.001315323705435653 0.00054149614356021236 0 -0.0013101878768444161 0.00052262825830794602 0 -0.0012936432107221822 0.00054009578365312371 0 -0.0013321019534178389 0.00053344327981177204 0 -0.0013408995793520481 0.00050977224942924345 0 -0.0013571427993258338 0.00052393349455348288 0 -0.0013321019534178389 0.00053344327981177204 0 -0.0013408995793520481 0.00050977224942924345 0 -0.0013101878768444161 0.00052262825830794602 0 -0.0013101878768444161 0.00052262825830794602 0 -0.0013232043436726441 0.00049847131126355693 0 -0.0012986995470907511 0.00049871729902959772 0 -0.0013408995793520481 0.00050977224942924345 0 -0.0013101878768444161 0.00052262825830794602 0 -0.0013232043436726441 0.00049847131126355693 0 -0.0013801107387695288 0.00052328703325981807 0 -0.0013571427993258338 0.00052393349455348288 0 -0.0013755204845985409 0.00049937639848822511 0 -0.0013602996075852238 0.00054730444551125156 0 -0.0013321019534178389 0.00053344327981177204 0 -0.0013571427993258338 0.00052393349455348288 0 -0.0013602996075852238 0.00054730444551125156 0 -0.0013801107387695288 0.00052328703325981807 0 -0.0013571427993258338 0.00052393349455348288 0 -0.0013408995793520481 0.00050977224942924345 0 -0.0013755204845985409 0.00049937639848822511 0 -0.001349174129735384 0.00048029712756246805 0 -0.0013408995793520481 0.00050977224942924345 0 -0.0013571427993258338 0.00052393349455348288 0 -0.0013755204845985409 0.00049937639848822511 0 -0.0014096241319372649 0.00049669250493037168 0 -0.0013801107387695288 0.00052328703325981807 0 -0.0013755204845985409 0.00049937639848822511 0 -0.0013755204845985409 0.00049937639848822511 0 -0.001349174129735384 0.00048029712756246805 0 -0.0013775408210018327 0.0004516424627844705 0 -0.0013755204845985409 0.00049937639848822511 0 -0.0013775408210018327 0.0004516424627844705 0 -0.0014168653726376926 0.00045600385978401836 0 -0.001349174129735384 0.00048029712756246805 0 -0.0013775408210018327 0.0004516424627844705 0 -0.0013489005129129193 0.00045204193642142242 0 -0.0013232043436726441 0.00049847131126355693 0 -0.0013189825702368573 0.00047412471047354683 0 -0.0012986995470907511 0.00049871729902959772 0 -0.0013408995793520481 0.00050977224942924345 0 -0.001349174129735384 0.00048029712756246805 0 -0.0013232043436726441 0.00049847131126355693 0 -0.001349174129735384 0.00048029712756246805 0 -0.0013232043436726441 0.00049847131126355693 0 -0.0013189825702368573 0.00047412471047354683 0 -0.001349174129735384 0.00048029712756246805 0 -0.0013189825702368573 0.00047412471047354683 0 -0.0013489005129129193 0.00045204193642142242 0 -0.0013489005129129193 0.00045204193642142242 0 -0.0013150940271995531 0.00044098192528363103 0 -0.0013716557351234134 0.00042208164020246779 0 -0.0013189825702368573 0.00047412471047354683 0 -0.0013489005129129193 0.00045204193642142242 0 -0.0013150940271995531 0.00044098192528363103 0 -0.0013775408210018327 0.0004516424627844705 0 -0.0013716557351234134 0.00042208164020246779 0 -0.0014093395241121462 0.00040834657391194187 0 -0.0013775408210018327 0.0004516424627844705 0 -0.0013489005129129193 0.00045204193642142242 0 -0.0013716557351234134 0.00042208164020246779 0 -0.0014093395241121462 0.00040834657391194187 0 -0.0013973983804572967 0.00035220323846713253 0 -0.0015132783988115008 0.00034325119028771764 0 -0.0013716557351234134 0.00042208164020246779 0 -0.0014093395241121462 0.00040834657391194187 0 -0.0013982106197996406 0.00040003240145907538 0 -0.0016176373628197147 0.0019722398416399489 0 -0.0017147534505052651 0.0024658514720360667 0 -0.0014683160717850177 0.00041723261020515704 0 -0.0015132783988115008 0.00034325119028771764 0 -0.0015392366938957922 0.00040635634461213399 0 -0.0014093395241121462 0.00040834657391194187 0 -0.0014683160717850177 0.00041723261020515704 0 -0.0015132783988115008 0.00034325119028771764 0 -0.0014698480081090845 0.0004690712637950522 0 -0.0014683160717850177 0.00041723261020515704 0 -0.0015392366938957922 0.00040635634461213399 0 -0.0014698480081090845 0.0004690712637950522 0 -0.0014683160717850177 0.00041723261020515704 0 -0.0014168653726376926 0.00045600385978401836 0 -0.0014093395241121462 0.00040834657391194187 0 -0.0014683160717850177 0.00041723261020515704 0 -0.0014168653726376926 0.00045600385978401836 0 -0.0013775408210018327 0.0004516424627844705 0 -0.0014093395241121462 0.00040834657391194187 0 -0.0014168653726376926 0.00045600385978401836 0 -0.0014698480081090845 0.0004690712637950522 0 -0.0014096241319372649 0.00049669250493037168 0 -0.0014168653726376926 0.00045600385978401836 0 0.00035330487629454477 0.0063855025696751338 0 0.00041101198037462027 0.00640400460217465 0 0.00033981306845366787 0.0064433254504324316 0 0.00035330487629454477 0.0063855025696751338 0 0.00033981306845366787 0.0064433254504324316 0 0.00029288575330618105 0.006387896410011619 0 0.00041090714496315104 0.0062837943265269224 0 0.00035921116859403572 0.0063242479630357491 0 0.00029954411485598822 0.0063099739869802588 0 0.00035921116859403572 0.0063242479630357491 0 0.00029288575330618105 0.006387896410011619 0 0.00029954411485598822 0.0063099739869802588 0 0.00035330487629454477 0.0063855025696751338 0 0.00035921116859403572 0.0063242479630357491 0 0.00029288575330618105 0.006387896410011619 0 0.00035330487629454477 0.0063855025696751338 0 0.00035921116859403572 0.0063242479630357491 0 0.00038617020471203213 0.0063562136894636401 0 0.00038617020471203213 0.0063562136894636401 0 0.00039448385865094846 0.0063239374012291774 0 0.00042213729387015678 0.0063303642053578954 0 0.00035921116859403572 0.0063242479630357491 0 0.00038617020471203213 0.0063562136894636401 0 0.00039448385865094846 0.0063239374012291774 0 0.00041090714496315104 0.0062837943265269224 0 0.00035921116859403572 0.0063242479630357491 0 0.00039448385865094846 0.0063239374012291774 0 0.00041090714496315104 0.0062837943265269224 0 0.00039448385865094846 0.0063239374012291774 0 0.00042213729387015678 0.0063303642053578954 0 -0.00030748191424377939 0.0040879965861016707 0 -0.00029423313350765364 0.0039660302506939723 0 -0.00036867004787272253 0.004008228076880292 0 0.00038617020471203213 0.0063562136894636401 0 0.00042213729387015678 0.0063303642053578954 0 0.00041101198037462027 0.00640400460217465 0 -0.00013368703141153481 0.0048042404309908797 0 -0.00046580366299289007 0.0033475133350119859 0 0.00035330487629454477 0.0063855025696751338 0 0.00038617020471203213 0.0063562136894636401 0 0.00041101198037462027 0.00640400460217465 0 -0.0012194328446660312 0.00053181140999665694 0 -0.0012307067436051523 0.00053159685202528503 0 -0.0012357432454900695 0.00051182005190195622 0 -0.0012307067436051523 0.00053159685202528503 0 -0.0012541085716763624 0.00052169141381989384 0 -0.0012357432454900695 0.00051182005190195622 0 -0.0012307067436051523 0.00053159685202528503 0 -0.0012541085716763624 0.00052169141381989384 0 -0.0012477036252843124 0.00054241461977101583 0 -0.0012194328446660312 0.00053181140999665694 0 -0.0012307067436051523 0.00053159685202528503 0 -0.0012517590785549185 0.00056282753659357969 0 -0.0012541085716763624 0.00052169141381989384 0 -0.0012477036252843124 0.00054241461977101583 0 -0.0012716612562078389 0.00053694461735938077 0 -0.00046329824301290099 0.0026869372520409072 0 -0.00052316044227335558 0.0028731381556010532 0 -0.00046580366299289007 0.0033475133350119859 0 -0.00052316044227335558 0.0028731381556010532 0 -0.00030748191424377939 0.0040879965861016707 0 -0.00036867004787272253 0.004008228076880292 0 -0.0003816408886809752 0.0041227034312467112 0 -0.00036867004787272253 0.004008228076880292 0 -0.0003816408886809752 0.0041227034312467112 0 -0.00045563534266906584 0.0040878768356734279 0 -0.00052316044227335558 0.0028731381556010532 0 -0.00067581498283794249 0.0025207853945031769 0 -0.00052316044227335558 0.0028731381556010532 0 -0.00053751720946989439 0.0034383009059036672 0 -0.0013341315397875468 0.00059759498073416674 0 -0.0012834235219433582 0.000560472763591493 0 -0.0013051892469017189 0.0005562649986393393 0 -0.0006770416845275453 0.0028498761584374549 0 -0.00068487575958845501 0.0028533671241734193 0 -0.00068553839342660951 0.0028520087004809008 0 -0.00068986431011602812 0.0028550525927793923 0 -0.00068487575958845501 0.0028533671241734193 0 -0.00068553839342660951 0.0028520087004809008 0 -0.00050162831287801609 0.0039582118575796884 0 -0.00053751720946989439 0.0034383009059036672 0 -0.0012834235219433582 0.000560472763591493 0 -0.0013051892469017189 0.0005562649986393393 0 -0.0012936432107221822 0.00054009578365312371 0 -0.001315323705435653 0.00054149614356021236 0 -0.0013051892469017189 0.0005562649986393393 0 -0.0012936432107221822 0.00054009578365312371 0 -0.0013101878768444161 0.00052262825830794602 0 -0.0012936432107221822 0.00054009578365312371 0 -0.001281494633285987 0.00052153338245849849 0 -0.0012477036252843124 0.00054241461977101583 0 -0.0012834235219433582 0.000560472763591493 0 -0.0012716612562078389 0.00053694461735938077 0 -0.0012936432107221822 0.00054009578365312371 0 -0.0012716612562078389 0.00053694461735938077 0 -0.001281494633285987 0.00052153338245849849 0 -0.0012834235219433582 0.000560472763591493 0 -0.0012936432107221822 0.00054009578365312371 0 -0.0012716612562078389 0.00053694461735938077 0 -0.0012541085716763624 0.00052169141381989384 0 -0.0012716612562078389 0.00053694461735938077 0 -0.001281494633285987 0.00052153338245849849 0 -0.0012541085716763624 0.00052169141381989384 0 -0.001281494633285987 0.00052153338245849849 0 -0.0012756130492667861 0.00050282880706415962 0 -0.0013101878768444161 0.00052262825830794602 0 -0.001281494633285987 0.00052153338245849849 0 -0.0012986995470907511 0.00049871729902959772 0 -0.0012986995470907511 0.00049871729902959772 0 -0.0012756130492667861 0.00050282880706415962 0 -0.0012846814757483517 0.00048168198291056579 0 -0.001281494633285987 0.00052153338245849849 0 -0.0012986995470907511 0.00049871729902959772 0 -0.0012756130492667861 0.00050282880706415962 0 -0.0012756130492667861 0.00050282880706415962 0 -0.0012846814757483517 0.00048168198291056579 0 -0.0012550205602808963 0.00049605059726251434 0 -0.0013189825702368573 0.00047412471047354683 0 -0.0012986995470907511 0.00049871729902959772 0 -0.0012846814757483517 0.00048168198291056579 0 -0.0013150940271995531 0.00044098192528363103 0 -0.0012846814757483517 0.00048168198291056579 0 -0.0012498757858286254 0.00047069215349800374 0 -0.0013189825702368573 0.00047412471047354683 0 -0.0013150940271995531 0.00044098192528363103 0 -0.0012846814757483517 0.00048168198291056579 0 -0.0012498757858286254 0.00047069215349800374 0 -0.0012121735277153996 0.00048428989124540343 0 -0.001218010717817745 0.00045611635175747678 0 -0.0012498757858286254 0.00047069215349800374 0 -0.0012379944569304992 0.00048974906609481521 0 -0.0012121735277153996 0.00048428989124540343 0 -0.0012498757858286254 0.00047069215349800374 0 -0.0012379944569304992 0.00048974906609481521 0 -0.0012550205602808963 0.00049605059726251434 0 -0.0012379944569304992 0.00048974906609481521 0 -0.0012550205602808963 0.00049605059726251434 0 -0.0012357432454900695 0.00051182005190195622 0 -0.0012846814757483517 0.00048168198291056579 0 -0.0012498757858286254 0.00047069215349800374 0 -0.0012550205602808963 0.00049605059726251434 0 -0.0012541085716763624 0.00052169141381989384 0 -0.0012756130492667861 0.00050282880706415962 0 -0.0012550205602808963 0.00049605059726251434 0 -0.0012541085716763624 0.00052169141381989384 0 -0.0012550205602808963 0.00049605059726251434 0 -0.0012357432454900695 0.00051182005190195622 0 -0.0012194328446660312 0.00053181140999665694 0 -0.0012357432454900695 0.00051182005190195622 0 -0.0012121735277153996 0.00048428989124540343 0 -0.00046580366299289007 0.0033475133350119859 0 -0.00068697734617238402 0.0015202902226101891 0 -0.0014187131192131932 0.0024134175340954768 0 -0.001303988026702571 0.0014336400807992296 0 -0.0006754889110817719 0.0020036692521470199 0 -0.00046580366299289007 0.0033475133350119859 0 -0.00022942511852449028 0.0042504293915285336 0 -0.0012379944569304992 0.00048974906609481521 0 -0.0012357432454900695 0.00051182005190195622 0 -0.0012121735277153996 0.00048428989124540343 0 -0.00068697734617238402 0.0015202902226101891 0 -0.00075174981649612886 0.0010320058885738921 0 -0.001303988026702571 0.0014336400807992296 0 -0.000616398243211951 0.0014339628027585699 0 -0.00087418127478209294 0.00088556725739113485 0 -0.000616398243211951 0.0014339628027585699 0 -0.00041203303337505252 0.00090553182620423209 0 -0.00087418127478209294 0.00088556725739113485 0 -0.001303988026702571 0.0014336400807992296 0 -0.000616398243211951 0.0014339628027585699 0 -0.0006754889110817719 0.0020036692521470199 0 -0.000616398243211951 0.0014339628027585699 0 -0.0006754889110817719 0.0020036692521470199 0 6.7929656945629806e-05 0.0015996399511619332 0 -0.0010227253727463849 0.0078676068719097103 0 -0.00098981331352898205 0.007915713210060564 0 -0.00043310725634580701 0.0077693772413094404 0 -0.000987637876612165 0.01263780619255817 0 -0.00097402712693704771 0.012698034653909864 0 -0.0010025687476999331 0.012668140317420635 0 -0.00075735230255597656 0.0072006972985042923 0 -0.00048942087233711158 0.0093470380186923569 0 -0.000987637876612165 0.01263780619255817 0 -0.0010025687476999331 0.012668140317420635 0 -0.0010351435504263003 0.012637527205721744 0 -0.00016550741424632345 0.010468828807585619 0 -0.00048942087233711158 0.0093470380186923569 0 -0.00075735230255597656 0.0072006972985042923 0 -0.00086988865186110999 0.0069691691304786018 0 -0.00090435273096856398 0.00027550422884856085 0 -0.00087418127478209294 0.00088556725739113485 0 -0.0011637794206063199 0.00045678083399911337 0 -0.00090435273096856398 0.00027550422884856085 0 -0.00041203303337505252 0.00090553182620423209 0 -0.00087418127478209294 0.00088556725739113485 0 -0.00086988865186110999 0.0069691691304786018 0 -0.00078520950455622355 0.0053412575307881455 0 -0.00064961208001912277 0.0070233293016105968 0 -0.00056828726226732385 0.0071387997035676437 0 -0.00046775930199684804 0.0070279695679113015 0 -0.0012121735277153996 0.00048428989124540343 0 -0.0011637794206063199 0.00045678083399911337 0 -0.001218010717817745 0.00045611635175747678 0 -0.001303988026702571 0.0014336400807992296 0 -0.00087418127478209294 0.00088556725739113485 0 -0.0011637794206063199 0.00045678083399911337 0 -0.0011637794206063199 0.00045678083399911337 0 -0.001218010717817745 0.00045611635175747678 0 -0.001179191438107285 0.00037128805886385915 0 -0.0012209441105348517 0.0055633644580845663 0 -0.0012629156789981013 0.0055691024073365016 0 -0.0012908549092290069 0.0054654949293867798 0 -0.0012629156789981013 0.0055691024073365016 0 -0.0013306353127236373 0.0055133706255933957 0 -0.0012908549092290069 0.0054654949293867798 0 -0.00093577276437468862 0.0065282402350801171 0 -0.0011777123064498705 0.0062949701466487344 0 -0.00075735230255597656 0.0072006972985042923 0 -0.0008942510045596158 0.0082706043356008691 0 -0.00090435273096856398 0.00027550422884856085 0 -0.0011637794206063199 0.00045678083399911337 0 -0.001179191438107285 0.00037128805886385915 0 -0.00041540948543606298 0.0065516719301380475 0 -0.00032122606705160063 0.0066891958042676431 0 -0.0011253617606303602 0.0066721639653228599 0 -0.00086988865186110999 0.0069691691304786018 0 -0.00093577276437468862 0.0065282402350801171 0 -0.00075735230255597656 0.0072006972985042923 0 -0.00093577276437468862 0.0065282402350801171 0 -0.0013402775640277483 0.0055566893823739607 0 -0.0013892276503032659 0.0055776867500640448 0 -0.0014223091397349019 0.0055524852906243035 0 -0.001255113197802505 0.0055640515285453641 0 -0.0013402775640277483 0.0055566893823739607 0 -0.0013892276503032659 0.0055776867500640448 0 -0.00093577276437468862 0.0065282402350801171 0 -0.0011348909436655701 0.0044947595530916446 0 -0.0011777123064498705 0.0062949701466487344 0 -0.0012512219373036456 0.0062221941873801499 0 -0.0013811698940064548 0.0055168836190857091 0 -0.0013446643876647269 0.0055630202330561934 0 -0.0014223091397349019 0.0055524852906243035 0 -0.0012629156789981013 0.0055691024073365016 0 -0.0013306353127236373 0.0055133706255933957 0 -0.0013446643876647269 0.0055630202330561934 0 -0.0013306353127236373 0.0055133706255933957 0 -0.0013811698940064548 0.0055168836190857091 0 -0.0013446643876647269 0.0055630202330561934 0 -0.0012498757858286254 0.00047069215349800374 0 -0.001218010717817745 0.00045611635175747678 0 -0.0012773730867524065 0.00041530577173698832 0 -0.001218010717817745 0.00045611635175747678 0 -0.001179191438107285 0.00037128805886385915 0 -0.0012773730867524065 0.00041530577173698832 0 -0.0013892276503032659 0.0055776867500640448 0 -0.0014223091397349019 0.0055524852906243035 0 -0.0015093954470314745 0.005584795674723874 0 -0.0013150940271995531 0.00044098192528363103 0 -0.0012773730867524065 0.00041530577173698832 0 -0.0013374469622449928 0.00040747991330891383 0 -0.0013150940271995531 0.00044098192528363103 0 -0.0012498757858286254 0.00047069215349800374 0 -0.0012773730867524065 0.00041530577173698832 0 -0.0011348909436655701 0.0044947595530916446 0 -0.0013927984475959625 0.0033658132104467798 0 -0.0013811698940064548 0.0055168836190857091 0 -0.0014223091397349019 0.0055524852906243035 0 -0.0014334165057040746 0.0054954275734275491 0 -0.0014223091397349019 0.0055524852906243035 0 -0.0014334165057040746 0.0054954275734275491 0 -0.0014815188071562915 0.0055204799124891468 0 -0.0014334165057040746 0.0054954275734275491 0 -0.0014392538865343426 0.0054259231856340967 0 -0.0014998653786350638 0.0054641931521417532 0 -0.0013811698940064548 0.0055168836190857091 0 -0.0014334165057040746 0.0054954275734275491 0 -0.0013730652297797162 0.0054662488751309512 0 -0.0014334165057040746 0.0054954275734275491 0 -0.0014392538865343426 0.0054259231856340967 0 -0.0013730652297797162 0.0054662488751309512 0 -0.0014688463544003754 0.008137701158907695 0 -0.002091414684653035 0.0064077641340873782 0 -0.0014392538865343426 0.0054259231856340967 0 -0.0013577896779236715 0.0053745494551025261 0 -0.0014632182718616962 0.0053499997811715288 0 -0.0014392538865343426 0.0054259231856340967 0 -0.0013577896779236715 0.0053745494551025261 0 -0.0013730652297797162 0.0054662488751309512 0 -0.0014688463544003754 0.008137701158907695 0 -0.0008942510045596158 0.0082706043356008691 0 -0.0011974388510885903 0.01253097752122702 0 -0.0010778747655332342 0.012580486944599541 0 -0.00098874948781147603 0.012702550049807745 0 -0.0011974388510885903 0.01253097752122702 0 -0.0011227088436374518 0.012540880726058828 0 -0.0010778747655332342 0.012580486944599541 0 -0.0012310163468319791 0.012531044348492192 0 -0.0011227088436374518 0.012540880726058828 0 -0.0012008890606323849 0.012373281682964549 0 -0.0014688463544003754 0.008137701158907695 0 -0.0014090197970181878 0.0082191942913940226 0 -0.0013577896779236715 0.0053745494551025261 0 -0.0013730652297797162 0.0054662488751309512 0 -0.0012908549092290069 0.0054654949293867798 0 -0.0013306353127236373 0.0055133706255933957 0 -0.0013730652297797162 0.0054662488751309512 0 -0.0012908549092290069 0.0054654949293867798 0 -0.0013306353127236373 0.0055133706255933957 0 -0.0013811698940064548 0.0055168836190857091 0 -0.0013730652297797162 0.0054662488751309512 0 -0.000987637876612165 0.01263780619255817 0 -0.00098874948781147603 0.012702550049807745 0 -0.00097402712693704771 0.012698034653909864 0 -0.00097402712693704771 0.012698034653909864 0 -0.00095124171376461937 0.012625475988673123 0 -0.00087384812891401942 0.012666793992953096 0 -0.00097402712693704771 0.012698034653909864 0 -0.00098868795733713603 0.012650944407415642 0 -0.00095124171376461937 0.012625475988673123 0 -0.00098874948781147603 0.012702550049807745 0 -0.00098868795733713603 0.012650944407415642 0 -0.0010201539499736921 0.012619175047138763 0 -0.0010778747655332342 0.012580486944599541 0 -0.00098874948781147603 0.012702550049807745 0 -0.0010201539499736921 0.012619175047138763 0 -0.00098874948781147603 0.012702550049807745 0 -0.00097402712693704771 0.012698034653909864 0 -0.00098868795733713603 0.012650944407415642 0 -0.00098868795733713603 0.012650944407415642 0 -0.0010201539499736921 0.012619175047138763 0 -0.00099187692550204419 0.012586866033133356 0 -0.00099187692550204419 0.012586866033133356 0 -0.0010297929163774211 0.012546155354877735 0 -0.00093766476995913437 0.012547879702912362 0 -0.0010201539499736921 0.012619175047138763 0 -0.00099187692550204419 0.012586866033133356 0 -0.0010297929163774211 0.012546155354877735 0 -0.0010778747655332342 0.012580486944599541 0 -0.0010201539499736921 0.012619175047138763 0 -0.0010297929163774211 0.012546155354877735 0 -0.0011227088436374518 0.012540880726058828 0 -0.0010778747655332342 0.012580486944599541 0 -0.0010297929163774211 0.012546155354877735 0 -0.0010297929163774211 0.012546155354877735 0 -0.00096692760528971128 0.01245742178901168 0 -0.0010645344514050637 0.012450755014855991 0 -0.0011227088436374518 0.012540880726058828 0 -0.0010297929163774211 0.012546155354877735 0 -0.0010645344514050637 0.012450755014855991 0 -0.00087213415941459914 0.012469653150962531 0 -0.00093766476995913437 0.012547879702912362 0 -0.00096692760528971128 0.01245742178901168 0 -0.0010297929163774211 0.012546155354877735 0 -0.00093766476995913437 0.012547879702912362 0 -0.00096692760528971128 0.01245742178901168 0 -0.00093766476995913437 0.012547879702912362 0 -0.00095124171376461937 0.012625475988673123 0 -0.00087812874910365643 0.012596897826298871 0 -0.00099187692550204419 0.012586866033133356 0 -0.00093766476995913437 0.012547879702912362 0 -0.00095124171376461937 0.012625475988673123 0 -0.00098868795733713603 0.012650944407415642 0 -0.00099187692550204419 0.012586866033133356 0 -0.00095124171376461937 0.012625475988673123 0 -0.00095124171376461937 0.012625475988673123 0 -0.00087812874910365643 0.012596897826298871 0 -0.00087384812891401942 0.012666793992953096 0 -0.00087812874910365643 0.012596897826298871 0 -0.00076446952115769083 0.012645493967515589 0 -0.00087384812891401942 0.012666793992953096 0 -0.00093766476995913437 0.012547879702912362 0 -0.00087812874910365643 0.012596897826298871 0 -0.00081216884505854467 0.012538309781107431 0 -0.00087812874910365643 0.012596897826298871 0 -0.00081216884505854467 0.012538309781107431 0 -0.00076446952115769083 0.012645493967515589 0 -0.00087213415941459914 0.012469653150962531 0 -0.00081216884505854467 0.012538309781107431 0 -0.00076230653595136177 0.01241787936819979 0 -0.00087213415941459914 0.012469653150962531 0 -0.00093766476995913437 0.012547879702912362 0 -0.00081216884505854467 0.012538309781107431 0 -0.00081216884505854467 0.012538309781107431 0 -0.00062968851906957258 0.01253462393757303 0 -0.00076230653595136177 0.01241787936819979 0 -0.00081216884505854467 0.012538309781107431 0 -0.00076446952115769083 0.012645493967515589 0 -0.00062968851906957258 0.01253462393757303 0 -0.00076446952115769083 0.012645493967515589 0 -0.00064325554245259643 0.012723692513553314 0 -0.00062968851906957258 0.01253462393757303 0 -0.00076446952115769083 0.012645493967515589 0 -0.00077734559765861729 0.012827806598578774 0 -0.00064325554245259643 0.012723692513553314 0 -0.00077734559765861729 0.012827806598578774 0 -0.00060350506528940729 0.012935673140196105 0 -0.00064325554245259643 0.012723692513553314 0 -0.00076446952115769083 0.012645493967515589 0 -0.00087384812891401942 0.012666793992953096 0 -0.00077734559765861729 0.012827806598578774 0 -0.00097402712693704771 0.012698034653909864 0 -0.00087384812891401942 0.012666793992953096 0 -0.00077734559765861729 0.012827806598578774 0 -0.00012293986230066135 0.010777588552715069 0 -0.00016550741424632345 0.010468828807585619 0 -0.0036475552618084107 0.0013625042589851166 0 -0.0040223863932994496 0.0014831920440765368 0 -0.0038173477938828887 0.0017464718115179775 0 -0.0036475552618084107 0.0013625042589851166 0 -0.0039391474788278381 0.0011154027644854933 0 -0.0040223863932994496 0.0014831920440765368 0 -0.0017147534505052651 0.0024658514720360667 0 -0.002257128354602041 0.0014041369242719173 0 -0.0036475552618084107 0.0013625042589851166 0 -0.0039391474788278381 0.0011154027644854933 0 -0.0034484447754417127 0.0010282971571567885 0 -0.0017147534505052651 0.0024658514720360667 0 -0.0023194605942594517 0.0033645980548380719 0 -0.0017147534505052651 0.0024658514720360667 0 -0.0013927984475959625 0.0033658132104467798 0 -0.0013716557351234134 0.00042208164020246779 0 -0.0013982106197996406 0.00040003240145907538 0 -0.0013374469622449928 0.00040747991330891383 0 -0.0016185585983603834 0.0055936986970294084 0 -0.0015093954470314745 0.005584795674723874 0 -0.0016005882317743697 0.0055097581866705722 0 -0.0013150940271995531 0.00044098192528363103 0 -0.0013716557351234134 0.00042208164020246779 0 -0.0013374469622449928 0.00040747991330891383 0 -0.0015093954470314745 0.005584795674723874 0 -0.0014815188071562915 0.0055204799124891468 0 -0.0015365547549894643 0.0055015311378535433 0 -0.0014223091397349019 0.0055524852906243035 0 -0.0015093954470314745 0.005584795674723874 0 -0.0014815188071562915 0.0055204799124891468 0 -0.0014815188071562915 0.0055204799124891468 0 -0.0015365547549894643 0.0055015311378535433 0 -0.0014998653786350638 0.0054641931521417532 0 -0.0015093954470314745 0.005584795674723874 0 -0.0016005882317743697 0.0055097581866705722 0 -0.0015365547549894643 0.0055015311378535433 0 -0.0016005882317743697 0.0055097581866705722 0 -0.0015365547549894643 0.0055015311378535433 0 -0.0015842533775728912 0.0054201527737673437 0 -0.0015365547549894643 0.0055015311378535433 0 -0.0014998653786350638 0.0054641931521417532 0 -0.0015842533775728912 0.0054201527737673437 0 -0.0023194605942594517 0.0033645980548380719 0 -0.0026557790549509835 0.0038581153876728197 0 -0.0014998653786350638 0.0054641931521417532 0 -0.0015150244432640748 0.0054006083503800231 0 -0.0015842533775728912 0.0054201527737673437 0 -0.0014392538865343426 0.0054259231856340967 0 -0.0014998653786350638 0.0054641931521417532 0 -0.0015150244432640748 0.0054006083503800231 0 -0.0014334165057040746 0.0054954275734275491 0 -0.0014815188071562915 0.0055204799124891468 0 -0.0014998653786350638 0.0054641931521417532 0 -0.0014392538865343426 0.0054259231856340967 0 -0.0015150244432640748 0.0054006083503800231 0 -0.0014632182718616962 0.0053499997811715288 0 -0.0015150244432640748 0.0054006083503800231 0 -0.001566858241191331 0.0053260726571633448 0 -0.0014632182718616962 0.0053499997811715288 0 -0.0026557790549509835 0.0038581153876728197 0 -0.002974037109511659 0.0047009576155227183 0 -0.0041109041529764608 0.0018516494490630581 0 -0.0039246447969543685 0.0020489497756106777 0 -0.0042022239088604285 0.0022315471514069481 0 -0.0015150244432640748 0.0054006083503800231 0 -0.0015842533775728912 0.0054201527737673437 0 -0.001566858241191331 0.0053260726571633448 0 -0.0041109041529764608 0.0018516494490630581 0 -0.0039246447969543685 0.0020489497756106777 0 -0.0038173477938828887 0.0017464718115179775 0 -0.0039246447969543685 0.0020489497756106777 0 -0.0038173477938828887 0.0017464718115179775 0 -0.0037043860517871107 0.0020328813322069888 0 -0.0040223863932994496 0.0014831920440765368 0 -0.0041109041529764608 0.0018516494490630581 0 -0.0038173477938828887 0.0017464718115179775 0 -0.0036475552618084107 0.0013625042589851166 0 -0.0038173477938828887 0.0017464718115179775 0 -0.003453550456404538 0.0016759179632025421 0 -0.0038173477938828887 0.0017464718115179775 0 -0.0037043860517871107 0.0020328813322069888 0 -0.003453550456404538 0.0016759179632025421 0 -0.0034158340083725817 0.001805192863165969 0 -0.0032487460665631507 0.001613291932740904 0 -0.0037043860517871107 0.0020328813322069888 0 -0.0034038449621069653 0.0015296812790697412 0 -0.0033514659806843481 0.0021348892688826935 0 -0.0029462353000514374 0.0019716611304840723 0 -0.0034038449621069653 0.0015296812790697412 0 -0.0033514659806843481 0.0021348892688826935 0 -0.0029462353000514374 0.0019716611304840723 0 -0.0025818853106459472 0.0020125446645221251 0 -0.0026137514132879565 0.0022915632977334615 0 -0.0029462353000514374 0.0019716611304840723 0 -0.0026389275890163614 0.001761531295644101 0 -0.0025818853106459472 0.0020125446645221251 0 -0.0029462353000514374 0.0019716611304840723 0 -0.0029784859258810085 0.0014994751993463063 0 -0.0026389275890163614 0.001761531295644101 0 -0.0029784859258810085 0.0014994751993463063 0 -0.0026310544107506365 0.0014510999123469328 0 -0.0026389275890163614 0.001761531295644101 0 -0.0029784859258810085 0.0014994751993463063 0 -0.0027617668571157622 0.00122828206447432 0 -0.0026310544107506365 0.0014510999123469328 0 -0.0029462353000514374 0.0019716611304840723 0 -0.0029784859258810085 0.0014994751993463063 0 -0.0034038449621069653 0.0015296812790697412 0 -0.0032487460665631507 0.001613291932740904 0 -0.0028719890394292434 0.0012580575945949054 0 -0.0036475552618084107 0.0013625042589851166 0 -0.003453550456404538 0.0016759179632025421 0 -0.0032020055609243555 0.0013111414063132305 0 -0.0029784859258810085 0.0014994751993463063 0 -0.0034038449621069653 0.0015296812790697412 0 -0.0030674081118123517 0.001035395938248076 0 -0.0029784859258810085 0.0014994751993463063 0 -0.0030674081118123517 0.001035395938248076 0 -0.0027617668571157622 0.00122828206447432 0 -0.0030674081118123517 0.001035395938248076 0 -0.0027617668571157622 0.00122828206447432 0 -0.0026011465985782693 0.00097086952999814538 0 -0.0030674081118123517 0.001035395938248076 0 -0.0026011465985782693 0.00097086952999814538 0 -0.0027374973053408574 0.00056325948260372476 0 -0.0028719890394292434 0.0012580575945949054 0 -0.0022452340357441087 0.00078875221700100721 0 -0.0032020055609243555 0.0013111414063132305 0 -0.0034484447754417127 0.0010282971571567885 0 -0.0029511129411676721 0.00094212490242815382 0 -0.0036475552618084107 0.0013625042589851166 0 -0.0032020055609243555 0.0013111414063132305 0 -0.0034484447754417127 0.0010282971571567885 0 -0.0023129114765364743 0.00080544994309996408 0 -0.001926553824963225 0.00090750828232154116 0 -0.0021123012024398483 0.00046631433945765297 0 -0.0023129114765364743 0.00080544994309996408 0 -0.0021927135761064631 0.0011191362261793543 0 -0.001926553824963225 0.00090750828232154116 0 -0.0023129114765364743 0.00080544994309996408 0 -0.0026011465985782693 0.00097086952999814538 0 -0.0021927135761064631 0.0011191362261793543 0 -0.0023129114765364743 0.00080544994309996408 0 -0.0026011465985782693 0.00097086952999814538 0 -0.0027374973053408574 0.00056325948260372476 0 -0.0026011465985782693 0.00097086952999814538 0 -0.0024434915928505155 0.0012756774696077698 0 -0.0021927135761064631 0.0011191362261793543 0 -0.0027617668571157622 0.00122828206447432 0 -0.0026011465985782693 0.00097086952999814538 0 -0.0024434915928505155 0.0012756774696077698 0 -0.0027617668571157622 0.00122828206447432 0 -0.0024434915928505155 0.0012756774696077698 0 -0.0026310544107506365 0.0014510999123469328 0 -0.0024434915928505155 0.0012756774696077698 0 -0.0021927135761064631 0.0011191362261793543 0 -0.0022187652245122726 0.0013925244458715591 0 -0.0021927135761064631 0.0011191362261793543 0 -0.0019731809108849119 0.0011569474863569907 0 -0.001926553824963225 0.00090750828232154116 0 -0.0021927135761064631 0.0011191362261793543 0 -0.0019731809108849119 0.0011569474863569907 0 -0.0020083437890453491 0.0013454074197901333 0 -0.0021927135761064631 0.0011191362261793543 0 -0.0020083437890453491 0.0013454074197901333 0 -0.0022187652245122726 0.0013925244458715591 0 -0.0020083437890453491 0.0013454074197901333 0 -0.0021260761273379537 0.0014792601200364463 0 -0.0020531790216341589 0.0015883844119980888 0 -0.0019106796638055593 0.0016286824814982508 0 -0.0019845845140686472 0.0015392181813019326 0 -0.0023253737209148273 0.0019232888762190019 0 -0.0020083437890453491 0.0013454074197901333 0 -0.0021260761273379537 0.0014792601200364463 0 -0.0022187652245122726 0.0013925244458715591 0 -0.0021260761273379537 0.0014792601200364463 0 -0.0022236513695916369 0.0015899351667816089 0 -0.0020531790216341589 0.0015883844119980888 0 -0.0021260761273379537 0.0014792601200364463 0 -0.0022187652245122726 0.0013925244458715591 0 -0.0022236513695916369 0.0015899351667816089 0 -0.0022187652245122726 0.0013925244458715591 0 -0.0022236513695916369 0.0015899351667816089 0 -0.0024037592482048075 0.0015661256601164912 0 -0.0022236513695916369 0.0015899351667816089 0 -0.0020531790216341589 0.0015883844119980888 0 -0.0023253737209148273 0.0019232888762190019 0 -0.0024434915928505155 0.0012756774696077698 0 -0.0026310544107506365 0.0014510999123469328 0 -0.0024037592482048075 0.0015661256601164912 0 -0.0024434915928505155 0.0012756774696077698 0 -0.0022187652245122726 0.0013925244458715591 0 -0.0024037592482048075 0.0015661256601164912 0 -0.0022236513695916369 0.0015899351667816089 0 -0.0024037592482048075 0.0015661256601164912 0 -0.0023253737209148273 0.0019232888762190019 0 -0.0026310544107506365 0.0014510999123469328 0 -0.0024037592482048075 0.0015661256601164912 0 -0.0026389275890163614 0.001761531295644101 0 -0.0026389275890163614 0.001761531295644101 0 -0.0023253737209148273 0.0019232888762190019 0 -0.0025818853106459472 0.0020125446645221251 0 -0.0024037592482048075 0.0015661256601164912 0 -0.0026389275890163614 0.001761531295644101 0 -0.0023253737209148273 0.0019232888762190019 0 -0.0023253737209148273 0.0019232888762190019 0 -0.0021691145186300076 0.0020954914614197307 0 -0.0023777448561731764 0.0021476460543498757 0 -0.0023253737209148273 0.0019232888762190019 0 -0.0025818853106459472 0.0020125446645221251 0 -0.0023777448561731764 0.0021476460543498757 0 -0.0019106796638055593 0.0016286824814982508 0 -0.0023253737209148273 0.0019232888762190019 0 -0.0021691145186300076 0.0020954914614197307 0 -0.0019094587127933651 0.0016019810555428153 0 -0.0021691145186300076 0.0020954914614197307 0 -0.0018640516712657221 0.0019372233119100775 0 -0.0019039624311015283 0.0015185015045724719 0 -0.0019997662056552494 0.0017038076908125178 0 -0.0019692156495543837 0.0014639102209462627 0 -0.0020879346324706137 0.0016049414073367088 0 -0.0021691145186300076 0.0020954914614197307 0 -0.0018640516712657221 0.0019372233119100775 0 -0.0019406132490007227 0.0021557669771965454 0 -0.0016512879519160507 0.0017689127883505176 0 -0.0016546056228381313 0.0020762379335770163 0 -0.0011915106621933802 0.0017867954702440107 0 -0.0018640516712657221 0.0019372233119100775 0 -0.0016512879519160507 0.0017689127883505176 0 -0.0016546056228381313 0.0020762379335770163 0 -0.0018640516712657221 0.0019372233119100775 0 -0.0016546056228381313 0.0020762379335770163 0 -0.0019406132490007227 0.0021557669771965454 0 -0.0019094587127933651 0.0016019810555428153 0 -0.0018640516712657221 0.0019372233119100775 0 -0.0016512879519160507 0.0017689127883505176 0 -0.0016546056228381313 0.0020762379335770163 0 -0.0011915106621933802 0.0017867954702440107 0 -0.0014697598910983895 0.0024001785498224894 0 -0.0016512879519160507 0.0017689127883505176 0 -0.0011915106621933802 0.0017867954702440107 0 -0.0015646282682538425 0.0014749422695141837 0 -0.0013238954748646769 0.0017407724592148088 0 -0.0013651749934825712 0.0014817557159471891 0 -0.001427815094989476 0.001456722995628805 0 -0.0012998543814148398 0.001171692188248839 0 -0.0014214352521715098 0.0011223264317929086 0 -0.0011915106621933802 0.0017867954702440107 0 -0.0015646282682538425 0.0014749422695141837 0 -0.0014214352521715098 0.0011223264317929086 0 -0.0019106796638055593 0.0016286824814982508 0 -0.0019845845140686472 0.0015392181813019326 0 -0.0016466988529840988 0.0011579405851809541 0 -0.0019039624311015283 0.0015185015045724719 0 -0.0017462515721386746 0.0011910243766795378 0 -0.0019094587127933651 0.0016019810555428153 0 -0.0015646282682538425 0.0014749422695141837 0 -0.0016482292237192293 0.0011456824970328449 0 -0.0019692156495543837 0.0014639102209462627 0 -0.0017462515721386746 0.0011910243766795378 0 -0.0020083437890453491 0.0013454074197901333 0 -0.0020531790216341589 0.0015883844119980888 0 -0.0017660200533357101 0.0012560303763026418 0 -0.0019094587127933651 0.0016019810555428153 0 -0.0016512879519160507 0.0017689127883505176 0 -0.0015646282682538425 0.0014749422695141837 0 -0.0010283543674239552 0.001455361397363922 0 -0.0012106608814822411 0.0016696095844819093 0 -0.00093267972666023476 0.0017158658894084267 0 -0.00081551109998441733 0.0014768358566961098 0 -0.0010283543674239552 0.001455361397363922 0 -0.00093267972666023476 0.0017158658894084267 0 -0.00081551109998441733 0.0014768358566961098 0 -0.00086228547468332679 0.0012594493691211958 0 -0.0010283543674239552 0.001455361397363922 0 -0.001427815094989476 0.001456722995628805 0 -0.0010283543674239552 0.001455361397363922 0 -0.0012106608814822411 0.0016696095844819093 0 -0.001427815094989476 0.001456722995628805 0 -0.0010283543674239552 0.001455361397363922 0 -0.001128670370886385 0.0012375133767046362 0 -0.001427815094989476 0.001456722995628805 0 -0.001128670370886385 0.0012375133767046362 0 -0.0012998543814148398 0.001171692188248839 0 -0.00086228547468332679 0.0012594493691211958 0 -0.0010283543674239552 0.001455361397363922 0 -0.001128670370886385 0.0012375133767046362 0 -0.00086228547468332679 0.0012594493691211958 0 -0.001128670370886385 0.0012375133767046362 0 -0.00097997594768286936 0.0010691462439789247 0 -0.00097997594768286936 0.0010691462439789247 0 -0.0011787376595905402 0.0010407381798471012 0 -0.0010292803787276983 0.00091507231553965588 0 -0.001128670370886385 0.0012375133767046362 0 -0.0011787376595905402 0.0010407381798471012 0 -0.0012998543814148398 0.001171692188248839 0 -0.001128670370886385 0.0012375133767046362 0 -0.00097997594768286936 0.0010691462439789247 0 -0.0011787376595905402 0.0010407381798471012 0 -0.0011787376595905402 0.0010407381798471012 0 -0.0012998543814148398 0.001171692188248839 0 -0.0013399848514568679 0.00099402208777651089 0 -0.0011787376595905402 0.0010407381798471012 0 -0.001160779902909423 0.00083487789498894475 0 -0.0013399848514568679 0.00099402208777651089 0 -0.001160779902909423 0.00083487789498894475 0 -0.0013399848514568679 0.00099402208777651089 0 -0.0013279591022642664 0.00079428534939154092 0 -0.0011787376595905402 0.0010407381798471012 0 -0.001160779902909423 0.00083487789498894475 0 -0.0010292803787276983 0.00091507231553965588 0 -0.00083560888704349372 0.00087419416031796551 0 -0.00085301194832270908 0.00063821949734684761 0 -0.00099584673959732337 0.0007607585094709814 0 -0.001160779902909423 0.00083487789498894475 0 -0.0010292803787276983 0.00091507231553965588 0 -0.00099584673959732337 0.0007607585094709814 0 -0.00083560888704349372 0.00087419416031796551 0 -0.0010292803787276983 0.00091507231553965588 0 -0.00099584673959732337 0.0007607585094709814 0 -0.00083560888704349372 0.00087419416031796551 0 -0.00097997594768286936 0.0010691462439789247 0 -0.0010292803787276983 0.00091507231553965588 0 -0.0017462515721386746 0.0011910243766795378 0 -0.0015945234417432145 0.0009229978423431843 0 -0.0019731809108849119 0.0011569474863569907 0 -0.0017660200533357101 0.0012560303763026418 0 -0.001926553824963225 0.00090750828232154116 0 -0.0019731809108849119 0.0011569474863569907 0 -0.0020083437890453491 0.0013454074197901333 0 -0.0017660200533357101 0.0012560303763026418 0 -0.0015646282682538425 0.0014749422695141837 0 -0.0016482292237192293 0.0011456824970328449 0 -0.0014214352521715098 0.0011223264317929086 0 -0.0016482292237192293 0.0011456824970328449 0 -0.0013399848514568679 0.00099402208777651089 0 -0.0013279591022642664 0.00079428534939154092 0 -0.0016482292237192293 0.0011456824970328449 0 -0.0014214352521715098 0.0011223264317929086 0 -0.0013399848514568679 0.00099402208777651089 0 -0.0012998543814148398 0.001171692188248839 0 -0.0014214352521715098 0.0011223264317929086 0 -0.0013399848514568679 0.00099402208777651089 0 -0.0017462515721386746 0.0011910243766795378 0 -0.0014788976228065705 0.00073383475787620227 0 -0.0017541686184192381 0.0012009053455636378 0 -0.0015483360446653749 0.00083617690137578933 0 -0.0013447944696545963 0.00074069755657693679 0 -0.0015483360446653749 0.00083617690137578933 0 -0.0013447944696545963 0.00074069755657693679 0 -0.0013422971858823478 0.00047138455996705508 0 -0.0015495611126490007 0.00085845995904208392 0 -0.0017257365938456635 0.00064164119426960862 0 -0.0015381907635768973 0.00060499134557542617 0 -0.0017660200533357101 0.0012560303763026418 0 -0.0015495611126490007 0.00085845995904208392 0 -0.001926553824963225 0.00090750828232154116 0 -0.001926553824963225 0.00090750828232154116 0 -0.0017257365938456635 0.00064164119426960862 0 -0.0021123012024398483 0.00046631433945765297 0 -0.0015495611126490007 0.00085845995904208392 0 -0.001926553824963225 0.00090750828232154116 0 -0.0017257365938456635 0.00064164119426960862 0 -0.0017257365938456635 0.00064164119426960862 0 -0.0015057695112811783 0.00037430993135029384 0 -0.0021123012024398483 0.00046631433945765297 0 -0.0016885281217750405 0.00045638123602357759 0 -0.0019425651362088966 0.0005556111306060207 0 -0.0017257365938456635 0.00064164119426960862 0 -0.0015381907635768973 0.00060499134557542617 0 -0.0015057695112811783 0.00037430993135029384 0 -0.0015495611126490007 0.00085845995904208392 0 -0.0015381907635768973 0.00060499134557542617 0 -0.0013422971858823478 0.00047138455996705508 0 -0.0015945234417432145 0.0009229978423431843 0 -0.0015121348161512664 0.00077652344388555884 0 -0.0015381907635768973 0.00060499134557542617 0 -0.0013422971858823478 0.00047138455996705508 0 -0.0015057695112811783 0.00037430993135029384 0 -0.001869967274628415 0.00029621260042539621 0 -0.0018814297332949265 0.00031596622069764542 0 -0.0018615112722563387 0.00034771982980287357 0 -0.001869967274628415 0.00029621260042539621 0 -0.0018249152807778589 0.00033082843211230045 0 -0.0017970924667544987 0.00028130475780987238 0 -0.001869967274628415 0.00029621260042539621 0 -0.0018249152807778589 0.00033082843211230045 0 -0.0018615112722563387 0.00034771982980287357 0 -0.00085301194832270908 0.00063821949734684761 0 -0.00099584673959732337 0.0007607585094709814 0 -0.0010620465259933718 0.00050026293756416532 0 -0.001160779902909423 0.00083487789498894475 0 -0.00099584673959732337 0.0007607585094709814 0 -0.0010620465259933718 0.00050026293756416532 0 -0.0014788976228065705 0.00073383475787620227 0 -0.0015045184449228777 0.00045270913018581545 0 -0.001160779902909423 0.00083487789498894475 0 -0.0013279591022642664 0.00079428534939154092 0 -0.0010620465259933718 0.00050026293756416532 0 -0.0013422971858823478 0.00047138455996705508 0 -0.0015057695112811783 0.00037430993135029384 0 -0.00093522156014951604 0.00028145102495203133 0 -0.0013447944696545963 0.00074069755657693679 0 -0.0013422971858823478 0.00047138455996705508 0 -0.00093522156014951604 0.00028145102495203133 0 -0.0016885281217750405 0.00045638123602357759 0 -0.0015045184449228777 0.00045270913018581545 0 -0.0018928582778361741 0.00029537318579231608 0 -0.0018814297332949265 0.00031596622069764542 0 -0.0018900863050026872 0.00030656081257998826 0 -0.001869967274628415 0.00029621260042539621 0 -0.0018928582778361741 0.00029537318579231608 0 -0.0018814297332949265 0.00031596622069764542 0 -0.001189281853135002 0.00036581563666358342 0 -0.0015045184449228777 0.00045270913018581545 0 -0.0016929910203876319 0.00048394285424636848 0 -0.0015045184449228777 0.00045270913018581545 0 -0.0019181524614968455 0.00024640431171395102 0 -0.0019027420915233117 0.00025145400766921164 0 -0.0022186009466527027 0.00052623734819446657 0 -0.0019181524614968455 0.00024640431171395102 0 -0.0018928582778361741 0.00029537318579231608 0 -0.0018995293626253174 0.00028032350964570787 0 -0.0018928582778361741 0.00029537318579231608 0 -0.0018995293626253174 0.00028032350964570787 0 -0.0018900863050026872 0.00030656081257998826 0 -0.0019025088966329077 0.00028502629561662793 0 -0.0018995293626253174 0.00028032350964570787 0 -0.0018952381383216307 0.00029809610487535262 0 -0.0019074940843068499 0.00027008264019170932 0 -0.0019025088966329077 0.00028502629561662793 0 -0.0018995293626253174 0.00028032350964570787 0 -0.0019074940843068499 0.00027008264019170932 0 -0.0019181524614968455 0.00024640431171395102 0 -0.0018995293626253174 0.00028032350964570787 0 -0.0018995293626253174 0.00028032350964570787 0 -0.0018952381383216307 0.00029809610487535262 0 -0.0018900863050026872 0.00030656081257998826 0 -0.0018814297332949265 0.00031596622069764542 0 -0.0018900863050026872 0.00030656081257998826 0 -0.0018825166636911854 0.00034117108467487695 0 -0.0018792729656849998 0.00035477031941803881 0 -0.0018825166636911854 0.00034117108467487695 0 -0.0018822583399440772 0.00033906223948403959 0 -0.0018825166636911854 0.00034117108467487695 0 -0.0018822583399440772 0.00033906223948403959 0 -0.0018882985350483523 0.0003211470076230982 0 -0.0018858352093151229 0.00033185989926248224 0 -0.0018822583399440772 0.00033906223948403959 0 -0.0018882985350483523 0.0003211470076230982 0 -0.0018900863050026872 0.00030656081257998826 0 -0.0018825166636911854 0.00034117108467487695 0 -0.0018882985350483523 0.0003211470076230982 0 -0.0018952381383216307 0.00029809610487535262 0 -0.0018882985350483523 0.0003211470076230982 0 -0.0018975348806868709 0.00030527681284322653 0 -0.0018952381383216307 0.00029809610487535262 0 -0.0018900863050026872 0.00030656081257998826 0 -0.0018882985350483523 0.0003211470076230982 0 -0.0018882985350483523 0.0003211470076230982 0 -0.0018942576265520321 0.00032079570982191427 0 -0.0018975348806868709 0.00030527681284322653 0 -0.0018858352093151229 0.00033185989926248224 0 -0.0018882985350483523 0.0003211470076230982 0 -0.0018942576265520321 0.00032079570982191427 0 -0.0019043528541640203 0.00030947208869225751 0 -0.0019043197547295027 0.00032029505555186699 0 -0.0018942576265520321 0.00032079570982191427 0 -0.0019043528541640203 0.00030947208869225751 0 -0.0018942576265520321 0.00032079570982191427 0 -0.0018975348806868709 0.00030527681284322653 0 -0.0019043528541640203 0.00030947208869225751 0 -0.0019057645019035945 0.00029525916311607168 0 -0.0018975348806868709 0.00030527681284322653 0 -0.0019057645019035945 0.00029525916311607168 0 -0.0019025088966329077 0.00028502629561662793 0 -0.0018975348806868709 0.00030527681284322653 0 -0.0019025088966329077 0.00028502629561662793 0 -0.0018952381383216307 0.00029809610487535262 0 -0.0018975348806868709 0.00030527681284322653 0 -0.0018615112722563387 0.00034771982980287357 0 -0.0018350437063306779 0.00039269129358841619 0 -0.0018190237851423584 0.00037887282172655127 0 -0.0018249152807778589 0.00033082843211230045 0 -0.0018615112722563387 0.00034771982980287357 0 -0.0018190237851423584 0.00037887282172655127 0 -0.0018814297332949265 0.00031596622069764542 0 -0.0018825166636911854 0.00034117108467487695 0 -0.0018615112722563387 0.00034771982980287357 0 -0.0018825166636911854 0.00034117108467487695 0 -0.0018615112722563387 0.00034771982980287357 0 -0.001880766134544081 0.00037678328568286712 0 -0.0018792729656849998 0.00035477031941803881 0 -0.0018825166636911854 0.00034117108467487695 0 -0.001880766134544081 0.00037678328568286712 0 -0.0018615112722563387 0.00034771982980287357 0 -0.001880766134544081 0.00037678328568286712 0 -0.0018350437063306779 0.00039269129358841619 0 -0.0018963698026277257 0.00040627800075942848 0 -0.001880766134544081 0.00037678328568286712 0 -0.0018350437063306779 0.00039269129358841619 0 -0.0017401369797292155 0.00056713553892444963 0 -0.0017529108067112285 0.0005090217201671822 0 -0.0017609303842167775 0.00042657211650111426 0 -0.0018350437063306779 0.00039269129358841619 0 -0.0017845806048592159 0.00041519471401185281 0 -0.0018350437063306779 0.00039269129358841619 0 -0.0018190237851423584 0.00037887282172655127 0 -0.0017845806048592159 0.00041519471401185281 0 -0.0018190237851423584 0.00037887282172655127 0 -0.0017845806048592159 0.00041519471401185281 0 -0.0017717664930801639 0.00038884167969350516 0 -0.0017845806048592159 0.00041519471401185281 0 -0.0017717664930801639 0.00038884167969350516 0 -0.0016998223068926935 0.00043592678198868317 0 -0.0018249152807778589 0.00033082843211230045 0 -0.0018190237851423584 0.00037887282172655127 0 -0.0017717664930801639 0.00038884167969350516 0 -0.0017717664930801639 0.00038884167969350516 0 -0.0016998223068926935 0.00043592678198868317 0 -0.0016855207986581674 0.00037067781073608035 0 -0.0017845806048592159 0.00041519471401185281 0 -0.0016998223068926935 0.00043592678198868317 0 -0.0016993972270694419 0.0005034765525869676 0 -0.0016998223068926935 0.00043592678198868317 0 -0.0016993972270694419 0.0005034765525869676 0 -0.00162224624586197 0.00047264496059724724 0 -0.0017586060657307947 0.00062078176762838538 0 -0.0017845806048592159 0.00041519471401185281 0 -0.0016993972270694419 0.0005034765525869676 0 -0.0017586060657307947 0.00062078176762838538 0 -0.0016993972270694419 0.0005034765525869676 0 -0.0016194438258568592 0.00056199905133804621 0 -0.0016194438258568592 0.00056199905133804621 0 -0.0015110571765447358 0.00055735113809920632 0 -0.00162224624586197 0.00047264496059724724 0 -0.0016993972270694419 0.0005034765525869676 0 -0.0016194438258568592 0.00056199905133804621 0 -0.00162224624586197 0.00047264496059724724 0 -0.0014561646665418977 0.0005209695423484599 0 -0.0015110571765447358 0.00055735113809920632 0 -0.0015304462936867424 0.00047821548898538288 0 -0.0015110571765447358 0.00055735113809920632 0 -0.0015304462936867424 0.00047821548898538288 0 -0.00162224624586197 0.00047264496059724724 0 -0.0015304462936867424 0.00047821548898538288 0 -0.00162224624586197 0.00047264496059724724 0 -0.0016208202258481718 0.00041172353594806258 0 -0.0016998223068926935 0.00043592678198868317 0 -0.00162224624586197 0.00047264496059724724 0 -0.0016208202258481718 0.00041172353594806258 0 -0.0016208202258481718 0.00041172353594806258 0 -0.0015392366938957922 0.00040635634461213399 0 -0.0016311362644554231 0.00033033332493359076 0 -0.0014698480081090845 0.0004690712637950522 0 -0.0015304462936867424 0.00047821548898538288 0 -0.0015392366938957922 0.00040635634461213399 0 -0.0015304462936867424 0.00047821548898538288 0 -0.0016208202258481718 0.00041172353594806258 0 -0.0015392366938957922 0.00040635634461213399 0 -0.002257128354602041 0.0014041369242719173 0 -0.0022452340357441087 0.00078875221700100721 0 -0.0015132783988115008 0.00034325119028771764 0 -0.0015392366938957922 0.00040635634461213399 0 -0.0016311362644554231 0.00033033332493359076 0 -0.0023129114765364743 0.00080544994309996408 0 -0.0027374973053408574 0.00056325948260372476 0 -0.0021123012024398483 0.00046631433945765297 0 -0.0017002015342484924 0.0002649875124186211 0 -0.0017970924667544987 0.00028130475780987238 0 -0.0017367784081140927 0.00032010777226431996 0 -0.0022452340357441087 0.00078875221700100721 0 -0.0019425651362088966 0.0005556111306060207 0 -0.0022452340357441087 0.00078875221700100721 0 -0.0019604126246136155 0.00047152744371418905 0 -0.0018249152807778589 0.00033082843211230045 0 -0.0017970924667544987 0.00028130475780987238 0 -0.0017823854519718435 0.00032912850175955712 0 -0.0017970924667544987 0.00028130475780987238 0 -0.0017823854519718435 0.00032912850175955712 0 -0.0017367784081140927 0.00032010777226431996 0 -0.0017717664930801639 0.00038884167969350516 0 -0.0017823854519718435 0.00032912850175955712 0 -0.0017367784081140927 0.00032010777226431996 0 -0.0018249152807778589 0.00033082843211230045 0 -0.0017717664930801639 0.00038884167969350516 0 -0.0017823854519718435 0.00032912850175955712 0 -0.0016998223068926935 0.00043592678198868317 0 -0.0016208202258481718 0.00041172353594806258 0 -0.0016855207986581674 0.00037067781073608035 0 -0.0019047133143725724 0.00041813131877265944 0 -0.0019604126246136155 0.00047152744371418905 0 -0.0016208202258481718 0.00041172353594806258 0 -0.0016311362644554231 0.00033033332493359076 0 -0.0016855207986581674 0.00037067781073608035 0 4.5777609632935371e-06 0.014993724491340916 0 4.260611906615694e-06 0.014888734452495911 0 -1.3885501827597075e-05 0.01494980581500344 0 -5.0659769364026046e-06 0.014883616954542411 0 -2.7099566159183296e-06 0.014882524740371231 0 4.260611906615694e-06 0.014888734452495911 0 3.854182712690953e-06 0.014946345877880419 0 5.8968057313599252e-06 0.014933374604727153 0 -5.0659769364026046e-06 0.014883616954542411 0 -2.7099566159183296e-06 0.014882524740371231 0 1.2440363034274047e-05 0.014891901941373992 0 4.5777609632935371e-06 0.014993724491340916 0 -5.9490771700135715e-06 0.014993037649500917 0 -1.3885501827597075e-05 0.01494980581500344 0 -2.0941739587952541e-08 0.014999933168159139 0 -5.9490771700135715e-06 0.014993037649500917 0 -8.1202232617284561e-10 0.015000010108275711 0 -2.0941739587952541e-08 0.014999933168159139 0 -5.9490771700135715e-06 0.014993037649500917 0 -1.3885501827597075e-05 0.01494980581500344 0 4.5777609632935371e-06 0.014993724491340916 0 -5.9490771700135715e-06 0.014993037649500917 0 -1.3886161509462682e-06 0.014997158113818061 0 3.854182712690953e-06 0.014946345877880419 0 2.4432987884433161e-06 0.014968207178663302 0 -5.9490771700135715e-06 0.014993037649500917 0 -1.3886161509462682e-06 0.014997158113818061 0 -8.1202232617284561e-10 0.015000010108275711 0 4.5777609632935371e-06 0.014993724491340916 0 -1.3886161509462682e-06 0.014997158113818061 0 -7.3035633308413189e-07 0.015000554546701484 0 -1.3886161509462682e-06 0.014997158113818061 0 -8.1202232617284561e-10 0.015000010108275711 0 -7.3035633308413189e-07 0.015000554546701484 0 -5.0659769364026046e-06 0.014883616954542411 0 1.2043489197293076e-06 0.014919708605884423 0 5.4423208570528889e-06 0.014904474579876707 0 -5.0659769364026046e-06 0.014883616954542411 0 1.2043489197293076e-06 0.014919708605884423 0 -1.4071325710746117e-05 0.014936320496637838 0 5.4423208570528889e-06 0.014904474579876707 0 1.5658027216453407e-05 0.014919276173484011 0 1.2440363034274047e-05 0.014891901941373992 0 -5.0659769364026046e-06 0.014883616954542411 0 5.4423208570528889e-06 0.014904474579876707 0 1.2440363034274047e-05 0.014891901941373992 0 1.2043489197293076e-06 0.014919708605884423 0 5.4423208570528889e-06 0.014904474579876707 0 1.5658027216453407e-05 0.014919276173484011 0 1.5658027216453407e-05 0.014919276173484011 0 3.1338900884949814e-05 0.014893460802656093 0 4.1839872174646405e-05 0.014920998285783513 0 1.5658027216453407e-05 0.014919276173484011 0 3.1338900884949814e-05 0.014893460802656093 0 1.2440363034274047e-05 0.014891901941373992 0 6.1667845268634713e-05 0.014891081069435826 0 8.5838607833268595e-05 0.014929801454720917 0 4.1839872174646405e-05 0.014920998285783513 0 3.1338900884949814e-05 0.014893460802656093 0 6.1667845268634713e-05 0.014891081069435826 0 4.1839872174646405e-05 0.014920998285783513 0 3.1338900884949814e-05 0.014893460802656093 0 6.1667845268634713e-05 0.014891081069435826 0 4.0850247581770403e-05 0.014861954193300915 0 4.0850247581770403e-05 0.014861954193300915 0 5.8427841412951319e-05 0.014828065918626296 0 8.0670328101875894e-05 0.01484849583456186 0 6.1667845268634713e-05 0.014891081069435826 0 4.0850247581770403e-05 0.014861954193300915 0 8.0670328101875894e-05 0.01484849583456186 0 4.0850247581770403e-05 0.014861954193300915 0 1.9426224837467651e-05 0.01487148380694487 0 2.9084121626550087e-05 0.014801355035304128 0 -2.7099566159183296e-06 0.014882524740371231 0 1.9426224837467651e-05 0.01487148380694487 0 2.9084121626550087e-05 0.014801355035304128 0 3.1338900884949814e-05 0.014893460802656093 0 1.2440363034274047e-05 0.014891901941373992 0 1.9426224837467651e-05 0.01487148380694487 0 -2.7099566159183296e-06 0.014882524740371231 0 1.2440363034274047e-05 0.014891901941373992 0 1.9426224837467651e-05 0.01487148380694487 0 3.1338900884949814e-05 0.014893460802656093 0 4.0850247581770403e-05 0.014861954193300915 0 1.9426224837467651e-05 0.01487148380694487 0 -2.7099566159183296e-06 0.014882524740371231 0 3.9647628215754897e-05 0.014868874039931526 0 4.260611906615694e-06 0.014888734452495911 0 -8.5019652889778774e-05 0.014685844256439947 0 -8.5730519663000437e-05 0.014617232662298009 0 3.9647628215754897e-05 0.014868874039931526 0 5.940140028133705e-06 0.01481769484922755 0 4.260611906615694e-06 0.014888734452495911 0 2.9084121626550087e-05 0.014801355035304128 0 7.7040461465647942e-05 0.014731307449257504 0 8.0885601747965634e-05 0.014798045308950595 0 4.0850247581770403e-05 0.014861954193300915 0 2.9084121626550087e-05 0.014801355035304128 0 5.8427841412951319e-05 0.014828065918626296 0 5.8427841412951319e-05 0.014828065918626296 0 8.0885601747965634e-05 0.014798045308950595 0 8.0670328101875894e-05 0.01484849583456186 0 2.9084121626550087e-05 0.014801355035304128 0 5.8427841412951319e-05 0.014828065918626296 0 8.0885601747965634e-05 0.014798045308950595 0 3.9647628215754897e-05 0.014868874039931526 0 5.2713817140052713e-05 0.014717685692256361 0 0.0001625355681005049 0.014642857236233403 0 -8.5730519663000437e-05 0.014617232662298009 0 -9.2047183233637202e-05 0.014389148131372185 0 5.2713817140052713e-05 0.014717685692256361 0 9.5796131834000289e-05 0.014560004810228223 0 0.0001625355681005049 0.014642857236233403 0 5.2713817140052713e-05 0.014717685692256361 0 5.940140028133705e-06 0.01481769484922755 0 1.9470000013007366e-06 0.014697876842173099 0 5.940140028133705e-06 0.01481769484922755 0 -2.638888337058546e-05 0.014879863279399969 0 1.9470000013007366e-06 0.014697876842173099 0 3.9647628215754897e-05 0.014868874039931526 0 5.2713817140052713e-05 0.014717685692256361 0 5.940140028133705e-06 0.01481769484922755 0 5.940140028133705e-06 0.01481769484922755 0 -2.638888337058546e-05 0.014879863279399969 0 4.260611906615694e-06 0.014888734452495911 0 -2.638888337058546e-05 0.014879863279399969 0 4.260611906615694e-06 0.014888734452495911 0 -1.3885501827597075e-05 0.01494980581500344 0 -2.0941739587952541e-08 0.014999933168159139 0 -1.3885501827597075e-05 0.01494980581500344 0 -1.6070866456468956e-08 0.014999887375048288 0 -2.638888337058546e-05 0.014879863279399969 0 -1.3885501827597075e-05 0.01494980581500344 0 -1.6070866456468956e-08 0.014999887375048288 0 -2.638888337058546e-05 0.014879863279399969 0 -1.6070866456468956e-08 0.014999887375048288 0 -5.4457136364860807e-05 0.014803428580052586 0 -1.6070866456468956e-08 0.014999887375048288 0 -5.4457136364860807e-05 0.014803428580052586 0 -2.2943418901648989e-07 0.014999392152514774 0 -2.638888337058546e-05 0.014879863279399969 0 -5.4457136364860807e-05 0.014803428580052586 0 1.9470000013007366e-06 0.014697876842173099 0 -5.4457136364860807e-05 0.014803428580052586 0 -0.00010952419805122236 0.014504866591077529 0 -9.0205994119456532e-06 0.014573156614780584 0 -8.0102427938289655e-08 0.014999498264644497 0 2.3863749281707194e-05 0.014689145248019847 0 -5.4457136364860807e-05 0.014803428580052586 0 -2.2943418901648989e-07 0.014999392152514774 0 -0.00010952419805122236 0.014504866591077529 0 -4.2296200829308605e-07 0.014998740366663925 0 -6.9954088595517439e-05 0.014653166112238427 0 6.1913873427252452e-07 0.013402093002532567 0 1.5614806104580996e-07 0.015000040445701862 0 -4.2296200829308605e-07 0.014998740366663925 0 -6.9954088595517439e-05 0.014653166112238427 0 6.4528795766779175e-05 0.01392223660129055 0 6.1913873427252452e-07 0.013402093002532567 0 0.0003136312921995092 0.014191092850318715 0 -2.4916064634794473e-09 0.013399469561429298 0 7.2785405651065095e-05 0.013615940390898775 0 -6.9954088595517439e-05 0.014653166112238427 0 6.4528795766779175e-05 0.01392223660129055 0 6.1913873427252452e-07 0.013402093002532567 0 2.3863749281707194e-05 0.014689145248019847 0 9.3546218328563726e-05 0.014499530222916926 0 -0.00010952419805122236 0.014504866591077529 0 6.4528795766779175e-05 0.01392223660129055 0 8.2683315809346293e-05 0.014330587969444392 0 8.2683315809346293e-05 0.014330587969444392 0 0.00018719092178619455 0.014273234887685532 0 0.0003136312921995092 0.014191092850318715 0 6.4528795766779175e-05 0.01392223660129055 0 8.2683315809346293e-05 0.014330587969444392 0 0.0003136312921995092 0.014191092850318715 0 8.2683315809346293e-05 0.014330587969444392 0 0.00010008310807172588 0.014436131168773861 0 0.00018719092178619455 0.014273234887685532 0 8.2683315809346293e-05 0.014330587969444392 0 0.00010008310807172588 0.014436131168773861 0 -9.0205994119456532e-06 0.014573156614780584 0 0.00010008310807172588 0.014436131168773861 0 0.00013935096476590269 0.014380768786544075 0 0.00018719092178619455 0.014273234887685532 0 -0.00010952419805122236 0.014504866591077529 0 8.2683315809346293e-05 0.014330587969444392 0 -9.0205994119456532e-06 0.014573156614780584 0 0.00010008310807172588 0.014436131168773861 0 -9.0205994119456532e-06 0.014573156614780584 0 1.9470000013007366e-06 0.014697876842173099 0 -5.4457136364860807e-05 0.014803428580052586 0 -9.0205994119456532e-06 0.014573156614780584 0 1.9470000013007366e-06 0.014697876842173099 0 5.2713817140052713e-05 0.014717685692256361 0 1.9470000013007366e-06 0.014697876842173099 0 9.5796131834000289e-05 0.014560004810228223 0 0.00010008310807172588 0.014436131168773861 0 1.9470000013007366e-06 0.014697876842173099 0 9.5796131834000289e-05 0.014560004810228223 0 9.5796131834000289e-05 0.014560004810228223 0 0.00013935096476590269 0.014380768786544075 0 0.0001625355681005049 0.014642857236233403 0 0.00010008310807172588 0.014436131168773861 0 9.5796131834000289e-05 0.014560004810228223 0 0.00013935096476590269 0.014380768786544075 0 -8.2159975299294055e-05 0.013900835408912834 0 -9.2047183233637202e-05 0.014389148131372185 0 0.00013935096476590269 0.014380768786544075 0 0.00021298119963053129 0.014316852053533419 0 0.0001625355681005049 0.014642857236233403 0 0.00013935096476590269 0.014380768786544075 0 0.00021298119963053129 0.014316852053533419 0 0.00010851116402828865 0.014096091169925372 0 0.00014992260075084317 0.014646740108132016 0 0.00017589013000068478 0.014706722181206442 0 7.7040461465647942e-05 0.014731307449257504 0 0.00014992260075084317 0.014646740108132016 0 0.00020135683496668772 0.014642560974454049 0 0.00017589013000068478 0.014706722181206442 0 0.00021298119963053129 0.014316852053533419 0 0.0002676604056956042 0.013775678884836065 0 0.00072312677831372981 0.013627627962184499 0 -8.2159975299294055e-05 0.013900835408912834 0 9.8654167654318916e-05 0.012838629166727086 0 0.00014992260075084317 0.014646740108132016 0 0.00020135683496668772 0.014642560974454049 0 0.00024293608635906358 0.014556373833893703 0 0.00021298119963053129 0.014316852053533419 0 0.00010851116402828865 0.014096091169925372 0 0.0002676604056956042 0.013775678884836065 0 0.00010851116402828865 0.014096091169925372 0 0.0002676604056956042 0.013775678884836065 0 7.9776399485599159e-05 0.013502664815597613 0 0.0002676604056956042 0.013775678884836065 0 0.00016339018465252189 0.013170585231251043 0 0.00072312677831372981 0.013627627962184499 0 0.00010851116402828865 0.014096091169925372 0 -0.00022595392173379718 0.012994759720153395 0 7.9776399485599159e-05 0.013502664815597613 0 0.00010851116402828865 0.014096091169925372 0 0.00018719092178619455 0.014273234887685532 0 0.0003136312921995092 0.014191092850318715 0 0.0001449758743293744 0.013793743378520427 0 7.2785405651065095e-05 0.013615940390898775 0 0.00013935096476590269 0.014380768786544075 0 0.00010851116402828865 0.014096091169925372 0 0.00018719092178619455 0.014273234887685532 0 -0.00022595392173379718 0.012994759720153395 0 0.00016339018465252189 0.013170585231251043 0 -9.8443632024505898e-05 0.01284995369891243 0 -0.00022595392173379718 0.012994759720153395 0 7.9776399485599159e-05 0.013502664815597613 0 0.00016339018465252189 0.013170585231251043 0 0.0002676604056956042 0.013775678884836065 0 7.9776399485599159e-05 0.013502664815597613 0 0.00016339018465252189 0.013170585231251043 0 0.00016339018465252189 0.013170585231251043 0 7.8496834545366015e-05 0.012628226649701665 0 0.00056188499550111418 0.012868423704060243 0 0.00016339018465252189 0.013170585231251043 0 7.8496834545366015e-05 0.012628226649701665 0 -9.8443632024505898e-05 0.01284995369891243 0 7.8496834545366015e-05 0.012628226649701665 0 -5.4826259329468038e-07 0.012642406262271819 0 1.4511563140135797e-06 0.011886027147775816 0 7.8496834545366015e-05 0.012628226649701665 0 -5.4826259329468038e-07 0.012642406262271819 0 -9.8443632024505898e-05 0.01284995369891243 0 1.5888653236155369e-08 0.013398255305563638 0 -0.00022595392173379718 0.012994759720153395 0 -9.8443632024505898e-05 0.01284995369891243 0 1.5888653236155369e-08 0.013398255305563638 0 -5.4826259329468038e-07 0.012642406262271819 0 -9.8443632024505898e-05 0.01284995369891243 0 -6.1302430457461034e-05 0.011475532059465301 0 6.453822249731147e-08 0.011883500821105971 0 -5.8761013187190682e-08 0.011058039707536648 0 -6.1302430457461034e-05 0.011475532059465301 0 -2.7843724049287073e-05 0.011435665978135818 0 -1.4131667946266759e-05 0.011413712352795688 0 2.7314352841951303e-07 0.011885759394467807 0 7.4958571483421698e-05 0.012343078219787709 0 7.8496834545366015e-05 0.012628226649701665 0 1.4511563140135797e-06 0.011886027147775816 0 0.00056188499550111418 0.012868423704060243 0 -6.1302430457461034e-05 0.011475532059465301 0 6.453822249731147e-08 0.011883500821105971 0 6.6195028179054073e-05 0.01148114693328018 0 7.4958571483421698e-05 0.012343078219787709 0 9.8654167654318916e-05 0.012838629166727086 0 0.00016339018465252189 0.013170585231251043 0 0.00056188499550111418 0.012868423704060243 0 0.00072312677831372981 0.013627627962184499 0 6.6195028179054073e-05 0.01148114693328018 0 -2.7843724049287073e-05 0.011435665978135818 0 7.1599217233217705e-05 0.011354173515473907 0 0.00025571112318194001 0.012317704890092991 0 9.8654167654318916e-05 0.012838629166727086 0 -6.1302430457461034e-05 0.011475532059465301 0 6.6195028179054073e-05 0.01148114693328018 0 -2.7843724049287073e-05 0.011435665978135818 0 -0.00012524577074972805 0.011556663214036634 0 -2.8408481547653267e-05 0.011575388328325133 0 -1.4131667946266759e-05 0.011413712352795688 0 0.00025571112318194001 0.012317704890092991 0 0.00029244769037254287 0.012165763722060683 0 -6.4419619891055527e-05 0.011621853797208965 0 -2.183600415814925e-06 0.011668328731516639 0 -2.8408481547653267e-05 0.011575388328325133 0 -0.00012524577074972805 0.011556663214036634 0 -6.4419619891055527e-05 0.011621853797208965 0 -2.8408481547653267e-05 0.011575388328325133 0 -6.4419619891055527e-05 0.011621853797208965 0 -0.00010159047281404422 0.011686159502571602 0 -2.183600415814925e-06 0.011668328731516639 0 -0.00012524577074972805 0.011556663214036634 0 -6.4419619891055527e-05 0.011621853797208965 0 -0.00010159047281404422 0.011686159502571602 0 -0.00012524577074972805 0.011556663214036634 0 -0.00010159047281404422 0.011686159502571602 0 -0.00022376203313555616 0.011653302006976868 0 -0.00010159047281404422 0.011686159502571602 0 -0.00016010395126448947 0.011744181287768714 0 -0.00010233295173200544 0.011766903085374328 0 -0.00010159047281404422 0.011686159502571602 0 -0.00010233295173200544 0.011766903085374328 0 -1.4378112724158362e-05 0.011788736485792657 0 -0.00010159047281404422 0.011686159502571602 0 -1.4378112724158362e-05 0.011788736485792657 0 -2.183600415814925e-06 0.011668328731516639 0 0.00020135683496668772 0.014642560974454049 0 0.00024293608635906358 0.014556373833893703 0 0.00023676681858651188 0.014656238728009264 0 -0.00022376203313555616 0.011653302006976868 0 -0.00016010395126448947 0.011744181287768714 0 -0.00023064526203251691 0.011808289564219266 0 9.8654167654318916e-05 0.012838629166727086 0 -5.2570226768063521e-05 0.013005450331047502 0 -0.00010159047281404422 0.011686159502571602 0 -0.00022376203313555616 0.011653302006976868 0 -0.00016010395126448947 0.011744181287768714 0 -0.00016010395126448947 0.011744181287768714 0 -0.00023064526203251691 0.011808289564219266 0 -0.00013638279431785869 0.0118162945619045 0 -0.00023064526203251691 0.011808289564219266 0 -0.00013638279431785869 0.0118162945619045 0 -0.00018198984366309359 0.011885507837828786 0 0.00020135683496668772 0.014642560974454049 0 0.00023676681858651188 0.014656238728009264 0 0.00017589013000068478 0.014706722181206442 0 -0.00010233295173200544 0.011766903085374328 0 -8.390549539893378e-05 0.01181704252753466 0 -1.4378112724158362e-05 0.011788736485792657 0 -0.00016010395126448947 0.011744181287768714 0 -0.00010233295173200544 0.011766903085374328 0 -0.00013638279431785869 0.0118162945619045 0 -0.00010233295173200544 0.011766903085374328 0 -0.00013638279431785869 0.0118162945619045 0 -8.390549539893378e-05 0.01181704252753466 0 -0.00013638279431785869 0.0118162945619045 0 -0.00010780998486273926 0.011860775010170915 0 -0.00011846497424970487 0.011927279310425531 0 0.00022847920805096843 0.011793062015216535 0 0.00026235487423487797 0.011781338762615747 0 -0.00013638279431785869 0.0118162945619045 0 -0.00010780998486273926 0.011860775010170915 0 -8.390549539893378e-05 0.01181704252753466 0 -8.390549539893378e-05 0.01181704252753466 0 -4.9143534166818546e-05 0.011859247491047928 0 -1.4378112724158362e-05 0.011788736485792657 0 -0.00010780998486273926 0.011860775010170915 0 -8.390549539893378e-05 0.01181704252753466 0 -4.9143534166818546e-05 0.011859247491047928 0 0.00023874592240173952 0.01094777903066395 0 0.00020959112948884602 0.010860488557448244 0 -0.00010780998486273926 0.011860775010170915 0 -4.6497510406947636e-05 0.011913674546014464 0 -0.00011846497424970487 0.011927279310425531 0 -0.00010780998486273926 0.011860775010170915 0 -4.9143534166818546e-05 0.011859247491047928 0 -4.0598641436040127e-05 0.011919543004334914 0 -4.9143534166818546e-05 0.011859247491047928 0 -4.0598641436040127e-05 0.011919543004334914 0 -2.5125194149466673e-06 0.011912831616328732 0 0.00020959112948884602 0.010860488557448244 0 0.00026235487423487797 0.011781338762615747 0 -0.00013638279431785869 0.0118162945619045 0 -0.00011895489926852043 0.011948272431361602 0 -0.00018198984366309359 0.011885507837828786 0 0.00017582969728709521 0.014769280836259946 0 0.0001733399718684535 0.014785792408389897 0 0.00017010375536808712 0.014779747234007067 0 0.00026235487423487797 0.011781338762615747 0 0.00017402287112846978 0.011967534002396297 0 -3.0692623278349895e-05 0.010970496347232897 0 -1.1879681595517204e-05 0.010990792336249609 0 -2.6022613361533641e-05 0.011017426004306195 0 -1.4395476208380206e-07 0.010964329588737188 0 -3.0692623278349895e-05 0.010970496347232897 0 -1.1879681595517204e-05 0.010990792336249609 0 -1.4395476208380206e-07 0.010964329588737188 0 -1.1879681595517204e-05 0.010990792336249609 0 1.6852036021401249e-05 0.01097912091261029 0 0.00016784553231731359 0.010261311732926688 0 0.00010361322029321759 0.010373556815750355 0 -1.1879681595517204e-05 0.010990792336249609 0 -1.0042592084417869e-05 0.011035259595826392 0 1.6852036021401249e-05 0.01097912091261029 0 -1.1879681595517204e-05 0.010990792336249609 0 -2.6022613361533641e-05 0.011017426004306195 0 -1.0042592084417869e-05 0.011035259595826392 0 0.0001733399718684535 0.014785792408389897 0 0.00016782137168046149 0.014794331037631569 0 0.00017010375536808712 0.014779747234007067 0 -2.6022613361533641e-05 0.011017426004306195 0 -1.849089482481221e-05 0.011037102812575847 0 -2.336666244997529e-05 0.011064197028659784 0 0.0001733399718684535 0.014785792408389897 0 0.00016782137168046149 0.014794331037631569 0 0.00016117292301083148 0.014790138344245481 0 0.00017402287112846978 0.011967534002396297 0 2.9403816173373213e-05 0.011361170561054098 0 -0.00030839303030637927 0.0084086749663845953 0 -0.0003007185176217295 0.0083807059768438077 0 -0.00033499719450859761 0.0084143809654556295 0 0.00016472703038754958 0.010263927370353856 0 0.00016784553231731359 0.010261311732926688 0 -2.6022613361533641e-05 0.011017426004306195 0 -1.849089482481221e-05 0.011037102812575847 0 -1.0042592084417869e-05 0.011035259595826392 0 0.00016782137168046149 0.014794331037631569 0 0.00016708603191021201 0.01478516062173609 0 0.00016799931541736939 0.014809745718621804 0 0.00017010375536808712 0.014779747234007067 0 0.00016708603191021201 0.01478516062173609 0 0.0001638343180926541 0.014773129896745275 0 0.00016782137168046149 0.014794331037631569 0 0.00017010375536808712 0.014779747234007067 0 0.00016708603191021201 0.01478516062173609 0 -0.00020139421574591433 0.013232482653803702 0 -0.00020541979558464177 0.012862917396812468 0 -5.2570226768063521e-05 0.013005450331047502 0 -0.00020541979558464177 0.012862917396812468 0 -0.00023064526203251691 0.011808289564219266 0 -0.00024127742007349555 0.011969671294834089 0 -0.00018198984366309359 0.011885507837828786 0 0.00023676681858651188 0.014656238728009264 0 0.00022787784722026074 0.01474743393310775 0 0.00017589013000068478 0.014706722181206442 0 0.00017582969728709521 0.014769280836259946 0 0.00017010375536808712 0.014779747234007067 0 0.0001638343180926541 0.014773129896745275 0 0.00026235487423487797 0.011781338762615747 0 -0.00020541979558464177 0.012862917396812468 0 -0.00011895489926852043 0.011948272431361602 0 -0.00024127742007349555 0.011969671294834089 0 -0.00018198984366309359 0.011885507837828786 0 0.00017589013000068478 0.014706722181206442 0 0.00014142165114967736 0.014762889689957136 0 7.7040461465647942e-05 0.014731307449257504 0 0.00022787784722026074 0.01474743393310775 0 0.00017589013000068478 0.014706722181206442 0 0.00014142165114967736 0.014762889689957136 0 0.00016708603191021201 0.01478516062173609 0 0.00016939150988889575 0.014760238897000321 0 0.00014142165114967736 0.014762889689957136 0 -0.00020541979558464177 0.012862917396812468 0 -0.00015149579947115548 0.013091227243193723 0 0.00014142165114967736 0.014762889689957136 0 7.7040461465647942e-05 0.014731307449257504 0 8.0885601747965634e-05 0.014798045308950595 0 0.00014142165114967736 0.014762889689957136 0 8.0885601747965634e-05 0.014798045308950595 0 0.00012407437031523779 0.0148110999027851 0 8.0885601747965634e-05 0.014798045308950595 0 0.00012407437031523779 0.0148110999027851 0 8.0670328101875894e-05 0.01484849583456186 0 0.00014142165114967736 0.014762889689957136 0 0.00012407437031523779 0.0148110999027851 0 0.00015182125543745546 0.014792260296496029 0 0.00016708603191021201 0.01478516062173609 0 0.00014142165114967736 0.014762889689957136 0 0.00015182125543745546 0.014792260296496029 0 0.00016708603191021201 0.01478516062173609 0 0.00015182125543745546 0.014792260296496029 0 0.00016799931541736939 0.014809745718621804 0 0.00012407437031523779 0.0148110999027851 0 0.00015182125543745546 0.014792260296496029 0 0.00016799931541736939 0.014809745718621804 0 0.00012407437031523779 0.0148110999027851 0 0.00016799931541736939 0.014809745718621804 0 0.00012218848557405695 0.014852878448691299 0 0.00012407437031523779 0.0148110999027851 0 0.00012218848557405695 0.014852878448691299 0 8.0670328101875894e-05 0.01484849583456186 0 0.00012218848557405695 0.014852878448691299 0 8.0670328101875894e-05 0.01484849583456186 0 9.3830392502251364e-05 0.014887259698661937 0 9.3830392502251364e-05 0.014887259698661937 0 0.00014641262625205893 0.014906301671866372 0 8.5838607833268595e-05 0.014929801454720917 0 6.1667845268634713e-05 0.014891081069435826 0 9.3830392502251364e-05 0.014887259698661937 0 8.5838607833268595e-05 0.014929801454720917 0 6.1667845268634713e-05 0.014891081069435826 0 8.0670328101875894e-05 0.01484849583456186 0 9.3830392502251364e-05 0.014887259698661937 0 0.00016799931541736939 0.014809745718621804 0 0.00012218848557405695 0.014852878448691299 0 0.00014641262625205893 0.014906301671866372 0 0.00012218848557405695 0.014852878448691299 0 9.3830392502251364e-05 0.014887259698661937 0 0.00014641262625205893 0.014906301671866372 0 3.1333783942771951e-05 0.014759698309766905 0 -4.3551501579463681e-07 0.014709717323279987 0 0.00018847829286273993 0.014764101483392411 0 0.00015105206746792986 0.014768204154178318 0 0.00016298609088057683 0.014788545234981883 0 0.00016799931541736939 0.014809745718621804 0 0.00018847829286273993 0.014764101483392411 0 0.00016298609088057683 0.014788545234981883 0 -5.2020449786700093e-05 0.010934692073732636 0 2.9403816173373213e-05 0.011361170561054098 0 -0.00017322162915260801 0.012843227636292956 0 2.9403816173373213e-05 0.011361170561054098 0 0.0002226976013173739 0.011952051122026122 0 3.0704110798799148e-05 0.012009992142834623 0 0.00018176182906313711 0.011604614486469952 0 0.00015105206746792986 0.014768204154178318 0 0.00016117292301083148 0.014790138344245481 0 0.00016298609088057683 0.014788545234981883 0 -0.00031901371639464672 0.0083327429153355233 0 -0.0003007185176217295 0.0083807059768438077 0 -0.00033911787699523625 0.0083545959195012141 0 -1.849089482481221e-05 0.011037102812575847 0 -1.1059019910488757e-05 0.011035173205831259 0 -2.336666244997529e-05 0.011064197028659784 0 0.00016784553231731359 0.010261311732926688 0 2.9403816173373213e-05 0.011361170561054098 0 0.00016782137168046149 0.014794331037631569 0 0.00016799931541736939 0.014809745718621804 0 0.00016298609088057683 0.014788545234981883 0 0.00016782137168046149 0.014794331037631569 0 0.00016117292301083148 0.014790138344245481 0 0.00016298609088057683 0.014788545234981883 0 -0.00013851146897684536 0.0080102425809171762 0 -0.00023279010078235419 0.0079137875694917491 0 -0.00023987709203106289 0.0080591704815061276 0 -0.00013851146897684536 0.0080102425809171762 0 -0.00023279010078235419 0.0079137875694917491 0 -4.3391255264744114e-05 0.0078973381853657439 0 -0.00023279010078235419 0.0079137875694917491 0 -4.3391255264744114e-05 0.0078973381853657439 0 -0.00024522239803171747 0.0077309038051536693 0 -0.00023279010078235419 0.0079137875694917491 0 -0.00032587225279731818 0.0078625734185110534 0 -0.00024696437768443246 0.0077309053617155808 0 -0.00016493812072023369 0.0086668089787949442 0 6.7700776768668625e-06 0.009612974981953442 0 -0.00032587225279731818 0.0078625734185110534 0 -0.0003940593345059068 0.0080408825055274906 0 -0.00042214413792990649 0.0077673158400298993 0 -0.0003007185176217295 0.0083807059768438077 0 -0.00033911787699523625 0.0083545959195012141 0 -0.00033499719450859761 0.0084143809654556295 0 -0.00023279010078235419 0.0079137875694917491 0 -0.0003940593345059068 0.0080408825055274906 0 -0.00023987709203106289 0.0080591704815061276 0 -0.00023279010078235419 0.0079137875694917491 0 -0.00032587225279731818 0.0078625734185110534 0 -0.0003940593345059068 0.0080408825055274906 0 -0.0003940593345059068 0.0080408825055274906 0 -0.0002824474805850569 0.0081905176946867487 0 -0.00023987709203106289 0.0080591704815061276 0 -0.0003940593345059068 0.0080408825055274906 0 -0.0002824474805850569 0.0081905176946867487 0 -0.00032243735656620876 0.0083164492541192431 0 -0.00016493812072023369 0.0086668089787949442 0 -0.00020330049795886656 0.0084870874903271512 0 -0.00031901371639464672 0.0083327429153355233 0 -0.00033911787699523625 0.0083545959195012141 0 -0.00032243735656620876 0.0083164492541192431 0 -0.0002824474805850569 0.0081905176946867487 0 -0.000159772274928153 0.008155841905089745 0 -0.00027527863901103669 0.0083317295619513947 0 -0.000159772274928153 0.008155841905089745 0 2.696313442678582e-05 0.0082605621062687516 0 -0.00027527863901103669 0.0083317295619513947 0 -0.0002824474805850569 0.0081905176946867487 0 -0.00023987709203106289 0.0080591704815061276 0 -0.000159772274928153 0.008155841905089745 0 -0.00013851146897684536 0.0080102425809171762 0 -0.00023987709203106289 0.0080591704815061276 0 -0.000159772274928153 0.008155841905089745 0 -0.00013851146897684536 0.0080102425809171762 0 -0.000159772274928153 0.008155841905089745 0 -2.502320338547746e-05 0.0080653192332133666 0 -0.000159772274928153 0.008155841905089745 0 2.696313442678582e-05 0.0082605621062687516 0 -2.502320338547746e-05 0.0080653192332133666 0 2.696313442678582e-05 0.0082605621062687516 0 -2.502320338547746e-05 0.0080653192332133666 0 0.00020764313046219894 0.0080426557903880182 0 0.00018227638681496411 0.0093938894234735296 0 0.00034919571640853564 0.00915306728845805 0 0.00046784850392954678 0.008174435134773372 0 0.00064325693971528934 0.008132763329651533 0 0.00020717970842328096 0.0087060467460810358 0 2.696313442678582e-05 0.0082605621062687516 0 0.00046784850392954678 0.008174435134773372 0 0.00020764313046219894 0.0080426557903880182 0 0.00046784850392954678 0.008174435134773372 0 0.0004715239139590881 0.0078593874324286109 0 0.00064325693971528934 0.008132763329651533 0 0.00046784850392954678 0.008174435134773372 0 0.00020764313046219894 0.0080426557903880182 0 0.0004715239139590881 0.0078593874324286109 0 0.00020764313046219894 0.0080426557903880182 0 0.0004715239139590881 0.0078593874324286109 0 0.00017894201941498527 0.007705884268972743 0 0.0004715239139590881 0.0078593874324286109 0 0.00017894201941498527 0.007705884268972743 0 0.00034576807088692398 0.0075083256075373118 0 0.00017894201941498527 0.007705884268972743 0 0.00034576807088692398 0.0075083256075373118 0 2.0896082935104552e-05 0.0074997138244878971 0 -2.502320338547746e-05 0.0080653192332133666 0 0.00020764313046219894 0.0080426557903880182 0 -4.3391255264744114e-05 0.0078973381853657439 0 -0.00013851146897684536 0.0080102425809171762 0 -2.502320338547746e-05 0.0080653192332133666 0 -4.3391255264744114e-05 0.0078973381853657439 0 0.00020764313046219894 0.0080426557903880182 0 0.00017894201941498527 0.007705884268972743 0 -0.00013657863490878068 0.0076736868244183659 0 -0.00024895871482007685 0.0084425199409477337 0 -0.0003016041481317075 0.0085318220340585334 0 0.00017894201941498527 0.007705884268972743 0 -0.00013657863490878068 0.0076736868244183659 0 2.0896082935104552e-05 0.0074997138244878971 0 2.0896082935104552e-05 0.0074997138244878971 0 0.00013167353978343156 0.0072648997952443773 0 -0.00045785459203770857 0.0073782374580446024 0 0.00013907799129316695 0.0084002536106429181 0 -0.00013053897105323422 0.0091386750191379054 0 0.00034576807088692398 0.0075083256075373118 0 2.0896082935104552e-05 0.0074997138244878971 0 0.00013167353978343156 0.0072648997952443773 0 0.00034576807088692398 0.0075083256075373118 0 0.00013167353978343156 0.0072648997952443773 0 0.00055789866821489339 0.00721051872457885 0 0.00013907799129316695 0.0084002536106429181 0 0.00024688350329928087 0.0080628800164880502 0 7.4341846393982379e-05 0.0083784478664788459 0 1.7546764358076977e-06 0.0084726105086506444 0 -5.4000902773360311e-05 0.0084038136980518572 0 7.4341846393982379e-05 0.0083784478664788459 0 0.0001600532286307568 0.008404317677680271 0 0.00011184277887804206 0.0084707399887592443 0 7.4341846393982379e-05 0.0083784478664788459 0 0.00011184277887804206 0.0084707399887592443 0 1.7546764358076977e-06 0.0084726105086506444 0 0.0001600532286307568 0.008404317677680271 0 0.0002135220058225285 0.0084544918476311091 0 0.00011184277887804206 0.0084707399887592443 0 0.0001600532286307568 0.008404317677680271 0 0.00019751928222976083 0.0083565569835426373 0 0.0002135220058225285 0.0084544918476311091 0 -0.00013053897105323422 0.0091386750191379054 0 0.00011128225765684323 0.0098974315390896565 0 0.00011128225765684323 0.0098974315390896565 0 0.00021415786743999638 0.0096245700006840993 0 -0.00013657863490878068 0.0076736868244183659 0 2.0896082935104552e-05 0.0074997138244878971 0 -0.00045785459203770857 0.0073782374580446024 0 7.4341846393982379e-05 0.0083784478664788459 0 0.0001600532286307568 0.008404317677680271 0 0.00019751928222976083 0.0083565569835426373 0 -0.00015462183679276135 0.0088110150218387653 0 -0.00013053897105323422 0.0091386750191379054 0 -0.0003016041481317075 0.0085318220340585334 0 -0.00013053897105323422 0.0091386750191379054 0 4.9375238891399237e-05 0.0096033967029808577 0 -2.7746680425733422e-05 0.0096210304183631471 0 -3.8041304746492192e-05 0.009526534626445796 0 6.7700776768668625e-06 0.009612974981953442 0 0.00010361322029321759 0.010373556815750355 0 0.00030868367125863979 0.010179865423213053 0 0.00038361042119708713 0.010163298448387518 0 0.00037042378470750399 0.010042711694530908 0 0.00016784553231731359 0.010261311732926688 0 6.7700776768668625e-06 0.009612974981953442 0 -0.00032587225279731818 0.0078625734185110534 0 -0.00024696437768443246 0.0077309053617155808 0 -0.00042214413792990649 0.0077673158400298993 0 -0.00013053897105323422 0.0091386750191379054 0 6.7700776768668625e-06 0.009612974981953442 0 -0.00013053897105323422 0.0091386750191379054 0 0.00010361322029321759 0.010373556815750355 0 -8.5092167904131304e-05 0.0099456314251943571 0 -3.7610087021047988e-05 0.010033500664963902 0 -6.4525114586433207e-05 0.01006480152824151 0 -1.9664643519189254e-06 0.010021503091888385 0 -3.7610087021047988e-05 0.010033500664963902 0 -1.4449426997996219e-07 0.010037980217678844 0 0.00020959112948884602 0.010860488557448244 0 0.00010361322029321759 0.010373556815750355 0 -0.00023360394709456326 0.010642994720495586 0 0.00025351684546994976 0.011078743230006283 0 0.00022438795925026301 0.010816943253790406 0 0.00010361322029321759 0.010373556815750355 0 0.00010432063917395646 0.010487728360096623 0 -8.5092167904131304e-05 0.0099456314251943571 0 -1.9664643519189254e-06 0.010021503091888385 0 -3.7610087021047988e-05 0.010033500664963902 0 0.00011128225765684323 0.0098974315390896565 0 0.00010505817458603421 0.010597514715860089 0 -3.7610087021047988e-05 0.010033500664963902 0 -6.4525114586433207e-05 0.01006480152824151 0 1.6339130687290742e-06 0.010053655209609632 0 0.00020959112948884602 0.010860488557448244 0 0.00010505817458603421 0.010597514715860089 0 -0.00023360394709456326 0.010642994720495586 0 0.0001966978983559364 0.010568365424193028 0 0.00022438795925026301 0.010816943253790406 0 0.00010505817458603421 0.010597514715860089 0 0.00010432063917395646 0.010487728360096623 0 -3.7610087021047988e-05 0.010033500664963902 0 1.6339130687290742e-06 0.010053655209609632 0 -1.4449426997996219e-07 0.010037980217678844 0 -4.9143534166818546e-05 0.011859247491047928 0 -2.5125194149466673e-06 0.011912831616328732 0 -1.4378112724158362e-05 0.011788736485792657 0 0.00010505817458603421 0.010597514715860089 0 0.00012380829651992102 0.010974395265725481 0 -3.4380011404632896e-06 0.011901475831553135 0 -1.4378112724158362e-05 0.011788736485792657 0 7.1865449543767382e-05 0.011743546313248436 0 0.00011128225765684323 0.0098974315390896565 0 0.0001579333286512988 0.010039774100060525 0 0.0003404529550002637 0.010230400445056216 0 0.00029215265680681884 0.010239098022204672 0 0.0003305009121580854 0.010150321512301332 0 0.00010505817458603421 0.010597514715860089 0 0.0001579333286512988 0.010039774100060525 0 0.00023401374086716171 0.0084537939388964773 0 0.0001955141770049286 0.0085118612403080017 0 0.00024837160384541757 0.0085598503793207995 0 0.0001955141770049286 0.0085118612403080017 0 0.0001663412790658215 0.0085669603750201835 0 0.00011184277887804206 0.0084707399887592443 0 0.00023401374086716171 0.0084537939388964773 0 0.0001955141770049286 0.0085118612403080017 0 0.00011184277887804206 0.0084707399887592443 0 0.0001955141770049286 0.0085118612403080017 0 0.0001663412790658215 0.0085669603750201835 0 0.00024837160384541757 0.0085598503793207995 0 0.0001663412790658215 0.0085669603750201835 0 0.00022255475154072266 0.0086311851120398093 0 0.00024837160384541757 0.0085598503793207995 0 0.0001663412790658215 0.0085669603750201835 0 0.00022255475154072266 0.0086311851120398093 0 0.00015655274991344012 0.008640970520197206 0 0.0001579333286512988 0.010039774100060525 0 0.00010937648535076532 0.010207763469109156 0 0.00022255475154072266 0.0086311851120398093 0 0.00024333291015053496 0.0085725065400179996 0 0.00025980121966308833 0.0086707707928262087 0 7.1865449543767382e-05 0.011743546313248436 0 -2.183600415814925e-06 0.011668328731516639 0 7.3595171315852701e-05 0.011581838951528351 0 -1.4378112724158362e-05 0.011788736485792657 0 7.1865449543767382e-05 0.011743546313248436 0 -2.183600415814925e-06 0.011668328731516639 0 0.00024556773186993247 0.0097150425323675616 0 0.0001579333286512988 0.010039774100060525 0 -2.183600415814925e-06 0.011668328731516639 0 -2.8408481547653267e-05 0.011575388328325133 0 7.3595171315852701e-05 0.011581838951528351 0 0.00025980121966308833 0.0086707707928262087 0 0.00018850896567367993 0.0087026897757471987 0 0.00027460811971088858 0.0087818640274142015 0 -2.8408481547653267e-05 0.011575388328325133 0 7.3595171315852701e-05 0.011581838951528351 0 -1.4131667946266759e-05 0.011413712352795688 0 0.00022255475154072266 0.0086311851120398093 0 0.00025980121966308833 0.0086707707928262087 0 0.00018850896567367993 0.0087026897757471987 0 0.00022255475154072266 0.0086311851120398093 0 0.00015655274991344012 0.008640970520197206 0 0.00018850896567367993 0.0087026897757471987 0 0.00015655274991344012 0.008640970520197206 0 0.00018850896567367993 0.0087026897757471987 0 0.00010953484566903099 0.0087042220732748855 0 0.00018850896567367993 0.0087026897757471987 0 0.00016617224023658946 0.0087919026262883969 0 0.00010953484566903099 0.0087042220732748855 0 8.1529396583251954e-07 0.010446309384586431 0 -3.2829409909359296e-08 0.010444003099024192 0 -2.1452037176786577e-06 0.010994860555139903 0 0.00018850896567367993 0.0087026897757471987 0 0.00016617224023658946 0.0087919026262883969 0 0.00027460811971088858 0.0087818640274142015 0 -0.00021459859359558369 0.010032509702625382 0 5.7666778226497553e-05 0.01053789250729871 0 -3.2829409909359296e-08 0.010444003099024192 0 3.4021625529903615e-08 0.011056096257116553 0 -2.1452037176786577e-06 0.010994860555139903 0 7.3595171315852701e-05 0.011581838951528351 0 5.4216025061279031e-05 0.011258927366460583 0 -1.4131667946266759e-05 0.011413712352795688 0 0.00010937648535076532 0.010207763469109156 0 5.7666778226497553e-05 0.01053789250729871 0 -6.1302430457461034e-05 0.011475532059465301 0 -5.8761013187190682e-08 0.011058039707536648 0 5.4216025061279031e-05 0.011258927366460583 0 8.4936152970031749e-07 0.011054075517125414 0 5.7666778226497553e-05 0.01053789250729871 0 -6.1302430457461034e-05 0.011475532059465301 0 5.4216025061279031e-05 0.011258927366460583 0 -1.4131667946266759e-05 0.011413712352795688 0 -0.00075067506323027108 0.0096928259212872951 0 -0.00046637676278166277 0.0090874458599001524 0 5.6296837919918364e-05 0.0088033314668546428 0 0.00010953484566903099 0.0087042220732748855 0 -1.1101985462911667e-06 0.008688692367346049 0 8.0281070230026411e-07 0.0096269334806781386 0 0.00011717839266051082 0.0087219464816504673 0 -3.1680550535392415e-05 0.0089764354497123625 0 8.0281070230026411e-07 0.0096269334806781386 0 0.00024493531844769361 0.0096010109313631985 0 0.00011717839266051082 0.0087219464816504673 0 -4.7532448214584139e-07 0.0096283292821144496 0 -0.00075067506323027108 0.0096928259212872951 0 -0.00021459859359558369 0.010032509702625382 0 -0.00075067506323027108 0.0096928259212872951 0 0.00016617224023658946 0.0087919026262883969 0 5.6296837919918364e-05 0.0088033314668546428 0 0.00010953484566903099 0.0087042220732748855 0 8.1529396583251954e-07 0.010446309384586431 0 -3.2829409909359296e-08 0.010444003099024192 0 2.9100913090339868e-08 0.0098196050638268157 0 0.00015655274991344012 0.008640970520197206 0 0.00010953484566903099 0.0087042220732748855 0 9.4883589958167719e-05 0.0085992770632521733 0 0.00010953484566903099 0.0087042220732748855 0 -1.1101985462911667e-06 0.008688692367346049 0 9.4883589958167719e-05 0.0085992770632521733 0 -1.1101985462911667e-06 0.008688692367346049 0 2.2780400387571136e-05 0.0085621211277998825 0 -5.3301132481542741e-05 0.0085691875920031347 0 -1.1101985462911667e-06 0.008688692367346049 0 2.2780400387571136e-05 0.0085621211277998825 0 9.4883589958167719e-05 0.0085992770632521733 0 0.0001663412790658215 0.0085669603750201835 0 0.00015655274991344012 0.008640970520197206 0 9.4883589958167719e-05 0.0085992770632521733 0 0.0001663412790658215 0.0085669603750201835 0 9.4883589958167719e-05 0.0085992770632521733 0 0.00011184277887804206 0.0084707399887592443 0 2.2780400387571136e-05 0.0085621211277998825 0 9.4883589958167719e-05 0.0085992770632521733 0 0.00011184277887804206 0.0084707399887592443 0 2.2780400387571136e-05 0.0085621211277998825 0 0.00011184277887804206 0.0084707399887592443 0 1.7546764358076977e-06 0.0084726105086506444 0 2.2780400387571136e-05 0.0085621211277998825 0 1.7546764358076977e-06 0.0084726105086506444 0 -5.3301132481542741e-05 0.0085691875920031347 0 -0.00031221761830258979 0.0086883021908450639 0 -0.00034205337186636321 0.0087858498592473851 0 1.7546764358076977e-06 0.0084726105086506444 0 -8.9543868209929046e-05 0.0084435665288662819 0 -5.3301132481542741e-05 0.0085691875920031347 0 -8.9543868209929046e-05 0.0084435665288662819 0 -0.0001160372062562079 0.0084451153496559132 0 -0.00011810898776880432 0.0084383928082506048 0 -8.9543868209929046e-05 0.0084435665288662819 0 -0.00012533319074092104 0.0084552479427822506 0 -0.0001160372062562079 0.0084451153496559132 0 -8.9543868209929046e-05 0.0084435665288662819 0 -0.00012533319074092104 0.0084552479427822506 0 -2.3809363566765678e-05 0.008479812214409457 0 -0.00012533319074092104 0.0084552479427822506 0 -2.3809363566765678e-05 0.008479812214409457 0 -8.0062803300857399e-05 0.0086376575875270461 0 -0.00046637676278166277 0.0090874458599001524 0 -0.00034205337186636321 0.0087858498592473851 0 0.00011717839266051082 0.0087219464816504673 0 -8.0062803300857399e-05 0.0086376575875270461 0 -3.1680550535392415e-05 0.0089764354497123625 0 0.00011717839266051082 0.0087219464816504673 0 -2.3809363566765678e-05 0.008479812214409457 0 -8.0062803300857399e-05 0.0086376575875270461 0 -0.00012533319074092104 0.0084552479427822506 0 -8.0062803300857399e-05 0.0086376575875270461 0 -0.00012779382341496305 0.0084285137696288922 0 -4.0333920770763255e-07 0.0088801978582919022 0 -4.254469851336895e-07 0.0081319980934132941 0 -0.00012779382341496305 0.0084285137696288922 0 -8.0062803300857399e-05 0.0086376575875270461 0 -4.0333920770763255e-07 0.0088801978582919022 0 -0.00012779382341496305 0.0084285137696288922 0 -8.0062803300857399e-05 0.0086376575875270461 0 -4.0333920770763255e-07 0.0088801978582919022 0 -3.1680550535392415e-05 0.0089764354497123625 0 8.0281070230026411e-07 0.0096269334806781386 0 -4.0333920770763255e-07 0.0088801978582919022 0 -3.1680550535392415e-05 0.0089764354497123625 0 0.00015157133655694803 0.0080915639664495605 0 8.3982484464812844e-07 0.0073853863883933434 0 -6.3215627701330662e-05 0.0080924821144348971 0 8.3982484464812844e-07 0.0073853863883933434 0 -6.3215627701330662e-05 0.0080924821144348971 0 -4.254469851336895e-07 0.0081319980934132941 0 -6.3215627701330662e-05 0.0080924821144348971 0 -4.254469851336895e-07 0.0081319980934132941 0 -0.00012779382341496305 0.0084285137696288922 0 -6.3215627701330662e-05 0.0080924821144348971 0 -0.00012779382341496305 0.0084285137696288922 0 -9.5352042181144297e-05 0.0083759329498588019 0 -0.00012533319074092104 0.0084552479427822506 0 -0.00012779382341496305 0.0084285137696288922 0 -9.5352042181144297e-05 0.0083759329498588019 0 0.00015157133655694803 0.0080915639664495605 0 -6.3215627701330662e-05 0.0080924821144348971 0 -9.5352042181144297e-05 0.0083759329498588019 0 -2.7181756298096553e-05 0.0084086725032541266 0 -9.5352042181144297e-05 0.0083759329498588019 0 -0.00010436055489504912 0.0084382892110999915 0 -0.00012533319074092104 0.0084552479427822506 0 -9.5352042181144297e-05 0.0083759329498588019 0 -0.00010436055489504912 0.0084382892110999915 0 -0.00012533319074092104 0.0084552479427822506 0 -0.0001160372062562079 0.0084451153496559132 0 -0.00010436055489504912 0.0084382892110999915 0 -0.0001160372062562079 0.0084451153496559132 0 -0.00010436055489504912 0.0084382892110999915 0 -0.00011810898776880432 0.0084383928082506048 0 -0.0001060788862558328 0.0080367295147788457 0 -0.00014285736223000465 0.008157822214570341 0 -0.00010436055489504912 0.0084382892110999915 0 -8.8719916628646591e-05 0.0084477428435830709 0 -0.00011810898776880432 0.0084383928082506048 0 -5.4221444076760608e-05 0.0083939855592829182 0 -0.00010436055489504912 0.0084382892110999915 0 -8.8719916628646591e-05 0.0084477428435830709 0 0.00059161215458575613 0.0072790347434416383 0 0.00059570017152669075 0.0071574746726953296 0 0.00066868409121467493 0.0072119715303411956 0 0.00059570017152669075 0.0071574746726953296 0 0.00066868409121467493 0.0072119715303411956 0 0.00068498978431891071 0.007104536985248348 0 0.00066868409121467493 0.0072119715303411956 0 0.00072179840050306501 0.0072487564432519233 0 0.00068498978431891071 0.007104536985248348 0 0.00066868409121467493 0.0072119715303411956 0 0.00071443428631209351 0.0072320059966270011 0 0.00072179840050306501 0.0072487564432519233 0 0.00022953575616443391 0.0077932451416234056 0 0.00027114272640470005 0.0079010247122703395 0 0.00059161215458575613 0.0072790347434416383 0 0.00066868409121467493 0.0072119715303411956 0 0.00071443428631209351 0.0072320059966270011 0 -8.9543868209929046e-05 0.0084435665288662819 0 -0.00011810898776880432 0.0084383928082506048 0 -5.4000902773360311e-05 0.0084038136980518572 0 0.00071443428631209351 0.0072320059966270011 0 0.00055789866821489339 0.00721051872457885 0 0.00072179840050306501 0.0072487564432519233 0 0.00027114272640470005 0.0079010247122703395 0 0.00024688350329928087 0.0080628800164880502 0 1.7546764358076977e-06 0.0084726105086506444 0 -8.9543868209929046e-05 0.0084435665288662819 0 -5.4000902773360311e-05 0.0084038136980518572 0 0.00034576807088692398 0.0075083256075373118 0 0.00055789866821489339 0.00721051872457885 0 0.00063621130562718071 0.0074651184812125531 0 0.00056771643374194428 0.0072006456799219671 0 0.00053115346740269047 0.0072008014501162869 0 0.00055789866821489339 0.00721051872457885 0 0.00072179840050306501 0.0072487564432519233 0 0.00063621130562718071 0.0074651184812125531 0 0.00072179840050306501 0.0072487564432519233 0 0.00081932047139884987 0.0071356360694730669 0 0.00068498978431891071 0.007104536985248348 0 0.0001664820983124139 0.0063037478571682758 0 0.00017254489120589528 0.0063421011579805195 0 0.00021359916827057835 0.0063113143424583205 0 0.00053115346740269047 0.0072008014501162869 0 0.00045128279891031578 0.0068565138888499475 0 0.0004715239139590881 0.0078593874324286109 0 0.00034576807088692398 0.0075083256075373118 0 0.0010521028142106194 0.0076380671109783941 0 0.00053115346740269047 0.0072008014501162869 0 0.0003657338025340237 0.0073230417666290465 0 0.00052780881749538134 0.0072727238414546777 0 0.00053115346740269047 0.0072008014501162869 0 0.0004715239139590881 0.0078593874324286109 0 0.0010521028142106194 0.0076380671109783941 0 0.00064325693971528934 0.008132763329651533 0 0.00013226917115209905 0.0063430428898342975 0 0.00017254489120589528 0.0063421011579805195 0 0.00013561238919965486 0.0063803712941549566 0 0.0001664820983124139 0.0063037478571682758 0 0.00013226917115209905 0.0063430428898342975 0 0.00017254489120589528 0.0063421011579805195 0 0.00017254489120589528 0.0063421011579805195 0 0.00020308274141517664 0.0063421830473655069 0 0.00021359916827057835 0.0063113143424583205 0 0.00017254489120589528 0.0063421011579805195 0 0.00020308274141517664 0.0063421830473655069 0 0.00019893973749458713 0.0063729300452416374 0 0.00020308274141517664 0.0063421830473655069 0 0.00022725294351765181 0.0063425366600321775 0 0.00019893973749458713 0.0063729300452416374 0 0.00022725294351765181 0.0063425366600321775 0 0.00026268910158841761 0.0063633654612607095 0 0.00019893973749458713 0.0063729300452416374 0 0.00020308274141517664 0.0063421830473655069 0 0.00022725294351765181 0.0063425366600321775 0 0.00021359916827057835 0.0063113143424583205 0 0.00022725294351765181 0.0063425366600321775 0 0.0002617128337232907 0.0063192821540926404 0 0.00026268910158841761 0.0063633654612607095 0 0.00041726435549561291 0.0065772645359204688 0 0.00045128279891031578 0.0068565138888499475 0 0.00059570017152669075 0.0071574746726953296 0 0.0005853132796768707 0.0070600348834814284 0 0.00068498978431891071 0.007104536985248348 0 0.00022725294351765181 0.0063425366600321775 0 0.0002617128337232907 0.0063192821540926404 0 0.00021359916827057835 0.0063113143424583205 0 0.00022329544492269876 0.0063844140260583011 0 0.00021283706027318161 0.0064272216692773275 0 0.00019120360621999638 0.0064129470714828852 0 0.00022329544492269876 0.0063844140260583011 0 0.00021283706027318161 0.0064272216692773275 0 0.00025300577141027701 0.006416746844680795 0 0.00025300577141027701 0.006416746844680795 0 0.00029288575330618105 0.006387896410011619 0 0.000280985458979491 0.0064342238448734587 0 0.00033981306845366787 0.0064433254504324316 0 0.00029288575330618105 0.006387896410011619 0 0.000280985458979491 0.0064342238448734587 0 0.00022329544492269876 0.0063844140260583011 0 0.00025300577141027701 0.006416746844680795 0 0.00029288575330618105 0.006387896410011619 0 0.00025784797197409801 0.0063459037270702894 0 0.00028735408175387101 0.0063204755344816567 0 0.00022329544492269876 0.0063844140260583011 0 0.00029288575330618105 0.006387896410011619 0 0.00029954411485598822 0.0063099739869802588 0 0.00028735408175387101 0.0063204755344816567 0 0.00021222294959404465 0.00634836392125582 0 0.00022329544492269876 0.0063844140260583011 0 0.00027320131717812311 0.0063467244679876961 0 0.00020913910754719433 0.0063573090528644197 0 0.00021222294959404465 0.00634836392125582 0 0.0001766451736409253 0.0063587585749863059 0 0.00017254489120589528 0.0063421011579805195 0 0.00019893973749458713 0.0063729300452416374 0 0.00013561238919965486 0.0063803712941549566 0 0.00022329544492269876 0.0063844140260583011 0 0.00020913910754719433 0.0063573090528644197 0 0.00018077270677217342 0.0063903604929639304 0 0.00020913910754719433 0.0063573090528644197 0 0.00013561238919965486 0.0063803712941549566 0 0.00018077270677217342 0.0063903604929639304 0 0.00013561238919965486 0.0063803712941549566 0 0.00015204767269575814 0.0064016851531167466 0 0.00018077270677217342 0.0063903604929639304 0 0.00013561238919965486 0.0063803712941549566 0 0.00015204767269575814 0.0064016851531167466 0 0.00012050554329768783 0.0064013785647583903 0 0.00015204767269575814 0.0064016851531167466 0 0.00012862697587057555 0.0064203890819493495 0 0.00012050554329768783 0.0064013785647583903 0 0.00015204767269575814 0.0064016851531167466 0 0.00014838419541950544 0.0064248868547630029 0 0.00017061521785677469 0.0064089978530638579 0 0.00014838419541950544 0.0064248868547630029 0 0.00017228175351078885 0.0064270007351326115 0 0.00016290513172518106 0.0064471182347216587 0 0.00014838419541950544 0.0064248868547630029 0 0.00017061521785677469 0.0064089978530638579 0 0.00017228175351078885 0.0064270007351326115 0 0.00014838419541950544 0.0064248868547630029 0 0.00013612141929170228 0.0064331244029689656 0 0.00014332627802510119 0.0064467211700747085 0 0.00015204767269575814 0.0064016851531167466 0 0.00014838419541950544 0.0064248868547630029 0 0.00012862697587057555 0.0064203890819493495 0 0.00014838419541950544 0.0064248868547630029 0 0.00013612141929170228 0.0064331244029689656 0 0.00012862697587057555 0.0064203890819493495 0 0.00013612141929170228 0.0064331244029689656 0 0.00012862697587057555 0.0064203890819493495 0 0.00012428961820509955 0.0064406402969992768 0 0.00022329544492269876 0.0063844140260583011 0 0.00018077270677217342 0.0063903604929639304 0 0.00019120360621999638 0.0064129470714828852 0 0.00015204767269575814 0.0064016851531167466 0 0.00018077270677217342 0.0063903604929639304 0 0.00017061521785677469 0.0064089978530638579 0 0.00018077270677217342 0.0063903604929639304 0 0.00017061521785677469 0.0064089978530638579 0 0.00019120360621999638 0.0064129470714828852 0 0.00017061521785677469 0.0064089978530638579 0 0.00017228175351078885 0.0064270007351326115 0 0.00019120360621999638 0.0064129470714828852 0 0.00017228175351078885 0.0064270007351326115 0 0.00019120360621999638 0.0064129470714828852 0 0.00018827104907957328 0.0064408378558945397 0 0.00021283706027318161 0.0064272216692773275 0 0.00019120360621999638 0.0064129470714828852 0 0.00018827104907957328 0.0064408378558945397 0 0.00021283706027318161 0.0064272216692773275 0 0.00018827104907957328 0.0064408378558945397 0 0.00021563043985641558 0.0064636070203833171 0 0.00018827104907957328 0.0064408378558945397 0 0.00017540092000831791 0.0064664171341921699 0 0.00016290513172518106 0.0064471182347216587 0 0.00017228175351078885 0.0064270007351326115 0 0.00018827104907957328 0.0064408378558945397 0 0.00016290513172518106 0.0064471182347216587 0 0.00017540092000831791 0.0064664171341921699 0 0.00019569727700967127 0.0064894922882325146 0 0.00021563043985641558 0.0064636070203833171 0 0.00018827104907957328 0.0064408378558945397 0 0.00017540092000831791 0.0064664171341921699 0 0.00021563043985641558 0.0064636070203833171 0 0.00013261336720968989 0.0064550853933992344 0 0.00012428961820509955 0.0064406402969992768 0 0.00011595411043737747 0.0064626074783150963 0 0.00013261336720968989 0.0064550853933992344 0 0.00012428961820509955 0.0064406402969992768 0 0.00014332627802510119 0.0064467211700747085 0 0.00013612141929170228 0.0064331244029689656 0 0.00012428961820509955 0.0064406402969992768 0 0.00014332627802510119 0.0064467211700747085 0 0.00013261336720968989 0.0064550853933992344 0 0.00014332627802510119 0.0064467211700747085 0 0.000140927262438182 0.0064635010699508584 0 0.00014332627802510119 0.0064467211700747085 0 0.00016290513172518106 0.0064471182347216587 0 0.000140927262438182 0.0064635010699508584 0 0.00014838419541950544 0.0064248868547630029 0 0.00014332627802510119 0.0064467211700747085 0 0.00016290513172518106 0.0064471182347216587 0 0.00017540092000831791 0.0064664171341921699 0 0.000140927262438182 0.0064635010699508584 0 0.0001465686004200893 0.006495201800113766 0 0.00017540092000831791 0.0064664171341921699 0 0.00016290513172518106 0.0064471182347216587 0 0.000140927262438182 0.0064635010699508584 0 0.00013261336720968989 0.0064550853933992344 0 0.000140927262438182 0.0064635010699508584 0 0.00011595411043737747 0.0064626074783150963 0 0.000140927262438182 0.0064635010699508584 0 0.0001465686004200893 0.006495201800113766 0 0.00011039948531390877 0.0064699556261830164 0 -0.0001349154277111868 0.0099339603189356751 0 -0.00018731857407520286 0.0099693432482860327 0 -0.00019114666294560678 0.0098933685472984909 0 -0.0001349154277111868 0.0099339603189356751 0 -7.535346518516496e-05 0.0099730045300364112 0 -0.00014643392547918164 0.010014746881086948 0 -0.0001349154277111868 0.0099339603189356751 0 -0.00014643392547918164 0.010014746881086948 0 -0.00018731857407520286 0.0099693432482860327 0 -0.00013016804091382973 0.0083215915582588191 0 3.9463881181334854e-05 0.0086620501639757767 0 0.00017540092000831791 0.0064664171341921699 0 0.0001465686004200893 0.006495201800113766 0 0.00019569727700967127 0.0064894922882325146 0 0.0001465686004200893 0.006495201800113766 0 0.00019569727700967127 0.0064894922882325146 0 0.00018473347812345185 0.0065221281558495332 0 -0.00013016804091382973 0.0083215915582588191 0 -0.00037095141530541322 0.0079815586016434344 0 -0.00037095141530541322 0.0079815586016434344 0 -0.00021747839158941192 0.0066192486001950017 0 0.00019569727700967127 0.0064894922882325146 0 0.00018473347812345185 0.0065221281558495332 0 0.00022568457083977752 0.0064982438871912058 0 -0.00038830208427241656 0.0072023659741763746 0 -0.00048671431473108946 0.007253510972930379 0 -0.00045792895344875438 0.0071425442130148 0 0.00022568457083977752 0.0064982438871912058 0 0.00021563043985641558 0.0064636070203833171 0 0.00026823436806209985 0.0064734222978051438 0 -0.00028926973783918513 0.0071502618398170984 0 -0.00038830208427241656 0.0072023659741763746 0 -0.00037832565105135827 0.007088815077614166 0 -0.00021747839158941192 0.0066192486001950017 0 -0.00010040097822592046 0.0052094030139909712 0 0.00019569727700967127 0.0064894922882325146 0 0.00022568457083977752 0.0064982438871912058 0 0.00021563043985641558 0.0064636070203833171 0 0.00021563043985641558 0.0064636070203833171 0 0.00024863066039880201 0.0064442315063794661 0 0.00026823436806209985 0.0064734222978051438 0 0.00021283706027318161 0.0064272216692773275 0 0.00025300577141027701 0.006416746844680795 0 0.00024863066039880201 0.0064442315063794661 0 0.00021283706027318161 0.0064272216692773275 0 0.00021563043985641558 0.0064636070203833171 0 0.00024863066039880201 0.0064442315063794661 0 0.00033981306845366787 0.0064433254504324316 0 0.000280985458979491 0.0064342238448734587 0 0.00027276404587335388 0.0064785252217760755 0 -0.00022942511852449028 0.0042504293915285336 0 -0.00010040097822592046 0.0052094030139909712 0 0.00025300577141027701 0.006416746844680795 0 0.00024863066039880201 0.0064442315063794661 0 0.000280985458979491 0.0064342238448734587 0 0.00024863066039880201 0.0064442315063794661 0 0.000280985458979491 0.0064342238448734587 0 0.00027276404587335388 0.0064785252217760755 0 2.6064727211948099e-05 0.0054368659274303122 0 -0.00010040097822592046 0.0052094030139909712 0 -0.00078520950455622355 0.0053412575307881455 0 -0.00010040097822592046 0.0052094030139909712 0 -0.00056828726226732385 0.0071387997035676437 0 -0.00048671431473108946 0.007253510972930379 0 -0.00045792895344875438 0.0071425442130148 0 -0.000616398243211951 0.0014339628027585699 0 -0.00041203303337505252 0.00090553182620423209 0 6.7929656945629806e-05 0.0015996399511619332 0 -0.00056828726226732385 0.0071387997035676437 0 -0.00045792895344875438 0.0071425442130148 0 -0.00046775930199684804 0.0070279695679113015 0 -8.2803312707734246e-05 0.010014429133664571 0 -5.9775216552534486e-05 0.010027315555423003 0 -0.00010315571836368131 0.010034699622427602 0 -0.00045792895344875438 0.0071425442130148 0 -0.00037832565105135827 0.007088815077614166 0 -0.00046775930199684804 0.0070279695679113015 0 -0.00038830208427241656 0.0072023659741763746 0 -0.00045792895344875438 0.0071425442130148 0 -0.00037832565105135827 0.007088815077614166 0 -0.00035845882200624354 0.0083778467963638841 0 -0.00048756067365033094 0.0086600736250612969 0 -0.00060350506528940729 0.012935673140196105 0 -0.00044704002416769752 0.01267483982326586 0 -0.00027714205560852568 0.012873607789221572 0 -0.00048756067365033094 0.0086600736250612969 0 -0.00025642376735975802 0.0089273014354036961 0 -5.5541429476323187e-05 0.010036395881167283 0 -0.00010315571836368131 0.010034699622427602 0 -9.2415464150072722e-05 0.01006029058240126 0 -4.0400780708594289e-05 0.010046230152824697 0 -5.5541429476323187e-05 0.010036395881167283 0 -9.2415464150072722e-05 0.01006029058240126 0 -0.00048942087233711158 0.0093470380186923569 0 -0.00029810155201789076 0.010657509101539763 0 -0.00086988865186110999 0.0069691691304786018 0 -0.00048756067365033094 0.0086600736250612969 0 -0.00098981331352898205 0.007915713210060564 0 -0.00043310725634580701 0.0077693772413094404 0 -0.00019159744970950526 0.0079348627450576067 0 -0.00048942087233711158 0.0093470380186923569 0 -0.00048756067365033094 0.0086600736250612969 0 -0.00060350506528940729 0.012935673140196105 0 -0.00064325554245259643 0.012723692513553314 0 -0.00044704002416769752 0.01267483982326586 0 -0.00064325554245259643 0.012723692513553314 0 -0.00044704002416769752 0.01267483982326586 0 -0.00062968851906957258 0.01253462393757303 0 -0.00044704002416769752 0.01267483982326586 0 -0.00017826607038990379 0.012602850702676745 0 -0.00027714205560852568 0.012873607789221572 0 5.7214685139102819e-05 0.012191990035294345 0 -0.00016475383587595549 0.012245919318980825 0 -0.00044704002416769752 0.01267483982326586 0 -0.00017826607038990379 0.012602850702676745 0 -0.00039625683192528517 0.012387719287964427 0 -0.00044704002416769752 0.01267483982326586 0 -0.00062968851906957258 0.01253462393757303 0 -0.00039625683192528517 0.012387719287964427 0 2.7869980389561638e-05 0.012721905875407785 0 0.0004082132667760568 0.012643756714718827 0 0.00017218419756986621 0.012356425991778856 0 -0.00017826607038990379 0.012602850702676745 0 4.055229501658391e-05 0.012815115780223195 0 -0.00027714205560852568 0.012873607789221572 0 5.7214685139102819e-05 0.012191990035294345 0 -8.553111997450256e-05 0.011429375364266059 0 2.7869980389561638e-05 0.012721905875407785 0 0.00027969156958554267 0.012959414188201993 0 0.0004082132667760568 0.012643756714718827 0 -0.00015912412125572577 0.010085491057934543 0 -0.00010315571836368131 0.010034699622427602 0 -0.00014643392547918164 0.010014746881086948 0 -0.00015912412125572577 0.010085491057934543 0 -0.00010315571836368131 0.010034699622427602 0 -9.2415464150072722e-05 0.01006029058240126 0 -8.553111997450256e-05 0.011429375364266059 0 -0.00029810155201789076 0.010657509101539763 0 -0.000109345919618685 0.0099934809284007962 0 -0.00010315571836368131 0.010034699622427602 0 -0.00014643392547918164 0.010014746881086948 0 -0.000109345919618685 0.0099934809284007962 0 -8.2803312707734246e-05 0.010014429133664571 0 -0.00010315571836368131 0.010034699622427602 0 -0.00037095141530541322 0.0079815586016434344 0 -0.00035845882200624354 0.0083778467963638841 0 -0.00037095141530541322 0.0079815586016434344 0 -0.00052254275582101274 0.0083311957964298106 0 -0.00014643392547918164 0.010014746881086948 0 -0.00022634176729255051 0.010044257490436356 0 -0.00018731857407520286 0.0099693432482860327 0 -0.00022634176729255051 0.010044257490436356 0 -0.00025299940546894396 0.0099680820108655737 0 -0.00018731857407520286 0.0099693432482860327 0 -0.00045793229056509806 0.010991677742242271 0 -0.0004988911539271654 0.010408878715226364 0 1.3786875957276118e-05 0.010392022883287567 0 -6.9386855654264256e-05 0.010951092117991834 0 -0.00011714044813822983 0.0099804015189860901 0 -0.00022634176729255051 0.010044257490436356 0 -0.00035148761398997371 0.01007417334477121 0 -0.00025299940546894396 0.0099680820108655737 0 -0.00022634176729255051 0.010044257490436356 0 -0.00026127675046809626 0.010212600469702095 0 -0.00035148761398997371 0.01007417334477121 0 -0.00026127675046809626 0.010212600469702095 0 -0.00035148761398997371 0.01007417334477121 0 -0.00036967743441432797 0.010177140326301556 0 -0.00015912412125572577 0.010085491057934543 0 -0.00014643392547918164 0.010014746881086948 0 -0.00022634176729255051 0.010044257490436356 0 -8.553111997450256e-05 0.011429375364266059 0 -0.00040764346145611677 0.01081895467709155 0 -8.3295357997585482e-05 0.010185344223486157 0 -0.00022634176729255051 0.010044257490436356 0 -0.00026127675046809626 0.010212600469702095 0 0.00027969156958554267 0.012959414188201993 0 0.00060948119750113495 0.012899971235217914 0 0.0004082132667760568 0.012643756714718827 0 -8.553111997450256e-05 0.011429375364266059 0 0.00014401113081834741 0.011878072560707099 0 0.00060948119750113495 0.012899971235217914 0 0.0004082132667760568 0.012643756714718827 0 0.00076121565564377699 0.012591078959757323 0 0.0014520191913793825 0.013517054605206053 0 0.0017098632743254415 0.013378015038820558 0 0.0016037058649119463 0.01361993874398691 0 0.0014520191913793825 0.013517054605206053 0 0.0017098632743254415 0.013378015038820558 0 0.0014639915498449766 0.013258925270890612 0 0.00059732468199794953 0.01284041453417685 0 0.00016540479863746182 0.012529724638579336 0 0.0014520191913793825 0.013517054605206053 0 0.0010761848069704919 0.013367198094800291 0 0.0014639915498449766 0.013258925270890612 0 0.0014520191913793825 0.013517054605206053 0 0.0010761848069704919 0.013367198094800291 0 0.0013575964111178255 0.013744646160804549 0 0.00014401113081834741 0.011878072560707099 0 0.00016540479863746182 0.012529724638579336 0 -0.00026127675046809626 0.010212600469702095 0 -0.00043007041186223139 0.010245788271227694 0 -0.00036967743441432797 0.010177140326301556 0 0.00060948119750113495 0.012899971235217914 0 0.00076121565564377699 0.012591078959757323 0 0.00093381067589270528 0.012843179612618931 0 -0.00043007041186223139 0.010245788271227694 0 -0.00045580308229490712 0.010210121155191543 0 -0.00036967743441432797 0.010177140326301556 0 0.00016540479863746182 0.012529724638579336 0 -3.4810592536893589e-06 0.01228908364131494 0 2.1010735750556865e-05 0.012444045729958338 0 8.481909543507693e-05 0.012363843393250995 0 0.0001217186685219996 0.012589067163227673 0 6.2977137229100388e-05 0.012791674242263214 0 1.3576700660267746e-05 0.012707177402212175 0 0.00020319884092826813 0.014837288020239104 0 0.00020553358968844997 0.014820033868536663 0 0.0001955994287496376 0.014829746982783928 0 -0.00032261488114508131 0.012641015759987101 0 -2.6917084465405921e-07 0.013107676518695315 0 0.0004798068974504147 0.012505229225450384 0 -3.4810592536893589e-06 0.01228908364131494 0 6.2977137229100388e-05 0.012791674242263214 0 0.0014520191913793825 0.013517054605206053 0 0.0013575964111178255 0.013744646160804549 0 0.0015346177370150352 0.013709794821168483 0 0.0014520191913793825 0.013517054605206053 0 0.0015346177370150352 0.013709794821168483 0 0.0016037058649119463 0.01361993874398691 0 0.00016540479863746182 0.012529724638579336 0 6.2977137229100388e-05 0.012791674242263214 0 6.2977137229100388e-05 0.012791674242263214 0 8.619193038023599e-05 0.012794332833202523 0 0.00020319884092826813 0.014837288020239104 0 0.0001955994287496376 0.014829746982783928 0 0.0001909187909160209 0.014833539317603865 0 0.00020553358968844997 0.014820033868536663 0 0.00019605835712903542 0.014824859489730889 0 0.0001955994287496376 0.014829746982783928 0 -3.4810592536893589e-06 0.01228908364131494 0 1.3576700660267746e-05 0.012707177402212175 0 0.00020868970054383363 0.014812607224289939 0 0.00020553358968844997 0.014820033868536663 0 0.00019605835712903542 0.014824859489730889 0 8.1781281173881414e-05 0.0128452091563912 0 1.3576700660267746e-05 0.012707177402212175 0 -3.4810592536893589e-06 0.01228908364131494 0 -6.9386855654264256e-05 0.010951092117991834 0 -0.00045580308229490712 0.010210121155191543 0 -0.00035148761398997371 0.01007417334477121 0 -0.00036967743441432797 0.010177140326301556 0 -0.0011990470374151113 0.011204586072712883 0 -0.00045793229056509806 0.010991677742242271 0 -0.00092480867333319893 0.010757210720659644 0 -0.00093156745998151534 0.011591927036439286 0 -0.0011990470374151113 0.011204586072712883 0 -0.00045793229056509806 0.010991677742242271 0 -0.00045793229056509806 0.010991677742242271 0 -0.00092480867333319893 0.010757210720659644 0 -0.0004988911539271654 0.010408878715226364 0 1.3576700660267746e-05 0.012707177402212175 0 -0.00018361258059472501 0.012456041502799055 0 -0.0011990470374151113 0.011204586072712883 0 -0.00092480867333319893 0.010757210720659644 0 -0.0012998157190168957 0.010394150155689104 0 0.00020868970054383363 0.014812607224289939 0 0.00021912894755574258 0.014836688028065812 0 0.0002347460788704433 0.014735049107607588 0 -0.00092480867333319893 0.010757210720659644 0 -0.0012998157190168957 0.010394150155689104 0 -0.0008393206739639985 0.010042509893323484 0 -0.0012998157190168957 0.010394150155689104 0 -0.0008393206739639985 0.010042509893323484 0 -0.0013975349376044025 0.0095853810112836082 0 -0.00018361258059472501 0.012456041502799055 0 -0.00020865073547951993 0.012018141147158542 0 -0.00093879718475516842 0.0095608245923826767 0 -0.0008393206739639985 0.010042509893323484 0 -0.0013975349376044025 0.0095853810112836082 0 -0.00093879718475516842 0.0095608245923826767 0 -0.0010815314116434365 0.0092254892070747253 0 -0.0013975349376044025 0.0095853810112836082 0 -0.00061328045710669615 0.0096005127775448118 0 -0.0008393206739639985 0.010042509893323484 0 -0.00028657398374932569 0.0098619018714524026 0 -0.00061328045710669615 0.0096005127775448118 0 -0.00028657398374932569 0.0098619018714524026 0 -0.00036333982252476944 0.0094560654254283484 0 -0.00061328045710669615 0.0096005127775448118 0 -0.00075112876616230124 0.0093412452752206828 0 -0.00053697802553470491 0.0093560790437462113 0 -0.00061328045710669615 0.0096005127775448118 0 -0.00036333982252476944 0.0094560654254283484 0 -0.00053697802553470491 0.0093560790437462113 0 -0.00093879718475516842 0.0095608245923826767 0 -0.00061328045710669615 0.0096005127775448118 0 -0.00075112876616230124 0.0093412452752206828 0 -0.00093879718475516842 0.0095608245923826767 0 -0.00061328045710669615 0.0096005127775448118 0 -0.0008393206739639985 0.010042509893323484 0 -0.0004988911539271654 0.010408878715226364 0 -0.0008393206739639985 0.010042509893323484 0 -0.00028657398374932569 0.0098619018714524026 0 -0.00092480867333319893 0.010757210720659644 0 -0.0004988911539271654 0.010408878715226364 0 -0.0008393206739639985 0.010042509893323484 0 1.3786875957276118e-05 0.010392022883287567 0 0.00048694797592857027 0.0097936477655060049 0 -0.00028657398374932569 0.0098619018714524026 0 -0.0004988911539271654 0.010408878715226364 0 1.3786875957276118e-05 0.010392022883287567 0 -0.00028657398374932569 0.0098619018714524026 0 -0.00011714044813822983 0.0099804015189860901 0 3.9463881181334854e-05 0.0086620501639757767 0 -0.00025299940546894396 0.0099680820108655737 0 -0.00018731857407520286 0.0099693432482860327 0 -0.00019114666294560678 0.0098933685472984909 0 0.00011595411043737747 0.0064626074783150963 0 0.00011096371585896782 0.0064696646104066054 0 0.0001021482244205198 0.0064279016895917949 0 0.00011096371585896782 0.0064696646104066054 0 5.469207138675802e-05 0.0064320458261445121 0 0.0001021482244205198 0.0064279016895917949 0 0.000140927262438182 0.0064635010699508584 0 0.00011595411043737747 0.0064626074783150963 0 0.00011039948531390877 0.0064699556261830164 0 5.3930415744097799e-05 0.0086347654835479855 0 3.9463881181334854e-05 0.0086620501639757767 0 0.00012428961820509955 0.0064406402969992768 0 0.00011595411043737747 0.0064626074783150963 0 0.0001021482244205198 0.0064279016895917949 0 3.9463881181334854e-05 0.0086620501639757767 0 -0.00024079671207961526 0.0079493722385283582 0 0.00048694797592857027 0.0097936477655060049 0 -0.00028657398374932569 0.0098619018714524026 0 -0.00023566810244252763 0.009300065913080283 0 -0.00028657398374932569 0.0098619018714524026 0 -0.00036333982252476944 0.0094560654254283484 0 -0.00023566810244252763 0.009300065913080283 0 5.469207138675802e-05 0.0064320458261445121 0 0.0001021482244205198 0.0064279016895917949 0 9.4300757398902332e-05 0.0063837256164683163 0 -0.00036333982252476944 0.0094560654254283484 0 -0.00037393633921712396 0.0092059914021358682 0 -0.00023695420348045251 0.0092978258040838993 0 -0.00024656699926752266 0.0092914901838944252 0 -0.00024048202854403785 0.008932544437069069 0 0.00020717970842328096 0.0087060467460810358 0 -0.00024079671207961526 0.0079493722385283582 0 0.00010508068913465431 0.0075872592629277775 0 -0.00027400826774258777 0.0080100613567044062 0 -0.00024079671207961526 0.0079493722385283582 0 -0.00022652852020143044 0.0079720548283801849 0 -0.00024079671207961526 0.0079493722385283582 0 -0.00037393633921712396 0.0092059914021358682 0 -0.00024048202854403785 0.008932544437069069 0 -0.00050474876263322834 0.0089800010375394174 0 -0.00037393633921712396 0.0092059914021358682 0 -0.00024656699926752266 0.0092914901838944252 0 -0.00024048202854403785 0.008932544437069069 0 0.0001021482244205198 0.0064279016895917949 0 0.00012050554329768783 0.0064013785647583903 0 9.4300757398902332e-05 0.0063837256164683163 0 0.00012862697587057555 0.0064203890819493495 0 0.00012428961820509955 0.0064406402969992768 0 0.0001021482244205198 0.0064279016895917949 0 0.00012862697587057555 0.0064203890819493495 0 0.0001021482244205198 0.0064279016895917949 0 0.00012050554329768783 0.0064013785647583903 0 0.00013226917115209905 0.0063430428898342975 0 0.00013561238919965486 0.0063803712941549566 0 9.4300757398902332e-05 0.0063837256164683163 0 0.00013561238919965486 0.0063803712941549566 0 0.00012050554329768783 0.0064013785647583903 0 9.4300757398902332e-05 0.0063837256164683163 0 -0.00016275045673059865 0.008383627585066394 0 0.00046784850392954678 0.008174435134773372 0 0.00020717970842328096 0.0087060467460810358 0 0.0003657338025340237 0.0073230417666290465 0 0.00010508068913465431 0.0075872592629277775 0 -0.00024048202854403785 0.008932544437069069 0 -0.00011512872338418397 0.0086819712755746119 0 -0.00041479729621928966 0.0087299038776979167 0 -0.00024048202854403785 0.008932544437069069 0 -0.00041479729621928966 0.0087299038776979167 0 -0.00050474876263322834 0.0089800010375394174 0 -0.00024048202854403785 0.008932544437069069 0 0.00020717970842328096 0.0087060467460810358 0 -0.00011512872338418397 0.0086819712755746119 0 -0.00016275045673059865 0.008383627585066394 0 0.00020717970842328096 0.0087060467460810358 0 -0.00011512872338418397 0.0086819712755746119 0 -0.00016275045673059865 0.008383627585066394 0 -0.00011512872338418397 0.0086819712755746119 0 -0.00041479729621928966 0.0087299038776979167 0 -0.00016275045673059865 0.008383627585066394 0 -0.00041479729621928966 0.0087299038776979167 0 -0.00082052889299646925 0.0085845209255764228 0 0.00018227638681496411 0.0093938894234735296 0 -2.9031653507435938e-05 0.010110094445690858 0 -0.00041479729621928966 0.0087299038776979167 0 -0.00068166260200465444 0.0088245157179539496 0 -0.00050474876263322834 0.0089800010375394174 0 -0.00041479729621928966 0.0087299038776979167 0 -0.00068166260200465444 0.0088245157179539496 0 -0.00082052889299646925 0.0085845209255764228 0 -0.00085452532049564757 0.008817768128839696 0 -0.00068166260200465444 0.0088245157179539496 0 -0.00078534064691244867 0.0090271005936246526 0 -0.00085452532049564757 0.008817768128839696 0 -0.00068166260200465444 0.0088245157179539496 0 -0.00082052889299646925 0.0085845209255764228 0 -2.9031653507435938e-05 0.010110094445690858 0 -3.7999801077851575e-05 0.011494792283294414 0 -0.00027527863901103669 0.0083317295619513947 0 -0.00032243735656620876 0.0083164492541192431 0 -0.00035206747498457616 0.0083401685172930385 0 -0.00082052889299646925 0.0085845209255764228 0 -0.0010835755174977196 0.0088592737332515575 0 -0.0014917086297892544 0.0087875497670318169 0 -0.00031901371639464672 0.0083327429153355233 0 -0.00032243735656620876 0.0083164492541192431 0 -0.00035206747498457616 0.0083401685172930385 0 -0.0002824474805850569 0.0081905176946867487 0 -0.00027527863901103669 0.0083317295619513947 0 -0.00032243735656620876 0.0083164492541192431 0 -0.00085452532049564757 0.008817768128839696 0 -0.0010835755174977196 0.0088592737332515575 0 -0.00078534064691244867 0.0090271005936246526 0 -0.00085452532049564757 0.008817768128839696 0 -0.00082052889299646925 0.0085845209255764228 0 -0.0010835755174977196 0.0088592737332515575 0 -0.0010835755174977196 0.0088592737332515575 0 -0.0010815314116434365 0.0092254892070747253 0 -0.00078534064691244867 0.0090271005936246526 0 -0.0010815314116434365 0.0092254892070747253 0 -0.0014917086297892544 0.0087875497670318169 0 -0.0013975349376044025 0.0095853810112836082 0 -0.0010835755174977196 0.0088592737332515575 0 -0.0010815314116434365 0.0092254892070747253 0 -0.0014917086297892544 0.0087875497670318169 0 -0.00093879718475516842 0.0095608245923826767 0 -0.0010815314116434365 0.0092254892070747253 0 -0.00075112876616230124 0.0093412452752206828 0 -0.0010815314116434365 0.0092254892070747253 0 -0.00075112876616230124 0.0093412452752206828 0 -0.00078534064691244867 0.0090271005936246526 0 -0.00075112876616230124 0.0093412452752206828 0 -0.00058175107319224906 0.009177511139955661 0 -0.00078534064691244867 0.0090271005936246526 0 -0.00075112876616230124 0.0093412452752206828 0 -0.00053697802553470491 0.0093560790437462113 0 -0.00058175107319224906 0.009177511139955661 0 -0.00036333982252476944 0.0094560654254283484 0 -0.00037393633921712396 0.0092059914021358682 0 -0.00053697802553470491 0.0093560790437462113 0 -0.00037393633921712396 0.0092059914021358682 0 -0.00053697802553470491 0.0093560790437462113 0 -0.00058175107319224906 0.009177511139955661 0 -0.00058175107319224906 0.009177511139955661 0 -0.00050474876263322834 0.0089800010375394174 0 -0.00078534064691244867 0.0090271005936246526 0 -0.00037393633921712396 0.0092059914021358682 0 -0.00058175107319224906 0.009177511139955661 0 -0.00050474876263322834 0.0089800010375394174 0 -0.00068166260200465444 0.0088245157179539496 0 -0.00050474876263322834 0.0089800010375394174 0 -0.00078534064691244867 0.0090271005936246526 0 -0.00023881049439761169 0.013408844683353634 0 -0.00024144122254261973 0.014327022258467855 0 9.5735230758643548e-05 0.01447330843238488 0 0.00021596308775163569 0.014432478527648339 0 0.0002320838622121977 0.014588289111460064 0 -3.7999801077851575e-05 0.011494792283294414 0 -0.00020865073547951993 0.012018141147158542 0 0.0002226976013173739 0.011952051122026122 0 3.0704110798799148e-05 0.012009992142834623 0 0.00026478172261755587 0.012298795186088654 0 3.0704110798799148e-05 0.012009992142834623 0 -0.00011867352830613467 0.012414882626291947 0 0.00026478172261755587 0.012298795186088654 0 -0.00023881049439761169 0.013408844683353634 0 -3.7999801077851575e-05 0.011494792283294414 0 -5.2020449786700093e-05 0.010934692073732636 0 -3.7999801077851575e-05 0.011494792283294414 0 0.00018847829286273993 0.014764101483392411 0 0.00015105206746792986 0.014768204154178318 0 0.00016175540350717377 0.014724728926807196 0 -0.00017322162915260801 0.012843227636292956 0 -0.00023881049439761169 0.013408844683353634 0 0.00014641262625205893 0.014906301671866372 0 8.5838607833268595e-05 0.014929801454720917 0 0.000123636152570957 0.014968266565129619 0 0.00018847829286273993 0.014764101483392411 0 0.00016175540350717377 0.014724728926807196 0 0.00019869378629402111 0.014712813301482599 0 -4.3551501579463681e-07 0.014709717323279987 0 -8.3925123625210336e-05 0.01438015792626986 0 8.5838607833268595e-05 0.014929801454720917 0 0.000123636152570957 0.014968266565129619 0 4.3146750350098851e-05 0.014976878268124954 0 -8.3925123625210336e-05 0.01438015792626986 0 -6.400402258055485e-05 0.014547616694780054 0 3.0335612073635699e-05 0.014848502885673758 0 -4.7411952572512745e-06 0.014862299985954657 0 1.5663992091781338e-05 0.014890481903043483 0 -0.00023881049439761169 0.013408844683353634 0 -8.3925123625210336e-05 0.01438015792626986 0 -4.7411952572512745e-06 0.014862299985954657 0 -7.1520530827641791e-06 0.014902517994572739 0 1.5663992091781338e-05 0.014890481903043483 0 -8.3925123625210336e-05 0.01438015792626986 0 -8.9629618602002839e-05 0.014749499773441407 0 -7.1520530827641791e-06 0.014902517994572739 0 -2.362796316702895e-07 0.014916788134918453 0 1.5663992091781338e-05 0.014890481903043483 0 -5.3956336388630587e-06 0.014991990790058975 0 1.1517354901258129e-06 0.014959258220152562 0 4.3146750350098851e-05 0.014976878268124954 0 1.1517354901258129e-06 0.014959258220152562 0 2.6792370023518506e-05 0.01495017328843005 0 4.3146750350098851e-05 0.014976878268124954 0 1.1517354901258129e-06 0.014959258220152562 0 9.1720676841403846e-06 0.014914663958230729 0 2.6792370023518506e-05 0.01495017328843005 0 -8.9629618602002839e-05 0.014749499773441407 0 -8.3362825836047651e-05 0.014821962127028562 0 9.1720676841403846e-06 0.014914663958230729 0 2.7991423290950726e-05 0.014924087884337477 0 2.6792370023518506e-05 0.01495017328843005 0 2.0823403435454471e-05 0.014728724631831721 0 8.905922286782889e-05 0.014694517279432537 0 5.4147393501706787e-05 0.014601882311981456 0 -7.1520530827641791e-06 0.014902517994572739 0 -2.362796316702895e-07 0.014916788134918453 0 9.1720676841403846e-06 0.014914663958230729 0 -0.00019213424480500052 0.014628659978191835 0 -0.00024144122254261973 0.014327022258467855 0 2.0823403435454471e-05 0.014728724631831721 0 8.905922286782889e-05 0.014694517279432537 0 8.6719593678604508e-05 0.014775114820089141 0 0.00014031712925047097 0.014726357331245098 0 8.905922286782889e-05 0.014694517279432537 0 8.6719593678604508e-05 0.014775114820089141 0 0.00014031712925047097 0.014726357331245098 0 8.905922286782889e-05 0.014694517279432537 0 0.00014115656465505533 0.014636602678329134 0 9.5735230758643548e-05 0.01447330843238488 0 0.00014115656465505533 0.014636602678329134 0 5.4147393501706787e-05 0.014601882311981456 0 8.905922286782889e-05 0.014694517279432537 0 0.00014115656465505533 0.014636602678329134 0 5.4147393501706787e-05 0.014601882311981456 0 9.5735230758643548e-05 0.01447330843238488 0 0.00014115656465505533 0.014636602678329134 0 0.0002320838622121977 0.014588289111460064 0 0.0002347460788704433 0.014735049107607588 0 0.00014115656465505533 0.014636602678329134 0 0.0002320838622121977 0.014588289111460064 0 0.0002347460788704433 0.014735049107607588 0 0.00014031712925047097 0.014726357331245098 0 0.00014115656465505533 0.014636602678329134 0 0.00020868970054383363 0.014812607224289939 0 0.0002347460788704433 0.014735049107607588 0 0.00018596760711865398 0.014776942469992616 0 0.0002347460788704433 0.014735049107607588 0 0.00014031712925047097 0.014726357331245098 0 0.00018596760711865398 0.014776942469992616 0 0.00014031712925047097 0.014726357331245098 0 0.00018596760711865398 0.014776942469992616 0 0.0001368021973428009 0.014778859575570366 0 0.00018596760711865398 0.014776942469992616 0 0.00016764971352351533 0.014815251586270076 0 0.0001368021973428009 0.014778859575570366 0 0.00020868970054383363 0.014812607224289939 0 0.00018596760711865398 0.014776942469992616 0 0.00016764971352351533 0.014815251586270076 0 0.00014031712925047097 0.014726357331245098 0 8.6719593678604508e-05 0.014775114820089141 0 0.0001368021973428009 0.014778859575570366 0 8.6719593678604508e-05 0.014775114820089141 0 0.0001368021973428009 0.014778859575570366 0 9.3563044803564272e-05 0.014837141794559376 0 0.00016764971352351533 0.014815251586270076 0 0.0001368021973428009 0.014778859575570366 0 9.3563044803564272e-05 0.014837141794559376 0 8.6719593678604508e-05 0.014775114820089141 0 9.3563044803564272e-05 0.014837141794559376 0 5.3354530992254477e-05 0.01483877432996975 0 9.3563044803564272e-05 0.014837141794559376 0 6.9491525741648529e-05 0.014868897195616257 0 9.6126152786936607e-05 0.014883369835726107 0 9.3563044803564272e-05 0.014837141794559376 0 6.9491525741648529e-05 0.014868897195616257 0 5.3354530992254477e-05 0.01483877432996975 0 9.3563044803564272e-05 0.014837141794559376 0 0.00011956805949507715 0.014858439378125889 0 9.6126152786936607e-05 0.014883369835726107 0 0.00016764971352351533 0.014815251586270076 0 9.3563044803564272e-05 0.014837141794559376 0 0.00011956805949507715 0.014858439378125889 0 0.00011956805949507715 0.014858439378125889 0 0.00012672451129372772 0.014894243897099431 0 9.6126152786936607e-05 0.014883369835726107 0 6.9491525741648529e-05 0.014868897195616257 0 9.6126152786936607e-05 0.014883369835726107 0 6.4301710090355988e-05 0.014898912429839446 0 0.00016764971352351533 0.014815251586270076 0 0.00011956805949507715 0.014858439378125889 0 0.00012672451129372772 0.014894243897099431 0 0.00016764971352351533 0.014815251586270076 0 0.00017964937059809877 0.01482974717857331 0 0.00018363302094053356 0.014825045289710317 0 0.00054041478540881624 0.014579080225853389 0 0.00061678016431898131 0.01442975253410054 0 0.00020868970054383363 0.014812607224289939 0 0.00016764971352351533 0.014815251586270076 0 0.00018363302094053356 0.014825045289710317 0 0.00020868970054383363 0.014812607224289939 0 0.00018363302094053356 0.014825045289710317 0 0.00019605835712903542 0.014824859489730889 0 0.00017964937059809877 0.01482974717857331 0 0.00018600296915581422 0.01483002470831136 0 0.00018363302094053356 0.014825045289710317 0 0.00018600296915581422 0.01483002470831136 0 0.00018363302094053356 0.014825045289710317 0 0.00019605835712903542 0.014824859489730889 0 0.00018600296915581422 0.01483002470831136 0 0.00019605835712903542 0.014824859489730889 0 0.0001955994287496376 0.014829746982783928 0 6.2977137229100388e-05 0.012791674242263214 0 0.00090657463199022388 0.013796636404409928 0 0.00020319884092826813 0.014837288020239104 0 0.0001909187909160209 0.014833539317603865 0 0.00018654024380359717 0.014836574233480747 0 0.00020319884092826813 0.014837288020239104 0 0.00018654024380359717 0.014836574233480747 0 0.00017729020846733585 0.014840916054197116 0 0.0015404652803116864 0.013701299561609176 0 0.0016037058649119463 0.01361993874398691 0 0.0020881944503586772 0.013583670020071272 0 0.00018600296915581422 0.01483002470831136 0 0.0001955994287496376 0.014829746982783928 0 0.0001909187909160209 0.014833539317603865 0 0.00018654024380359717 0.014836574233480747 0 0.00018339900749531299 0.014833529605559264 0 0.00017729020846733585 0.014840916054197116 0 0.00017964937059809877 0.01482974717857331 0 0.00018600296915581422 0.01483002470831136 0 0.00018339900749531299 0.014833529605559264 0 0.0001909187909160209 0.014833539317603865 0 0.00018654024380359717 0.014836574233480747 0 0.00018339900749531299 0.014833529605559264 0 0.00018600296915581422 0.01483002470831136 0 0.0001909187909160209 0.014833539317603865 0 0.00018339900749531299 0.014833529605559264 0 0.00017964937059809877 0.01482974717857331 0 0.00018339900749531299 0.014833529605559264 0 0.00017729020846733585 0.014840916054197116 0 0.00012672451129372772 0.014894243897099431 0 0.00011276761868464051 0.014903794166104102 0 0.00011094625446732891 0.014920617405228662 0 0.00012672451129372772 0.014894243897099431 0 9.6126152786936607e-05 0.014883369835726107 0 0.00011276761868464051 0.014903794166104102 0 0.00061678016431898131 0.01442975253410054 0 0.00090657463199022388 0.013796636404409928 0 9.6126152786936607e-05 0.014883369835726107 0 0.00011276761868464051 0.014903794166104102 0 8.3927204292842122e-05 0.01490435939960927 0 9.6126152786936607e-05 0.014883369835726107 0 8.3927204292842122e-05 0.01490435939960927 0 6.4301710090355988e-05 0.014898912429839446 0 8.3927204292842122e-05 0.01490435939960927 0 6.2710090881191611e-05 0.014927667043560791 0 6.4301710090355988e-05 0.014898912429839446 0 0.00011276761868464051 0.014903794166104102 0 8.3927204292842122e-05 0.01490435939960927 0 6.2710090881191611e-05 0.014927667043560791 0 0.00011276761868464051 0.014903794166104102 0 0.00011094625446732891 0.014920617405228662 0 9.4970466953967132e-05 0.014921714697548275 0 0.00057199208640355001 0.014346670420715586 0 0.00086142449873399991 0.014040747108967118 0 0.0020881944503586772 0.013583670020071272 0 0.0019240473421347781 0.013246312004455987 0 0.0021782698157480477 0.013168718114940059 0 0.0022564304593207019 0.012701627894438256 0 0.0022250475035942982 0.012734732012346274 0 0.0022488590817407979 0.012753976811829793 0 0.00090657463199022388 0.013796636404409928 0 0.0015315583041819788 0.01307839457857648 0 0.00090657463199022388 0.013796636404409928 0 0.00086142449873399991 0.014040747108967118 0 0.0022564304593207019 0.012701627894438256 0 0.0022250475035942982 0.012734732012346274 0 0.0022296268311084878 0.012705813026409702 0 0.0017098632743254415 0.013378015038820558 0 0.0020881944503586772 0.013583670020071272 0 0.0019240473421347781 0.013246312004455987 0 0.0017098632743254415 0.013378015038820558 0 0.0016037058649119463 0.01361993874398691 0 0.0020881944503586772 0.013583670020071272 0 0.00051525384371538675 0.014284816966849526 0 0.00038243330547493967 0.014415880831556789 0 2.9522348116132088e-05 0.014913815009517033 0 2.3358147246589391e-05 0.014901861508924514 0 2.420797959882742e-05 0.014902740467482047 0 0.0007354513205002891 0.014237802027622593 0 0.00066098625025730513 0.014250417459334476 0 0.00072376547924970732 0.014312630455197026 0 0.00038243330547493967 0.014415880831556789 0 0.00092509745230649472 0.014098877375635376 0 0.00051525384371538675 0.014284816966849526 0 0.00086142449873399991 0.014040747108967118 0 0.0007354513205002891 0.014237802027622593 0 0.00080979420361821579 0.014225227306104095 0 0.00072376547924970732 0.014312630455197026 0 0.00086142449873399991 0.014040747108967118 0 0.00092509745230649472 0.014098877375635376 0 0.0022250475035942982 0.012734732012346274 0 0.0022296268311084878 0.012705813026409702 0 0.0021705736486046534 0.012753185344940457 0 2.9522348116132088e-05 0.014913815009517033 0 6.2710090881191611e-05 0.014927667043560791 0 3.5623514168942937e-05 0.014904379009582058 0 6.2710090881191611e-05 0.014927667043560791 0 6.4301710090355988e-05 0.014898912429839446 0 3.5623514168942937e-05 0.014904379009582058 0 6.4301710090355988e-05 0.014898912429839446 0 3.5623514168942937e-05 0.014904379009582058 0 3.6511538012541551e-05 0.014884467574103662 0 3.5623514168942937e-05 0.014904379009582058 0 2.3358147246589391e-05 0.014901861508924514 0 2.1714726307725252e-05 0.014891891902739205 0 2.9522348116132088e-05 0.014913815009517033 0 3.5623514168942937e-05 0.014904379009582058 0 2.3358147246589391e-05 0.014901861508924514 0 2.3358147246589391e-05 0.014901861508924514 0 2.1714726307725252e-05 0.014891891902739205 0 2.3646082374200546e-05 0.014897476374931065 0 2.1714726307725252e-05 0.014891891902739205 0 2.0049441287717851e-05 0.014895758440961049 0 2.3646082374200546e-05 0.014897476374931065 0 2.1714726307725252e-05 0.014891891902739205 0 2.0049441287717851e-05 0.014895758440961049 0 9.1889443473311758e-06 0.014874505723553411 0 6.9491525741648529e-05 0.014868897195616257 0 6.4301710090355988e-05 0.014898912429839446 0 3.6511538012541551e-05 0.014884467574103662 0 3.5623514168942937e-05 0.014904379009582058 0 2.1714726307725252e-05 0.014891891902739205 0 3.6511538012541551e-05 0.014884467574103662 0 2.1714726307725252e-05 0.014891891902739205 0 3.6511538012541551e-05 0.014884467574103662 0 9.1889443473311758e-06 0.014874505723553411 0 3.6511538012541551e-05 0.014884467574103662 0 9.1889443473311758e-06 0.014874505723553411 0 5.3354530992254477e-05 0.01483877432996975 0 6.9491525741648529e-05 0.014868897195616257 0 3.6511538012541551e-05 0.014884467574103662 0 5.3354530992254477e-05 0.01483877432996975 0 2.0823403435454471e-05 0.014728724631831721 0 9.1889443473311758e-06 0.014874505723553411 0 5.3354530992254477e-05 0.01483877432996975 0 -2.362796316702895e-07 0.014916788134918453 0 9.1889443473311758e-06 0.014874505723553411 0 9.1720676841403846e-06 0.014914663958230729 0 -0.00019213424480500052 0.014628659978191835 0 -0.00017268043400924047 0.01470677844055945 0 2.0823403435454471e-05 0.014728724631831721 0 8.6719593678604508e-05 0.014775114820089141 0 5.3354530992254477e-05 0.01483877432996975 0 2.0049441287717851e-05 0.014895758440961049 0 9.1720676841403846e-06 0.014914663958230729 0 2.7991423290950726e-05 0.014924087884337477 0 2.0049441287717851e-05 0.014895758440961049 0 9.1889443473311758e-06 0.014874505723553411 0 9.1720676841403846e-06 0.014914663958230729 0 2.0049441287717851e-05 0.014895758440961049 0 2.7991423290950726e-05 0.014924087884337477 0 3.2865552799269689e-05 0.014906090116491143 0 1.8975923092021465e-05 0.014949039961493325 0 2.3585395525036932e-05 0.014953416790608737 0 2.7991423290950726e-05 0.014924087884337477 0 3.9640111659186183e-05 0.014912449440584671 0 3.2865552799269689e-05 0.014906090116491143 0 2.7991423290950726e-05 0.014924087884337477 0 2.9089531114827383e-05 0.014972265294631712 0 3.3714878769213297e-05 0.014966827261706617 0 3.9640111659186183e-05 0.014912449440584671 0 3.2865552799269689e-05 0.014906090116491143 0 4.2428820635431639e-05 0.014904422168953364 0 3.2865552799269689e-05 0.014906090116491143 0 3.0905605041289947e-05 0.014897808706943192 0 4.2428820635431639e-05 0.014904422168953364 0 3.2865552799269689e-05 0.014906090116491143 0 2.3646082374200546e-05 0.014897476374931065 0 3.0905605041289947e-05 0.014897808706943192 0 2.0049441287717851e-05 0.014895758440961049 0 3.2865552799269689e-05 0.014906090116491143 0 2.3646082374200546e-05 0.014897476374931065 0 2.3358147246589391e-05 0.014901861508924514 0 2.3646082374200546e-05 0.014897476374931065 0 3.0905605041289947e-05 0.014897808706943192 0 2.3358147246589391e-05 0.014901861508924514 0 3.0905605041289947e-05 0.014897808706943192 0 2.420797959882742e-05 0.014902740467482047 0 0.00022325390120960314 0.014701730318624895 0 0.00038243330547493967 0.014415880831556789 0 0.00022325390120960314 0.014701730318624895 0 0.00011198917073451999 0.014854815737290786 0 -7.4535723318360664e-07 0.014997261046437074 0 -4.2882753679266504e-07 0.014995656485632928 0 -8.8731373103836922e-07 0.014994841981614607 0 -7.4535723318360664e-07 0.014997261046437074 0 -4.2882753679266504e-07 0.014995656485632928 0 -1.7053097626757498e-07 0.014998454819393468 0 0.0001638862010721519 0.014538393755623066 0 0.00038243330547493967 0.014415880831556789 0 -4.2882753679266504e-07 0.014995656485632928 0 3.5574116893360264e-06 0.014990996160343099 0 2.1245689175550232e-06 0.014993977820374572 0 5.9766647447766929e-09 0.015000005573207829 0 -1.7053097626757498e-07 0.014998454819393468 0 -1.0224699651483266e-06 0.014998002192279921 0 5.9766647447766929e-09 0.015000005573207829 0 -1.7053097626757498e-07 0.014998454819393468 0 -1.5633038001466961e-09 0.014999995980588123 0 -4.2882753679266504e-07 0.014995656485632928 0 -1.7053097626757498e-07 0.014998454819393468 0 -1.0224699651483266e-06 0.014998002192279921 0 -7.4535723318360664e-07 0.014997261046437074 0 -1.7053097626757498e-07 0.014998454819393468 0 -3.2195872181404496e-07 0.01499916755750717 0 -1.7053097626757498e-07 0.014998454819393468 0 -1.5633038001466961e-09 0.014999995980588123 0 -1.1115064071578553e-08 0.014999639802170782 0 -1.5633038001466961e-09 0.014999995980588123 0 -1.1115064071578553e-08 0.014999639802170782 0 9.6443218618033034e-10 0.015000001307862217 0 -1.7053097626757498e-07 0.014998454819393468 0 -1.1115064071578553e-08 0.014999639802170782 0 -3.2195872181404496e-07 0.01499916755750717 0 -1.1115064071578553e-08 0.014999639802170782 0 -3.2195872181404496e-07 0.01499916755750717 0 -3.0178473089136985e-08 0.014999915558737132 0 0.00011198917073451999 0.014854815737290786 0 3.1192035751546792e-05 0.014963575666318556 0 2.3585395525036932e-05 0.014953416790608737 0 3.1192035751546792e-05 0.014963575666318556 0 2.9089531114827383e-05 0.014972265294631712 0 1.0553485043033525e-05 0.01499565178618829 0 1.1822202444503809e-05 0.014990188897451595 0 3.9640111659186183e-05 0.014912449440584671 0 4.2428820635431639e-05 0.014904422168953364 0 4.9613193049345743e-05 0.014911573770592653 0 6.1850670551188529e-08 0.014999842139043481 0 3.1192035751546792e-05 0.014963575666318556 0 -1.1115064071578553e-08 0.014999639802170782 0 9.6443218618033034e-10 0.015000001307862217 0 -3.0178473089136985e-08 0.014999915558737132 0 1.0553485043033525e-05 0.01499565178618829 0 9.0644669709982479e-09 0.014999976431123765 0 1.1822202444503809e-05 0.014990188897451595 0 6.5402727312826737e-11 0.014999999906855011 0 6.0021577054344172e-08 0.014999940186767301 0 -1.7283963308254078e-11 0.014999999980647273 0 3.1192035751546792e-05 0.014963575666318556 0 9.9807489172756885e-08 0.014999890130573105 0 1.1822202444503809e-05 0.014990188897451595 0 1.461812407246561e-08 0.015000002156987439 0 1.7917745357512007e-05 0.014983071212034006 0 9.0644669709982479e-09 0.014999976431123765 0 1.1822202444503809e-05 0.014990188897451595 0 1.461812407246561e-08 0.015000002156987439 0 1.461812407246561e-08 0.015000002156987439 0 9.6818715189088568e-06 0.014983790286467638 0 1.7917745357512007e-05 0.014983071212034006 0 1.461812407246561e-08 0.015000002156987439 0 9.6818715189088568e-06 0.014983790286467638 0 -3.9506974372941879e-08 0.014999916708797301 0 9.6818715189088568e-06 0.014983790286467638 0 1.7917745357512007e-05 0.014983071212034006 0 2.5403706255629467e-05 0.014976619413139826 0 9.6818715189088568e-06 0.014983790286467638 0 2.5403706255629467e-05 0.014976619413139826 0 2.2561667405070865e-05 0.01496655936249755 0 2.9089531114827383e-05 0.014972265294631712 0 1.1822202444503809e-05 0.014990188897451595 0 1.7917745357512007e-05 0.014983071212034006 0 2.9089531114827383e-05 0.014972265294631712 0 1.7917745357512007e-05 0.014983071212034006 0 3.3714878769213297e-05 0.014966827261706617 0 2.7991423290950726e-05 0.014924087884337477 0 3.3714878769213297e-05 0.014966827261706617 0 2.6792370023518506e-05 0.01495017328843005 0 3.3714878769213297e-05 0.014966827261706617 0 2.6792370023518506e-05 0.01495017328843005 0 4.3146750350098851e-05 0.014976878268124954 0 3.3714878769213297e-05 0.014966827261706617 0 4.3146750350098851e-05 0.014976878268124954 0 2.5403706255629467e-05 0.014976619413139826 0 1.7917745357512007e-05 0.014983071212034006 0 3.3714878769213297e-05 0.014966827261706617 0 2.5403706255629467e-05 0.014976619413139826 0 2.2561667405070865e-05 0.01496655936249755 0 4.5185270371263689e-05 0.014948776353716376 0 2.7207604829202458e-05 0.014941519478898215 0 4.3146750350098851e-05 0.014976878268124954 0 2.2561667405070865e-05 0.01496655936249755 0 4.5185270371263689e-05 0.014948776353716376 0 4.3146750350098851e-05 0.014976878268124954 0 2.5403706255629467e-05 0.014976619413139826 0 2.2561667405070865e-05 0.01496655936249755 0 8.5838607833268595e-05 0.014929801454720917 0 4.3146750350098851e-05 0.014976878268124954 0 4.5185270371263689e-05 0.014948776353716376 0 8.5838607833268595e-05 0.014929801454720917 0 4.5185270371263689e-05 0.014948776353716376 0 4.1839872174646405e-05 0.014920998285783513 0 1.5658027216453407e-05 0.014919276173484011 0 4.1839872174646405e-05 0.014920998285783513 0 2.7207604829202458e-05 0.014941519478898215 0 4.5185270371263689e-05 0.014948776353716376 0 4.1839872174646405e-05 0.014920998285783513 0 2.7207604829202458e-05 0.014941519478898215 0 9.7125517621747015e-06 0.014947610005822275 0 -1.4071325710746117e-05 0.014936320496637838 0 5.0933733556935186e-06 0.014972058119721091 0 1.5658027216453407e-05 0.014919276173484011 0 2.7207604829202458e-05 0.014941519478898215 0 9.7125517621747015e-06 0.014947610005822275 0 1.2043489197293076e-06 0.014919708605884423 0 1.5658027216453407e-05 0.014919276173484011 0 9.7125517621747015e-06 0.014947610005822275 0 2.2561667405070865e-05 0.01496655936249755 0 2.7207604829202458e-05 0.014941519478898215 0 9.7125517621747015e-06 0.014947610005822275 0 1.2043489197293076e-06 0.014919708605884423 0 9.7125517621747015e-06 0.014947610005822275 0 -1.4071325710746117e-05 0.014936320496637838 0 -1.4071325710746117e-05 0.014936320496637838 0 -3.9506974372941879e-08 0.014999916708797301 0 5.0933733556935186e-06 0.014972058119721091 0 -8.1202232617284561e-10 0.015000010108275711 0 -7.3035633308413189e-07 0.015000554546701484 0 6.375470340587118e-11 0.014999994822262297 0 2.4432987884433161e-06 0.014968207178663302 0 -5.7506730242641311e-09 0.014999953604292397 0 9.6818715189088568e-06 0.014983790286467638 0 -3.9506974372941879e-08 0.014999916708797301 0 5.0933733556935186e-06 0.014972058119721091 0 9.6818715189088568e-06 0.014983790286467638 0 2.2561667405070865e-05 0.01496655936249755 0 5.0933733556935186e-06 0.014972058119721091 0 2.2561667405070865e-05 0.01496655936249755 0 9.7125517621747015e-06 0.014947610005822275 0 5.0933733556935186e-06 0.014972058119721091 0 1.9169108568053668e-06 0.014996781587137173 0 2.7424815160853173e-06 0.014995632684616169 0 2.8650566250997597e-06 0.014994925875526985 0 1.9169108568053668e-06 0.014996781587137173 0 2.7424815160853173e-06 0.014995632684616169 0 1.5718232237989181e-06 0.014997695019071684 0 2.7424815160853173e-06 0.014995632684616169 0 2.8650566250997597e-06 0.014994925875526985 0 3.982181492642078e-06 0.014993545370089194 0 2.7424815160853173e-06 0.014995632684616169 0 3.982181492642078e-06 0.014993545370089194 0 3.0662844073225036e-06 0.014995682624247891 0 2.7424815160853173e-06 0.014995632684616169 0 1.5718232237989181e-06 0.014997695019071684 0 3.0662844073225036e-06 0.014995682624247891 0 1.9169108568053668e-06 0.014996781587137173 0 1.5718232237989181e-06 0.014997695019071684 0 1.7026309545501291e-09 0.014999995143449806 0 1.5718232237989181e-06 0.014997695019071684 0 1.7026309545501291e-09 0.014999995143449806 0 1.7752851046144317e-09 0.01499999491715843 0 1.9169108568053668e-06 0.014996781587137173 0 1.7026309545501291e-09 0.014999995143449806 0 2.2258518551783552e-06 0.014995688013277591 0 1.7026309545501291e-09 0.014999995143449806 0 2.2258518551783552e-06 0.014995688013277591 0 1.1773361766891285e-06 0.014997211882607471 0 1.9169108568053668e-06 0.014996781587137173 0 2.2258518551783552e-06 0.014995688013277591 0 2.8650566250997597e-06 0.014994925875526985 0 2.2258518551783552e-06 0.014995688013277591 0 2.8650566250997597e-06 0.014994925875526985 0 3.3046912482603287e-06 0.014993168886220534 0 2.2258518551783552e-06 0.014995688013277591 0 3.3046912482603287e-06 0.014993168886220534 0 2.8152817081302958e-06 0.014993447578779595 0 3.3046912482603287e-06 0.014993168886220534 0 3.6578782764444167e-06 0.014991265800774171 0 3.1436912901908399e-06 0.014990310052486463 0 3.3046912482603287e-06 0.014993168886220534 0 3.6578782764444167e-06 0.014991265800774171 0 3.982181492642078e-06 0.014993545370089194 0 2.8650566250997597e-06 0.014994925875526985 0 3.3046912482603287e-06 0.014993168886220534 0 3.982181492642078e-06 0.014993545370089194 0 3.6578782764444167e-06 0.014991265800774171 0 2.4507178683530172e-06 0.014989454872679596 0 2.2999001915304461e-06 0.014987358915978279 0 3.6578782764444167e-06 0.014991265800774171 0 2.2999001915304461e-06 0.014987358915978279 0 3.1436912901908399e-06 0.014990310052486463 0 0.00091822972402607326 0.014025022945532198 0 0.0011081954643877058 0.013458864805459818 0 3.6578782764444167e-06 0.014991265800774171 0 4.7124090881163526e-06 0.014992281061629954 0 2.4507178683530172e-06 0.014989454872679596 0 0.0016202346212890169 0.013229032033135123 0 0.0015395448470537417 0.013189218782236171 0 0.0015590768460712293 0.013095680484985885 0 0.0016945519762084436 0.013169000097391493 0 0.0016202346212890169 0.013229032033135123 0 0.0015590768460712293 0.013095680484985885 0 0.00091822972402607326 0.014025022945532198 0 0.001500521855566277 0.013628939885749326 0 0.0008065625330336832 0.014122316948371088 0 0.00091822972402607326 0.014025022945532198 0 3.6578782764444167e-06 0.014991265800774171 0 3.982181492642078e-06 0.014993545370089194 0 4.7124090881163526e-06 0.014992281061629954 0 3.982181492642078e-06 0.014993545370089194 0 4.8452507962179287e-06 0.014992933411498204 0 3.0662844073225036e-06 0.014995682624247891 0 0.0017105572738882722 0.015918134371200533 0 0.0012639817905286106 0.015413398656694647 0 0.00079704851997621385 0.015443562884317304 0 0.00091822972402607326 0.014025022945532198 0 0.00061338298770048053 0.014574942938381392 0 0.0015510198783146507 0.015302918507556829 0 0.0021150969002737248 0.015006190848199194 0 0.00099727487017243653 0.014989524127233027 0 0.0021150969002737248 0.015006190848199194 0 0.001557533637782698 0.014255339580400655 0 0.0011172865113644145 0.015003427541026916 0 0.0012401204129407451 0.014958853508769045 0 0.00087789730992814694 0.014947972208293876 0 0.0012639817905286106 0.015413398656694647 0 0.0015510198783146507 0.015302918507556829 0 0.00099727487017243653 0.014989524127233027 0 0.0017105572738882722 0.015918134371200533 0 0.0012639817905286106 0.015413398656694647 0 0.0015510198783146507 0.015302918507556829 0 0.0017105572738882722 0.015918134371200533 0 0.0015510198783146507 0.015302918507556829 0 0.002430983139193895 0.015340951908695668 0 0.002430983139193895 0.015340951908695668 0 0.0021150969002737248 0.015006190848199194 0 0.0031651107113145173 0.014747467946718008 0 0.0015510198783146507 0.015302918507556829 0 0.002430983139193895 0.015340951908695668 0 0.0021150969002737248 0.015006190848199194 0 0.001500521855566277 0.013628939885749326 0 0.0019790511132811561 0.013101703038511138 0 0.0021150969002737248 0.015006190848199194 0 0.0020154042644023413 0.013332232671569506 0 0.0031651107113145173 0.014747467946718008 0 0.002165918702967042 0.013376982388354618 0 0.0019790511132811561 0.013101703038511138 0 0.0020154042644023413 0.013332232671569506 0 0.0021296233360662449 0.013172838660259928 0 0.0021509290615710367 0.013179701187083644 0 0.0021150969002737248 0.015006190848199194 0 0.001557533637782698 0.014255339580400655 0 0.0020154042644023413 0.013332232671569506 0 0.001557533637782698 0.014255339580400655 0 0.0010877796026750703 0.014331386956349609 0 0.0011172865113644145 0.015003427541026916 0 0.001557533637782698 0.014255339580400655 0 0.0014143986972984784 0.013638939370142404 0 0.0020154042644023413 0.013332232671569506 0 0.001557533637782698 0.014255339580400655 0 0.0010877796026750703 0.014331386956349609 0 0.0014143986972984784 0.013638939370142404 0 0.0010877796026750703 0.014331386956349609 0 0.00072402550144258656 0.013637030106679314 0 0.0014143986972984784 0.013638939370142404 0 0.00060268233155621001 0.014597114674246393 0 0.0010877796026750703 0.014331386956349609 0 0.00072402550144258656 0.013637030106679314 0 0.00060268233155621001 0.014597114674246393 0 0.0010877796026750703 0.014331386956349609 0 0.0011172865113644145 0.015003427541026916 0 0.00087789730992814694 0.014947972208293876 0 0.00027480390573119881 0.014917671892386445 0 0.00099727487017243653 0.014989524127233027 0 0.00079704851997621385 0.015443562884317304 0 -0.00011055371699938288 0.014973594026863015 0 0.00060268233155621001 0.014597114674246393 0 0.0011172865113644145 0.015003427541026916 0 0.0002380089034072577 0.015088710855401029 0 1.5718232237989181e-06 0.014997695019071684 0 3.0662844073225036e-06 0.014995682624247891 0 1.316050175760071e-06 0.014998168040899472 0 0.00061338298770048053 0.014574942938381392 0 0.00027480390573119881 0.014917671892386445 0 0.0012639817905286106 0.015413398656694647 0 0.00099727487017243653 0.014989524127233027 0 0.00079704851997621385 0.015443562884317304 0 1.5718232237989181e-06 0.014997695019071684 0 1.316050175760071e-06 0.014998168040899472 0 1.7752851046144317e-09 0.01499999491715843 0 0.00027480390573119881 0.014917671892386445 0 6.8645567177283385e-07 0.014999500424095438 0 9.2535582037519674e-07 0.014999782080013995 0 6.695294663982429e-10 0.015000000400074386 0 -3.6659670472207498e-10 0.014999999390146512 0 0.00027480390573119881 0.014917671892386445 0 5.6389032789142867e-07 0.014999636816762718 0 0.0002380089034072577 0.015088710855401029 0 2.1052998309635267e-05 0.014930859399836816 0 -1.9068002225142234e-07 0.014999370726366958 0 2.1052998309635267e-05 0.014930859399836816 0 -1.9068002225142234e-07 0.014999370726366958 0 8.3306813459406612e-08 0.015000113879928492 0 0.00060268233155621001 0.014597114674246393 0 2.1052998309635267e-05 0.014930859399836816 0 0.00072402550144258656 0.013637030106679314 0 0.00032087453734215603 0.014507173981424457 0 0.00048192375501023889 0.01433670687792969 0 0.00060268233155621001 0.014597114674246393 0 0.0002380089034072577 0.015088710855401029 0 2.1052998309635267e-05 0.014930859399836816 0 2.1052998309635267e-05 0.014930859399836816 0 8.3306813459406612e-08 0.015000113879928492 0 -1.3480863322069716e-05 0.014985263148891438 0 8.3306813459406612e-08 0.015000113879928492 0 -1.3480863322069716e-05 0.014985263148891438 0 -4.6085454934954937e-06 0.014997310118584833 0 0.00048192375501023889 0.01433670687792969 0 0.00074990401151460928 0.014102064087784735 0 -1.3480863322069716e-05 0.014985263148891438 0 -4.6085454934954937e-06 0.014997310118584833 0 -4.6292429088387285e-06 0.01499543475422086 0 8.3306813459406612e-08 0.015000113879928492 0 -4.6085454934954937e-06 0.014997310118584833 0 -2.5181790075325643e-08 0.014999966933233065 0 -2.5181790075325643e-08 0.014999966933233065 0 -2.3874770514830979e-06 0.014997564521633963 0 -1.0224699651483266e-06 0.014998002192279921 0 -4.6085454934954937e-06 0.014997310118584833 0 -2.5181790075325643e-08 0.014999966933233065 0 -2.3874770514830979e-06 0.014997564521633963 0 -4.6085454934954937e-06 0.014997310118584833 0 -2.3874770514830979e-06 0.014997564521633963 0 -2.1528895611879857e-06 0.014996343526063299 0 -4.2882753679266504e-07 0.014995656485632928 0 -1.0224699651483266e-06 0.014998002192279921 0 -6.8216108470891573e-07 0.014995674484475318 0 -2.3874770514830979e-06 0.014997564521633963 0 -1.0224699651483266e-06 0.014998002192279921 0 -6.8216108470891573e-07 0.014995674484475318 0 5.9766647447766929e-09 0.015000005573207829 0 -2.5181790075325643e-08 0.014999966933233065 0 -1.0224699651483266e-06 0.014998002192279921 0 2.1245689175550232e-06 0.014993977820374572 0 2.6249822176616162e-06 0.014995849270673958 0 7.8374992045782855e-06 0.014992646007722234 0 2.1245689175550232e-06 0.014993977820374572 0 -6.8216108470891573e-07 0.014995674484475318 0 2.6249822176616162e-06 0.014995849270673958 0 3.5574116893360264e-06 0.014990996160343099 0 2.1245689175550232e-06 0.014993977820374572 0 7.8374992045782855e-06 0.014992646007722234 0 -4.2882753679266504e-07 0.014995656485632928 0 2.1245689175550232e-06 0.014993977820374572 0 -6.8216108470891573e-07 0.014995674484475318 0 -2.3874770514830979e-06 0.014997564521633963 0 -6.8216108470891573e-07 0.014995674484475318 0 -2.1528895611879857e-06 0.014996343526063299 0 -6.8216108470891573e-07 0.014995674484475318 0 -2.1528895611879857e-06 0.014996343526063299 0 2.6249822176616162e-06 0.014995849270673958 0 -2.1528895611879857e-06 0.014996343526063299 0 2.6249822176616162e-06 0.014995849270673958 0 -4.6292429088387285e-06 0.01499543475422086 0 0.0020607108061864833 0.012749191973609164 0 0.0020445135984741053 0.012964132706387433 0 0.0021296212340506451 0.012870555800638705 0 0.0020607108061864833 0.012749191973609164 0 0.0020445135984741053 0.012964132706387433 0 0.0016507644061205091 0.012884518624153523 0 0.00092810391089746651 0.013999102559245503 0 0.00074990401151460928 0.014102064087784735 0 -4.6085454934954937e-06 0.014997310118584833 0 -2.1528895611879857e-06 0.014996343526063299 0 -4.6292429088387285e-06 0.01499543475422086 0 0.00072402550144258656 0.013637030106679314 0 0.0016507644061205091 0.012884518624153523 0 0.0014143986972984784 0.013638939370142404 0 0.0016507644061205091 0.012884518624153523 0 0.0014143986972984784 0.013638939370142404 0 0.0020154042644023413 0.013332232671569506 0 0.0020445135984741053 0.012964132706387433 0 0.0020154042644023413 0.013332232671569506 0 0.0021296233360662449 0.013172838660259928 0 0.0020445135984741053 0.012964132706387433 0 0.0016507644061205091 0.012884518624153523 0 0.0020154042644023413 0.013332232671569506 0 0.0021886688878374229 0.013022450813271186 0 0.0021833288149693312 0.012920456687459322 0 0.0021296233360662449 0.013172838660259928 0 0.0020445135984741053 0.012964132706387433 0 0.0021833288149693312 0.012920456687459322 0 0.0021296233360662449 0.013172838660259928 0 0.0021886688878374229 0.013022450813271186 0 0.0022326719529252108 0.012885418720262684 0 0.0021833288149693312 0.012920456687459322 0 0.0022326719529252108 0.012885418720262684 0 0.002258419972138534 0.012691735663110784 0 0.0022227786101090296 0.013088686105692854 0 0.0022779887469988776 0.012826083654580321 0 0.0022633431196934458 0.012852649385976276 0 0.0021886688878374229 0.013022450813271186 0 0.0022326719529252108 0.012885418720262684 0 0.0022227786101090296 0.013088686105692854 0 0.0022326719529252108 0.012885418720262684 0 0.0022425227390228111 0.012841634364449659 0 0.0021833288149693312 0.012920456687459322 0 0.0022326719529252108 0.012885418720262684 0 0.0022425227390228111 0.012841634364449659 0 0.002258419972138534 0.012691735663110784 0 0.0022425227390228111 0.012841634364449659 0 0.002198070691530466 0.012830864584266152 0 0.0022299869233147725 0.012851546687468128 0 0.0022425227390228111 0.012841634364449659 0 0.0022299869233147725 0.012851546687468128 0 0.002258419972138534 0.012691735663110784 0 0.0020445135984741053 0.012964132706387433 0 0.0021833288149693312 0.012920456687459322 0 0.0021296212340506451 0.012870555800638705 0 0.0022425227390228111 0.012841634364449659 0 0.0021833288149693312 0.012920456687459322 0 0.002198070691530466 0.012830864584266152 0 0.0021833288149693312 0.012920456687459322 0 0.0021296212340506451 0.012870555800638705 0 0.002198070691530466 0.012830864584266152 0 0.00092810391089746651 0.013999102559245503 0 0.00092509745230649472 0.014098877375635376 0 0.0020607108061864833 0.012749191973609164 0 0.0021673635429676485 0.012773977122874767 0 0.0021712309766715914 0.012743332343881589 0 0.0020607108061864833 0.012749191973609164 0 0.0021296212340506451 0.012870555800638705 0 0.002198070691530466 0.012830864584266152 0 0.0020607108061864833 0.012749191973609164 0 0.0021673635429676485 0.012773977122874767 0 0.002198070691530466 0.012830864584266152 0 0.0021673635429676485 0.012773977122874767 0 0.002198070691530466 0.012830864584266152 0 0.0022037527839268642 0.012800746815254855 0 0.0021673635429676485 0.012773977122874767 0 0.0022037527839268642 0.012800746815254855 0 0.0021805192257715236 0.012760184425888658 0 0.002198070691530466 0.012830864584266152 0 0.0022299869233147725 0.012851546687468128 0 0.0022037527839268642 0.012800746815254855 0 0.0022299869233147725 0.012851546687468128 0 0.0022037527839268642 0.012800746815254855 0 0.0022135478678396987 0.01276205956178585 0 0.0022250475035942982 0.012734732012346274 0 0.0022135478678396987 0.01276205956178585 0 0.0021705736486046534 0.012753185344940457 0 0.0022135478678396987 0.01276205956178585 0 0.0021705736486046534 0.012753185344940457 0 0.0021805192257715236 0.012760184425888658 0 0.0022299869233147725 0.012851546687468128 0 0.0022135478678396987 0.01276205956178585 0 0.0022488590817407979 0.012753976811829793 0 0.0022037527839268642 0.012800746815254855 0 0.0022135478678396987 0.01276205956178585 0 0.0021805192257715236 0.012760184425888658 0 0.0022250475035942982 0.012734732012346274 0 0.0022135478678396987 0.01276205956178585 0 0.0022488590817407979 0.012753976811829793 0 0.0021673635429676485 0.012773977122874767 0 0.0021712309766715914 0.012743332343881589 0 0.0021805192257715236 0.012760184425888658 0 0.00092509745230649472 0.014098877375635376 0 0.00093758778257731765 0.014081569813745722 0 0.0017098632743254415 0.013378015038820558 0 0.0019240473421347781 0.013246312004455987 0 0.0017096258291519951 0.013054576171311455 0 0.0019732085100178302 0.013045894911263595 0 0.0019240473421347781 0.013246312004455987 0 0.0017096258291519951 0.013054576171311455 0 0.0019732085100178302 0.013045894911263595 0 0.0019240473421347781 0.013246312004455987 0 0.0021782698157480477 0.013168718114940059 0 0.0016966118764608022 0.012920564764633581 0 0.0015315583041819788 0.01307839457857648 0 0.0022299869233147725 0.012851546687468128 0 0.0019732085100178302 0.013045894911263595 0 0.00187865789432204 0.012820538411624931 0 0.0022299869233147725 0.012851546687468128 0 0.0019732085100178302 0.013045894911263595 0 0.0021782698157480477 0.013168718114940059 0 0.0019732085100178302 0.013045894911263595 0 0.00187865789432204 0.012820538411624931 0 0.0017096258291519951 0.013054576171311455 0 0.00187865789432204 0.012820538411624931 0 0.0019848223348568942 0.01271287400915787 0 0.0015815922066039914 0.012621569802808524 0 0.0022299869233147725 0.012851546687468128 0 0.00187865789432204 0.012820538411624931 0 0.0019848223348568942 0.01271287400915787 0 0.0022299869233147725 0.012851546687468128 0 0.0019848223348568942 0.01271287400915787 0 0.002258419972138534 0.012691735663110784 0 0.0019848223348568942 0.01271287400915787 0 0.002258419972138534 0.012691735663110784 0 0.0018870875408962132 0.012385634369440925 0 0.0019848223348568942 0.01271287400915787 0 0.0018870875408962132 0.012385634369440925 0 0.0015815922066039914 0.012621569802808524 0 0.0018870875408962132 0.012385634369440925 0 0.001914111275406593 0.011742534563463011 0 0.0021877662887986151 0.012130145265514515 0 0.0018870875408962132 0.012385634369440925 0 0.001914111275406593 0.011742534563463011 0 0.0016086520370677925 0.012021594574970422 0 0.001914111275406593 0.011742534563463011 0 0.0023468108124627416 0.011783747431073192 0 0.0021241584081105476 0.011306640931104622 0 0.001914111275406593 0.011742534563463011 0 0.0023468108124627416 0.011783747431073192 0 0.0021877662887986151 0.012130145265514515 0 0.002258419972138534 0.012691735663110784 0 0.0021877662887986151 0.012130145265514515 0 0.0024552803684417647 0.012173648168309121 0 0.002258419972138534 0.012691735663110784 0 0.0018870875408962132 0.012385634369440925 0 0.0021877662887986151 0.012130145265514515 0 0.0023468108124627416 0.011783747431073192 0 0.0021877662887986151 0.012130145265514515 0 0.0024552803684417647 0.012173648168309121 0 0.002258419972138534 0.012691735663110784 0 0.0027400704319841041 0.012298814941144038 0 0.0024552803684417647 0.012173648168309121 0 0.0027400704319841041 0.012298814941144038 0 0.0027297453531655602 0.012029907557231025 0 0.0024552803684417647 0.012173648168309121 0 0.0021886688878374229 0.013022450813271186 0 0.0022227786101090296 0.013088686105692854 0 0.0021296233360662449 0.013172838660259928 0 0.0022227786101090296 0.013088686105692854 0 0.0021296233360662449 0.013172838660259928 0 0.0021509290615710367 0.013179701187083644 0 0.0022633431196934458 0.012852649385976276 0 0.0019790511132811561 0.013101703038511138 0 0.0027400704319841041 0.012298814941144038 0 0.0027297453531655602 0.012029907557231025 0 0.0031276987358593001 0.011962061577080529 0 0.0016202346212890169 0.013229032033135123 0 0.0015457063882843066 0.013289671279094821 0 0.0015395448470537417 0.013189218782236171 0 0.0015457063882843066 0.013289671279094821 0 0.0014327409391198104 0.013142287438331368 0 0.0015395448470537417 0.013189218782236171 0 0.0019790511132811561 0.013101703038511138 0 0.0019779137072582728 0.012154028855535879 0 0.0027297453531655602 0.012029907557231025 0 0.0031276987358593001 0.011962061577080529 0 0.0026653939476947129 0.011369123229480809 0 0.0021343770905897434 0.011967415888530781 0 0.0019779137072582728 0.012154028855535879 0 0.0023468108124627416 0.011783747431073192 0 0.0027297453531655602 0.012029907557231025 0 0.0026430437750242699 0.011359122223645766 0 0.0023468108124627416 0.011783747431073192 0 0.0027297453531655602 0.012029907557231025 0 0.0024552803684417647 0.012173648168309121 0 0.0014327409391198104 0.013142287438331368 0 0.0015395448470537417 0.013189218782236171 0 0.0015590768460712293 0.013095680484985885 0 0.0011081954643877058 0.013458864805459818 0 0.0015178028033722411 0.012611695633726085 0 0.0014327409391198104 0.013142287438331368 0 0.0015590768460712293 0.013095680484985885 0 0.0014212210674664025 0.013022208275598621 0 2.4507178683530172e-06 0.014989454872679596 0 -3.6439401863773899e-06 0.014984023655275961 0 2.2999001915304461e-06 0.014987358915978279 0 0.0026089345878995735 0.011374967828090726 0 0.0025680223382741618 0.010918483436609549 0 0.0022429234548044714 0.01089457964275661 0 0.0019779137072582728 0.012154028855535879 0 0.0019163000227216576 0.011721338542853534 0 0.0019779137072582728 0.012154028855535879 0 0.0015178028033722411 0.012611695633726085 0 0.0026430437750242699 0.011359122223645766 0 0.0022429234548044714 0.01089457964275661 0 0.0021241584081105476 0.011306640931104622 0 0.0022429234548044714 0.01089457964275661 0 0.0019125387920108257 0.010931947644412949 0 0.0021241584081105476 0.011306640931104622 0 0.0017016674573265189 0.011179458793677285 0 0.0019125387920108257 0.010931947644412949 0 0.0015641832737243401 0.010745399986944688 0 0.0017016674573265189 0.011179458793677285 0 0.0019125387920108257 0.010931947644412949 0 0.0021241584081105476 0.011306640931104622 0 0.001914111275406593 0.011742534563463011 0 0.0017016674573265189 0.011179458793677285 0 0.0014352263769041157 0.011551973505290461 0 0.001914111275406593 0.011742534563463011 0 0.0017016674573265189 0.011179458793677285 0 0.0021241584081105476 0.011306640931104622 0 0.0023468108124627416 0.011783747431073192 0 0.0026430437750242699 0.011359122223645766 0 0.0021241584081105476 0.011306640931104622 0 0.0013027844267464652 0.011078887392548377 0 0.00091604530934975804 0.010988446127336259 0 0.00089514065989042789 0.01133422011868763 0 0.0013027844267464652 0.011078887392548377 0 0.00089514065989042789 0.01133422011868763 0 0.0014352263769041157 0.011551973505290461 0 0.0017016674573265189 0.011179458793677285 0 0.0013027844267464652 0.011078887392548377 0 0.0014352263769041157 0.011551973505290461 0 0.0017016674573265189 0.011179458793677285 0 0.0013027844267464652 0.011078887392548377 0 0.0015641832737243401 0.010745399986944688 0 0.0013027844267464652 0.011078887392548377 0 0.00091604530934975804 0.010988446127336259 0 0.0011591380628292564 0.010691905464334196 0 0.00091604530934975804 0.010988446127336259 0 0.00060922011605614587 0.010841248427165127 0 0.00085320238650371473 0.01069475550036204 0 0.00091604530934975804 0.010988446127336259 0 0.00060922011605614587 0.010841248427165127 0 0.00050726737611522647 0.011202133762754134 0 0.00060922011605614587 0.010841248427165127 0 0.00050726737611522647 0.011202133762754134 0 0.00035702041255532177 0.010919332014786804 0 0.00091604530934975804 0.010988446127336259 0 0.00050726737611522647 0.011202133762754134 0 0.00089514065989042789 0.01133422011868763 0 0.00089514065989042789 0.01133422011868763 0 0.00066218733862958104 0.011504740256439942 0 0.0011849314060709453 0.01161240052960354 0 0.00050726737611522647 0.011202133762754134 0 0.00066218733862958104 0.011504740256439942 0 0.00025068764222034541 0.01136261215322641 0 0.00050726737611522647 0.011202133762754134 0 0.00089514065989042789 0.01133422011868763 0 0.00066218733862958104 0.011504740256439942 0 0.00066218733862958104 0.011504740256439942 0 0.00078083590708752143 0.01190750816220108 0 0.00026752969045865495 0.011879593212911366 0 0.00066218733862958104 0.011504740256439942 0 0.0011849314060709453 0.01161240052960354 0 0.00078083590708752143 0.01190750816220108 0 0.00089514065989042789 0.01133422011868763 0 0.0011790740807206043 0.012048124616349588 0 0.0014352263769041157 0.011551973505290461 0 0.0011081576454451893 0.011663485961300854 0 0.0012539167837417144 0.011898548595065235 0 0.0011790740807206043 0.012048124616349588 0 0.0014352263769041157 0.011551973505290461 0 0.0016086520370677925 0.012021594574970422 0 0.001914111275406593 0.011742534563463011 0 0.0014352263769041157 0.011551973505290461 0 0.0016086520370677925 0.012021594574970422 0 0.0018870875408962132 0.012385634369440925 0 0.0016086520370677925 0.012021594574970422 0 0.0015815922066039914 0.012621569802808524 0 0.0011790740807206043 0.012048124616349588 0 0.0016086520370677925 0.012021594574970422 0 0.0015815922066039914 0.012621569802808524 0 0.0012539167837417144 0.011898548595065235 0 0.0015079315381765161 0.01229560568921342 0 0.0011849314060709453 0.01161240052960354 0 0.0011452217768749919 0.012147396183013824 0 0.00078083590708752143 0.01190750816220108 0 0.0011849314060709453 0.01161240052960354 0 0.0015637354371198851 0.012134042350963279 0 0.0011452217768749919 0.012147396183013824 0 0.0015637354371198851 0.012134042350963279 0 0.0011452217768749919 0.012147396183013824 0 0.0013081063622288858 0.0127497310471555 0 0.0011452217768749919 0.012147396183013824 0 0.0013081063622288858 0.0127497310471555 0 0.00089621040845332795 0.012411095007781753 0 0.0016512773954462387 0.012519101300179327 0 0.0015079315381765161 0.01229560568921342 0 0.00187865789432204 0.012820538411624931 0 0.0015637354371198851 0.012134042350963279 0 0.0013081063622288858 0.0127497310471555 0 0.00187865789432204 0.012820538411624931 0 0.0013081063622288858 0.0127497310471555 0 0.0017096258291519951 0.013054576171311455 0 0.0010761848069704919 0.013367198094800291 0 0.0013081063622288858 0.0127497310471555 0 0.0014639915498449766 0.013258925270890612 0 0.0013081063622288858 0.0127497310471555 0 0.0014639915498449766 0.013258925270890612 0 0.0017096258291519951 0.013054576171311455 0 0.0017098632743254415 0.013378015038820558 0 0.0014639915498449766 0.013258925270890612 0 0.0017096258291519951 0.013054576171311455 0 0.0004082132667760568 0.012643756714718827 0 0.00058661946971726533 0.012334725508571938 0 0.00017218419756986621 0.012356425991778856 0 0.0010761848069704919 0.013367198094800291 0 0.0013081063622288858 0.0127497310471555 0 0.00077074861347725882 0.012937884740981981 0 0.00059732468199794953 0.01284041453417685 0 0.00057524394593850528 0.012642729215501853 0 0.0004082132667760568 0.012643756714718827 0 0.00076121565564377699 0.012591078959757323 0 0.00058661946971726533 0.012334725508571938 0 0.00077074861347725882 0.012937884740981981 0 0.00048566209879335228 0.012431251979605748 0 0.00089621040845332795 0.012411095007781753 0 0.0013081063622288858 0.0127497310471555 0 0.00077074861347725882 0.012937884740981981 0 0.00089621040845332795 0.012411095007781753 0 0.00058661946971726533 0.012334725508571938 0 0.00040983617647854625 0.012078803821761549 0 0.00017218419756986621 0.012356425991778856 0 0.00057524394593850528 0.012642729215501853 0 0.00044466740589623713 0.012362761691192624 0 0.00048566209879335228 0.012431251979605748 0 0.00089621040845332795 0.012411095007781753 0 0.00078083590708752143 0.01190750816220108 0 0.0011452217768749919 0.012147396183013824 0 0.00089621040845332795 0.012411095007781753 0 0.00078083590708752143 0.01190750816220108 0 0.00048566209879335228 0.012431251979605748 0 0.00078083590708752143 0.01190750816220108 0 0.00026752969045865495 0.011879593212911366 0 0.00026752969045865495 0.011879593212911366 0 -0.00018796187036656202 0.011855696666760002 0 -3.4301228837739193e-05 0.011609748469084597 0 0.00026752969045865495 0.011879593212911366 0 0.00010360035961370252 0.012072758152602418 0 -0.00018796187036656202 0.011855696666760002 0 0.00040983617647854625 0.012078803821761549 0 0.00026752969045865495 0.011879593212911366 0 0.00010360035961370252 0.012072758152602418 0 0.00044466740589623713 0.012362761691192624 0 0.00036165179799918691 0.012207695090768102 0 0.00040983617647854625 0.012078803821761549 0 0.00010360035961370252 0.012072758152602418 0 0.00017218419756986621 0.012356425991778856 0 0.00010360035961370252 0.012072758152602418 0 0.00017218419756986621 0.012356425991778856 0 -0.00021292237185754141 0.012150953693339128 0 2.7869980389561638e-05 0.012721905875407785 0 0.00017218419756986621 0.012356425991778856 0 -0.00024536035004705809 0.012477642236030581 0 0.00017218419756986621 0.012356425991778856 0 -0.00024536035004705809 0.012477642236030581 0 -0.00021292237185754141 0.012150953693339128 0 -0.00062968851906957258 0.01253462393757303 0 -0.00062636236490036729 0.012352149609225453 0 -0.00039625683192528517 0.012387719287964427 0 -0.00062636236490036729 0.012352149609225453 0 -0.00039625683192528517 0.012387719287964427 0 -0.00057968306047176833 0.012174415739311091 0 -0.00016475383587595549 0.012245919318980825 0 -0.00030641357241932804 0.012182589975974333 0 -0.00024536035004705809 0.012477642236030581 0 -0.00021292237185754141 0.012150953693339128 0 -0.00057968306047176833 0.012174415739311091 0 -0.00021292237185754141 0.012150953693339128 0 -0.00057968306047176833 0.012174415739311091 0 -0.00063830920969351092 0.011946907393944569 0 -0.00018796187036656202 0.011855696666760002 0 -0.00045635654721410996 0.011620092706302007 0 -0.00057953295265541593 0.011880711412517479 0 -0.00043868882974469885 0.01187294479892979 0 -0.00063898509285281963 0.011923360316391409 0 -0.00021292237185754141 0.012150953693339128 0 -0.00018796187036656202 0.011855696666760002 0 -0.00063830920969351092 0.011946907393944569 0 0.00010360035961370252 0.012072758152602418 0 -0.00021292237185754141 0.012150953693339128 0 -0.00018796187036656202 0.011855696666760002 0 -0.00018796187036656202 0.011855696666760002 0 -0.00045635654721410996 0.011620092706302007 0 -3.4301228837739193e-05 0.011609748469084597 0 -0.00045635654721410996 0.011620092706302007 0 -0.00035369764875923442 0.011213036671323146 0 -0.00081569894402501171 0.011434403138672534 0 -0.00045635654721410996 0.011620092706302007 0 -0.00035369764875923442 0.011213036671323146 0 -3.4301228837739193e-05 0.011609748469084597 0 -0.00035369764875923442 0.011213036671323146 0 0.00025068764222034541 0.01136261215322641 0 5.0933598249740621e-05 0.010739918690983842 0 -0.00035369764875923442 0.011213036671323146 0 -3.4301228837739193e-05 0.011609748469084597 0 0.00025068764222034541 0.01136261215322641 0 0.00026752969045865495 0.011879593212911366 0 -3.4301228837739193e-05 0.011609748469084597 0 0.00025068764222034541 0.01136261215322641 0 0.00066218733862958104 0.011504740256439942 0 0.00026752969045865495 0.011879593212911366 0 0.00025068764222034541 0.01136261215322641 0 0.00010496692428015057 0.011103541749062602 0 -2.042609817371105e-05 0.010886864235954878 0 0.00050726737611522647 0.011202133762754134 0 0.00025068764222034541 0.01136261215322641 0 5.6930510552837006e-05 0.011059597302011339 0 0.00050726737611522647 0.011202133762754134 0 5.6930510552837006e-05 0.011059597302011339 0 0.00035702041255532177 0.010919332014786804 0 0.00060922011605614587 0.010841248427165127 0 0.00035702041255532177 0.010919332014786804 0 0.00041517053479960274 0.010688261507241961 0 5.6930510552837006e-05 0.011059597302011339 0 0.00035702041255532177 0.010919332014786804 0 0.00018860367081464211 0.010735641093285156 0 5.6930510552837006e-05 0.011059597302011339 0 1.6372243660899158e-05 0.01072508220966115 0 0.00018860367081464211 0.010735641093285156 0 5.6930510552837006e-05 0.011059597302011339 0 -0.00017348416787359061 0.010661387505676495 0 1.6372243660899158e-05 0.01072508220966115 0 -2.042609817371105e-05 0.010886864235954878 0 -0.00022909261481436209 0.010604674421928507 0 -0.00040161933583595814 0.010434867879349328 0 -0.0002696960131071525 0.010722511494989208 0 -0.00018758829426322702 0.010188350703316444 0 5.0933598249740621e-05 0.010739918690983842 0 -0.0002696960131071525 0.010722511494989208 0 -0.00018758829426322702 0.010188350703316444 0 -0.00040161933583595814 0.010434867879349328 0 -0.00058245846090015062 0.010790510625532525 0 -0.0002696960131071525 0.010722511494989208 0 -0.00040161933583595814 0.010434867879349328 0 -0.00058245846090015062 0.010790510625532525 0 -0.00069555787112038901 0.010310048401460244 0 -0.00035369764875923442 0.011213036671323146 0 -0.00058245846090015062 0.010790510625532525 0 -0.0002696960131071525 0.010722511494989208 0 -0.00035369764875923442 0.011213036671323146 0 5.0933598249740621e-05 0.010739918690983842 0 -0.0002696960131071525 0.010722511494989208 0 -0.00085350541337437245 0.0091683004686857836 0 -0.00087676524408031959 0.0091451547681943735 0 -0.00085651443463769937 0.0090647614884550014 0 -0.00089628007034035936 0.0091131385321588116 0 -0.00088297393442619441 0.0091787837537575332 0 -0.0009692763493692727 0.0090647034872284506 0 -0.00089240847957459393 0.009216665096349809 0 -0.00088297393442619441 0.0091787837537575332 0 -0.0009692763493692727 0.0090647034872284506 0 -0.00089628007034035936 0.0091131385321588116 0 -0.00085651443463769937 0.0090647614884550014 0 -0.0009692763493692727 0.0090647034872284506 0 -0.00087676524408031959 0.0091451547681943735 0 -0.00089628007034035936 0.0091131385321588116 0 -0.00088297393442619441 0.0091787837537575332 0 -0.00014519167408690468 0.011009124360582719 0 -0.00015687671792054871 0.010992668260186966 0 -0.00085350541337437245 0.0091683004686857836 0 -0.00087676524408031959 0.0091451547681943735 0 -0.00088297393442619441 0.0091787837537575332 0 -0.00087676524408031959 0.0091451547681943735 0 -0.00089628007034035936 0.0091131385321588116 0 -0.00085651443463769937 0.0090647614884550014 0 -0.00022909261481436209 0.010604674421928507 0 -0.00069169081488335362 0.0095472548867192655 0 -0.00056017552693790845 0.0099714236224871522 0 -0.00011359023995661261 0.010092152209423918 0 -0.00043242748201875172 0.0095480317514010024 0 -0.00056017552693790845 0.0099714236224871522 0 -0.00045008733138508507 0.010205047037126762 0 -0.00011359023995661261 0.010092152209423918 0 -0.00040161933583595814 0.010434867879349328 0 -0.00045008733138508507 0.010205047037126762 0 -0.00069555787112038901 0.010310048401460244 0 -0.00056017552693790845 0.0099714236224871522 0 -0.00045008733138508507 0.010205047037126762 0 -0.00069555787112038901 0.010310048401460244 0 -0.00040161933583595814 0.010434867879349328 0 -0.00045008733138508507 0.010205047037126762 0 -0.00011359023995661261 0.010092152209423918 0 -0.00021558944941365356 0.010547512733288833 0 -0.00022909261481436209 0.010604674421928507 0 -7.7198240949813678e-05 0.010548518027344553 0 -0.00017348416787359061 0.010661387505676495 0 1.6372243660899158e-05 0.01072508220966115 0 -0.00085110423460906632 0.0091704579884907527 0 -0.00089240847957459393 0.009216665096349809 0 -0.00088297393442619441 0.0091787837537575332 0 -0.00014519167408690468 0.011009124360582719 0 -0.00022909261481436209 0.010604674421928507 0 -7.7198240949813678e-05 0.010548518027344553 0 0.00018860367081464211 0.010735641093285156 0 0.00032760811277544074 0.010410642444488818 0 -7.7198240949813678e-05 0.010548518027344553 0 1.6372243660899158e-05 0.01072508220966115 0 0.00018860367081464211 0.010735641093285156 0 0.00018860367081464211 0.010735641093285156 0 0.00041517053479960274 0.010688261507241961 0 0.00032760811277544074 0.010410642444488818 0 0.00035702041255532177 0.010919332014786804 0 0.00018860367081464211 0.010735641093285156 0 0.00041517053479960274 0.010688261507241961 0 0.00041517053479960274 0.010688261507241961 0 0.00032760811277544074 0.010410642444488818 0 0.00060590469299922288 0.010530179121256276 0 -0.00085350541337437245 0.0091683004686857836 0 -0.00075603627024607711 0.0090421050513498288 0 -0.00085651443463769937 0.0090647614884550014 0 0.00043411071846426207 0.013083477346792126 0 -3.6433254510238536e-05 0.013238141280424448 0 0.00012592687455368967 0.013449183027186108 0 -0.00014519167408690468 0.011009124360582719 0 7.2512824076701097e-05 0.011565179652615337 0 -0.00014519167408690468 0.011009124360582719 0 -0.00024889206311018322 0.01137372750530235 0 -0.00075603627024607711 0.0090421050513498288 0 -0.00081326818593344444 0.0089869417476305218 0 -0.00085651443463769937 0.0090647614884550014 0 -0.00075603627024607711 0.0090421050513498288 0 -0.00073402970081770885 0.0089490944135732602 0 -0.000764612370873321 0.0089784021079967365 0 -0.00075603627024607711 0.0090421050513498288 0 -0.00081326818593344444 0.0089869417476305218 0 -0.000764612370873321 0.0089784021079967365 0 0.00012592687455368967 0.013449183027186108 0 -0.00018043831150973741 0.013467035675303203 0 -0.00014244908034100778 0.013573835142440201 0 -0.00024889206311018322 0.01137372750530235 0 -0.00041283557697236833 0.01193507800119605 0 -3.6433254510238536e-05 0.013238141280424448 0 0.00012592687455368967 0.013449183027186108 0 -0.00018043831150973741 0.013467035675303203 0 0.00012592687455368967 0.013449183027186108 0 -0.00014244908034100778 0.013573835142440201 0 -0.00017831738142516499 0.013766470212594181 0 0.00012592687455368967 0.013449183027186108 0 -0.00017680542796719845 0.013792615031781193 0 -0.00017831738142516499 0.013766470212594181 0 -0.00075603627024607711 0.0090421050513498288 0 -0.00073402970081770885 0.0089490944135732602 0 -0.00066401602454962613 0.0089269958035647183 0 -0.00073402970081770885 0.0089490944135732602 0 -0.00074568260581729271 0.0089004307052397338 0 -0.00071073381931474687 0.0089006249325679371 0 -0.00073402970081770885 0.0089490944135732602 0 -0.00071073381931474687 0.0089006249325679371 0 -0.00066401602454962613 0.0089269958035647183 0 -0.00041283557697236833 0.01193507800119605 0 -0.00041227751147055743 0.011941996749215459 0 -0.00081326818593344444 0.0089869417476305218 0 -0.00077409850234084587 0.00893597872558324 0 -0.00083818418673229679 0.0089149569543211463 0 -0.00081326818593344444 0.0089869417476305218 0 -0.000764612370873321 0.0089784021079967365 0 -0.00077409850234084587 0.00893597872558324 0 -0.00073402970081770885 0.0089490944135732602 0 -0.000764612370873321 0.0089784021079967365 0 -0.00077409850234084587 0.00893597872558324 0 -0.00074568260581729271 0.0089004307052397338 0 -0.00077409850234084587 0.00893597872558324 0 -0.00078506604268543717 0.0088732414578753267 0 -0.00073402970081770885 0.0089490944135732602 0 -0.00074568260581729271 0.0089004307052397338 0 -0.00077409850234084587 0.00893597872558324 0 -0.00077409850234084587 0.00893597872558324 0 -0.00083818418673229679 0.0089149569543211463 0 -0.00078506604268543717 0.0088732414578753267 0 -0.00081326818593344444 0.0089869417476305218 0 -0.00090492108297885409 0.00896961548756634 0 -0.00083818418673229679 0.0089149569543211463 0 -0.00090492108297885409 0.00896961548756634 0 -0.00083818418673229679 0.0089149569543211463 0 -0.00091872237528342041 0.0088671746685154186 0 -0.00081326818593344444 0.0089869417476305218 0 -0.00090492108297885409 0.00896961548756634 0 -0.00085651443463769937 0.0090647614884550014 0 -0.00090492108297885409 0.00896961548756634 0 -0.00085651443463769937 0.0090647614884550014 0 -0.0009692763493692727 0.0090647034872284506 0 -0.00069169081488335362 0.0095472548867192655 0 -0.00088313395632837568 0.0091274054454694217 0 -0.00090492108297885409 0.00896961548756634 0 -0.0009692763493692727 0.0090647034872284506 0 -0.0010370004249378386 0.0089128125119577531 0 -0.00090492108297885409 0.00896961548756634 0 -0.00091872237528342041 0.0088671746685154186 0 -0.0010370004249378386 0.0089128125119577531 0 -0.00098956426378979585 0.0087887813866527262 0 -0.00091872237528342041 0.0088671746685154186 0 -0.0010370004249378386 0.0089128125119577531 0 -0.00098956426378979585 0.0087887813866527262 0 -0.00091872237528342041 0.0088671746685154186 0 -0.00089368989267139321 0.0087638482763811032 0 -0.00084691704398380258 0.0088442366728577436 0 -0.00091872237528342041 0.0088671746685154186 0 -0.00089368989267139321 0.0087638482763811032 0 -0.00084691704398380258 0.0088442366728577436 0 -0.00089368989267139321 0.0087638482763811032 0 -0.00078999847554375149 0.0087859796042054038 0 -0.00083818418673229679 0.0089149569543211463 0 -0.00084691704398380258 0.0088442366728577436 0 -0.00091872237528342041 0.0088671746685154186 0 -0.00089368989267139321 0.0087638482763811032 0 -0.00097350047789076665 0.0086812500731414631 0 -0.00089616803676165094 0.0086763308806586201 0 -0.00089368989267139321 0.0087638482763811032 0 -0.00089616803676165094 0.0086763308806586201 0 -0.00083489722981212649 0.0087106139511521109 0 -0.00098956426378979585 0.0087887813866527262 0 -0.00089368989267139321 0.0087638482763811032 0 -0.00097350047789076665 0.0086812500731414631 0 -0.00098956426378979585 0.0087887813866527262 0 -0.00097350047789076665 0.0086812500731414631 0 -0.0010587084976666711 0.0086943612605964431 0 -0.00097350047789076665 0.0086812500731414631 0 -0.00093679776295795708 0.0085842953173741431 0 -0.0011093956030223549 0.0086095147058638122 0 -0.0011966976883271844 0.0108912107254369 0 -0.0011052659068680757 0.010506979772040796 0 -0.00097350047789076665 0.0086812500731414631 0 -0.00089616803676165094 0.0086763308806586201 0 -0.00094319455925809628 0.0086212025612539996 0 -0.0010381475602625999 0.010355154089960919 0 -0.0011966976883271844 0.0108912107254369 0 -0.00089616803676165094 0.0086763308806586201 0 -0.00081991046583705738 0.0086134259125846355 0 -0.00083489722981212649 0.0087106139511521109 0 -0.00089616803676165094 0.0086763308806586201 0 -0.00094319455925809628 0.0086212025612539996 0 -0.00081991046583705738 0.0086134259125846355 0 -0.003249988199978601 0.014545463101926798 0 -0.0034520809877631891 0.014742630078928872 0 -0.003119562558330324 0.01471245190727438 0 -0.0011966976883271844 0.0108912107254369 0 -0.0017174765502437881 0.011903698704125332 0 -0.0016777579939330847 0.0092142514455925313 0 -0.0017132690560650479 0.0086019685131962821 0 -0.0022357841644490327 0.0097821719534927562 0 -0.003249988199978601 0.014545463101926798 0 -0.0034520809877631891 0.014742630078928872 0 -0.003335574388447479 0.014367326070190129 0 -0.0011966976883271844 0.0108912107254369 0 -0.0022288644654422417 0.012036550669681907 0 -0.0013516003097153487 0.0088498367268617737 0 -0.0017132690560650479 0.0086019685131962821 0 -0.0011093956030223549 0.0086095147058638122 0 -0.0016777579939330847 0.0092142514455925313 0 -0.0013516003097153487 0.0088498367268617737 0 -0.0014843597902091232 0.0093366116360647858 0 -0.0016777579939330847 0.0092142514455925313 0 -0.0013516003097153487 0.0088498367268617737 0 -0.0017132690560650479 0.0086019685131962821 0 -0.0027510835020499967 0.014668409145612064 0 -0.003119562558330324 0.01471245190727438 0 -0.002934688313546545 0.014459314380412524 0 -0.0017412520366221107 0.012971986640098954 0 -0.0017174765502437881 0.011903698704125332 0 -0.003119562558330324 0.01471245190727438 0 -0.0031130064545001552 0.014485405296591277 0 -0.002934688313546545 0.014459314380412524 0 -0.003249988199978601 0.014545463101926798 0 -0.003119562558330324 0.01471245190727438 0 -0.0031130064545001552 0.014485405296591277 0 -0.00069926169537488589 0.0086065923201080578 0 -0.00081991046583705738 0.0086134259125846355 0 -0.00076506435549913662 0.0086947815916360843 0 -0.00081991046583705738 0.0086134259125846355 0 -0.00083489722981212649 0.0087106139511521109 0 -0.00076506435549913662 0.0086947815916360843 0 -0.00069926169537488589 0.0086065923201080578 0 -0.00076506435549913662 0.0086947815916360843 0 -0.00068242451381518229 0.0087608914077486246 0 -0.0017412520366221107 0.012971986640098954 0 -0.00095605805255046688 0.011782620207179106 0 -0.00076506435549913662 0.0086947815916360843 0 -0.00068242451381518229 0.0087608914077486246 0 -0.00078999847554375149 0.0087859796042054038 0 -0.00068242451381518229 0.0087608914077486246 0 -0.00078999847554375149 0.0087859796042054038 0 -0.00072491869702651199 0.008844623336830771 0 -0.00083489722981212649 0.0087106139511521109 0 -0.00076506435549913662 0.0086947815916360843 0 -0.00078999847554375149 0.0087859796042054038 0 -0.00089368989267139321 0.0087638482763811032 0 -0.00083489722981212649 0.0087106139511521109 0 -0.00078999847554375149 0.0087859796042054038 0 -0.00084691704398380258 0.0088442366728577436 0 -0.00078999847554375149 0.0087859796042054038 0 -0.00078506604268543717 0.0088732414578753267 0 -0.00078999847554375149 0.0087859796042054038 0 -0.00078506604268543717 0.0088732414578753267 0 -0.00072491869702651199 0.008844623336830771 0 -0.00074568260581729271 0.0089004307052397338 0 -0.00078506604268543717 0.0088732414578753267 0 -0.00072491869702651199 0.008844623336830771 0 -0.00083818418673229679 0.0089149569543211463 0 -0.00084691704398380258 0.0088442366728577436 0 -0.00078506604268543717 0.0088732414578753267 0 -0.00041283557697236833 0.01193507800119605 0 -0.00095605805255046688 0.011782620207179106 0 -0.00066401602454962613 0.0089269958035647183 0 -0.00068242451381518229 0.0087608914077486246 0 -0.00072491869702651199 0.008844623336830771 0 -0.00074568260581729271 0.0089004307052397338 0 -0.00071073381931474687 0.0089006249325679371 0 -0.00072491869702651199 0.008844623336830771 0 -0.00071073381931474687 0.0089006249325679371 0 -0.00066401602454962613 0.0089269958035647183 0 -0.00072491869702651199 0.008844623336830771 0 -0.00044540557979152367 0.014009384562282224 0 -0.00043601119393386423 0.014245820206445202 0 -0.00054563787673220893 0.014129588380023018 0 -0.00041283557697236833 0.01193507800119605 0 -0.00081423043688200007 0.013033378791739247 0 -0.00061451958535082012 0.013944804951891786 0 -0.00073172106567486557 0.013930007142275271 0 -0.0007108048730202429 0.01379727237717439 0 -0.00039018275200520939 0.014028109923167128 0 -0.00061451958535082012 0.013944804951891786 0 -0.00041663434599024414 0.01379462874127735 0 -0.00039018275200520939 0.014028109923167128 0 -0.00061451958535082012 0.013944804951891786 0 -0.00064178386302199365 0.014096041795387319 0 -0.00039018275200520939 0.014028109923167128 0 -0.00064178386302199365 0.014096041795387319 0 -0.00062359112116652793 0.014246173963746016 0 -0.00061451958535082012 0.013944804951891786 0 -0.00064178386302199365 0.014096041795387319 0 -0.00074751827050720677 0.014045935444452129 0 -0.00064178386302199365 0.014096041795387319 0 -0.00062359112116652793 0.014246173963746016 0 -0.00076597403345706524 0.014163231269710192 0 -0.00054563787673220893 0.014129588380023018 0 -0.00062359112116652793 0.014246173963746016 0 -0.00054351052496927354 0.014244142204282072 0 -0.00081423043688200007 0.013033378791739247 0 -0.00091181295970416251 0.01333729713516147 0 -0.00062359112116652793 0.014246173963746016 0 -0.00054351052496927354 0.014244142204282072 0 -0.00065088976091477334 0.014372954876734191 0 -0.00062359112116652793 0.014246173963746016 0 -0.00065088976091477334 0.014372954876734191 0 -0.00072237796867375022 0.014289413003003184 0 -0.00043601119393386423 0.014245820206445202 0 -0.00054563787673220893 0.014129588380023018 0 -0.00054351052496927354 0.014244142204282072 0 -0.00043601119393386423 0.014245820206445202 0 -0.00054351052496927354 0.014244142204282072 0 -0.00054677943879315009 0.014368228974117239 0 -0.00042921044049890441 0.014488910980697973 0 -0.00043601119393386423 0.014245820206445202 0 -0.00054677943879315009 0.014368228974117239 0 -0.00054677943879315009 0.014368228974117239 0 -0.00065088976091477334 0.014372954876734191 0 -0.00068184388047642301 0.014508025962239381 0 -0.00054351052496927354 0.014244142204282072 0 -0.00054677943879315009 0.014368228974117239 0 -0.00065088976091477334 0.014372954876734191 0 -0.00068184388047642301 0.014508025962239381 0 -0.00069032713470895473 0.014501006236793042 0 -0.00069279762179291153 0.014469513655781027 0 -0.00065088976091477334 0.014372954876734191 0 -0.00068184388047642301 0.014508025962239381 0 -0.00069032713470895473 0.014501006236793042 0 -0.00086543651691380627 0.014532296361642414 0 -0.00068184388047642301 0.014508025962239381 0 -0.00078145604138939238 0.014433935830616626 0 -0.0017412520366221107 0.012971986640098954 0 -0.0011187418845329587 0.013305927593440814 0 -0.00042921044049890441 0.014488910980697973 0 -0.00054677943879315009 0.014368228974117239 0 -0.00068184388047642301 0.014508025962239381 0 -0.00053362976069219964 0.014620847186926458 0 -0.00045073162125682041 0.014650398640950949 0 -0.00053737798578755045 0.014546471139582679 0 -0.00053362976069219964 0.014620847186926458 0 -0.00061457810551670319 0.014740957075368905 0 -0.00045073162125682041 0.014650398640950949 0 -0.0003728647274691112 0.014672121122085173 0 -0.0004131256427471498 0.014635865771659776 0 -0.00069032713470895473 0.014501006236793042 0 -0.00076415000603281065 0.014433506272350143 0 -0.0006303248339302516 0.014536523244474216 0 -0.00061937144538583495 0.014481180804037028 0 -0.00062533111458362245 0.014498172420128918 0 -0.00053362976069219964 0.014620847186926458 0 -0.00061457810551670319 0.014740957075368905 0 -0.0006303248339302516 0.014536523244474216 0 -0.00065088976091477334 0.014372954876734191 0 -0.00076415000603281065 0.014433506272350143 0 -0.00072237796867375022 0.014289413003003184 0 -0.00065088976091477334 0.014372954876734191 0 -0.00069032713470895473 0.014501006236793042 0 -0.00076415000603281065 0.014433506272350143 0 -0.00061457810551670319 0.014740957075368905 0 -0.00048280567658836714 0.014847270493058321 0 -0.00045073162125682041 0.014650398640950949 0 -0.00061457810551670319 0.014740957075368905 0 -0.00048280567658836714 0.014847270493058321 0 -0.00061800981424207837 0.014912580365445356 0 -0.00084848903776989552 0.013765465911441552 0 -0.00086274081495496264 0.013801257573142186 0 -0.00082055062461506342 0.013820559243040939 0 -0.00054012158240740482 0.014444524080466498 0 -0.00057945155241274655 0.014302472788102335 0 -0.00084848903776989552 0.013765465911441552 0 -0.00089101195674695091 0.013800729317326302 0 -0.00086274081495496264 0.013801257573142186 0 -0.00061937144538583495 0.014481180804037028 0 -0.00057945155241274655 0.014302472788102335 0 -0.00076415000603281065 0.014433506272350143 0 -0.00072237796867375022 0.014289413003003184 0 -0.00081565059267341047 0.014201454323569212 0 -0.00057945155241274655 0.014302472788102335 0 -0.00058690657357079979 0.014302765699526996 0 -0.00062359112116652793 0.014246173963746016 0 -0.00072237796867375022 0.014289413003003184 0 -0.00076597403345706524 0.014163231269710192 0 -0.00072237796867375022 0.014289413003003184 0 -0.00081565059267341047 0.014201454323569212 0 -0.00076597403345706524 0.014163231269710192 0 -0.00085540480264127531 0.01420616251154329 0 -0.00074751827050720677 0.014045935444452129 0 -0.00085756736498949744 0.013931437102261877 0 -0.00089101195674695091 0.013800729317326302 0 -0.00086228755713001345 0.013815220921340353 0 -0.00088063561043412626 0.013813189830491086 0 -0.00057945155241274655 0.014302472788102335 0 -0.00064497585679637376 0.014022100964162161 0 -0.00085540480264127531 0.01420616251154329 0 -0.00076597403345706524 0.014163231269710192 0 -0.00074751827050720677 0.014045935444452129 0 -0.00064178386302199365 0.014096041795387319 0 -0.00076597403345706524 0.014163231269710192 0 -0.00074751827050720677 0.014045935444452129 0 -0.00086228755713001345 0.013815220921340353 0 -0.00088063561043412626 0.013813189830491086 0 -0.00088970173487558303 0.013820541770882957 0 -0.00061451958535082012 0.013944804951891786 0 -0.00074751827050720677 0.014045935444452129 0 -0.00073172106567486557 0.013930007142275271 0 -0.00074751827050720677 0.014045935444452129 0 -0.00085756736498949744 0.013931437102261877 0 -0.00073172106567486557 0.013930007142275271 0 -0.00086274081495496264 0.013801257573142186 0 -0.00087151108725472574 0.013815824259800262 0 -0.00085276118279266626 0.013827299236474079 0 -0.00086274081495496264 0.013801257573142186 0 -0.00085276118279266626 0.013827299236474079 0 -0.00082055062461506342 0.013820559243040939 0 -0.00089101195674695091 0.013800729317326302 0 -0.00086274081495496264 0.013801257573142186 0 -0.00088063561043412626 0.013813189830491086 0 -0.00086274081495496264 0.013801257573142186 0 -0.00088063561043412626 0.013813189830491086 0 -0.00087151108725472574 0.013815824259800262 0 -0.00087151108725472574 0.013815824259800262 0 -0.00088970173487558303 0.013820541770882957 0 -0.00085276118279266626 0.013827299236474079 0 -0.00088063561043412626 0.013813189830491086 0 -0.00087151108725472574 0.013815824259800262 0 -0.00088970173487558303 0.013820541770882957 0 -0.00088970173487558303 0.013820541770882957 0 -0.00085276118279266626 0.013827299236474079 0 -0.00081575503228617226 0.013889631987210493 0 -0.00088970173487558303 0.013820541770882957 0 -0.00091451266878493089 0.013708522711447171 0 -0.0011249869564750668 0.013660798656576238 0 -0.00091451266878493089 0.013708522711447171 0 -0.00087415179316667404 0.013562171773593893 0 -0.0011249869564750668 0.013660798656576238 0 -0.00046451791628973052 0.013479881601421606 0 -2.4236697521885313e-05 0.013561324846932078 0 0.0012814650258122051 0.01005503277176658 0 0.0016990125990466929 0.010153783538193873 0 0.0018144133517470718 0.0098947467579836683 0 0.00028771176003803247 0.012466368124248169 0 -2.4236697521885313e-05 0.013561324846932078 0 0.001451983258664268 0.010233503528456249 0 0.0012814650258122051 0.01005503277176658 0 0.0016990125990466929 0.010153783538193873 0 -0.00087415179316667404 0.013562171773593893 0 -0.00083763925258089733 0.013656286290829099 0 -0.00062888589832819886 0.013592944377436786 0 0.0012814650258122051 0.01005503277176658 0 0.00077218250309603169 0.010237732752512911 0 0.0011661617456896788 0.010271109843822877 0 0.001451983258664268 0.010233503528456249 0 0.0012814650258122051 0.01005503277176658 0 0.0011661617456896788 0.010271109843822877 0 -0.00086228755713001345 0.013815220921340353 0 -0.00091451266878493089 0.013708522711447171 0 -0.00083763925258089733 0.013656286290829099 0 -0.00083763925258089733 0.013656286290829099 0 -0.0007108048730202429 0.01379727237717439 0 -0.00062888589832819886 0.013592944377436786 0 -0.00085756736498949744 0.013931437102261877 0 -0.00083763925258089733 0.013656286290829099 0 -0.0007108048730202429 0.01379727237717439 0 -0.00064497585679637376 0.014022100964162161 0 -0.00066409928595809024 0.013920324801972399 0 -0.00091451266878493089 0.013708522711447171 0 -0.00087415179316667404 0.013562171773593893 0 -0.00083763925258089733 0.013656286290829099 0 -0.00086228755713001345 0.013815220921340353 0 -0.00088970173487558303 0.013820541770882957 0 -0.00091451266878493089 0.013708522711447171 0 -0.00085756736498949744 0.013931437102261877 0 -0.00073172106567486557 0.013930007142275271 0 -0.0007108048730202429 0.01379727237717439 0 -0.00041663434599024414 0.01379462874127735 0 -0.00033315008896592663 0.01361268060890296 0 -0.00062888589832819886 0.013592944377436786 0 -0.0007108048730202429 0.01379727237717439 0 -0.00041663434599024414 0.01379462874127735 0 -0.00062888589832819886 0.013592944377436786 0 -0.00061451958535082012 0.013944804951891786 0 -0.0007108048730202429 0.01379727237717439 0 -0.00041663434599024414 0.01379462874127735 0 -0.00017704730700545315 0.013791381779185997 0 -0.00017831738142516499 0.013766470212594181 0 -0.00041663434599024414 0.01379462874127735 0 -0.00017704730700545315 0.013791381779185997 0 -0.00039018275200520939 0.014028109923167128 0 -0.00041663434599024414 0.01379462874127735 0 -0.00014244908034100778 0.013573835142440201 0 -0.00017831738142516499 0.013766470212594181 0 -0.00033315008896592663 0.01361268060890296 0 -0.00017831738142516499 0.013766470212594181 0 -0.00041663434599024414 0.01379462874127735 0 -0.00033315008896592663 0.01361268060890296 0 -0.00018043831150973741 0.013467035675303203 0 -0.00033315008896592663 0.01361268060890296 0 -0.00048309730655216759 0.013399219012895789 0 -3.6433254510238536e-05 0.013238141280424448 0 -0.00018043831150973741 0.013467035675303203 0 -0.00048309730655216759 0.013399219012895789 0 -0.00018043831150973741 0.013467035675303203 0 -0.00014244908034100778 0.013573835142440201 0 -0.00033315008896592663 0.01361268060890296 0 0.00028771176003803247 0.012466368124248169 0 0.00019639131595840638 0.011958583881099837 0 -0.00033315008896592663 0.01361268060890296 0 -0.00048309730655216759 0.013399219012895789 0 -0.00062888589832819886 0.013592944377436786 0 -0.00087415179316667404 0.013562171773593893 0 -0.00048309730655216759 0.013399219012895789 0 -0.00062888589832819886 0.013592944377436786 0 0.00077218250309603169 0.010237732752512911 0 0.00098255482524459929 0.010458562868474245 0 0.0011661617456896788 0.010271109843822877 0 0.00077218250309603169 0.010237732752512911 0 0.00098255482524459929 0.010458562868474245 0 0.00060590469299922288 0.010530179121256276 0 7.2512824076701097e-05 0.011565179652615337 0 0.00019639131595840638 0.011958583881099837 0 0.00032760811277544074 0.010410642444488818 0 0.00077218250309603169 0.010237732752512911 0 0.00060590469299922288 0.010530179121256276 0 0.00060922011605614587 0.010841248427165127 0 0.00041517053479960274 0.010688261507241961 0 0.00060590469299922288 0.010530179121256276 0 0.00060922011605614587 0.010841248427165127 0 0.00060590469299922288 0.010530179121256276 0 0.00085320238650371473 0.01069475550036204 0 0.00091604530934975804 0.010988446127336259 0 0.00085320238650371473 0.01069475550036204 0 0.0011591380628292564 0.010691905464334196 0 0.00098255482524459929 0.010458562868474245 0 0.00060590469299922288 0.010530179121256276 0 0.00085320238650371473 0.01069475550036204 0 0.00098255482524459929 0.010458562868474245 0 0.00085320238650371473 0.01069475550036204 0 0.0011591380628292564 0.010691905464334196 0 0.0011591380628292564 0.010691905464334196 0 0.0015641832737243401 0.010745399986944688 0 0.0013403632722384943 0.010419367676859019 0 0.0013027844267464652 0.011078887392548377 0 0.0011591380628292564 0.010691905464334196 0 0.0015641832737243401 0.010745399986944688 0 0.0015641832737243401 0.010745399986944688 0 0.0013403632722384943 0.010419367676859019 0 0.0016454883775301708 0.010362606538751311 0 0.001451983258664268 0.010233503528456249 0 0.0016454883775301708 0.010362606538751311 0 0.0016990125990466929 0.010153783538193873 0 0.001451983258664268 0.010233503528456249 0 0.0013403632722384943 0.010419367676859019 0 0.0016454883775301708 0.010362606538751311 0 0.00098255482524459929 0.010458562868474245 0 0.0013403632722384943 0.010419367676859019 0 0.0011661617456896788 0.010271109843822877 0 0.001451983258664268 0.010233503528456249 0 0.0013403632722384943 0.010419367676859019 0 0.0011661617456896788 0.010271109843822877 0 0.00098255482524459929 0.010458562868474245 0 0.0011591380628292564 0.010691905464334196 0 0.0013403632722384943 0.010419367676859019 0 0.0021055670750058176 0.010384614068827893 0 0.0019188260670765424 0.010621212953928632 0 0.0022272049189354013 0.010603850666304884 0 0.0021055670750058176 0.010384614068827893 0 0.0018987436176420094 0.010268465780351562 0 0.0019188260670765424 0.010621212953928632 0 0.0021055670750058176 0.010384614068827893 0 0.0022272049189354013 0.010603850666304884 0 0.0023675388262696007 0.010324308704717972 0 0.0021055670750058176 0.010384614068827893 0 0.0023675388262696007 0.010324308704717972 0 0.0020967750183907034 0.010110740615393687 0 0.0021055670750058176 0.010384614068827893 0 0.0018987436176420094 0.010268465780351562 0 0.0020967750183907034 0.010110740615393687 0 0.0016454883775301708 0.010362606538751311 0 0.0018987436176420094 0.010268465780351562 0 0.0019188260670765424 0.010621212953928632 0 0.0016454883775301708 0.010362606538751311 0 0.0018987436176420094 0.010268465780351562 0 0.0016990125990466929 0.010153783538193873 0 0.0015641832737243401 0.010745399986944688 0 0.0016454883775301708 0.010362606538751311 0 0.0019188260670765424 0.010621212953928632 0 0.0019125387920108257 0.010931947644412949 0 0.0015641832737243401 0.010745399986944688 0 0.0019188260670765424 0.010621212953928632 0 0.0022429234548044714 0.01089457964275661 0 0.0019125387920108257 0.010931947644412949 0 0.0019188260670765424 0.010621212953928632 0 0.0015178028033722411 0.012611695633726085 0 0.0015600675885629762 0.011991164858601237 0 0.0025680223382741618 0.010918483436609549 0 0.0022429234548044714 0.01089457964275661 0 0.0019188260670765424 0.010621212953928632 0 0.0024158004478342333 0.010891433388780666 0 0.0019188260670765424 0.010621212953928632 0 0.0022272049189354013 0.010603850666304884 0 0.0024158004478342333 0.010891433388780666 0 0.0022272049189354013 0.010603850666304884 0 0.0023675388262696007 0.010324308704717972 0 -3.6439401863773899e-06 0.014984023655275961 0 1.6049251935237347e-07 0.014982359153121691 0 -6.3582656014884812e-06 0.014970880875082943 0 0.0015178028033722411 0.012611695633726085 0 0.00043755925647231915 0.013571659234676937 0 -3.6439401863773899e-06 0.014984023655275961 0 1.6049251935237347e-07 0.014982359153121691 0 2.2999001915304461e-06 0.014987358915978279 0 1.6049251935237347e-07 0.014982359153121691 0 -2.6921996815018334e-06 0.014979087562175026 0 -2.2597400060476388e-07 0.014981594761666007 0 1.6049251935237347e-07 0.014982359153121691 0 -2.2597400060476388e-07 0.014981594761666007 0 1.0318120432906174e-06 0.0149839227380975 0 0.0004983845896484409 0.01397627075198672 0 0.00043755925647231915 0.013571659234676937 0 1.6049251935237347e-07 0.014982359153121691 0 -2.6921996815018334e-06 0.014979087562175026 0 -5.1734513205042287e-06 0.014977938999841449 0 -2.6921996815018334e-06 0.014979087562175026 0 -5.1734513205042287e-06 0.014977938999841449 0 -5.3896684133913113e-06 0.014975880459087985 0 0.00043755925647231915 0.013571659234676937 0 0.00043569624630691932 0.013679476649820253 0 -2.6921996815018334e-06 0.014979087562175026 0 -5.3896684133913113e-06 0.014975880459087985 0 -2.8659586086941604e-06 0.014976409155416094 0 -5.3896684133913113e-06 0.014975880459087985 0 -5.3263715490215142e-06 0.014976929213648777 0 -2.8659586086941604e-06 0.014976409155416094 0 -4.3205061598878485e-06 0.014985941662481043 0 -4.1379672844945744e-06 0.014985007069742954 0 -5.3263715490215142e-06 0.014976929213648777 0 -2.8659586086941604e-06 0.014976409155416094 0 -6.2307845305827063e-06 0.014979174278265228 0 -5.1001149204775009e-06 0.014973391754950216 0 -5.3896684133913113e-06 0.014975880459087985 0 -3.8864461421632881e-06 0.014974932664547047 0 -2.6921996815018334e-06 0.014979087562175026 0 -2.2597400060476388e-07 0.014981594761666007 0 -2.8659586086941604e-06 0.014976409155416094 0 -1.2256094809268854e-05 0.014990189192483419 0 -9.2742386221097337e-06 0.014990695963724656 0 -1.1473721471756e-05 0.014988748591187 0 -1.2256094809268854e-05 0.014990189192483419 0 -9.2742386221097337e-06 0.014990695963724656 0 -7.4837771661623133e-06 0.014993085000779928 0 -9.2742386221097337e-06 0.014990695963724656 0 -1.1473721471756e-05 0.014988748591187 0 -1.0321265036549226e-05 0.01498960054172486 0 -1.2256094809268854e-05 0.014990189192483419 0 -1.1473721471756e-05 0.014988748591187 0 -1.1463133052958266e-05 0.014987528053487277 0 -1.2256094809268854e-05 0.014990189192483419 0 -1.1463133052958266e-05 0.014987528053487277 0 -9.7653888366842699e-06 0.014984884044989233 0 -1.1473721471756e-05 0.014988748591187 0 -1.1763504625087246e-05 0.01498772073284999 0 -1.2734912554205973e-05 0.014988283847729843 0 -1.1473721471756e-05 0.014988748591187 0 -1.1463133052958266e-05 0.014987528053487277 0 -1.1763504625087246e-05 0.01498772073284999 0 -1.1463133052958266e-05 0.014987528053487277 0 -1.1763504625087246e-05 0.01498772073284999 0 -1.0886309400446345e-05 0.014986647166745009 0 -1.1855452216914025e-05 0.014987803948586674 0 -1.1934915293699524e-05 0.014989015263693953 0 -1.0886309400446345e-05 0.014986647166745009 0 -1.1763504625087246e-05 0.01498772073284999 0 -1.1855452216914025e-05 0.014987803948586674 0 -1.2734912554205973e-05 0.014988283847729843 0 -1.1763504625087246e-05 0.01498772073284999 0 -1.1855452216914025e-05 0.014987803948586674 0 -1.0886309400446345e-05 0.014986647166745009 0 -1.1855452216914025e-05 0.014987803948586674 0 -1.1934915293699524e-05 0.014989015263693953 0 -1.2734912554205973e-05 0.014988283847729843 0 -0.00019895975782635082 0.014255707785758258 0 -0.00018884432525192519 0.01427105413401027 0 -1.2734912554205973e-05 0.014988283847729843 0 -1.2535301683230429e-05 0.014989094065311398 0 -1.5005398054507573e-05 0.014989727985918471 0 -1.2210791289110746e-05 0.014989121325995978 0 -1.2734912554205973e-05 0.014988283847729843 0 -1.5005398054507573e-05 0.014989727985918471 0 -0.00019895975782635082 0.014255707785758258 0 -0.00019814727297779588 0.014263919695520162 0 -1.1473721471756e-05 0.014988748591187 0 -1.2734912554205973e-05 0.014988283847729843 0 -1.2535301683230429e-05 0.014989094065311398 0 -1.1473721471756e-05 0.014988748591187 0 -1.2535301683230429e-05 0.014989094065311398 0 -1.0321265036549226e-05 0.01498960054172486 0 -1.2535301683230429e-05 0.014989094065311398 0 -1.1436363375526888e-05 0.01498862704057273 0 -1.5005398054507573e-05 0.014989727985918471 0 -1.2535301683230429e-05 0.014989094065311398 0 -1.1436363375526888e-05 0.01498862704057273 0 -1.0321265036549226e-05 0.01498960054172486 0 -1.1934915293699524e-05 0.014989015263693953 0 -1.0886309400446345e-05 0.014986647166745009 0 -6.6454768636885571e-06 0.014981539970274503 0 -9.7653888366842699e-06 0.014984884044989233 0 -1.0886309400446345e-05 0.014986647166745009 0 -6.6454768636885571e-06 0.014981539970274503 0 -0.00068660813750495817 0.013853247013695768 0 -0.00075174720745463126 0.013871704565574279 0 -0.00073861478377315441 0.013837061552714016 0 -0.00019895975782635082 0.014255707785758258 0 -0.00028349061760497526 0.014031911501622755 0 -1.2256094809268854e-05 0.014990189192483419 0 -9.7653888366842699e-06 0.014984884044989233 0 -6.2307845305827063e-06 0.014979174278265228 0 -9.7653888366842699e-06 0.014984884044989233 0 -6.6454768636885571e-06 0.014981539970274503 0 -6.2307845305827063e-06 0.014979174278265228 0 -1.1463133052958266e-05 0.014987528053487277 0 -9.7653888366842699e-06 0.014984884044989233 0 -1.0886309400446345e-05 0.014986647166745009 0 -0.00075174720745463126 0.013871704565574279 0 -0.00079077178436360305 0.01385315523351085 0 -0.00081575503228617226 0.013889631987210493 0 -6.6454768636885571e-06 0.014981539970274503 0 -6.2307845305827063e-06 0.014979174278265228 0 1.6393309876766694e-07 0.014975336986686709 0 -0.00028349061760497526 0.014031911501622755 0 -2.4236697521885313e-05 0.013561324846932078 0 -0.00075174720745463126 0.013871704565574279 0 -0.00079077178436360305 0.01385315523351085 0 -0.00077546849555345143 0.013830569696536432 0 -6.2307845305827063e-06 0.014979174278265228 0 -3.8864461421632881e-06 0.014974932664547047 0 1.6393309876766694e-07 0.014975336986686709 0 -5.3263715490215142e-06 0.014976929213648777 0 -6.2307845305827063e-06 0.014979174278265228 0 -3.8864461421632881e-06 0.014974932664547047 0 0.00043755925647231915 0.013571659234676937 0 0.00031290189341181136 0.013454683192265459 0 -5.3896684133913113e-06 0.014975880459087985 0 -5.3263715490215142e-06 0.014976929213648777 0 -3.8864461421632881e-06 0.014974932664547047 0 0.0020967750183907034 0.010110740615393687 0 0.0016990125990466929 0.010153783538193873 0 0.0018144133517470718 0.0098947467579836683 0 0.0018987436176420094 0.010268465780351562 0 0.0020967750183907034 0.010110740615393687 0 0.0016990125990466929 0.010153783538193873 0 0.00031290189341181136 0.013454683192265459 0 -2.4236697521885313e-05 0.013561324846932078 0 -0.00079077178436360305 0.01385315523351085 0 -0.00081575503228617226 0.013889631987210493 0 -0.00082055062461506342 0.013820559243040939 0 -0.00085276118279266626 0.013827299236474079 0 -0.00081575503228617226 0.013889631987210493 0 -0.00082055062461506342 0.013820559243040939 0 -0.00079077178436360305 0.01385315523351085 0 -0.00082055062461506342 0.013820559243040939 0 -0.00077546849555345143 0.013830569696536432 0 -0.00082055062461506342 0.013820559243040939 0 -0.00077546849555345143 0.013830569696536432 0 -0.00079347526843376683 0.01378705032787033 0 -0.00077546849555345143 0.013830569696536432 0 -0.00079347526843376683 0.01378705032787033 0 -0.0007406247099500619 0.013793058920360313 0 -0.00075174720745463126 0.013871704565574279 0 -0.00077546849555345143 0.013830569696536432 0 -0.00073861478377315441 0.013837061552714016 0 -0.00077546849555345143 0.013830569696536432 0 -0.0007406247099500619 0.013793058920360313 0 -0.00073861478377315441 0.013837061552714016 0 -0.00040083024375103994 0.014606611782554908 0 -0.00034523307143450351 0.014391736395088114 0 -0.00079347526843376683 0.01378705032787033 0 -0.00079264167696106681 0.013736684178393398 0 -0.0007406247099500619 0.013793058920360313 0 -0.00084848903776989552 0.013765465911441552 0 -0.00082055062461506342 0.013820559243040939 0 -0.00079347526843376683 0.01378705032787033 0 -0.00084848903776989552 0.013765465911441552 0 -0.00079347526843376683 0.01378705032787033 0 -0.00079264167696106681 0.013736684178393398 0 -0.00054012158240740482 0.014444524080466498 0 -0.00040083024375103994 0.014606611782554908 0 -0.00048280567658836714 0.014847270493058321 0 -0.00034189402132083776 0.014777507349906467 0 -0.00045073162125682041 0.014650398640950949 0 -0.00040083024375103994 0.014606611782554908 0 -0.0003728647274691112 0.014672121122085173 0 -0.00040083024375103994 0.014606611782554908 0 -0.00018397158143652965 0.01470052803236817 0 -7.1242776953390832e-05 0.014948385664887822 0 -4.2331078138808654e-05 0.014934575795131086 0 -4.5208000107059826e-05 0.014976025659023612 0 -3.2310148465682742e-05 0.014858188565209804 0 2.401670874400103e-05 0.014890189032292687 0 1.5328743927806885e-05 0.014841865604697243 0 -6.3577227375204078e-05 0.01499279374815622 0 -3.2310148465682742e-05 0.014858188565209804 0 2.401670874400103e-05 0.014890189032292687 0 -6.3577227375204078e-05 0.01499279374815622 0 -3.2310148465682742e-05 0.014858188565209804 0 -0.00023997947522184766 0.014882870384976031 0 -3.2310148465682742e-05 0.014858188565209804 0 -0.00023997947522184766 0.014882870384976031 0 -0.00025838197814760118 0.014661972321197385 0 -0.00012573544717145809 0.014729203993553753 0 -0.00018397158143652965 0.01470052803236817 0 -4.4524106780561625e-07 0.014911387808925666 0 -4.2331078138808654e-05 0.014934575795131086 0 -2.2960760547198042e-05 0.01495392314820115 0 -4.4524106780561625e-07 0.014911387808925666 0 2.401670874400103e-05 0.014890189032292687 0 1.5328743927806885e-05 0.014841865604697243 0 -4.2331078138808654e-05 0.014934575795131086 0 -2.2960760547198042e-05 0.01495392314820115 0 -4.5208000107059826e-05 0.014976025659023612 0 -4.4524106780561625e-07 0.014911387808925666 0 -2.2960760547198042e-05 0.01495392314820115 0 -4.0815901972998674e-06 0.014958733713801933 0 -2.2960760547198042e-05 0.01495392314820115 0 -1.7934484096596622e-05 0.014971975312870046 0 -4.0815901972998674e-06 0.014958733713801933 0 -1.7934484096596622e-05 0.014971975312870046 0 -9.8445286280769957e-06 0.014979968280397698 0 -5.4015749680147188e-06 0.014973029943923131 0 -2.2960760547198042e-05 0.01495392314820115 0 -1.7934484096596622e-05 0.014971975312870046 0 -4.5208000107059826e-05 0.014976025659023612 0 -1.7934484096596622e-05 0.014971975312870046 0 -4.5208000107059826e-05 0.014976025659023612 0 -2.4033070171120591e-05 0.014982128484144775 0 -0.00068660813750495817 0.013853247013695768 0 -0.0007406247099500619 0.013793058920360313 0 -0.00073861478377315441 0.013837061552714016 0 -2.1355790320768591e-05 0.014992470631277972 0 -4.5208000107059826e-05 0.014976025659023612 0 -2.4033070171120591e-05 0.014982128484144775 0 -0.00019895975782635082 0.014255707785758258 0 -0.00034523307143450351 0.014391736395088114 0 -1.5041538007165084e-05 0.014983882611919802 0 -8.6439552962392845e-06 0.014986046733372416 0 -9.8445286280769957e-06 0.014979968280397698 0 -1.7934484096596622e-05 0.014971975312870046 0 -1.5041538007165084e-05 0.014983882611919802 0 -9.8445286280769957e-06 0.014979968280397698 0 -1.7934484096596622e-05 0.014971975312870046 0 -1.5041538007165084e-05 0.014983882611919802 0 -2.4033070171120591e-05 0.014982128484144775 0 -1.5041538007165084e-05 0.014983882611919802 0 -2.4033070171120591e-05 0.014982128484144775 0 -1.5005398054507573e-05 0.014989727985918471 0 -2.1355790320768591e-05 0.014992470631277972 0 -2.4033070171120591e-05 0.014982128484144775 0 -1.5005398054507573e-05 0.014989727985918471 0 -1.1436363375526888e-05 0.01498862704057273 0 -1.5041538007165084e-05 0.014983882611919802 0 -1.5005398054507573e-05 0.014989727985918471 0 -1.1436363375526888e-05 0.01498862704057273 0 -1.5041538007165084e-05 0.014983882611919802 0 -8.6439552962392845e-06 0.014986046733372416 0 -1.1436363375526888e-05 0.01498862704057273 0 -8.6439552962392845e-06 0.014986046733372416 0 -8.1991491730109822e-06 0.014989076185384743 0 -8.6439552962392845e-06 0.014986046733372416 0 -4.6126035002770129e-06 0.014988532087906663 0 -8.1991491730109822e-06 0.014989076185384743 0 -8.6439552962392845e-06 0.014986046733372416 0 -4.6126035002770129e-06 0.014988532087906663 0 -4.421601813953188e-06 0.014982510293235789 0 -8.6439552962392845e-06 0.014986046733372416 0 -4.421601813953188e-06 0.014982510293235789 0 -9.8445286280769957e-06 0.014979968280397698 0 -4.6126035002770129e-06 0.014988532087906663 0 3.7423549587404876e-07 0.014985617502526364 0 -3.4016371625262649e-08 0.014991193145571674 0 -4.6126035002770129e-06 0.014988532087906663 0 -4.421601813953188e-06 0.014982510293235789 0 3.7423549587404876e-07 0.014985617502526364 0 3.7423549587404876e-07 0.014985617502526364 0 1.2335280019422108e-06 0.014975653682783429 0 2.6241883520216488e-06 0.01498952754112266 0 -4.421601813953188e-06 0.014982510293235789 0 3.7423549587404876e-07 0.014985617502526364 0 1.2335280019422108e-06 0.014975653682783429 0 1.2335280019422108e-06 0.014975653682783429 0 -5.4015749680147188e-06 0.014973029943923131 0 -4.0815901972998674e-06 0.014958733713801933 0 -4.421601813953188e-06 0.014982510293235789 0 -9.8445286280769957e-06 0.014979968280397698 0 -5.4015749680147188e-06 0.014973029943923131 0 -4.421601813953188e-06 0.014982510293235789 0 1.2335280019422108e-06 0.014975653682783429 0 -5.4015749680147188e-06 0.014973029943923131 0 -1.7934484096596622e-05 0.014971975312870046 0 -5.4015749680147188e-06 0.014973029943923131 0 -4.0815901972998674e-06 0.014958733713801933 0 1.2335280019422108e-06 0.014975653682783429 0 -4.0815901972998674e-06 0.014958733713801933 0 2.2608999952390233e-06 0.014958533324230581 0 -4.4524106780561625e-07 0.014911387808925666 0 -4.0815901972998674e-06 0.014958733713801933 0 2.2608999952390233e-06 0.014958533324230581 0 1.2335280019422108e-06 0.014975653682783429 0 2.2608999952390233e-06 0.014958533324230581 0 2.4447914076486118e-06 0.01498104084680855 0 2.2608999952390233e-06 0.014958533324230581 0 2.0329306174912605e-06 0.014963075265711064 0 -1.0420146350156413e-06 0.014937189064245732 0 2.2608999952390233e-06 0.014958533324230581 0 2.0329306174912605e-06 0.014963075265711064 0 2.4447914076486118e-06 0.01498104084680855 0 -4.4524106780561625e-07 0.014911387808925666 0 2.2608999952390233e-06 0.014958533324230581 0 -1.0420146350156413e-06 0.014937189064245732 0 2.0329306174912605e-06 0.014963075265711064 0 2.4447914076486118e-06 0.01498104084680855 0 -1.7683555940776513e-07 0.01497510360588895 0 2.4447914076486118e-06 0.01498104084680855 0 7.7399515420880741e-09 0.014999976379339093 0 -1.7683555940776513e-07 0.01497510360588895 0 7.7399515420880741e-09 0.014999976379339093 0 -1.7683555940776513e-07 0.01497510360588895 0 -1.5011124964117426e-09 0.01499996171763821 0 2.4447914076486118e-06 0.01498104084680855 0 7.7399515420880741e-09 0.014999976379339093 0 2.6241883520216488e-06 0.01498952754112266 0 7.7399515420880741e-09 0.014999976379339093 0 2.6241883520216488e-06 0.01498952754112266 0 1.444577854013885e-09 0.014999989224606441 0 1.2335280019422108e-06 0.014975653682783429 0 2.4447914076486118e-06 0.01498104084680855 0 2.6241883520216488e-06 0.01498952754112266 0 2.6241883520216488e-06 0.01498952754112266 0 1.4360269647413263e-06 0.014995733917694746 0 -3.4016371625262649e-08 0.014991193145571674 0 3.7423549587404876e-07 0.014985617502526364 0 2.6241883520216488e-06 0.01498952754112266 0 -3.4016371625262649e-08 0.014991193145571674 0 2.6241883520216488e-06 0.01498952754112266 0 1.444577854013885e-09 0.014999989224606441 0 1.4360269647413263e-06 0.014995733917694746 0 1.444577854013885e-09 0.014999989224606441 0 2.3888989722975265e-09 0.014999992457973246 0 1.4360269647413263e-06 0.014995733917694746 0 2.3888989722975265e-09 0.014999992457973246 0 1.0125861596138066e-06 0.014995903211516406 0 1.4360269647413263e-06 0.014995733917694746 0 3.8116127042198704e-10 0.014999999192798921 0 1.0919656440102667e-06 0.014997528151864269 0 6.598031530152607e-07 0.014998281512808102 0 5.6333484741775549e-10 0.014999996850641475 0 4.6970294946589128e-08 0.014998681247571307 0 1.0125861596138066e-06 0.014995903211516406 0 1.766387309734933e-07 0.014994108938977862 0 1.4360269647413263e-06 0.014995733917694746 0 1.766387309734933e-07 0.014994108938977862 0 1.4360269647413263e-06 0.014995733917694746 0 -3.4016371625262649e-08 0.014991193145571674 0 -3.4016371625262649e-08 0.014991193145571674 0 -2.0549467062808755e-06 0.01499292288212481 0 -3.7173285731247918e-06 0.014991118002717184 0 -4.6126035002770129e-06 0.014988532087906663 0 -3.4016371625262649e-08 0.014991193145571674 0 -3.7173285731247918e-06 0.014991118002717184 0 -2.0549467062808755e-06 0.01499292288212481 0 -3.7173285731247918e-06 0.014991118002717184 0 -4.7094322652453217e-06 0.014993285366371362 0 1.766387309734933e-07 0.014994108938977862 0 -3.4016371625262649e-08 0.014991193145571674 0 -2.0549467062808755e-06 0.01499292288212481 0 1.766387309734933e-07 0.014994108938977862 0 -2.0549467062808755e-06 0.01499292288212481 0 -1.7519937301258965e-06 0.014994566304299083 0 -1.0321265036549226e-05 0.01498960054172486 0 -8.1991491730109822e-06 0.014989076185384743 0 -6.7690709872771543e-06 0.014991023663560766 0 -1.1436363375526888e-05 0.01498862704057273 0 -1.0321265036549226e-05 0.01498960054172486 0 -8.1991491730109822e-06 0.014989076185384743 0 -4.6126035002770129e-06 0.014988532087906663 0 -8.1991491730109822e-06 0.014989076185384743 0 -6.7690709872771543e-06 0.014991023663560766 0 -4.6126035002770129e-06 0.014988532087906663 0 -3.7173285731247918e-06 0.014991118002717184 0 -6.7690709872771543e-06 0.014991023663560766 0 -3.7173285731247918e-06 0.014991118002717184 0 -6.7690709872771543e-06 0.014991023663560766 0 -4.7094322652453217e-06 0.014993285366371362 0 -6.7690709872771543e-06 0.014991023663560766 0 -7.0064596815975363e-06 0.014992007517011848 0 -4.7094322652453217e-06 0.014993285366371362 0 -9.2742386221097337e-06 0.014990695963724656 0 -1.0321265036549226e-05 0.01498960054172486 0 -6.7690709872771543e-06 0.014991023663560766 0 -9.2742386221097337e-06 0.014990695963724656 0 -6.7690709872771543e-06 0.014991023663560766 0 -7.0064596815975363e-06 0.014992007517011848 0 -2.2597400060476388e-07 0.014981594761666007 0 -2.8659586086941604e-06 0.014976409155416094 0 3.1384124810493369e-06 0.01498409429793242 0 -4.3205061598878485e-06 0.014985941662481043 0 -2.7528904787227685e-06 0.014988384722114908 0 -1.2256094809268854e-05 0.014990189192483419 0 -7.4837771661623133e-06 0.014993085000779928 0 -3.771142537140293e-06 0.014997530080059107 0 -7.4837771661623133e-06 0.014993085000779928 0 -7.0064596815975363e-06 0.014992007517011848 0 -4.7094322652453217e-06 0.014993285366371362 0 -9.2742386221097337e-06 0.014990695963724656 0 -7.4837771661623133e-06 0.014993085000779928 0 -7.0064596815975363e-06 0.014992007517011848 0 -7.4837771661623133e-06 0.014993085000779928 0 -4.7094322652453217e-06 0.014993285366371362 0 -4.796319590452686e-06 0.014994807066397131 0 -4.7094322652453217e-06 0.014993285366371362 0 -3.9582306530239733e-06 0.014994547956466906 0 -4.796319590452686e-06 0.014994807066397131 0 -7.4837771661623133e-06 0.014993085000779928 0 -4.796319590452686e-06 0.014994807066397131 0 -3.771142537140293e-06 0.014997530080059107 0 -3.9582306530239733e-06 0.014994547956466906 0 -4.796319590452686e-06 0.014994807066397131 0 -2.9170927259580656e-06 0.014995797863988152 0 -4.796319590452686e-06 0.014994807066397131 0 -2.9170927259580656e-06 0.014995797863988152 0 -3.771142537140293e-06 0.014997530080059107 0 1.0125861596138066e-06 0.014995903211516406 0 1.766387309734933e-07 0.014994108938977862 0 -1.7519937301258965e-06 0.014994566304299083 0 4.6970294946589128e-08 0.014998681247571307 0 -9.1491597928374573e-07 0.014998300646664126 0 1.0919656440102667e-06 0.014997528151864269 0 -2.9170927259580656e-06 0.014995797863988152 0 -5.7265394291424431e-07 0.014996616117633499 0 1.0125861596138066e-06 0.014995903211516406 0 -1.7519937301258965e-06 0.014994566304299083 0 -2.9170927259580656e-06 0.014995797863988152 0 -4.7094322652453217e-06 0.014993285366371362 0 -3.9582306530239733e-06 0.014994547956466906 0 -1.7519937301258965e-06 0.014994566304299083 0 -2.0549467062808755e-06 0.01499292288212481 0 -4.7094322652453217e-06 0.014993285366371362 0 -1.7519937301258965e-06 0.014994566304299083 0 -2.9170927259580656e-06 0.014995797863988152 0 -5.7265394291424431e-07 0.014996616117633499 0 -3.771142537140293e-06 0.014997530080059107 0 -3.9582306530239733e-06 0.014994547956466906 0 -1.7519937301258965e-06 0.014994566304299083 0 -2.9170927259580656e-06 0.014995797863988152 0 -5.7265394291424431e-07 0.014996616117633499 0 -3.771142537140293e-06 0.014997530080059107 0 1.9011570713824412e-06 0.014996018454293651 0 -2.7528904787227685e-06 0.014988384722114908 0 -1.799650371544117e-06 0.01498975561951508 0 3.0409895583600223e-06 0.014990055254371578 0 3.1384124810493369e-06 0.01498409429793242 0 1.9011570713824412e-06 0.014996018454293651 0 1.6049251935237347e-07 0.014982359153121691 0 2.1653641992650467e-06 0.014986570243928014 0 1.0318120432906174e-06 0.0149839227380975 0 -2.2597400060476388e-07 0.014981594761666007 0 3.1384124810493369e-06 0.01498409429793242 0 1.0318120432906174e-06 0.0149839227380975 0 3.0409895583600223e-06 0.014990055254371578 0 3.1384124810493369e-06 0.01498409429793242 0 2.1653641992650467e-06 0.014986570243928014 0 3.1384124810493369e-06 0.01498409429793242 0 2.1653641992650467e-06 0.014986570243928014 0 1.0318120432906174e-06 0.0149839227380975 0 1.6049251935237347e-07 0.014982359153121691 0 2.1653641992650467e-06 0.014986570243928014 0 2.2999001915304461e-06 0.014987358915978279 0 2.1653641992650467e-06 0.014986570243928014 0 2.2999001915304461e-06 0.014987358915978279 0 3.1436912901908399e-06 0.014990310052486463 0 3.0409895583600223e-06 0.014990055254371578 0 2.8152817081302958e-06 0.014993447578779595 0 1.9011570713824412e-06 0.014996018454293651 0 3.0409895583600223e-06 0.014990055254371578 0 3.1436912901908399e-06 0.014990310052486463 0 2.8152817081302958e-06 0.014993447578779595 0 3.0409895583600223e-06 0.014990055254371578 0 2.1653641992650467e-06 0.014986570243928014 0 3.1436912901908399e-06 0.014990310052486463 0 3.3046912482603287e-06 0.014993168886220534 0 3.1436912901908399e-06 0.014990310052486463 0 2.8152817081302958e-06 0.014993447578779595 0 2.2258518551783552e-06 0.014995688013277591 0 2.8152817081302958e-06 0.014993447578779595 0 1.1773361766891285e-06 0.014997211882607471 0 2.8152817081302958e-06 0.014993447578779595 0 1.1773361766891285e-06 0.014997211882607471 0 1.9011570713824412e-06 0.014996018454293651 0 1.7026309545501291e-09 0.014999995143449806 0 6.3021985359987335e-10 0.014999994567392172 0 1.1773361766891285e-06 0.014997211882607471 0 6.3021985359987335e-10 0.014999994567392172 0 1.1773361766891285e-06 0.014997211882607471 0 6.598031530152607e-07 0.014998281512808102 0 3.8116127042198704e-10 0.014999999192798921 0 6.3021985359987335e-10 0.014999994567392172 0 6.598031530152607e-07 0.014998281512808102 0 1.0919656440102667e-06 0.014997528151864269 0 -5.7265394291424431e-07 0.014996616117633499 0 1.9011570713824412e-06 0.014996018454293651 0 1.0919656440102667e-06 0.014997528151864269 0 6.598031530152607e-07 0.014998281512808102 0 1.9011570713824412e-06 0.014996018454293651 0 1.1773361766891285e-06 0.014997211882607471 0 6.598031530152607e-07 0.014998281512808102 0 1.9011570713824412e-06 0.014996018454293651 0 -0.0019190059434248967 0.0042443376957290568 0 -0.0020081401855583554 0.0038153685135534992 0 -0.0022806753895661868 0.0042821915744781372 0 -0.0027478229400075427 0.0045211974808609797 0 -0.0023051445909121264 0.004256987712200083 0 -0.0026658549906680437 0.0050780432633110969 0 -0.0022490856311983241 0.0041498774087289367 0 -0.0025259480328273724 0.0047800203354453723 0 -0.0019190059434248967 0.0042443376957290568 0 -0.0018247856593121823 0.0040045877506653272 0 -0.0020081401855583554 0.0038153685135534992 0 -0.0019190059434248967 0.0042443376957290568 0 -0.001599826085489941 0.0043029069032183426 0 -0.0018247856593121823 0.0040045877506653272 0 -0.0018247856593121823 0.0040045877506653272 0 -0.0018390658711836384 0.0037857532539138697 0 -0.0020081401855583554 0.0038153685135534992 0 -0.0018247856593121823 0.0040045877506653272 0 -0.0018390658711836384 0.0037857532539138697 0 -0.0015980284017168504 0.003789509984099524 0 -0.0018390658711836384 0.0037857532539138697 0 -0.0020081401855583554 0.0038153685135534992 0 -0.0019718287737315351 0.0034479493074869179 0 -0.0018390658711836384 0.0037857532539138697 0 -0.0015980284017168504 0.003789509984099524 0 -0.0017497276677556476 0.0036744767577793513 0 -0.0027478229400075427 0.0045211974808609797 0 -0.0023279004997367736 0.0040329317942804132 0 -0.0032755429240960312 0.0043513817688015533 0 -0.0027478229400075427 0.0045211974808609797 0 -0.0023279004997367736 0.0040329317942804132 0 -0.0023051445909121264 0.004256987712200083 0 -0.0023279004997367736 0.0040329317942804132 0 -0.0032755429240960312 0.0043513817688015533 0 -0.0032948193979871034 0.0035544554967312935 0 -0.0032755429240960312 0.0043513817688015533 0 -0.003912283428776627 0.0047901686692694099 0 -0.0040654249368867624 0.0042491285349299966 0 -0.0032755429240960312 0.0043513817688015533 0 -0.0032948193979871034 0.0035544554967312935 0 -0.0040654249368867624 0.0042491285349299966 0 -0.003912283428776627 0.0047901686692694099 0 -0.0031578318206902439 0.004881688745867625 0 -0.0035969828588800251 0.0051781151380180792 0 -0.0032755429240960312 0.0043513817688015533 0 -0.003912283428776627 0.0047901686692694099 0 -0.0031578318206902439 0.004881688745867625 0 -0.0027478229400075427 0.0045211974808609797 0 -0.0032755429240960312 0.0043513817688015533 0 -0.0031578318206902439 0.004881688745867625 0 -0.0027478229400075427 0.0045211974808609797 0 -0.0031578318206902439 0.004881688745867625 0 -0.0026658549906680437 0.0050780432633110969 0 -0.0031578318206902439 0.004881688745867625 0 -0.0030105086365410727 0.0058713670435453147 0 -0.0026658549906680437 0.0050780432633110969 0 -0.0031578318206902439 0.004881688745867625 0 -0.0035969828588800251 0.0051781151380180792 0 -0.0030105086365410727 0.0058713670435453147 0 -0.0028499001870029828 0.0055211660916176701 0 -0.0025259480328273724 0.0047800203354453723 0 -0.0035969828588800251 0.0051781151380180792 0 -0.0035896843736742288 0.0056847217353466969 0 -0.0044789489568479671 0.0051386855398841353 0 -0.0035969828588800251 0.0051781151380180792 0 -0.0035896843736742288 0.0056847217353466969 0 -0.0030105086365410727 0.0058713670435453147 0 -0.0035896843736742288 0.0056847217353466969 0 -0.0035909127694154896 0.006154986621749267 0 -0.0039528302615965483 0.0060934110262939089 0 -0.0035896843736742288 0.0056847217353466969 0 -0.0035909127694154896 0.006154986621749267 0 -0.0030105086365410727 0.0058713670435453147 0 -0.0028482164670769724 0.0051790923749983446 0 -0.0022128747650864929 0.0055311435056609433 0 -0.0020206603886623589 0.0048176644030815223 0 -0.0022128747650864929 0.0055311435056609433 0 -0.0020206603886623589 0.0048176644030815223 0 -0.0016329705087463405 0.0053385282164044538 0 -0.0019190059434248967 0.0042443376957290568 0 -0.0020206603886623589 0.0048176644030815223 0 -0.0022806753895661868 0.0042821915744781372 0 -0.0028482164670769724 0.0051790923749983446 0 -0.0020206603886623589 0.0048176644030815223 0 -0.0022806753895661868 0.0042821915744781372 0 -0.0019190059434248967 0.0042443376957290568 0 -0.0020206603886623589 0.0048176644030815223 0 -0.0017194606328481499 0.0045760649232173458 0 -0.001599826085489941 0.0043029069032183426 0 -0.0017194606328481499 0.0045760649232173458 0 -0.0014323628100679439 0.004552527382593939 0 -0.0019190059434248967 0.0042443376957290568 0 -0.001599826085489941 0.0043029069032183426 0 -0.0017194606328481499 0.0045760649232173458 0 -0.0020206603886623589 0.0048176644030815223 0 -0.0017194606328481499 0.0045760649232173458 0 -0.0015896941560280622 0.0049155432875250208 0 -0.0017194606328481499 0.0045760649232173458 0 -0.0015896941560280622 0.0049155432875250208 0 -0.0014323628100679439 0.004552527382593939 0 -0.0020206603886623589 0.0048176644030815223 0 -0.0015896941560280622 0.0049155432875250208 0 -0.0016329705087463405 0.0053385282164044538 0 -0.0015896941560280622 0.0049155432875250208 0 -0.0016329705087463405 0.0053385282164044538 0 -0.0015172926637027327 0.0051378373596043881 0 -0.0015896941560280622 0.0049155432875250208 0 -0.0015172926637027327 0.0051378373596043881 0 -0.0013819080888557711 0.0048966830054358278 0 -0.0013819080888557711 0.0048966830054358278 0 -0.0014037816564916885 0.0051124177066092054 0 -0.0012691691534382635 0.0049712843028997993 0 -0.0015172926637027327 0.0051378373596043881 0 -0.0013819080888557711 0.0048966830054358278 0 -0.0014037816564916885 0.0051124177066092054 0 -0.0015896941560280622 0.0049155432875250208 0 -0.0013819080888557711 0.0048966830054358278 0 -0.0014323628100679439 0.004552527382593939 0 -0.0013819080888557711 0.0048966830054358278 0 -0.0011285348870548289 0.0047788723972859394 0 -0.0011914383011551715 0.0045632278546386094 0 -0.0013819080888557711 0.0048966830054358278 0 -0.0011285348870548289 0.0047788723972859394 0 -0.0012691691534382635 0.0049712843028997993 0 -0.0011285348870548289 0.0047788723972859394 0 -0.00097211710565329524 0.0045090475231934941 0 -0.00082352081124123912 0.0047686462775056405 0 -0.0011285348870548289 0.0047788723972859394 0 -0.00082352081124123912 0.0047686462775056405 0 -0.0011076708184074157 0.0049722472043882407 0 -0.0011285348870548289 0.0047788723972859394 0 -0.0011076708184074157 0.0049722472043882407 0 -0.0012691691534382635 0.0049712843028997993 0 -0.0011285348870548289 0.0047788723972859394 0 -0.00097211710565329524 0.0045090475231934941 0 -0.0011914383011551715 0.0045632278546386094 0 -0.00097211710565329524 0.0045090475231934941 0 -0.00080999118755630103 0.0043002183463701892 0 -0.0011168907937257136 0.0041467471035849298 0 -0.00097211710565329524 0.0045090475231934941 0 -0.0011914383011551715 0.0045632278546386094 0 -0.0011168907937257136 0.0041467471035849298 0 -0.001599826085489941 0.0043029069032183426 0 -0.0014323628100679439 0.004552527382593939 0 -0.0011168907937257136 0.0041467471035849298 0 -0.0014323628100679439 0.004552527382593939 0 -0.0011914383011551715 0.0045632278546386094 0 -0.0011168907937257136 0.0041467471035849298 0 -0.0013819080888557711 0.0048966830054358278 0 -0.0014323628100679439 0.004552527382593939 0 -0.0011914383011551715 0.0045632278546386094 0 -0.00057084640319807678 0.0043663181007465779 0 -0.00072189081262027889 0.0045183894707870789 0 -0.00082352081124123912 0.0047686462775056405 0 -0.00057084640319807678 0.0043663181007465779 0 -0.00063829978171589606 0.0043654226136405445 0 -0.00072189081262027889 0.0045183894707870789 0 -0.00058744435024404775 0.0042165612628036692 0 -0.00063829978171589606 0.0043654226136405445 0 -0.00068108803631499555 0.0043638501535573932 0 -0.00057084640319807678 0.0043663181007465779 0 -0.00058744435024404775 0.0042165612628036692 0 -0.00063829978171589606 0.0043654226136405445 0 -0.00063829978171589606 0.0043654226136405445 0 -0.00068108803631499555 0.0043638501535573932 0 -0.00072189081262027889 0.0045183894707870789 0 -0.00097211710565329524 0.0045090475231934941 0 -0.0007930696276492636 0.0044545079759436643 0 -0.00082352081124123912 0.0047686462775056405 0 -0.00068108803631499555 0.0043638501535573932 0 -0.0007930696276492636 0.0044545079759436643 0 -0.00072189081262027889 0.0045183894707870789 0 -0.0007930696276492636 0.0044545079759436643 0 -0.00072189081262027889 0.0045183894707870789 0 -0.00082352081124123912 0.0047686462775056405 0 -0.00097211710565329524 0.0045090475231934941 0 -0.0007930696276492636 0.0044545079759436643 0 -0.00080999118755630103 0.0043002183463701892 0 -0.00080999118755630103 0.0043002183463701892 0 -0.00072560403640143647 0.0042548231652590647 0 -0.00071669409444794158 0.0043061441377298783 0 -0.00080999118755630103 0.0043002183463701892 0 -0.00071621902335327562 0.0041896515148557969 0 -0.00071536108770753207 0.0042096096628375032 0 -0.00080999118755630103 0.0043002183463701892 0 -0.00072560403640143647 0.0042548231652590647 0 -0.00071536108770753207 0.0042096096628375032 0 -0.00070263806785254488 0.0042189742527645405 0 -0.00072560403640143647 0.0042548231652590647 0 -0.00071536108770753207 0.0042096096628375032 0 -0.00068108803631499555 0.0043638501535573932 0 -0.0007930696276492636 0.0044545079759436643 0 -0.00071669409444794158 0.0043061441377298783 0 -0.0007930696276492636 0.0044545079759436643 0 -0.00080999118755630103 0.0043002183463701892 0 -0.00071669409444794158 0.0043061441377298783 0 -0.00057271881112918482 0.0040953746874990392 0 -0.00058744435024404775 0.0042165612628036692 0 -0.00063956692758184103 0.0042355958880842173 0 -0.00076693065081162939 0.0038342269260012631 0 -0.0010456447969370963 0.0037985106984876715 0 -0.00057271881112918482 0.0040953746874990392 0 -0.0006751441128497297 0.004215423951937379 0 -0.00071780941049820837 0.0042056043520917307 0 -0.00057271881112918482 0.0040953746874990392 0 -0.0006751441128497297 0.004215423951937379 0 -0.00063956692758184103 0.0042355958880842173 0 -0.00068108803631499555 0.0043638501535573932 0 -0.00071669409444794158 0.0043061441377298783 0 -0.00063956692758184103 0.0042355958880842173 0 -0.00071669409444794158 0.0043061441377298783 0 -0.0006751441128497297 0.004215423951937379 0 -0.00063956692758184103 0.0042355958880842173 0 -0.00072560403640143647 0.0042548231652590647 0 -0.00071669409444794158 0.0043061441377298783 0 -0.0006751441128497297 0.004215423951937379 0 -0.00070263806785254488 0.0042189742527645405 0 -0.0006751441128497297 0.004215423951937379 0 -0.00071780941049820837 0.0042056043520917307 0 -0.00070263806785254488 0.0042189742527645405 0 -0.00072560403640143647 0.0042548231652590647 0 -0.0006751441128497297 0.004215423951937379 0 -0.00058744435024404775 0.0042165612628036692 0 -0.00068108803631499555 0.0043638501535573932 0 -0.00063956692758184103 0.0042355958880842173 0 -0.00098647106708395671 0.003568126922568964 0 -0.0011266697225416642 0.0033221477753907283 0 -0.0012932220766948617 0.0034807998388248964 0 -0.0011266697225416642 0.0033221477753907283 0 -0.0012932220766948617 0.0034807998388248964 0 -0.0012718006191145981 0.0032455344456919707 0 -0.00083623277953626736 0.0042429766271629907 0 -0.0010790176205736951 0.0039933814184799675 0 -0.00091630591177919887 0.0037327702343520472 0 -0.00083623277953626736 0.0042429766271629907 0 -0.0010790176205736951 0.0039933814184799675 0 -0.0013782360818527634 0.0041257227197839634 0 -0.00080999118755630103 0.0043002183463701892 0 -0.00071621902335327562 0.0041896515148557969 0 -0.0011168907937257136 0.0041467471035849298 0 -0.0010456447969370963 0.0037985106984876715 0 -0.0011156227172522044 0.0033469575123890819 0 -0.00070263806785254488 0.0042189742527645405 0 -0.00071780941049820837 0.0042056043520917307 0 -0.00071536108770753207 0.0042096096628375032 0 -0.0010456447969370963 0.0037985106984876715 0 -0.0010450635224499632 0.0038002753897102195 0 -0.0012932220766948617 0.0034807998388248964 0 -0.0013654819872751397 0.00306443099716679 0 -0.0012718006191145981 0.0032455344456919707 0 -0.0010790176205736951 0.0039933814184799675 0 -0.00091630591177919887 0.0037327702343520472 0 -0.0012264323828839175 0.0037860958826680027 0 -0.0013654819872751397 0.00306443099716679 0 -0.0012735100980293603 0.0031460489310020548 0 -0.0012174680527571725 0.003042327585379269 0 -0.0013654819872751397 0.00306443099716679 0 -0.0012718006191145981 0.0032455344456919707 0 -0.0012735100980293603 0.0031460489310020548 0 -0.00094867369405141273 0.0031739125699426409 0 -0.0011266697225416642 0.0033221477753907283 0 -0.0010582238288777135 0.0029538387575349869 0 -0.0010392908587765536 0.002985801369255311 0 -0.00096673441516063104 0.0026942113521286975 0 -0.0011266697225416642 0.0033221477753907283 0 -0.0012174680527571725 0.003042327585379269 0 -0.00098747934591893183 0.0029195504088103861 0 -0.0011266697225416642 0.0033221477753907283 0 -0.0012735100980293603 0.0031460489310020548 0 -0.0012174680527571725 0.003042327585379269 0 -0.0011266697225416642 0.0033221477753907283 0 -0.0012718006191145981 0.0032455344456919707 0 -0.0012735100980293603 0.0031460489310020548 0 -0.0018247856593121823 0.0040045877506653272 0 -0.0013782360818527634 0.0041257227197839634 0 -0.0015980284017168504 0.003789509984099524 0 -0.001599826085489941 0.0043029069032183426 0 -0.0018247856593121823 0.0040045877506653272 0 -0.0011168907937257136 0.0041467471035849298 0 -0.0014821587097710858 0.0039370364176568567 0 -0.001238367617067483 0.0039381390161032379 0 -0.0010456447969370963 0.0037985106984876715 0 -0.001238367617067483 0.0039381390161032379 0 -0.0010790176205736951 0.0039933814184799675 0 -0.0013782360818527634 0.0041257227197839634 0 -0.0012264323828839175 0.0037860958826680027 0 -0.0012264323828839175 0.0037860958826680027 0 -0.0015980284017168504 0.003789509984099524 0 -0.0013946514421455791 0.0035192001120918589 0 -0.0013782360818527634 0.0041257227197839634 0 -0.0012264323828839175 0.0037860958826680027 0 -0.0015980284017168504 0.003789509984099524 0 -0.00091630591177919887 0.0037327702343520472 0 -0.0012264323828839175 0.0037860958826680027 0 -0.0011585519961800593 0.0034990919686837324 0 -0.001678860185376955 0.0035105090760603167 0 -0.0016140695605818699 0.0032109493713085376 0 -0.0019718287737315351 0.0034479493074869179 0 -0.0015980284017168504 0.003789509984099524 0 -0.001678860185376955 0.0035105090760603167 0 -0.0017497276677556476 0.0036744767577793513 0 -0.001678860185376955 0.0035105090760603167 0 -0.0013946514421455791 0.0035192001120918589 0 -0.0016140695605818699 0.0032109493713085376 0 -0.0015980284017168504 0.003789509984099524 0 -0.001678860185376955 0.0035105090760603167 0 -0.0013946514421455791 0.0035192001120918589 0 -0.0012264323828839175 0.0037860958826680027 0 -0.0013946514421455791 0.0035192001120918589 0 -0.0011585519961800593 0.0034990919686837324 0 -0.0013946514421455791 0.0035192001120918589 0 -0.0011585519961800593 0.0034990919686837324 0 -0.0012918361183779895 0.0032552232195413853 0 -0.0012918361183779895 0.0032552232195413853 0 -0.00096522816282465062 0.0031740786356174214 0 -0.0013588876470372905 0.0028976357424667768 0 -0.0011585519961800593 0.0034990919686837324 0 -0.0012918361183779895 0.0032552232195413853 0 -0.00096522816282465062 0.0031740786356174214 0 -0.0012918361183779895 0.0032552232195413853 0 -0.0016140695605818699 0.0032109493713085376 0 -0.0013588876470372905 0.0028976357424667768 0 -0.0016140695605818699 0.0032109493713085376 0 -0.001742487858503089 0.0027383221556168276 0 -0.0020633994564019805 0.0029783736522135452 0 -0.0013946514421455791 0.0035192001120918589 0 -0.0012918361183779895 0.0032552232195413853 0 -0.0016140695605818699 0.0032109493713085376 0 -0.00073458103074271609 0.0024511136701075844 0 -0.0011518418841324778 0.0026601971427632743 0 -0.00083284269182732414 0.0028483219912099236 0 -0.0012174680527571725 0.003042327585379269 0 -0.0011518418841324778 0.0026601971427632743 0 -0.00083284269182732414 0.0028483219912099236 0 -0.0010384804767181388 0.0027549125351053506 0 -0.00096673441516063104 0.0026942113521286975 0 -0.0011156227172522044 0.0033469575123890819 0 -0.001185691843838691 0.0028042404037394906 0 -0.0013654819872751397 0.00306443099716679 0 -0.0012174680527571725 0.003042327585379269 0 -0.0011518418841324778 0.0026601971427632743 0 -0.0013654819872751397 0.00306443099716679 0 -0.0011518418841324778 0.0026601971427632743 0 -0.0014197998144914875 0.0024421038712738089 0 -0.00091630591177919887 0.0037327702343520472 0 -0.0011585519961800593 0.0034990919686837324 0 -0.00096522816282465062 0.0031740786356174214 0 -0.0011518418841324778 0.0026601971427632743 0 -0.0014197998144914875 0.0024421038712738089 0 -0.0010024951871753101 0.0023202037679901349 0 -0.00073458103074271609 0.0024511136701075844 0 -0.0011518418841324778 0.0026601971427632743 0 -0.0010024951871753101 0.0023202037679901349 0 -0.00064331930921714912 0.0020722481269978077 0 -0.0010024951871753101 0.0023202037679901349 0 -0.0010572094574049721 0.0019874752496363028 0 -0.00078067379616818949 0.0020130366202050988 0 -0.00084560251463388031 0.0020036092346146501 0 -0.0014197998144914875 0.0024421038712738089 0 -0.0010024951871753101 0.0023202037679901349 0 -0.0010572094574049721 0.0019874752496363028 0 -0.001185691843838691 0.0028042404037394906 0 -0.0012552353924592296 0.0022417475050144887 0 -0.0014197998144914875 0.0024421038712738089 0 -0.0010572094574049721 0.0019874752496363028 0 -0.0014363970799011107 0.001895327496254611 0 -0.0010572094574049721 0.0019874752496363028 0 -0.0012106608814822411 0.0016696095844819093 0 -0.0014363970799011107 0.001895327496254611 0 -0.001427815094989476 0.001456722995628805 0 -0.0012106608814822411 0.0016696095844819093 0 -0.0014363970799011107 0.001895327496254611 0 -0.0010572094574049721 0.0019874752496363028 0 -0.0012106608814822411 0.0016696095844819093 0 -0.00093267972666023476 0.0017158658894084267 0 -0.00073792375236747716 0.0020453012167927632 0 -0.0010572094574049721 0.0019874752496363028 0 -0.00093267972666023476 0.0017158658894084267 0 -0.0016140695605818699 0.0032109493713085376 0 -0.001742487858503089 0.0027383221556168276 0 -0.0013588876470372905 0.0028976357424667768 0 -0.001742487858503089 0.0027383221556168276 0 -0.0013588876470372905 0.0028976357424667768 0 -0.0014697598910983895 0.0024001785498224894 0 -0.0013588876470372905 0.0028976357424667768 0 -0.0010482409390136587 0.0025035748853059446 0 -0.0014697598910983895 0.0024001785498224894 0 -0.00096522816282465062 0.0031740786356174214 0 -0.0013588876470372905 0.0028976357424667768 0 -0.0010482409390136587 0.0025035748853059446 0 -0.0013238954748646769 0.0017407724592148088 0 -0.0012552353924592296 0.0022417475050144887 0 -0.0011915106621933802 0.0017867954702440107 0 -0.0010482409390136587 0.0025035748853059446 0 -0.0014697598910983895 0.0024001785498224894 0 -0.0016546056228381313 0.0020762379335770163 0 -0.0014697598910983895 0.0024001785498224894 0 -0.0018106542033617171 0.0023696214980369421 0 -0.001742487858503089 0.0027383221556168276 0 -0.0014697598910983895 0.0024001785498224894 0 -0.0018106542033617171 0.0023696214980369421 0 -0.0016546056228381313 0.0020762379335770163 0 -0.0018106542033617171 0.0023696214980369421 0 -0.0019406132490007227 0.0021557669771965454 0 -0.001742487858503089 0.0027383221556168276 0 -0.0018106542033617171 0.0023696214980369421 0 -0.0021885845552078896 0.0024286811973197372 0 -0.0018106542033617171 0.0023696214980369421 0 -0.0019406132490007227 0.0021557669771965454 0 -0.0021885845552078896 0.0024286811973197372 0 -0.0021691145186300076 0.0020954914614197307 0 -0.0021885845552078896 0.0024286811973197372 0 -0.0023777448561731764 0.0021476460543498757 0 -0.0021691145186300076 0.0020954914614197307 0 -0.0019406132490007227 0.0021557669771965454 0 -0.0021885845552078896 0.0024286811973197372 0 -0.0021885845552078896 0.0024286811973197372 0 -0.0026137514132879565 0.0022915632977334615 0 -0.0024540978046758335 0.002731287414032313 0 -0.0025818853106459472 0.0020125446645221251 0 -0.0026137514132879565 0.0022915632977334615 0 -0.0023777448561731764 0.0021476460543498757 0 -0.0021885845552078896 0.0024286811973197372 0 -0.0026137514132879565 0.0022915632977334615 0 -0.0023777448561731764 0.0021476460543498757 0 -0.001742487858503089 0.0027383221556168276 0 -0.0021885845552078896 0.0024286811973197372 0 -0.0020633994564019805 0.0029783736522135452 0 -0.0021885845552078896 0.0024286811973197372 0 -0.0024540978046758335 0.002731287414032313 0 -0.0020633994564019805 0.0029783736522135452 0 -0.0016140695605818699 0.0032109493713085376 0 -0.0020633994564019805 0.0029783736522135452 0 -0.0019718287737315351 0.0034479493074869179 0 -0.0020633994564019805 0.0029783736522135452 0 -0.0024704927985318855 0.0033431438238849085 0 -0.0019718287737315351 0.0034479493074869179 0 -0.0024540978046758335 0.002731287414032313 0 -0.0020633994564019805 0.0029783736522135452 0 -0.0024704927985318855 0.0033431438238849085 0 -0.0024540978046758335 0.002731287414032313 0 -0.0024704927985318855 0.0033431438238849085 0 -0.0028860725434296862 0.0030317244863592397 0 -0.0023279004997367736 0.0040329317942804132 0 -0.0024704927985318855 0.0033431438238849085 0 -0.0019718287737315351 0.0034479493074869179 0 -0.0023279004997367736 0.0040329317942804132 0 -0.0024704927985318855 0.0033431438238849085 0 -0.003102294997754787 0.0035523571105636684 0 -0.0022490856311983241 0.0041498774087289367 0 -0.0021202825997350167 0.0038426921913072161 0 -0.0023279004997367736 0.0040329317942804132 0 -0.0023051445909121264 0.004256987712200083 0 -0.0019718287737315351 0.0034479493074869179 0 -0.0018390658711836384 0.0037857532539138697 0 -0.0017497276677556476 0.0036744767577793513 0 -0.0019718287737315351 0.0034479493074869179 0 -0.001678860185376955 0.0035105090760603167 0 -0.0017497276677556476 0.0036744767577793513 0 -0.0019718287737315351 0.0034479493074869179 0 -0.003102294997754787 0.0035523571105636684 0 -0.0028860725434296862 0.0030317244863592397 0 -0.0039542394002586682 0.0031353825036675512 0 -0.0032948193979871034 0.0035544554967312935 0 -0.0039892460902071726 0.0036500825840603771 0 -0.0040654249368867624 0.0042491285349299966 0 -0.0027783144799502562 0.0038051607502480153 0 -0.0032494254729865941 0.0035452233136069773 0 -0.0024704927985318855 0.0033431438238849085 0 -0.003102294997754787 0.0035523571105636684 0 -0.0028860725434296862 0.0030317244863592397 0 -0.0032494254729865941 0.0035452233136069773 0 -0.0040218363390348176 0.0031241421138799843 0 -0.0032948193979871034 0.0035544554967312935 0 -0.0039892460902071726 0.0036500825840603771 0 -0.004173453781855776 0.0031040172465802052 0 -0.0028860725434296862 0.0030317244863592397 0 -0.0030993792714086401 0.0025335229356614891 0 -0.0039542394002586682 0.0031353825036675512 0 -0.0026137514132879565 0.0022915632977334615 0 -0.0024540978046758335 0.002731287414032313 0 -0.0030993792714086401 0.0025335229356614891 0 -0.0024540978046758335 0.002731287414032313 0 -0.0028860725434296862 0.0030317244863592397 0 -0.0030993792714086401 0.0025335229356614891 0 -0.0029462353000514374 0.0019716611304840723 0 -0.0026137514132879565 0.0022915632977334615 0 -0.0030993792714086401 0.0025335229356614891 0 -0.0029462353000514374 0.0019716611304840723 0 -0.0030993792714086401 0.0025335229356614891 0 -0.0033514659806843481 0.0021348892688826935 0 -0.0030993792714086401 0.0025335229356614891 0 -0.0033514659806843481 0.0021348892688826935 0 -0.0036834383382795964 0.0023601705462349895 0 -0.0035990273146037986 0.0031698876507605164 0 -0.0038518111796817496 0.0034045169482651056 0 -0.0037043860517871107 0.0020328813322069888 0 -0.0033514659806843481 0.0021348892688826935 0 -0.0036834383382795964 0.0023601705462349895 0 -0.0030993792714086401 0.0025335229356614891 0 -0.004110511820368078 0.0022762043981763725 0 -0.0039542394002586682 0.0031353825036675512 0 -0.004110511820368078 0.0022762043981763725 0 -0.0049691380376740858 0.0026248180357435627 0 -0.0039542394002586682 0.0031353825036675512 0 -0.0045010080112741109 0.0028600705823447585 0 -0.0040218363390348176 0.0031241421138799843 0 -0.0039246447969543685 0.0020489497756106777 0 -0.0036834383382795964 0.0023601705462349895 0 -0.0042022239088604285 0.0022315471514069481 0 -0.004110511820368078 0.0022762043981763725 0 -0.0051928273153774868 0.0020574247964002135 0 -0.0049691380376740858 0.0026248180357435627 0 -0.0039246447969543685 0.0020489497756106777 0 -0.0037043860517871107 0.0020328813322069888 0 -0.0036834383382795964 0.0023601705462349895 0 -0.0038518111796817496 0.0034045169482651056 0 -0.002974037109511659 0.0047009576155227183 0 -0.002794737342240357 0.0070807548680802803 0 -0.0025375415545910145 0.0069260485255757355 0 -0.0027208290434894309 0.0067421248169550335 0 -0.002794737342240357 0.0070807548680802803 0 -0.0024302698551498798 0.0071653882919015515 0 -0.0025375415545910145 0.0069260485255757355 0 -0.002974037109511659 0.0047009576155227183 0 -0.002091414684653035 0.0064077641340873782 0 -0.0025375415545910145 0.0069260485255757355 0 -0.0024560541195314629 0.0066828328813341477 0 -0.0027208290434894309 0.0067421248169550335 0 -0.0051928273153774868 0.0020574247964002135 0 -0.0053390670805629481 0.0028124833192883542 0 -0.0049691380376740858 0.0026248180357435627 0 -0.0053390670805629481 0.0028124833192883542 0 -0.0049691380376740858 0.0026248180357435627 0 -0.0048988841764906269 0.0032553676860588923 0 -0.002974037109511659 0.0047009576155227183 0 -0.003139264871987929 0.0054100615014241269 0 -0.0053390670805629481 0.0028124833192883542 0 -0.0054940730411119389 0.0034880311658475839 0 -0.0048988841764906269 0.0032553676860588923 0 -0.0054940730411119389 0.0034880311658475839 0 -0.0048988841764906269 0.0032553676860588923 0 -0.0049843592902213685 0.0042880480810589669 0 -0.003139264871987929 0.0054100615014241269 0 -0.003100451278156204 0.007026951505514703 0 -0.0024560541195314629 0.0066828328813341477 0 -0.0027208290434894309 0.0067421248169550335 0 -0.0026505367596273187 0.0064068453156258956 0 -0.0020781401400063598 0.0084622244818899767 0 -0.003100451278156204 0.007026951505514703 0 -0.0017359201296609243 0.011979912219953736 0 -0.0020140513673701896 0.011615351513051913 0 -0.0016170962633235966 0.011688545980237918 0 -0.003100451278156204 0.007026951505514703 0 -0.0027241470112340897 0.0086099396983443308 0 -0.0020140513673701896 0.011615351513051913 0 -0.0016163799367106401 0.011338331609805578 0 -0.0019091322229046772 0.011043480723362665 0 -0.0020140513673701896 0.011615351513051913 0 -0.0016170962633235966 0.011688545980237918 0 -0.0016163799367106401 0.011338331609805578 0 -0.003100451278156204 0.007026951505514703 0 -0.0043008038136494869 0.0054123694329663557 0 -0.0044154966030362465 0.0037035532456829363 0 -0.0048988841764906269 0.0032553676860588923 0 -0.0049843592902213685 0.0042880480810589669 0 -0.0039892460902071726 0.0036500825840603771 0 -0.0044154966030362465 0.0037035532456829363 0 -0.0040654249368867624 0.0042491285349299966 0 -0.0039892460902071726 0.0036500825840603771 0 -0.0044154966030362465 0.0037035532456829363 0 -0.004173453781855776 0.0031040172465802052 0 -0.0049691380376740858 0.0026248180357435627 0 -0.004173453781855776 0.0031040172465802052 0 -0.0048988841764906269 0.0032553676860588923 0 -0.0044154966030362465 0.0037035532456829363 0 -0.004173453781855776 0.0031040172465802052 0 -0.0048988841764906269 0.0032553676860588923 0 -0.00079851435559677095 0.012236414522855548 0 -0.0010118589096918128 0.012030427522784539 0 -0.00063830920969351092 0.011946907393944569 0 -0.00057968306047176833 0.012174415739311091 0 -0.00079851435559677095 0.012236414522855548 0 -0.00063830920969351092 0.011946907393944569 0 -0.00062636236490036729 0.012352149609225453 0 -0.00057968306047176833 0.012174415739311091 0 -0.00079851435559677095 0.012236414522855548 0 -0.00062636236490036729 0.012352149609225453 0 -0.00079851435559677095 0.012236414522855548 0 -0.00076230653595136177 0.01241787936819979 0 -0.00062968851906957258 0.01253462393757303 0 -0.00062636236490036729 0.012352149609225453 0 -0.00076230653595136177 0.01241787936819979 0 -0.00087213415941459914 0.012469653150962531 0 -0.00076230653595136177 0.01241787936819979 0 -0.0008822296381121097 0.012383571887597764 0 -0.00079851435559677095 0.012236414522855548 0 -0.00076230653595136177 0.01241787936819979 0 -0.0008822296381121097 0.012383571887597764 0 -0.00079851435559677095 0.012236414522855548 0 -0.0008822296381121097 0.012383571887597764 0 -0.0010097737665147907 0.012322663171587995 0 -0.0008822296381121097 0.012383571887597764 0 -0.00096692760528971128 0.01245742178901168 0 -0.0010097737665147907 0.012322663171587995 0 -0.00087213415941459914 0.012469653150962531 0 -0.0008822296381121097 0.012383571887597764 0 -0.00096692760528971128 0.01245742178901168 0 -0.00096692760528971128 0.01245742178901168 0 -0.0010645344514050637 0.012450755014855991 0 -0.0010097737665147907 0.012322663171587995 0 -0.0010645344514050637 0.012450755014855991 0 -0.0010097737665147907 0.012322663171587995 0 -0.0012008890606323849 0.012373281682964549 0 -0.0010097737665147907 0.012322663171587995 0 -0.0010118589096918128 0.012030427522784539 0 -0.0011913995534368054 0.012221913436851202 0 -0.00079851435559677095 0.012236414522855548 0 -0.0010097737665147907 0.012322663171587995 0 -0.0010118589096918128 0.012030427522784539 0 -0.00098715449960573858 0.011977970675674897 0 -0.0014511075414204294 0.012121002101466403 0 -0.0013311805741854168 0.011792586343070519 0 -0.0010118589096918128 0.012030427522784539 0 -0.0011913995534368054 0.012221913436851202 0 -0.0014511075414204294 0.012121002101466403 0 -0.00097621775820827626 0.012011755881384575 0 -0.0011868304515665815 0.012069538578666095 0 -0.0011913995534368054 0.012221913436851202 0 -0.0013314078654443403 0.012244811681266194 0 -0.0014511075414204294 0.012121002101466403 0 -0.0014688463544003754 0.008137701158907695 0 -0.0016045635096747113 0.0087707293183378124 0 -0.0010097737665147907 0.012322663171587995 0 -0.0011913995534368054 0.012221913436851202 0 -0.0012008890606323849 0.012373281682964549 0 -0.0012310163468319791 0.012531044348492192 0 -0.0012008890606323849 0.012373281682964549 0 -0.0014592607160891428 0.012290444069363186 0 -0.0011227088436374518 0.012540880726058828 0 -0.0010645344514050637 0.012450755014855991 0 -0.0012008890606323849 0.012373281682964549 0 -0.0012008890606323849 0.012373281682964549 0 -0.0013314078654443403 0.012244811681266194 0 -0.0014592607160891428 0.012290444069363186 0 -0.0011913995534368054 0.012221913436851202 0 -0.0012008890606323849 0.012373281682964549 0 -0.0013314078654443403 0.012244811681266194 0 -0.0020579027993466951 0.0072491146740580577 0 -0.0024302698551498798 0.0071653882919015515 0 -0.0022574385595129812 0.0069624608520472992 0 -0.0024302698551498798 0.0071653882919015515 0 -0.0025375415545910145 0.0069260485255757355 0 -0.0022574385595129812 0.0069624608520472992 0 -0.0020781401400063598 0.0084622244818899767 0 -0.0016045635096747113 0.0087707293183378124 0 -0.0017359201296609243 0.011979912219953736 0 -0.0014592607160891428 0.012290444069363186 0 -0.0014511075414204294 0.012121002101466403 0 -0.0025375415545910145 0.0069260485255757355 0 -0.0024560541195314629 0.0066828328813341477 0 -0.0022574385595129812 0.0069624608520472992 0 -0.0013314078654443403 0.012244811681266194 0 -0.0014592607160891428 0.012290444069363186 0 -0.0014511075414204294 0.012121002101466403 0 -0.0017359201296609243 0.011979912219953736 0 -0.0014511075414204294 0.012121002101466403 0 -0.001532581016041378 0.011897082830878477 0 -0.0014511075414204294 0.012121002101466403 0 -0.001532581016041378 0.011897082830878477 0 -0.0013311805741854168 0.011792586343070519 0 -0.0017359201296609243 0.011979912219953736 0 -0.001532581016041378 0.011897082830878477 0 -0.0016170962633235966 0.011688545980237918 0 -0.001532581016041378 0.011897082830878477 0 -0.0016170962633235966 0.011688545980237918 0 -0.0013311805741854168 0.011792586343070519 0 -0.0016170962633235966 0.011688545980237918 0 -0.0013729999894271261 0.011542584151918346 0 -0.0013311805741854168 0.011792586343070519 0 -0.0016170962633235966 0.011688545980237918 0 -0.0016163799367106401 0.011338331609805578 0 -0.0013729999894271261 0.011542584151918346 0 -0.0016163799367106401 0.011338331609805578 0 -0.0013729999894271261 0.011542584151918346 0 -0.0012751935754647867 0.011270227891235825 0 -0.0013729999894271261 0.011542584151918346 0 -0.0010905463412976908 0.01156855936652329 0 -0.0013311805741854168 0.011792586343070519 0 -0.0013729999894271261 0.011542584151918346 0 -0.0010905463412976908 0.01156855936652329 0 -0.0012751935754647867 0.011270227891235825 0 -0.0010905463412976908 0.01156855936652329 0 -0.0010958741794243865 0.011283378667042515 0 -0.0012751935754647867 0.011270227891235825 0 -0.00098715449960573858 0.011977970675674897 0 -0.0010905463412976908 0.01156855936652329 0 -0.0013311805741854168 0.011792586343070519 0 -0.00098715449960573858 0.011977970675674897 0 -0.0010905463412976908 0.01156855936652329 0 -0.00080173098355895971 0.011708059383007879 0 -0.0010905463412976908 0.01156855936652329 0 -0.00081569894402501171 0.011434403138672534 0 -0.0010958741794243865 0.011283378667042515 0 -0.0010905463412976908 0.01156855936652329 0 -0.00080173098355895971 0.011708059383007879 0 -0.00081569894402501171 0.011434403138672534 0 -0.00045635654721410996 0.011620092706302007 0 -0.00080173098355895971 0.011708059383007879 0 -0.00081569894402501171 0.011434403138672534 0 -0.00045635654721410996 0.011620092706302007 0 -0.00080173098355895971 0.011708059383007879 0 -0.00057953295265541593 0.011880711412517479 0 -0.00097621775820827626 0.012011755881384575 0 -0.00063898509285281963 0.011923360316391409 0 -0.00098715449960573858 0.011977970675674897 0 -0.00080173098355895971 0.011708059383007879 0 -0.00057953295265541593 0.011880711412517479 0 -0.00035369764875923442 0.011213036671323146 0 -0.00081569894402501171 0.011434403138672534 0 -0.00089623773345457716 0.011081474695577114 0 -0.00035369764875923442 0.011213036671323146 0 -0.00058245846090015062 0.010790510625532525 0 -0.00089623773345457716 0.011081474695577114 0 -0.00087680489031046285 0.011135683961991548 0 -0.00090256082388913167 0.010909040680301994 0 -0.00081569894402501171 0.011434403138672534 0 -0.0010958741794243865 0.011283378667042515 0 -0.00086294973380063777 0.010881440049357531 0 -0.00086294973380063777 0.010881440049357531 0 -0.001201562746637355 0.010997228500080733 0 -0.0012523917318515113 0.010582733181029183 0 -0.0010958741794243865 0.011283378667042515 0 -0.00086294973380063777 0.010881440049357531 0 -0.001201562746637355 0.010997228500080733 0 -0.001201562746637355 0.010997228500080733 0 -0.001516540639254283 0.010820358984805038 0 -0.0012523917318515113 0.010582733181029183 0 -0.001201562746637355 0.010997228500080733 0 -0.0012751935754647867 0.011270227891235825 0 -0.001516540639254283 0.010820358984805038 0 -0.0010958741794243865 0.011283378667042515 0 -0.001201562746637355 0.010997228500080733 0 -0.0012751935754647867 0.011270227891235825 0 -0.0012751935754647867 0.011270227891235825 0 -0.0016546868589919679 0.010641623767894084 0 -0.0014340086512288149 0.0097708704371479906 0 -0.0016163799367106401 0.011338331609805578 0 -0.0012751935754647867 0.011270227891235825 0 -0.0016546868589919679 0.010641623767894084 0 -0.0016163799367106401 0.011338331609805578 0 -0.0016546868589919679 0.010641623767894084 0 -0.0022769925747088281 0.010664383905507264 0 -0.0016546868589919679 0.010641623767894084 0 -0.0017669255472921547 0.010150201566152445 0 -0.0022769925747088281 0.010664383905507264 0 -0.0014169130800725991 0.010727818396805183 0 -0.0015264099386571278 0.010303325593167014 0 -0.0016546868589919679 0.010641623767894084 0 -0.0017669255472921547 0.010150201566152445 0 -0.0014340086512288149 0.0097708704371479906 0 -0.0017669255472921547 0.010150201566152445 0 -0.0014340086512288149 0.0097708704371479906 0 -0.0018959892347288809 0.009694546597667603 0 -0.0014340086512288149 0.0097708704371479906 0 -0.0017212196516584639 0.0090744695933302529 0 -0.0018959892347288809 0.009694546597667603 0 -0.001516540639254283 0.010820358984805038 0 -0.0017148166928090984 0.0102391989638699 0 -0.0012523917318515113 0.010582733181029183 0 -0.0015264099386571278 0.010303325593167014 0 -0.0016978583723456563 0.0097276654847972353 0 -0.0017148166928090984 0.0102391989638699 0 -0.0012523917318515113 0.010582733181029183 0 -0.0012605903808310295 0.010164297214145851 0 -0.00086294973380063777 0.010881440049357531 0 -0.0012523917318515113 0.010582733181029183 0 -0.00093611638566290436 0.010377995816126253 0 -0.00090256082388913167 0.010909040680301994 0 -0.00094950438301330629 0.010508972245362617 0 -0.0012523917318515113 0.010582733181029183 0 -0.00093611638566290436 0.010377995816126253 0 -0.0012605903808310295 0.010164297214145851 0 -0.00058245846090015062 0.010790510625532525 0 -0.0010079948008635902 0.010556344441565137 0 -0.00069555787112038901 0.010310048401460244 0 -0.00058245846090015062 0.010790510625532525 0 -0.00089623773345457716 0.011081474695577114 0 -0.0010079948008635902 0.010556344441565137 0 -0.0041788294600029197 0.0058944496897237334 0 -0.0041816940274178767 0.0058720761676521642 0 -0.0041540104109205177 0.0058687864728410831 0 -0.0040654249368867624 0.0042491285349299966 0 -0.0049843592902213685 0.0042880480810589669 0 -0.0044789489568479671 0.0051386855398841353 0 -0.0043008038136494869 0.0054123694329663557 0 -0.0042460723060207001 0.0055594641944232996 0 -0.003912283428776627 0.0047901686692694099 0 -0.0035969828588800251 0.0051781151380180792 0 -0.0044789489568479671 0.0051386855398841353 0 -0.003912283428776627 0.0047901686692694099 0 -0.0040654249368867624 0.0042491285349299966 0 -0.0044789489568479671 0.0051386855398841353 0 -0.0044154966030362465 0.0037035532456829363 0 -0.0040654249368867624 0.0042491285349299966 0 -0.0049843592902213685 0.0042880480810589669 0 -0.0041377114283944784 0.0059579594169467398 0 -0.0041788294600029197 0.0058944496897237334 0 -0.0041324154385185812 0.0058966642492774037 0 -0.0020530482141841448 0.0095067775553444745 0 -0.0027241470112340897 0.0086099396983443308 0 -0.0017669255472921547 0.010150201566152445 0 -0.0022769925747088281 0.010664383905507264 0 -0.0018959892347288809 0.009694546597667603 0 -0.0027241470112340897 0.0086099396983443308 0 -0.0026906312794220894 0.0091378411740752393 0 -0.0019499104792723345 0.0099147863409013732 0 -0.0018959892347288809 0.009694546597667603 0 -0.0021971868205486627 0.0095972254047717066 0 -0.0041788294600029197 0.0058944496897237334 0 -0.0041324154385185812 0.0058966642492774037 0 -0.0041816940274178767 0.0058720761676521642 0 -0.0027241470112340897 0.0086099396983443308 0 -0.0031556663445858071 0.0079449814188703241 0 -0.0021971868205486627 0.0095972254047717066 0 -0.0020302108009863035 0.0093462039764002879 0 -0.0021859395368288952 0.0092460816952098478 0 -0.0018959892347288809 0.009694546597667603 0 -0.0021971868205486627 0.0095972254047717066 0 -0.0020302108009863035 0.0093462039764002879 0 -0.0017212196516584639 0.0090744695933302529 0 -0.0018959892347288809 0.009694546597667603 0 -0.0020302108009863035 0.0093462039764002879 0 -0.0017212196516584639 0.0090744695933302529 0 -0.0020302108009863035 0.0093462039764002879 0 -0.0020454904611271812 0.0090275320670586724 0 -0.0020302108009863035 0.0093462039764002879 0 -0.0021859395368288952 0.0092460816952098478 0 -0.0020454904611271812 0.0090275320670586724 0 -0.0021859395368288952 0.0092460816952098478 0 -0.0022081815963706014 0.008999737911446995 0 -0.0020454904611271812 0.0090275320670586724 0 -0.0021859395368288952 0.0092460816952098478 0 -0.0024167342122948807 0.0092141857277967636 0 -0.0022081815963706014 0.008999737911446995 0 -0.0031556663445858071 0.0079449814188703241 0 -0.0032473705243351966 0.0077397792753010793 0 -0.0041816940274178767 0.0058720761676521642 0 -0.0041548229025631404 0.0059819428631100943 0 -0.0041540104109205177 0.0058687864728410831 0 -0.0021971868205486627 0.0095972254047717066 0 -0.0021859395368288952 0.0092460816952098478 0 -0.0024167342122948807 0.0092141857277967636 0 -0.0040903299589038818 0.005811682567181637 0 -0.0042460723060207001 0.0055594641944232996 0 -0.0035896843736742288 0.0056847217353466969 0 -0.0039528302615965483 0.0060934110262939089 0 -0.0044789489568479671 0.0051386855398841353 0 -0.0032473705243351966 0.0077397792753010793 0 -0.0031777878448399043 0.0077510224418533853 0 -0.0039528302615965483 0.0060934110262939089 0 -0.0041548229025631404 0.0059819428631100943 0 -0.0039699743599191546 0.0064151298507651019 0 -0.0039528302615965483 0.0060934110262939089 0 -0.0041548229025631404 0.0059819428631100943 0 -0.0041540104109205177 0.0058687864728410831 0 -0.0024167342122948807 0.0092141857277967636 0 -0.0025292810883875143 0.0087587948817022393 0 -0.0023136090708804628 0.0087825923301812266 0 -0.0024167342122948807 0.0092141857277967636 0 -0.0025292810883875143 0.0087587948817022393 0 -0.0027736422804505623 0.0087803825925280923 0 -0.0025292810883875143 0.0087587948817022393 0 -0.0025180833640131763 0.008534739226076931 0 -0.0023136090708804628 0.0087825923301812266 0 -0.0025292810883875143 0.0087587948817022393 0 -0.0025180833640131763 0.008534739226076931 0 -0.0026993040091388815 0.0084562746447690712 0 -0.0025180833640131763 0.008534739226076931 0 -0.0021983656887493838 0.0085530117018097953 0 -0.0028655609194680903 0.008117896084081035 0 -0.0025180833640131763 0.008534739226076931 0 -0.0023136090708804628 0.0087825923301812266 0 -0.0021983656887493838 0.0085530117018097953 0 -0.0021204215028249335 0.0087888547458302348 0 -0.0020653681499538303 0.0087219383058764512 0 -0.0021983656887493838 0.0085530117018097953 0 -0.0023136090708804628 0.0087825923301812266 0 -0.0021204215028249335 0.0087888547458302348 0 -0.0021983656887493838 0.0085530117018097953 0 -0.0024167342122948807 0.0092141857277967636 0 -0.0023136090708804628 0.0087825923301812266 0 -0.0022081815963706014 0.008999737911446995 0 -0.0023136090708804628 0.0087825923301812266 0 -0.0022081815963706014 0.008999737911446995 0 -0.0021204215028249335 0.0087888547458302348 0 -0.0020454904611271812 0.0090275320670586724 0 -0.0019302277164405916 0.0087480203469783857 0 -0.0021204215028249335 0.0087888547458302348 0 -0.0022081815963706014 0.008999737911446995 0 -0.0020454904611271812 0.0090275320670586724 0 -0.0021204215028249335 0.0087888547458302348 0 -0.0017212196516584639 0.0090744695933302529 0 -0.0020454904611271812 0.0090275320670586724 0 -0.0019302277164405916 0.0087480203469783857 0 -0.0019302277164405916 0.0087480203469783857 0 -0.0021204215028249335 0.0087888547458302348 0 -0.0020653681499538303 0.0087219383058764512 0 -0.0020653681499538303 0.0087219383058764512 0 -0.0019680121336629417 0.0089056566169213036 0 -0.0020722200987701943 0.0087691159917130702 0 -0.0019302277164405916 0.0087480203469783857 0 -0.0020653681499538303 0.0087219383058764512 0 -0.0019680121336629417 0.0089056566169213036 0 -0.0018373133210147408 0.0092865121974011651 0 -0.0018942530053555895 0.0090950687380118248 0 -0.0019680121336629417 0.0089056566169213036 0 -0.0020722200987701943 0.0087691159917130702 0 -0.0020332108051653425 0.0087822920263775552 0 -0.0020722200987701943 0.0087691159917130702 0 -0.0020876962579517932 0.008762652987983623 0 -0.0020332108051653425 0.0087822920263775552 0 -0.0020722200987701943 0.0087691159917130702 0 -0.0020876962579517932 0.008762652987983623 0 -0.0021023446987097931 0.0087347597112873293 0 -0.0020722200987701943 0.0087691159917130702 0 -0.0021023446987097931 0.0087347597112873293 0 -0.0021222093128111458 0.008690363504455078 0 -0.0021023446987097931 0.0087347597112873293 0 -0.0020800304447121331 0.0087690923176675824 0 -0.0021029794309942794 0.0086825865861464655 0 -0.0020876962579517932 0.008762652987983623 0 -0.0021023446987097931 0.0087347597112873293 0 -0.0020800304447121331 0.0087690923176675824 0 -0.0020876962579517932 0.008762652987983623 0 -0.0020800304447121331 0.0087690923176675824 0 -0.0020818776054054686 0.0087581264990995011 0 -0.00076788462853792996 0.0090950111506499266 0 -0.0010321484465955187 0.0090502865702900472 0 -0.0020246219987747581 0.0087750219881313363 0 -0.0019915527515006744 0.0086101227878593659 0 -0.0019522481577528268 0.0087111087903111502 0 -0.0020246219987747581 0.0087750219881313363 0 -0.0019844773121244679 0.0088032891738908919 0 -0.0019522481577528268 0.0087111087903111502 0 -0.0019915527515006744 0.0086101227878593659 0 -0.0021983656887493838 0.0085530117018097953 0 -0.0018878356800287109 0.0085477071732352403 0 -0.0020800304447121331 0.0087690923176675824 0 -0.0021029794309942794 0.0086825865861464655 0 -0.0019915527515006744 0.0086101227878593659 0 -0.0022644931469561558 0.0074902316691867485 0 -0.0020838591439475175 0.0072248047758287203 0 -0.0021029794309942794 0.0086825865861464655 0 -0.0019915527515006744 0.0086101227878593659 0 -0.0021983656887493838 0.0085530117018097953 0 -0.0020653681499538303 0.0087219383058764512 0 -0.0021983656887493838 0.0085530117018097953 0 -0.0021222093128111458 0.008690363504455078 0 -0.0020653681499538303 0.0087219383058764512 0 -0.0020722200987701943 0.0087691159917130702 0 -0.0021222093128111458 0.008690363504455078 0 -0.0021023446987097931 0.0087347597112873293 0 -0.0021029794309942794 0.0086825865861464655 0 -0.0021222093128111458 0.008690363504455078 0 -0.0021029794309942794 0.0086825865861464655 0 -0.0021983656887493838 0.0085530117018097953 0 -0.0021222093128111458 0.008690363504455078 0 -0.00056017552693790845 0.0099714236224871522 0 -0.0010384510254615302 0.0098994315366272758 0 -0.00092327680904725519 0.0095133892620453235 0 -0.00056017552693790845 0.0099714236224871522 0 -0.00043242748201875172 0.0095480317514010024 0 -0.00092327680904725519 0.0095133892620453235 0 -0.0010079948008635902 0.010556344441565137 0 -0.00069555787112038901 0.010310048401460244 0 -0.0010384510254615302 0.0098994315366272758 0 -0.00056017552693790845 0.0099714236224871522 0 -0.00069555787112038901 0.010310048401460244 0 -0.0010384510254615302 0.0098994315366272758 0 -0.00094950438301330629 0.010508972245362617 0 -0.00097651331915290726 0.010259379864605081 0 -0.00093611638566290436 0.010377995816126253 0 -0.0010384510254615302 0.0098994315366272758 0 -0.0012605903808310295 0.010164297214145851 0 -0.0010384510254615302 0.0098994315366272758 0 -0.0013946675342712445 0.0097348323268514388 0 -0.00092327680904725519 0.0095133892620453235 0 -0.0010384510254615302 0.0098994315366272758 0 -0.0013946675342712445 0.0097348323268514388 0 -0.0012605903808310295 0.010164297214145851 0 -0.0017148166928090984 0.0102391989638699 0 -0.0013946675342712445 0.0097348323268514388 0 -0.0012605903808310295 0.010164297214145851 0 -0.0016978583723456563 0.0097276654847972353 0 -0.0018373133210147408 0.0092865121974011651 0 -0.0017148166928090984 0.0102391989638699 0 -0.0018743102889442584 0.0096290908512591585 0 -0.0013946675342712445 0.0097348323268514388 0 -0.0018743102889442584 0.0096290908512591585 0 -0.0019680121336629417 0.0089056566169213036 0 -0.001379166137063766 0.0092163331556745064 0 -0.0019680121336629417 0.0089056566169213036 0 -0.001379166137063766 0.0092163331556745064 0 -0.0016879549098419953 0.0088269030721679458 0 -0.0018743102889442584 0.0096290908512591585 0 -0.0013946675342712445 0.0097348323268514388 0 -0.001379166137063766 0.0092163331556745064 0 -0.001379166137063766 0.0092163331556745064 0 -0.0012849583271594602 0.0088722438488471698 0 -0.0016879549098419953 0.0088269030721679458 0 -0.0013946675342712445 0.0097348323268514388 0 -0.001379166137063766 0.0092163331556745064 0 -0.00092327680904725519 0.0095133892620453235 0 -0.001379166137063766 0.0092163331556745064 0 -0.00076603199640802339 0.0090861395783084168 0 -0.00092327680904725519 0.0095133892620453235 0 -0.001379166137063766 0.0092163331556745064 0 -0.00076603199640802339 0.0090861395783084168 0 -0.0012849583271594602 0.0088722438488471698 0 -0.00043242748201875172 0.0095480317514010024 0 -0.00076603199640802339 0.0090861395783084168 0 -0.00092327680904725519 0.0095133892620453235 0 -0.0010587084976666711 0.0086943612605964431 0 -0.0010780435554038866 0.0087600101836821792 0 -0.0011393293522420824 0.0086187542945066024 0 -0.00098956426378979585 0.0087887813866527262 0 -0.0010587084976666711 0.0086943612605964431 0 -0.0010780435554038866 0.0087600101836821792 0 -0.00098956426378979585 0.0087887813866527262 0 -0.0010370004249378386 0.0089128125119577531 0 -0.0010780435554038866 0.0087600101836821792 0 -0.00088313395632837568 0.0091274054454694217 0 -0.0009641692243909524 0.0089683294796573439 0 -0.00076603199640802339 0.0090861395783084168 0 -0.0010780435554038866 0.0087600101836821792 0 -0.0012849583271594602 0.0088722438488471698 0 -0.0010780435554038866 0.0087600101836821792 0 -0.0013112739178821049 0.0086676224716157081 0 -0.0011393293522420824 0.0086187542945066024 0 -0.0010780435554038866 0.0087600101836821792 0 -0.0013112739178821049 0.0086676224716157081 0 -0.0012849583271594602 0.0088722438488471698 0 -0.0013112739178821049 0.0086676224716157081 0 -0.0012849583271594602 0.0088722438488471698 0 -0.0015136504445338698 0.0087182713019370705 0 -0.0013112739178821049 0.0086676224716157081 0 -0.0015136504445338698 0.0087182713019370705 0 -0.0015352643208368507 0.0085994448710428172 0 -0.0012849583271594602 0.0088722438488471698 0 -0.0016879549098419953 0.0088269030721679458 0 -0.0015136504445338698 0.0087182713019370705 0 -0.0016879549098419953 0.0088269030721679458 0 -0.0017150676306859609 0.0086638592899226981 0 -0.0015136504445338698 0.0087182713019370705 0 -0.0017150676306859609 0.0086638592899226981 0 -0.0015352643208368507 0.0085994448710428172 0 -0.0017790386617019111 0.0085021787654047803 0 -0.0017150676306859609 0.0086638592899226981 0 -0.0015136504445338698 0.0087182713019370705 0 -0.0015352643208368507 0.0085994448710428172 0 -0.00042003391414826695 0.0088337351549375928 0 -3.1836050721855079e-05 0.0088669338384110199 0 -0.0015352643208368507 0.0085994448710428172 0 -0.0013641638558150376 0.0084772796980558014 0 -0.0017790386617019111 0.0085021787654047803 0 0.0009834744133572534 0.0088102286017799469 0 0.00056002978374426889 0.0087042692022112761 0 0.0013125376896239559 0.0084512728798135824 0 0.0009834744133572534 0.0088102286017799469 0 0.00091539349510931197 0.0092032334009267431 0 0.0014710486665792408 0.0086651180360737788 0 0.0009834744133572534 0.0088102286017799469 0 0.00091539349510931197 0.0092032334009267431 0 0.00064927074629782635 0.0090369615332139691 0 0.00091539349510931197 0.0092032334009267431 0 0.00064927074629782635 0.0090369615332139691 0 0.00060892301633302427 0.0093783680531072788 0 0.0009834744133572534 0.0088102286017799469 0 0.00064927074629782635 0.0090369615332139691 0 0.00056002978374426889 0.0087042692022112761 0 0.00029609816960294563 0.0090927683481369318 0 0.00056002978374426889 0.0087042692022112761 0 -0.00033221046012502217 0.0089626197820428938 0 0.00064927074629782635 0.0090369615332139691 0 0.00029609816960294563 0.0090927683481369318 0 0.00056002978374426889 0.0087042692022112761 0 0.00064927074629782635 0.0090369615332139691 0 0.00029609816960294563 0.0090927683481369318 0 0.00060892301633302427 0.0093783680531072788 0 -0.0013112739178821049 0.0086676224716157081 0 -0.0013641638558150376 0.0084772796980558014 0 -0.0011393293522420824 0.0086187542945066024 0 -0.0013112739178821049 0.0086676224716157081 0 -0.0015352643208368507 0.0085994448710428172 0 -0.0013641638558150376 0.0084772796980558014 0 -0.0013641638558150376 0.0084772796980558014 0 -0.0011393293522420824 0.0086187542945066024 0 -0.001039655137552693 0.0086542352455574768 0 -0.00042003391414826695 0.0088337351549375928 0 -0.00083032691632287212 0.008957315531772805 0 0.00029609816960294563 0.0090927683481369318 0 -0.00033221046012502217 0.0089626197820428938 0 -2.0376106851516312e-05 0.0093941333742120978 0 -0.00033221046012502217 0.0089626197820428938 0 -0.0009712968403067418 0.0093130397747503719 0 -0.0014843597902091232 0.0093366116360647858 0 -0.00083032691632287212 0.008957315531772805 0 -0.0011710667765313491 0.0091026156719274925 0 -0.0013516003097153487 0.0088498367268617737 0 -0.001039655137552693 0.0086542352455574768 0 -0.0011093956030223549 0.0086095147058638122 0 -0.0013516003097153487 0.0088498367268617737 0 -0.001039655137552693 0.0086542352455574768 0 -0.0014843597902091232 0.0093366116360647858 0 -0.0011393293522420824 0.0086187542945066024 0 -0.001039655137552693 0.0086542352455574768 0 -0.0011093956030223549 0.0086095147058638122 0 -0.00097350047789076665 0.0086812500731414631 0 -0.0010587084976666711 0.0086943612605964431 0 -0.0011093956030223549 0.0086095147058638122 0 -0.0010587084976666711 0.0086943612605964431 0 -0.0011393293522420824 0.0086187542945066024 0 -0.0011093956030223549 0.0086095147058638122 0 0.0030309796659333701 0.010559825529793763 0 0.0030266210035467837 0.010786617085405461 0 0.0031825221971193383 0.010924212564386302 0 0.0030309796659333701 0.010559825529793763 0 0.0030266210035467837 0.010786617085405461 0 0.0029001042044082513 0.010835004828651261 0 0.0029850542838530726 0.010664318861409696 0 0.0029111835299675758 0.010756346520803681 0 0.0028848166532197757 0.010907974593594182 0 -0.00028501668458426853 0.0066817298210179281 0 -0.00023144882804741748 0.0067004193636466952 0 -0.00021811970300984838 0.0068362489820946518 0 0.00045329085325869115 0.0088180284915349311 0 0.0010383215115201106 0.0097000178950231684 0 0.00045329085325869115 0.0088180284915349311 0 0.00071670306246721083 0.0079713208828709938 0 0.00045329085325869115 0.0088180284915349311 0 0.00069511072274180518 0.0090694444212100784 0 -0.0021244152334264376 0.0086881347572229841 0 -0.0020506248351867574 0.0087091303526167629 0 -0.0020646822692741975 0.0086174839874393529 0 0.0029850542838530726 0.010664318861409696 0 0.0029111835299675758 0.010756346520803681 0 0.0028571586873450891 0.010778924551858483 0 0.0029111835299675758 0.010756346520803681 0 0.0028589536034696198 0.010779625691458917 0 0.0028848166532197757 0.010907974593594182 0 0.00073875941812454222 0.0090705921286582392 0 0.00069511072274180518 0.0090694444212100784 0 -0.00017293204902990255 0.0067253877632071227 0 -0.00023144882804741748 0.0067004193636466952 0 -0.00021811970300984838 0.0068362489820946518 0 -0.00017293204902990255 0.0067253877632071227 0 -0.00015514798083878336 0.0067848534788293308 0 -0.00012628732281726166 0.0067427184759877882 0 -0.00017293204902990255 0.0067253877632071227 0 -0.00018519554614324156 0.0066585066736496749 0 -0.0001010936398777243 0.0066612319275647864 0 -0.00017293204902990255 0.0067253877632071227 0 -0.00023144882804741748 0.0067004193636466952 0 -0.00018519554614324156 0.0066585066736496749 0 -0.00028501668458426853 0.0066817298210179281 0 -0.00023144882804741748 0.0067004193636466952 0 -0.00018519554614324156 0.0066585066736496749 0 -0.0020246219987747581 0.0087750219881313363 0 -0.0020591626921354664 0.0088770622634801177 0 -0.0019844773121244679 0.0088032891738908919 0 0.00045329085325869115 0.0088180284915349311 0 -0.00048851165615838995 0.008073461667564381 0 -0.00028501668458426853 0.0066817298210179281 0 -0.00018519554614324156 0.0066585066736496749 0 -0.00016181169336372929 0.0065621624320911761 0 -0.00018519554614324156 0.0066585066736496749 0 -0.00016181169336372929 0.0065621624320911761 0 -0.0001010936398777243 0.0066612319275647864 0 -0.0020800304447121331 0.0087690923176675824 0 -0.0020806674025926797 0.0087553998292869608 0 -0.0020818776054054686 0.0087581264990995011 0 -0.00076788462853792996 0.0090950111506499266 0 0.00045329085325869115 0.0088180284915349311 0 0.00045329085325869115 0.0088180284915349311 0 0.00028408417947976659 0.0086928640806593228 0 -0.0021244152334264376 0.0086881347572229841 0 -0.0020818776054054686 0.0087581264990995011 0 -0.0020506248351867574 0.0087091303526167629 0 -0.0020876962579517932 0.008762652987983623 0 -0.0020818776054054686 0.0087581264990995011 0 -0.0020332108051653425 0.0087822920263775552 0 -0.0020332108051653425 0.0087822920263775552 0 -0.0018767401383430987 0.0087472403646552521 0 -0.0019764981558316758 0.008699306544857642 0 -0.0020818776054054686 0.0087581264990995011 0 -0.0020332108051653425 0.0087822920263775552 0 -0.0020506248351867574 0.0087091303526167629 0 -0.0020332108051653425 0.0087822920263775552 0 -0.0020506248351867574 0.0087091303526167629 0 -0.0019764981558316758 0.008699306544857642 0 -0.0019680121336629417 0.0089056566169213036 0 -0.0016879549098419953 0.0088269030721679458 0 -0.0018767401383430987 0.0087472403646552521 0 -0.0019680121336629417 0.0089056566169213036 0 -0.0020332108051653425 0.0087822920263775552 0 -0.0018767401383430987 0.0087472403646552521 0 -0.0016879549098419953 0.0088269030721679458 0 -0.0017150676306859609 0.0086638592899226981 0 -0.0018767401383430987 0.0087472403646552521 0 -0.0017150676306859609 0.0086638592899226981 0 -0.0018767401383430987 0.0087472403646552521 0 -0.0018879882724470653 0.0086470568881948651 0 -0.0018767401383430987 0.0087472403646552521 0 -0.0018879882724470653 0.0086470568881948651 0 -0.0019764981558316758 0.008699306544857642 0 -0.0017150676306859609 0.0086638592899226981 0 -0.0018879882724470653 0.0086470568881948651 0 -0.0017790386617019111 0.0085021787654047803 0 -0.0018879882724470653 0.0086470568881948651 0 -0.0020646822692741975 0.0086174839874393529 0 -0.0017790386617019111 0.0085021787654047803 0 0.00069511072274180518 0.0090694444212100784 0 -3.1836050721855079e-05 0.0088669338384110199 0 -0.0018879882724470653 0.0086470568881948651 0 -0.0019764981558316758 0.008699306544857642 0 -0.0020646822692741975 0.0086174839874393529 0 -0.0020506248351867574 0.0087091303526167629 0 -0.0019764981558316758 0.008699306544857642 0 -0.0020646822692741975 0.0086174839874393529 0 0.0025977129535241887 0.011039512377579816 0 0.0027850314604782314 0.011149307497901308 0 0.0028848166532197757 0.010907974593594182 0 0.0012092338090612033 0.0099853951827923119 0 0.0010383215115201106 0.0097000178950231684 0 0.00069511072274180518 0.0090694444212100784 0 0.0014363557765480967 0.0094915222072113545 0 0.0028589536034696198 0.010779625691458917 0 0.0025977129535241887 0.011039512377579816 0 0.0028848166532197757 0.010907974593594182 0 0.0009834744133572534 0.0088102286017799469 0 0.0014710486665792408 0.0086651180360737788 0 0.0013125376896239559 0.0084512728798135824 0 0.0019806942394733351 0.0082019658144982573 0 0.0014710486665792408 0.0086651180360737788 0 0.0013125376896239559 0.0084512728798135824 0 0.0025977129535241887 0.011039512377579816 0 0.0027850314604782314 0.011149307497901308 0 0.0025881334139473667 0.011341330496452542 0 0.0023266114216818025 0.011326958589986544 0 0.0025977129535241887 0.011039512377579816 0 0.0025881334139473667 0.011341330496452542 0 0.0013912393054994138 0.010069867735464701 0 0.0014363557765480967 0.0094915222072113545 0 0.0027850314604782314 0.011149307497901308 0 0.0029053785890309361 0.011347919071356379 0 0.0025881334139473667 0.011341330496452542 0 0.0030057788563224285 0.011056219352077463 0 0.003250822570787001 0.011043741439207113 0 0.0029053785890309361 0.011347919071356379 0 -0.00021150381889621024 0.0052162846561513198 0 -0.00035047492651225405 0.005323549873323047 0 -0.00025473425281485288 0.0053897695739153458 0 0.0027850314604782314 0.011149307497901308 0 0.0030057788563224285 0.011056219352077463 0 0.0029053785890309361 0.011347919071356379 0 0.00041480790480612293 0.0075486206371728065 0 0.00089266360443488737 0.0080071590527193218 0 0.0030057788563224285 0.011056219352077463 0 0.0030207149180520652 0.010915737268437134 0 0.0029001042044082513 0.010835004828651261 0 0.0027850314604782314 0.011149307497901308 0 0.0030057788563224285 0.011056219352077463 0 0.0029001042044082513 0.010835004828651261 0 0.0030057788563224285 0.011056219352077463 0 0.0030207149180520652 0.010915737268437134 0 0.003210806377207661 0.010946757500212406 0 0.0030057788563224285 0.011056219352077463 0 0.003210806377207661 0.010946757500212406 0 0.003250822570787001 0.011043741439207113 0 0.0013751674586651916 0.0085994566533519837 0 0.00071670306246721083 0.0079713208828709938 0 0.0030207149180520652 0.010915737268437134 0 0.0030266210035467837 0.010786617085405461 0 0.003210806377207661 0.010946757500212406 0 0.0030207149180520652 0.010915737268437134 0 0.0030266210035467837 0.010786617085405461 0 0.0029001042044082513 0.010835004828651261 0 -0.00015514798083878336 0.0067848534788293308 0 -0.00018701884918895934 0.0068635272132143528 0 -7.1614947198191608e-05 0.0067569923525096246 0 -0.00017293204902990255 0.0067253877632071227 0 -0.00015514798083878336 0.0067848534788293308 0 -0.00021811970300984838 0.0068362489820946518 0 0.00030128837554204308 0.0072669607182400944 0 0.00046304216710562268 0.0076385223094730895 0 0.00059846299717959813 0.0075242026620601929 0 0.00071670306246721083 0.0079713208828709938 0 0.00041480790480612293 0.0075486206371728065 0 0.00071670306246721083 0.0079713208828709938 0 0.00043012216371275403 0.0074551573363937284 0 0.00041480790480612293 0.0075486206371728065 0 0.00043012216371275403 0.0074551573363937284 0 -0.00015514798083878336 0.0067848534788293308 0 -0.00021811970300984838 0.0068362489820946518 0 -0.00018701884918895934 0.0068635272132143528 0 0.0001179982837959744 0.0064993068394557686 0 6.8168000062398995e-05 0.0065413904950445143 0 -0.00028015924940794648 0.0062387716259338201 0 0.0001179982837959744 0.0064993068394557686 0 -0.00028015924940794648 0.0062387716259338201 0 -0.00013973106323775965 0.0059115485425093976 0 0.00043012216371275403 0.0074551573363937284 0 -0.0001685807237312803 0.0054493361677011246 0 0.00041480790480612293 0.0075486206371728065 0 -0.00016148776507588159 0.0057049840413418091 0 2.5736784739753484e-05 0.0026659670125538568 0 0.0001783769417171213 0.0026761846676225873 0 0.00014191974469914559 0.0024221316549006802 0 -0.00016520396204614378 0.0068384411329930053 0 -8.9848132287672865e-05 0.0069029681013227625 0 -9.3114603682577563e-05 0.0068274656357454463 0 0.0001783769417171213 0.0026761846676225873 0 0.00026739146997158749 0.0025403537623161858 0 0.0004700916945028193 0.0027884613084137931 0 2.5736784739753484e-05 0.0026659670125538568 0 0.0001783769417171213 0.0026761846676225873 0 0.00021344870726286772 0.0028366507516918069 0 0.0001783769417171213 0.0026761846676225873 0 0.00026739146997158749 0.0025403537623161858 0 0.00014191974469914559 0.0024221316549006802 0 0.00026739146997158749 0.0025403537623161858 0 0.00028122461193757662 0.002424508120180613 0 0.00014191974469914559 0.0024221316549006802 0 -8.9848132287672865e-05 0.0069029681013227625 0 -3.2197833306441154e-05 0.0067826431155295413 0 -9.3114603682577563e-05 0.0068274656357454463 0 -0.00016520396204614378 0.0068384411329930053 0 -9.3114603682577563e-05 0.0068274656357454463 0 -7.1614947198191608e-05 0.0067569923525096246 0 -3.2197833306441154e-05 0.0067826431155295413 0 -9.3114603682577563e-05 0.0068274656357454463 0 -7.1614947198191608e-05 0.0067569923525096246 0 -0.0001685807237312803 0.0054493361677011246 0 7.8389206171015737e-05 0.0047822307928196157 0 0.00043012216371275403 0.0074551573363937284 0 0.00033782834440802546 0.0073303193931676669 0 0.00050042661558635793 0.0025726607368264111 0 0.00041114610149784006 0.0025558793047492515 0 0.00050449344238817444 0.002499029260883827 0 0.00050042661558635793 0.0025726607368264111 0 0.00041114610149784006 0.0025558793047492515 0 0.00042044411237399841 0.0026110855207117207 0 0.00026739146997158749 0.0025403537623161858 0 0.00041114610149784006 0.0025558793047492515 0 0.00042291567004445069 0.0026933678873932859 0 0.00012028520706761204 0.0029634005432338205 0 0.00019808508358531141 0.0032458141410930063 0 0.00020874984110226248 0.0030332099703010381 0 0.00019808508358531141 0.0032458141410930063 0 0.00028122461193757662 0.002424508120180613 0 0.00041114610149784006 0.0025558793047492515 0 0.00039564249748900694 0.0023825940229403532 0 0.00026739146997158749 0.0025403537623161858 0 0.00028122461193757662 0.002424508120180613 0 0.00041114610149784006 0.0025558793047492515 0 0.00050449344238817444 0.002499029260883827 0 0.00051044908810757869 0.0023940687275557436 0 0.0005699763474342265 0.0024563425920687758 0 0.00050449344238817444 0.002499029260883827 0 0.00051044908810757869 0.0023940687275557436 0 0.00039564249748900694 0.0023825940229403532 0 0.00041114610149784006 0.0025558793047492515 0 0.00050449344238817444 0.002499029260883827 0 0.00039564249748900694 0.0023825940229403532 0 0.00058083409407818178 0.0022399633743125794 0 0.00039564249748900694 0.0023825940229403532 0 0.00041332749783889425 0.0021285152935962572 0 0.00058083409407818178 0.0022399633743125794 0 0.00051044908810757869 0.0023940687275557436 0 0.0005699763474342265 0.0024563425920687758 0 0.00058083409407818178 0.0022399633743125794 0 0.00051044908810757869 0.0023940687275557436 0 0.00039564249748900694 0.0023825940229403532 0 0.00028122461193757662 0.002424508120180613 0 0.00039564249748900694 0.0023825940229403532 0 0.00023223481161837318 0.0021995102758053772 0 0.00039564249748900694 0.0023825940229403532 0 0.00041332749783889425 0.0021285152935962572 0 0.00023223481161837318 0.0021995102758053772 0 0.00041332749783889425 0.0021285152935962572 0 0.00023223481161837318 0.0021995102758053772 0 0.00033583546858313306 0.0019387163008555165 0 0.00058083409407818178 0.0022399633743125794 0 0.00041332749783889425 0.0021285152935962572 0 0.0006078648735522253 0.0020408137087460664 0 -7.1614947198191608e-05 0.0067569923525096246 0 3.3811753849431364e-05 0.0066379539643965681 0 -0.0001010936398777243 0.0066612319275647864 0 -0.00017293204902990255 0.0067253877632071227 0 -0.00012628732281726166 0.0067427184759877882 0 -0.0001010936398777243 0.0066612319275647864 0 -0.00015514798083878336 0.0067848534788293308 0 -0.00012628732281726166 0.0067427184759877882 0 -7.1614947198191608e-05 0.0067569923525096246 0 -0.00012628732281726166 0.0067427184759877882 0 -7.1614947198191608e-05 0.0067569923525096246 0 -0.0001010936398777243 0.0066612319275647864 0 0.00028122461193757662 0.002424508120180613 0 0.00014191974469914559 0.0024221316549006802 0 0.00023223481161837318 0.0021995102758053772 0 7.8389206171015737e-05 0.0047822307928196157 0 0.00019740822717236473 0.0045337417419536868 0 -3.2197833306441154e-05 0.0067826431155295413 0 -7.1614947198191608e-05 0.0067569923525096246 0 3.3811753849431364e-05 0.0066379539643965681 0 0.00019740822717236473 0.0045337417419536868 0 0.00027119785923052878 0.0045268149471867879 0 3.3811753849431364e-05 0.0066379539643965681 0 -3.7121047811982061e-05 0.0065592353917799141 0 9.8661278858568706e-05 0.006488458615959064 0 -0.00016181169336372929 0.0065621624320911761 0 -3.7121047811982061e-05 0.0065592353917799141 0 -0.0001010936398777243 0.0066612319275647864 0 3.3811753849431364e-05 0.0066379539643965681 0 -3.7121047811982061e-05 0.0065592353917799141 0 -0.0001010936398777243 0.0066612319275647864 0 -0.00016181169336372929 0.0065621624320911761 0 -3.7121047811982061e-05 0.0065592353917799141 0 -4.3331865104010335e-05 0.0064520599497338484 0 -0.00048851165615838995 0.008073461667564381 0 -0.00086072458381120662 0.0073878025191558873 0 -0.0019844773121244679 0.0088032891738908919 0 -0.0019522481577528268 0.0087111087903111502 0 -0.0018351454415061366 0.0086965054084080489 0 -0.0019915527515006744 0.0086101227878593659 0 -0.0019522481577528268 0.0087111087903111502 0 -0.0019161135962836473 0.008649140277022651 0 -0.0019161135962836473 0.008649140277022651 0 -0.0018351454415061366 0.0086965054084080489 0 -0.0018878356800287109 0.0085477071732352403 0 -0.0019522481577528268 0.0087111087903111502 0 -0.0019161135962836473 0.008649140277022651 0 -0.0018351454415061366 0.0086965054084080489 0 -0.0019915527515006744 0.0086101227878593659 0 -0.0019161135962836473 0.008649140277022651 0 -0.0018878356800287109 0.0085477071732352403 0 -4.3331865104010335e-05 0.0064520599497338484 0 9.8661278858568706e-05 0.006488458615959064 0 7.6150180276069661e-05 0.0063427669741007641 0 -0.0018351454415061366 0.0086965054084080489 0 -0.0016564567465256936 0.00853685445406566 0 -0.0018878356800287109 0.0085477071732352403 0 -0.00086072458381120662 0.0073878025191558873 0 -0.00090687488368253579 0.0063496112206677833 0 -3.7121047811982061e-05 0.0065592353917799141 0 -4.3331865104010335e-05 0.0064520599497338484 0 9.8661278858568706e-05 0.006488458615959064 0 0.00041332749783889425 0.0021285152935962572 0 0.00033583546858313306 0.0019387163008555165 0 0.0006078648735522253 0.0020408137087460664 0 0.00033583546858313306 0.0019387163008555165 0 0.0006078648735522253 0.0020408137087460664 0 0.00056178927176370479 0.0018514258880749854 0 0.0006078648735522253 0.0020408137087460664 0 0.00056178927176370479 0.0018514258880749854 0 0.00076707780426827276 0.0019256524234638752 0 0.00056178927176370479 0.0018514258880749854 0 0.00045101629030281466 0.0016798759764472897 0 0.00064777353709154423 0.0016745609912924911 0 0.00033583546858313306 0.0019387163008555165 0 0.00056178927176370479 0.0018514258880749854 0 0.00045101629030281466 0.0016798759764472897 0 9.8661278858568706e-05 0.006488458615959064 0 7.6150180276069661e-05 0.0063427669741007641 0 0.00016278490099503435 0.0063398781814767479 0 0.00027119785923052878 0.0045268149471867879 0 0.00013125550013185535 0.0052389409198770401 0 -0.00031714831894677302 0.0053562145121842202 0 -6.4709939535463542e-05 0.005181451613622933 0 -1.5315573424000156e-05 0.0050852209222880728 0 -0.00031714831894677302 0.0053562145121842202 0 -0.00013916467713767148 0.0053519881175553702 0 -6.4709939535463542e-05 0.005181451613622933 0 -0.00090687488368253579 0.0063496112206677833 0 0.00013125550013185535 0.0052389409198770401 0 -0.0027026841760021325 0.0077993807715890989 0 -0.0011179723134291718 0.006413232104585798 0 -0.0024601874940338559 0.0066987482601099249 0 -0.00090687488368253579 0.0063496112206677833 0 -0.00043680788422714365 0.0055108625569938235 0 0.00013125550013185535 0.0052389409198770401 0 -8.2413722911705905e-05 0.0042423313188116622 0 -0.00013627908500932773 0.0053477744685163841 0 9.2281590253143257e-05 0.0053425217190675341 0 -6.4709939535463542e-05 0.005181451613622933 0 -0.0014779229474421113 0.0054594554056443248 0 -0.0015741169182865338 0.0051995241210733732 0 -0.0014311819108276675 0.00527499834225392 0 9.2281590253143257e-05 0.0053425217190675341 0 -6.4709939535463542e-05 0.005181451613622933 0 -1.5315573424000156e-05 0.0050852209222880728 0 -8.2413722911705905e-05 0.0042423313188116622 0 -0.00043680788422714365 0.0055108625569938235 0 0.00013125550013185535 0.0052389409198770401 0 0.00010973381361495173 0.0052527202198274069 0 -0.0014720971638745883 0.0052104152228685694 0 -0.0015458777130745742 0.0051870039479795394 0 -0.0015741169182865338 0.0051995241210733732 0 -0.0014720971638745883 0.0052104152228685694 0 -0.0015741169182865338 0.0051995241210733732 0 -0.0014311819108276675 0.00527499834225392 0 -0.0014720971638745883 0.0052104152228685694 0 -0.0015458777130745742 0.0051870039479795394 0 -0.0014879053884366714 0.0051578437600088732 0 -0.00044587207884994615 0.0055142640636832146 0 -0.00043680788422714365 0.0055108625569938235 0 -0.000550620065563432 0.0054253429839308288 0 -0.00043680788422714365 0.0055108625569938235 0 -0.0016329705087463405 0.0053385282164044538 0 -0.0011179723134291718 0.006413232104585798 0 -0.0018922762754954962 0.0059761222535632047 0 -0.0016329705087463405 0.0053385282164044538 0 -0.0015458777130745742 0.0051870039479795394 0 -0.0015295681691594343 0.0051732620238479398 0 -0.0016329705087463405 0.0053385282164044538 0 -0.0015172926637027327 0.0051378373596043881 0 -0.0015458777130745742 0.0051870039479795394 0 -0.0015172926637027327 0.0051378373596043881 0 -0.0015458777130745742 0.0051870039479795394 0 -0.0014879053884366714 0.0051578437600088732 0 -0.0028482164670769724 0.0051790923749983446 0 -0.0022128747650864929 0.0055311435056609433 0 -0.0024601874940338559 0.0066987482601099249 0 -0.0011179723134291718 0.006413232104585798 0 -0.0024601874940338559 0.0066987482601099249 0 -0.0018922762754954962 0.0059761222535632047 0 -0.0022128747650864929 0.0055311435056609433 0 -0.0024601874940338559 0.0066987482601099249 0 -0.0018922762754954962 0.0059761222535632047 0 -0.0022128747650864929 0.0055311435056609433 0 -0.0016329705087463405 0.0053385282164044538 0 -0.0018922762754954962 0.0059761222535632047 0 -0.0035909127694154896 0.006154986621749267 0 -0.0030105086365410727 0.0058713670435453147 0 -0.0033267455202963827 0.0068163621585394856 0 -0.0028482164670769724 0.0051790923749983446 0 -0.0024601874940338559 0.0066987482601099249 0 -0.0033267455202963827 0.0068163621585394856 0 -0.0028499001870029828 0.0055211660916176701 0 -0.0030469642525583047 0.0060025420852216974 0 -0.0024601874940338559 0.0066987482601099249 0 -0.0033267455202963827 0.0068163621585394856 0 -0.0028379574997753612 0.0071771388996020834 0 -0.0035909127694154896 0.006154986621749267 0 -0.0033267455202963827 0.0068163621585394856 0 -0.0039699743599191546 0.0064151298507651019 0 -0.0035909127694154896 0.006154986621749267 0 -0.0039528302615965483 0.0060934110262939089 0 -0.0039699743599191546 0.0064151298507651019 0 -0.0025292810883875143 0.0087587948817022393 0 -0.0027736422804505623 0.0087803825925280923 0 -0.0026993040091388815 0.0084562746447690712 0 -0.0028031780557794422 0.0082748437733275622 0 -0.0028655609194680903 0.008117896084081035 0 -0.002868798378516686 0.007800782919138969 0 -0.0033267455202963827 0.0068163621585394856 0 -0.0039699743599191546 0.0064151298507651019 0 -0.002868798378516686 0.007800782919138969 0 -0.0027736422804505623 0.0087803825925280923 0 -0.0028031780557794422 0.0082748437733275622 0 -0.002868798378516686 0.007800782919138969 0 -0.0031777878448399043 0.0077510224418533853 0 -0.0030238176155388615 0.0078626756070267357 0 -0.0027736422804505623 0.0087803825925280923 0 -0.0028031780557794422 0.0082748437733275622 0 -0.0026993040091388815 0.0084562746447690712 0 -0.0025180833640131763 0.008534739226076931 0 -0.0026993040091388815 0.0084562746447690712 0 -0.0028655609194680903 0.008117896084081035 0 -0.0028031780557794422 0.0082748437733275622 0 -0.0026993040091388815 0.0084562746447690712 0 -0.0028655609194680903 0.008117896084081035 0 -0.0027026841760021325 0.0077993807715890989 0 -0.0024601874940338559 0.0066987482601099249 0 -0.0028379574997753612 0.0071771388996020834 0 -0.00090687488368253579 0.0063496112206677833 0 -0.0020838591439475175 0.0072248047758287203 0 -0.0027026841760021325 0.0077993807715890989 0 -0.0028655609194680903 0.008117896084081035 0 -0.002868798378516686 0.007800782919138969 0 -0.0027026841760021325 0.0077993807715890989 0 -0.002868798378516686 0.007800782919138969 0 -0.0028379574997753612 0.0071771388996020834 0 -0.0033267455202963827 0.0068163621585394856 0 -0.002868798378516686 0.007800782919138969 0 -0.0028379574997753612 0.0071771388996020834 0 0.0012655555781707216 0.0025751914693262711 0 0.0011945014734980996 0.0025125201133329961 0 0.0012918297619904377 0.0027648155976800737 0 0.0012655555781707216 0.0025751914693262711 0 0.0012918297619904377 0.0027648155976800737 0 0.001298826929693816 0.0025525865016614254 0 -0.00052499683813149152 0.0050939122380886607 0 -0.00099288253980453749 0.0050887846940925151 0 -0.00094639479671227973 0.0053797672642523784 0 8.5645733885154494e-05 0.0039366541064159502 0 7.1963141429550636e-05 0.0038753968555338548 0 0.0012655555781707216 0.0025751914693262711 0 0.001298826929693816 0.0025525865016614254 0 0.0012516139698020891 0.0025008791805581675 0 0.0012655555781707216 0.0025751914693262711 0 0.0011945014734980996 0.0025125201133329961 0 0.0012516139698020891 0.0025008791805581675 0 0.0010571317030119156 0.0025792733437140763 0 0.0011945014734980996 0.0025125201133329961 0 0.0011266507210315336 0.0024434988946651567 0 0.0010571317030119156 0.0025792733437140763 0 0.0011945014734980996 0.0025125201133329961 0 0.0012918297619904377 0.0027648155976800737 0 -0.00015738504222968553 0.0041043372088882596 0 -0.00055160866218148085 0.0042561751797877464 0 -5.098126869487255e-05 0.0047646485703256736 0 -0.00052499683813149152 0.0050939122380886607 0 -0.00082352081124123912 0.0047686462775056405 0 -0.00015738504222968553 0.0041043372088882596 0 8.5645733885154494e-05 0.0039366541064159502 0 0.00095147506537424662 0.0032658845222614864 0 0.0010571317030119156 0.0025792733437140763 0 0.0012918297619904377 0.0027648155976800737 0 -0.00052499683813149152 0.0050939122380886607 0 -0.00082352081124123912 0.0047686462775056405 0 -0.00099288253980453749 0.0050887846940925151 0 -0.00082352081124123912 0.0047686462775056405 0 -0.0011076708184074157 0.0049722472043882407 0 -0.00099288253980453749 0.0050887846940925151 0 -0.0011076708184074157 0.0049722472043882407 0 -0.0012691691534382635 0.0049712843028997993 0 -0.0012428730520204899 0.0051233980262316405 0 -0.00099288253980453749 0.0050887846940925151 0 -0.0012428730520204899 0.0051233980262316405 0 -0.001116781223086087 0.005271093092409352 0 -0.0011076708184074157 0.0049722472043882407 0 -0.00099288253980453749 0.0050887846940925151 0 -0.0012428730520204899 0.0051233980262316405 0 -0.0015172926637027327 0.0051378373596043881 0 -0.0014879053884366714 0.0051578437600088732 0 -0.0014037816564916885 0.0051124177066092054 0 -0.0014037816564916885 0.0051124177066092054 0 -0.0012691691534382635 0.0049712843028997993 0 -0.0012428730520204899 0.0051233980262316405 0 -0.0012428730520204899 0.0051233980262316405 0 -0.0013571005570254459 0.0051950048666757386 0 -0.0012811418313774306 0.0053059090386720666 0 -0.0014037816564916885 0.0051124177066092054 0 -0.0012428730520204899 0.0051233980262316405 0 -0.0013571005570254459 0.0051950048666757386 0 -0.0014720971638745883 0.0052104152228685694 0 -0.0014037816564916885 0.0051124177066092054 0 -0.0013571005570254459 0.0051950048666757386 0 -0.0014720971638745883 0.0052104152228685694 0 -0.0013571005570254459 0.0051950048666757386 0 -0.0014311819108276675 0.00527499834225392 0 -0.0014720971638745883 0.0052104152228685694 0 -0.0014879053884366714 0.0051578437600088732 0 -0.0014037816564916885 0.0051124177066092054 0 -0.0014779229474421113 0.0054594554056443248 0 -0.0012811418313774306 0.0053059090386720666 0 -0.0011251611748734241 0.0054785877841535876 0 -8.2413722911705905e-05 0.0042423313188116622 0 4.034160592157432e-05 0.0038392759297486163 0 -0.0013571005570254459 0.0051950048666757386 0 -0.0014311819108276675 0.00527499834225392 0 -0.0012811418313774306 0.0053059090386720666 0 -0.0014779229474421113 0.0054594554056443248 0 -0.0014311819108276675 0.00527499834225392 0 -0.0012811418313774306 0.0053059090386720666 0 -0.00099288253980453749 0.0050887846940925151 0 -0.001116781223086087 0.005271093092409352 0 -0.00094639479671227973 0.0053797672642523784 0 -0.0012811418313774306 0.0053059090386720666 0 -0.001116781223086087 0.005271093092409352 0 -0.0011251611748734241 0.0054785877841535876 0 -0.0012428730520204899 0.0051233980262316405 0 -0.0012811418313774306 0.0053059090386720666 0 -0.001116781223086087 0.005271093092409352 0 0.0012881178406583024 0.0025135972614315502 0 0.001298826929693816 0.0025525865016614254 0 0.0012726879650261579 0.0024900615207971866 0 -0.001116781223086087 0.005271093092409352 0 -0.0011251611748734241 0.0054785877841535876 0 -0.00094639479671227973 0.0053797672642523784 0 4.034160592157432e-05 0.0038392759297486163 0 7.1963141429550636e-05 0.0038753968555338548 0 0.001298826929693816 0.0025525865016614254 0 0.0012726879650261579 0.0024900615207971866 0 0.0012516139698020891 0.0025008791805581675 0 0.0012726879650261579 0.0024900615207971866 0 0.0012455505778628153 0.0024558466477099319 0 0.0012516139698020891 0.0025008791805581675 0 0.0012726879650261579 0.0024900615207971866 0 0.0012719313237097595 0.0024565568465377292 0 0.0012936644593536575 0.0024945895134013151 0 0.0012881178406583024 0.0025135972614315502 0 0.0012726879650261579 0.0024900615207971866 0 0.0012936644593536575 0.0024945895134013151 0 4.034160592157432e-05 0.0038392759297486163 0 0.00024392159994704311 0.0036796533016028483 0 0.0012726879650261579 0.0024900615207971866 0 0.0012719313237097595 0.0024565568465377292 0 0.0012455505778628153 0.0024558466477099319 0 0.0013441040164844347 0.0025181353887499193 0 0.0012936644593536575 0.0024945895134013151 0 0.0012996091383136892 0.0024268497071693097 0 0.0013441040164844347 0.0025181353887499193 0 0.0012589543131541257 0.0025197288093299608 0 0.0012936644593536575 0.0024945895134013151 0 -8.2413722911705905e-05 0.0042423313188116622 0 0.00030371604940463023 0.0028605025113469435 0 0.00056178927176370479 0.0018514258880749854 0 0.00064777353709154423 0.0016745609912924911 0 0.00076707780426827276 0.0019256524234638752 0 0.0012719313237097595 0.0024565568465377292 0 0.0012936644593536575 0.0024945895134013151 0 0.0012996091383136892 0.0024268497071693097 0 0.0012719313237097595 0.0024565568465377292 0 0.0012996091383136892 0.0024268497071693097 0 0.0012258689754112301 0.0023981033919468387 0 0.0012996091383136892 0.0024268497071693097 0 0.0012258689754112301 0.0023981033919468387 0 0.0012065787478281781 0.0023510066655575306 0 0.0012719313237097595 0.0024565568465377292 0 0.0012455505778628153 0.0024558466477099319 0 0.0012258689754112301 0.0023981033919468387 0 0.0012455505778628153 0.0024558466477099319 0 0.0012258689754112301 0.0023981033919468387 0 0.0012030157214059532 0.0024042923452896243 0 0.0012030157214059532 0.0024042923452896243 0 0.001179724696348202 0.0024139328070146857 0 0.001164740694905552 0.0023590539843357703 0 0.0012258689754112301 0.0023981033919468387 0 0.0012030157214059532 0.0024042923452896243 0 0.001164740694905552 0.0023590539843357703 0 0.0012455505778628153 0.0024558466477099319 0 0.0012030157214059532 0.0024042923452896243 0 0.001179724696348202 0.0024139328070146857 0 0.0012455505778628153 0.0024558466477099319 0 0.0012516139698020891 0.0025008791805581675 0 0.001179724696348202 0.0024139328070146857 0 0.0011945014734980996 0.0025125201133329961 0 0.0012516139698020891 0.0025008791805581675 0 0.001179724696348202 0.0024139328070146857 0 0.0011945014734980996 0.0025125201133329961 0 0.0011266507210315336 0.0024434988946651567 0 0.001179724696348202 0.0024139328070146857 0 0.001179724696348202 0.0024139328070146857 0 0.0011446234162441093 0.0023678227531617698 0 0.001164740694905552 0.0023590539843357703 0 0.0011266507210315336 0.0024434988946651567 0 0.001179724696348202 0.0024139328070146857 0 0.0011446234162441093 0.0023678227531617698 0 0.0011445739885497866 0.0023331605899876064 0 0.0011446234162441093 0.0023678227531617698 0 0.001164740694905552 0.0023590539843357703 0 0.001164740694905552 0.0023590539843357703 0 0.0011434106424751892 0.0023469161760294975 0 0.0012065787478281781 0.0023510066655575306 0 0.001164740694905552 0.0023590539843357703 0 0.0011370771869455144 0.0023452390123553917 0 0.0011434106424751892 0.0023469161760294975 0 0.0011370771869455144 0.0023452390123553917 0 0.0011434106424751892 0.0023469161760294975 0 0.0010788748849767744 0.0023619025843491805 0 0.0011445739885497866 0.0023331605899876064 0 0.001164740694905552 0.0023590539843357703 0 0.0011370771869455144 0.0023452390123553917 0 0.0011445739885497866 0.0023331605899876064 0 0.001147939771205835 0.002335639899697704 0 0.0011370771869455144 0.0023452390123553917 0 0.0006078648735522253 0.0020408137087460664 0 0.00076707780426827276 0.0019256524234638752 0 0.00091662688429718943 0.0021738155793999542 0 0.00058083409407818178 0.0022399633743125794 0 0.0006078648735522253 0.0020408137087460664 0 0.00091662688429718943 0.0021738155793999542 0 0.00030371604940463023 0.0028605025113469435 0 0.00060490481870508091 0.0025606135907545883 0 0.0012258689754112301 0.0023981033919468387 0 0.001164740694905552 0.0023590539843357703 0 0.0012065787478281781 0.0023510066655575306 0 0.00060490481870508091 0.0025606135907545883 0 0.00071015716083239406 0.002528028562419315 0 0.0011434106424751892 0.0023469161760294975 0 0.0012065787478281781 0.0023510066655575306 0 0.0010788748849767744 0.0023619025843491805 0 0.00091662688429718943 0.0021738155793999542 0 0.00084512158273725125 0.0023826328098836952 0 0.0010788748849767744 0.0023619025843491805 0 0.00061158359403100241 0.0023062828270946603 0 0.0006607592844957191 0.0023716906123308888 0 0.00058083409407818178 0.0022399633743125794 0 0.00091662688429718943 0.0021738155793999542 0 0.00084512158273725125 0.0023826328098836952 0 0.0005699763474342265 0.0024563425920687758 0 0.00050484307513004123 0.0025340405459150046 0 0.0005182403538749402 0.0025366282881644814 0 0.00050449344238817444 0.002499029260883827 0 0.0005699763474342265 0.0024563425920687758 0 0.0005182403538749402 0.0025366282881644814 0 0.0006607592844957191 0.0023716906123308888 0 0.00073464404095752471 0.0024752992737392711 0 0.0010788748849767744 0.0023619025843491805 0 0.0010492174187000805 0.002440893602163304 0 0.0011111599690597567 0.0023770300105220906 0 0.00084512158273725125 0.0023826328098836952 0 0.0010788748849767744 0.0023619025843491805 0 0.0010492174187000805 0.002440893602163304 0 0.00073464404095752471 0.0024752992737392711 0 0.00080773277249529898 0.0025974276985467914 0 0.00050484307513004123 0.0025340405459150046 0 0.0004985107439280785 0.0025556530390482206 0 0.00047399973791481905 0.002585482810600611 0 0.00050484307513004123 0.0025340405459150046 0 0.0004985107439280785 0.0025556530390482206 0 0.0005182403538749402 0.0025366282881644814 0 0.00050042661558635793 0.0025726607368264111 0 0.00050449344238817444 0.002499029260883827 0 0.0005182403538749402 0.0025366282881644814 0 0.0004985107439280785 0.0025556530390482206 0 0.0005182403538749402 0.0025366282881644814 0 0.00049895295450649369 0.0025670132655939218 0 0.00050042661558635793 0.0025726607368264111 0 0.0005182403538749402 0.0025366282881644814 0 0.00049895295450649369 0.0025670132655939218 0 0.001147939771205835 0.002335639899697704 0 0.0011370771869455144 0.0023452390123553917 0 0.001129300474381219 0.0023776376538702567 0 0.0011370771869455144 0.0023452390123553917 0 0.0010788748849767744 0.0023619025843491805 0 0.0011111599690597567 0.0023770300105220906 0 0.0011370771869455144 0.0023452390123553917 0 0.001129300474381219 0.0023776376538702567 0 0.0011111599690597567 0.0023770300105220906 0 0.0010492174187000805 0.002440893602163304 0 0.0011111599690597567 0.0023770300105220906 0 0.0011003313650597571 0.0024141082902567929 0 0.001129300474381219 0.0023776376538702567 0 0.0011111599690597567 0.0023770300105220906 0 0.0011003313650597571 0.0024141082902567929 0 0.0010492174187000805 0.002440893602163304 0 0.0011003313650597571 0.0024141082902567929 0 0.0010979509447819511 0.0024336140521241663 0 0.0011446276694565157 0.0023808720248704169 0 0.001129300474381219 0.0023776376538702567 0 0.0011226839301604577 0.0024158764323800297 0 0.0011446276694565157 0.0023808720248704169 0 0.0011226839301604577 0.0024158764323800297 0 0.0011508245883892979 0.0024220959441294378 0 0.001129300474381219 0.0023776376538702567 0 0.0011003313650597571 0.0024141082902567929 0 0.0011226839301604577 0.0024158764323800297 0 0.0011226839301604577 0.0024158764323800297 0 0.0010979509447819511 0.0024336140521241663 0 0.001122749001013428 0.0024616377896149602 0 0.0011226839301604577 0.0024158764323800297 0 0.001122749001013428 0.0024616377896149602 0 0.0011508245883892979 0.0024220959441294378 0 0.0011003313650597571 0.0024141082902567929 0 0.0011226839301604577 0.0024158764323800297 0 0.0010979509447819511 0.0024336140521241663 0 0.00056390593287619563 0.0026139527425390729 0 0.00053810490684156828 0.0028677758231075482 0 0.00044228560990311754 0.0027374324149499478 0 0.00053810490684156828 0.0028677758231075482 0 0.00079188686214981996 0.0028850341097708485 0 0.00063213428537547652 0.0030846989763392593 0 0.00056390593287619563 0.0026139527425390729 0 0.00053810490684156828 0.0028677758231075482 0 0.00079188686214981996 0.0028850341097708485 0 0.00080773277249529898 0.0025974276985467914 0 0.00089801048397591314 0.0027861946474153276 0 0.00089801048397591314 0.0027861946474153276 0 0.0010461228979819403 0.0025530775973404344 0 0.00037803505088399963 0.0033175886486247188 0 0.00048705768462369893 0.0030993490097079666 0 0.00050042661558635793 0.0025726607368264111 0 0.00050815462279192776 0.0025530430527459049 0 0.00049895295450649369 0.0025670132655939218 0 0.00050815462279192776 0.0025530430527459049 0 0.00049895295450649369 0.0025670132655939218 0 0.00047399973791481905 0.002585482810600611 0 -3.4729563063443097e-06 0.0027155865824163065 0 0.00047399973791481905 0.002585482810600611 0 0.00027902447547744795 0.0027562402429501011 0 0.00050484307513004123 0.0025340405459150046 0 0.00056390593287619563 0.0026139527425390729 0 0.00047399973791481905 0.002585482810600611 0 0.0004985107439280785 0.0025556530390482206 0 0.00049895295450649369 0.0025670132655939218 0 0.00047399973791481905 0.002585482810600611 0 0.00047399973791481905 0.002585482810600611 0 0.00044228560990311754 0.0027374324149499478 0 0.00027902447547744795 0.0027562402429501011 0 0.00056390593287619563 0.0026139527425390729 0 0.00047399973791481905 0.002585482810600611 0 0.00044228560990311754 0.0027374324149499478 0 0.00053810490684156828 0.0028677758231075482 0 0.00044228560990311754 0.0027374324149499478 0 0.00034886542564856215 0.0028952665127728425 0 0.00053810490684156828 0.0028677758231075482 0 0.00034886542564856215 0.0028952665127728425 0 0.00038373379706832913 0.0030857232738305345 0 0.00044228560990311754 0.0027374324149499478 0 0.00034886542564856215 0.0028952665127728425 0 0.00027902447547744795 0.0027562402429501011 0 0.00034886542564856215 0.0028952665127728425 0 0.00027902447547744795 0.0027562402429501011 0 0.00012123330934979025 0.0028362384833577302 0 -3.4729563063443097e-06 0.0027155865824163065 0 0.00027902447547744795 0.0027562402429501011 0 0.00012123330934979025 0.0028362384833577302 0 -3.4729563063443097e-06 0.0027155865824163065 0 0.00012123330934979025 0.0028362384833577302 0 3.9051402555714467e-05 0.0029727849040467229 0 0.00037803505088399963 0.0033175886486247188 0 0.00024804062618411578 0.0035751451938409763 0 0.00012123330934979025 0.0028362384833577302 0 3.9051402555714467e-05 0.0029727849040467229 0 0.00022131240946813245 0.0030039442456570747 0 0.00034886542564856215 0.0028952665127728425 0 0.00012123330934979025 0.0028362384833577302 0 0.00022131240946813245 0.0030039442456570747 0 3.9051402555714467e-05 0.0029727849040467229 0 0.00022131240946813245 0.0030039442456570747 0 0.00021247541535658179 0.0032214070050723851 0 0.00024804062618411578 0.0035751451938409763 0 0.0001615105398975352 0.004102018718914289 0 9.9524257339473262e-05 0.004079254822454477 0 7.4320734751905646e-05 0.0038915079248691606 0 0.00020138638351639763 0.0041097000531635135 0 1.1393658355770205e-05 0.0033986917963328301 0 0.00019530123346451719 0.0036214830329920531 0 4.071451698759043e-05 0.0036320594546870805 0 0.00024804062618411578 0.0035751451938409763 0 0.00025318018316826662 0.0035569561478453081 0 0.00038373379706832913 0.0030857232738305345 0 0.00021247541535658179 0.0032214070050723851 0 0.00043113916532139696 0.0032918328181930933 0 0.00022131240946813245 0.0030039442456570747 0 0.00038373379706832913 0.0030857232738305345 0 0.00021247541535658179 0.0032214070050723851 0 0.00034886542564856215 0.0028952665127728425 0 0.00022131240946813245 0.0030039442456570747 0 0.00038373379706832913 0.0030857232738305345 0 0.00026547059624829294 0.0038290029047131952 0 0.00019530123346451719 0.0036214830329920531 0 0.00039231791397644519 0.0038493452985143384 0 0.00025318018316826662 0.0035569561478453081 0 0.00038960774081732094 0.0037248735339155026 0 0.00021247541535658179 0.0032214070050723851 0 0.00043113916532139696 0.0032918328181930933 0 0.00035204249055182166 0.0035483453985033658 0 0.00011773985004987457 0.003688479711477483 0 -0.00030128981675741186 0.0033269850199329066 0 -0.00022635323950552738 0.0039387040811811203 0 0.0001615105398975352 0.004102018718914289 0 5.133265662318239e-05 0.0043819757412164335 0 0.0001497077608052371 0.0039529395362398276 0 0.0001615105398975352 0.004102018718914289 0 0.00026547059624829294 0.0038290029047131952 0 0.00019530123346451719 0.0036214830329920531 0 4.071451698759043e-05 0.0036320594546870805 0 -3.2514535585822397e-05 0.0051572198477518845 0 -6.3210440806289338e-05 0.0050006399728625799 0 2.2295581919111994e-05 0.0050771380982408583 0 0.00080965861311455695 0.0030587428995136594 0 0.00061324557544105353 0.0030236544584946821 0 0.00065732958370745 0.0032933563189270331 0 0.00080965861311455695 0.0030587428995136594 0 0.0009406035667869399 0.0031531689264036673 0 0.00098561313262801923 0.0030380919324516746 0 0.00089801048397591314 0.0027861946474153276 0 0.00092781992522948653 0.0028418845598054401 0 0.00079660537168021821 0.0028046968543070407 0 0.00080965861311455695 0.0030587428995136594 0 0.00098561313262801923 0.0030380919324516746 0 0.00079660537168021821 0.0028046968543070407 0 0.00080965861311455695 0.0030587428995136594 0 0.00061324557544105353 0.0030236544584946821 0 0.00089801048397591314 0.0027861946474153276 0 0.00073822862712640523 0.0029671908501778901 0 0.00053810490684156828 0.0028677758231075482 0 0.00038373379706832913 0.0030857232738305345 0 0.00063213428537547652 0.0030846989763392593 0 0.00073822862712640523 0.0029671908501778901 0 0.0006687599823599654 0.0030480368446910034 0 0.00038373379706832913 0.0030857232738305345 0 0.00063213428537547652 0.0030846989763392593 0 0.00043113916532139696 0.0032918328181930933 0 0.00061324557544105353 0.0030236544584946821 0 0.00065732958370745 0.0032933563189270331 0 0.00043113916532139696 0.0032918328181930933 0 0.00043113916532139696 0.0032918328181930933 0 0.00054364469591211485 0.003518976191588532 0 0.00035204249055182166 0.0035483453985033658 0 0.00065732958370745 0.0032933563189270331 0 0.00054364469591211485 0.003518976191588532 0 0.00071803098273049305 0.0035911894475788085 0 0.00065732958370745 0.0032933563189270331 0 0.00043113916532139696 0.0032918328181930933 0 0.00054364469591211485 0.003518976191588532 0 0.00086149295412417848 0.0033527792560406324 0 0.00098744931480940863 0.0038878675362697982 0 0.001094418724932924 0.0031724393848693499 0 0.00065732958370745 0.0032933563189270331 0 0.00086149295412417848 0.0033527792560406324 0 0.00071803098273049305 0.0035911894475788085 0 0.00080965861311455695 0.0030587428995136594 0 0.00065732958370745 0.0032933563189270331 0 0.00086149295412417848 0.0033527792560406324 0 0.0009406035667869399 0.0031531689264036673 0 0.00086149295412417848 0.0033527792560406324 0 0.001094418724932924 0.0031724393848693499 0 0.00080965861311455695 0.0030587428995136594 0 0.0009406035667869399 0.0031531689264036673 0 0.00086149295412417848 0.0033527792560406324 0 0.00098744931480940863 0.0038878675362697982 0 0.00071803098273049305 0.0035911894475788085 0 0.00063075539289152833 0.0040690699663584766 0 0.00086149295412417848 0.0033527792560406324 0 0.00098744931480940863 0.0038878675362697982 0 0.00071803098273049305 0.0035911894475788085 0 0.00088893268032770741 0.0036454279695087065 0 0.00068816079581307586 0.0039334821056231451 0 0.0010107877520807017 0.0033641676150969603 0 0.00092091664165543942 0.0035684079643772968 0 0.0010915364571800084 0.0035452536909187748 0 0.00098744931480940863 0.0038878675362697982 0 0.00063075539289152833 0.0040690699663584766 0 0.0006862344258431925 0.0046272500425367158 0 0.00042514548393079239 0.0043024825288420863 0 0.00063075539289152833 0.0040690699663584766 0 0.0006862344258431925 0.0046272500425367158 0 0.00042514548393079239 0.0043024825288420863 0 0.00063075539289152833 0.0040690699663584766 0 0.00052445775633959922 0.0040237316251685289 0 0.00042514548393079239 0.0043024825288420863 0 0.00052445775633959922 0.0040237316251685289 0 0.00031990200786156367 0.004181804758598486 0 0.00063075539289152833 0.0040690699663584766 0 0.00052445775633959922 0.0040237316251685289 0 0.00039231791397644519 0.0038493452985143384 0 0.00054364469591211485 0.003518976191588532 0 0.00071803098273049305 0.0035911894475788085 0 0.00063075539289152833 0.0040690699663584766 0 0.00048750822863550516 0.0038491382279170778 0 0.00038960774081732094 0.0037248735339155026 0 0.00054364469591211485 0.003518976191588532 0 0.00063075539289152833 0.0040690699663584766 0 0.00035204249055182166 0.0035483453985033658 0 0.0001497077608052371 0.0039529395362398276 0 0.00024189889973625761 0.0039907185157590491 0 0.00011773985004987457 0.003688479711477483 0 0.00052445775633959922 0.0040237316251685289 0 0.00017913456926343526 0.004037645122464139 0 0.00026547059624829294 0.0038290029047131952 0 0.00052445775633959922 0.0040237316251685289 0 0.00039231791397644519 0.0038493452985143384 0 0.00011773985004987457 0.003688479711477483 0 0.00017913456926343526 0.004037645122464139 0 -0.00022635323950552738 0.0039387040811811203 0 -0.00022635323950552738 0.0039387040811811203 0 0.00014633012321190361 0.0043576176630168483 0 -9.6031975222398837e-05 0.0046650522142790652 0 5.133265662318239e-05 0.0043819757412164335 0 2.6358915735249711e-05 0.0044973843211273011 0 -6.3210440806289338e-05 0.0050006399728625799 0 -9.6031975222398837e-05 0.0046650522142790652 0 7.15642136897637e-05 0.0048426365697208634 0 0.00017913456926343526 0.004037645122464139 0 -0.00022635323950552738 0.0039387040811811203 0 0.00014633012321190361 0.0043576176630168483 0 0.00017913456926343526 0.004037645122464139 0 0.00031990200786156367 0.004181804758598486 0 0.00014633012321190361 0.0043576176630168483 0 0.00052445775633959922 0.0040237316251685289 0 0.00017913456926343526 0.004037645122464139 0 0.00031990200786156367 0.004181804758598486 0 0.00042514548393079239 0.0043024825288420863 0 0.00014633012321190361 0.0043576176630168483 0 0.0003061848248029064 0.004572617777602591 0 0.00042514548393079239 0.0043024825288420863 0 0.00031990200786156367 0.004181804758598486 0 0.00014633012321190361 0.0043576176630168483 0 0.0003061848248029064 0.004572617777602591 0 9.9575211442885967e-05 0.004618228891391872 0 0.00016298552428804284 0.0047462449675226507 0 0.00014633012321190361 0.0043576176630168483 0 0.0003061848248029064 0.004572617777602591 0 9.9575211442885967e-05 0.004618228891391872 0 0.00014633012321190361 0.0043576176630168483 0 9.9575211442885967e-05 0.004618228891391872 0 -9.6031975222398837e-05 0.0046650522142790652 0 9.9575211442885967e-05 0.004618228891391872 0 5.3656769630193535e-06 0.0047073250637271026 0 -9.6031975222398837e-05 0.0046650522142790652 0 5.3656769630193535e-06 0.0047073250637271026 0 3.1697000466016065e-05 0.0047838771978411937 0 0.00016298552428804284 0.0047462449675226507 0 9.9575211442885967e-05 0.004618228891391872 0 5.3656769630193535e-06 0.0047073250637271026 0 0.00016298552428804284 0.0047462449675226507 0 0.0003061848248029064 0.004572617777602591 0 0.00016298552428804284 0.0047462449675226507 0 0.00037712587664716411 0.0047794499303591984 0 0.00016298552428804284 0.0047462449675226507 0 0.0002135203998480279 0.0048943019294664424 0 0.00037712587664716411 0.0047794499303591984 0 -5.6822590583577531e-05 0.0047061335213998013 0 -5.0020579667937449e-05 0.0046855755350620025 0 7.15642136897637e-05 0.0048426365697208634 0 -5.6822590583577531e-05 0.0047061335213998013 0 -9.6031975222398837e-05 0.0046650522142790652 0 7.15642136897637e-05 0.0048426365697208634 0 -5.6822590583577531e-05 0.0047061335213998013 0 -9.6031975222398837e-05 0.0046650522142790652 0 -5.8709250505874633e-05 0.0047050679160009724 0 5.3656769630193535e-06 0.0047073250637271026 0 -9.6031975222398837e-05 0.0046650522142790652 0 -5.8709250505874633e-05 0.0047050679160009724 0 5.3656769630193535e-06 0.0047073250637271026 0 -1.8091240796663445e-05 0.00475094634304561 0 -5.8709250505874633e-05 0.0047050679160009724 0 5.3656769630193535e-06 0.0047073250637271026 0 3.1697000466016065e-05 0.0047838771978411937 0 -1.8091240796663445e-05 0.00475094634304561 0 -1.8091240796663445e-05 0.00475094634304561 0 -5.8709250505874633e-05 0.0047050679160009724 0 -7.1175731179998067e-05 0.0047023044065676207 0 -5.6822590583577531e-05 0.0047061335213998013 0 -5.8709250505874633e-05 0.0047050679160009724 0 -7.1175731179998067e-05 0.0047023044065676207 0 -5.6822590583577531e-05 0.0047061335213998013 0 -7.1175731179998067e-05 0.0047023044065676207 0 -5.0020579667937449e-05 0.0046855755350620025 0 0.00021841988203634625 0.0046555003930819835 0 0.00023868737225637122 0.0044356221026315137 0 -7.1175731179998067e-05 0.0047023044065676207 0 -5.0020579667937449e-05 0.0046855755350620025 0 -8.1544138313563027e-05 0.0046394681564668975 0 0.0001417453921256112 0.0048916455117987388 0 0.00013697374292538441 0.0049104205028248655 0 0.00015874806942635207 0.0049174351276622804 0 -7.1175731179998067e-05 0.0047023044065676207 0 -0.00010603969878981421 0.0046783029597595553 0 -8.1544138313563027e-05 0.0046394681564668975 0 0.00036928714033475585 0.004300780434405624 0 0.000403493534545611 0.0042793667175302476 0 -1.8091240796663445e-05 0.00475094634304561 0 -7.1175731179998067e-05 0.0047023044065676207 0 3.5897068571112898e-05 0.0048997976108929135 0 0.000403493534545611 0.0042793667175302476 0 0.00023868737225637122 0.0044356221026315137 0 0.00029029247346097945 0.0038032506631993628 0 0.00043919621235252309 0.0039023692298854199 0 0.00032868881300815699 0.0039344905537115954 0 0.0002135203998480279 0.0048943019294664424 0 3.6846997465982836e-05 0.0049236485477378448 0 0.00039881283781993763 0.0051851284139293116 0 0.0002135203998480279 0.0048943019294664424 0 0.00037712587664716411 0.0047794499303591984 0 0.00039881283781993763 0.0051851284139293116 0 0.000403493534545611 0.0042793667175302476 0 0.00053767082232030014 0.0038283430861944627 0 3.1697000466016065e-05 0.0047838771978411937 0 0.00016298552428804284 0.0047462449675226507 0 6.9384010352990843e-05 0.0048668943406677675 0 0.0002135203998480279 0.0048943019294664424 0 6.9384010352990843e-05 0.0048668943406677675 0 3.6846997465982836e-05 0.0049236485477378448 0 0.00016298552428804284 0.0047462449675226507 0 0.0002135203998480279 0.0048943019294664424 0 6.9384010352990843e-05 0.0048668943406677675 0 3.1697000466016065e-05 0.0047838771978411937 0 -1.8091240796663445e-05 0.00475094634304561 0 3.5897068571112898e-05 0.0048997976108929135 0 3.1697000466016065e-05 0.0047838771978411937 0 6.9384010352990843e-05 0.0048668943406677675 0 3.5897068571112898e-05 0.0048997976108929135 0 0.00039937640596782279 0.0042859570810716945 0 0.000403493534545611 0.0042793667175302476 0 0.00029029247346097945 0.0038032506631993628 0 0.00032868881300815699 0.0039344905537115954 0 0.00022395804032648099 0.0039051793647230607 0 0.00099537786036298375 0.0037024494656771397 0 0.00092091664165543942 0.0035684079643772968 0 0.00083476437439971446 0.0037605118661454399 0 0.00068816079581307586 0.0039334821056231451 0 0.00053767082232030014 0.0038283430861944627 0 0.0006862344258431925 0.0046272500425367158 0 0.00037712587664716411 0.0047794499303591984 0 0.00039881283781993763 0.0051851284139293116 0 0.00099537786036298375 0.0037024494656771397 0 0.00092091664165543942 0.0035684079643772968 0 0.0010915364571800084 0.0035452536909187748 0 0.00042514548393079239 0.0043024825288420863 0 0.0003061848248029064 0.004572617777602591 0 0.0006862344258431925 0.0046272500425367158 0 0.0003061848248029064 0.004572617777602591 0 0.0006862344258431925 0.0046272500425367158 0 0.00037712587664716411 0.0047794499303591984 0 0.00016756496793266911 0.0049213263165073552 0 0.0001538490750347685 0.0049320223941424889 0 0.00016199500912722701 0.0049079203375176125 0 7.2596831958942704e-05 0.0053552176296174916 0 0.00020622799205690986 0.0054452953754146102 0 0.00032286527346411624 0.0051613837872143868 0 0.0001926720232401642 0.0049942840890316274 0 0.00032286527346411624 0.0051613837872143868 0 0.00023750348948715214 0.0048793876270601033 0 7.2596831958942704e-05 0.0053552176296174916 0 0.0001926720232401642 0.0049942840890316274 0 0.00032286527346411624 0.0051613837872143868 0 0.00016892037251347913 0.0051470479586320792 0 0.00018781781503433343 0.0050840448862692258 0 0.00016756496793266911 0.0049213263165073552 0 0.0001926720232401642 0.0049942840890316274 0 0.0001538490750347685 0.0049320223941424889 0 0.0001538490750347685 0.0049320223941424889 0 0.000133468065154411 0.0049015833725046488 0 0.00012293234216433443 0.0049152394890031592 0 0.00012488077963203291 0.0048997676155741908 0 0.000133468065154411 0.0049015833725046488 0 0.00012293234216433443 0.0049152394890031592 0 0.00013697374292538441 0.0049104205028248655 0 0.00012488077963203291 0.0048997676155741908 0 0.00012293234216433443 0.0049152394890031592 0 0.0001417453921256112 0.0048916455117987388 0 0.00013697374292538441 0.0049104205028248655 0 0.00012488077963203291 0.0048997676155741908 0 0.00021841988203634625 0.0046555003930819835 0 0.00021229623002255529 0.0047205709553741551 0 0.00010722864957447076 0.0048776621129863517 0 0.000133468065154411 0.0049015833725046488 0 0.00013073553682260976 0.0048929995616542382 0 0.0001417453921256112 0.0048916455117987388 0 0.00010722864957447076 0.0048776621129863517 0 7.15642136897637e-05 0.0048426365697208634 0 0.0001417453921256112 0.0048916455117987388 0 0.00012488077963203291 0.0048997676155741908 0 0.00010722864957447076 0.0048776621129863517 0 0.00012488077963203291 0.0048997676155741908 0 0.00010722864957447076 0.0048776621129863517 0 0.000133468065154411 0.0049015833725046488 0 0.0001538490750347685 0.0049320223941424889 0 0.00016199500912722701 0.0049079203375176125 0 0.000133468065154411 0.0049015833725046488 0 0.00016199500912722701 0.0049079203375176125 0 0.000133468065154411 0.0049015833725046488 0 0.00013073553682260976 0.0048929995616542382 0 0.00016199500912722701 0.0049079203375176125 0 0.00013073553682260976 0.0048929995616542382 0 0.00021507757275589757 0.0049446084138302987 0 0.00013073553682260976 0.0048929995616542382 0 9.0264089346956498e-05 0.0050051366292758123 0 0.00021507757275589757 0.0049446084138302987 0 0.00013073553682260976 0.0048929995616542382 0 7.15642136897637e-05 0.0048426365697208634 0 9.0264089346956498e-05 0.0050051366292758123 0 0.00010722864957447076 0.0048776621129863517 0 0.00013073553682260976 0.0048929995616542382 0 7.15642136897637e-05 0.0048426365697208634 0 -6.3210440806289338e-05 0.0050006399728625799 0 7.15642136897637e-05 0.0048426365697208634 0 9.0264089346956498e-05 0.0050051366292758123 0 -6.3210440806289338e-05 0.0050006399728625799 0 9.0264089346956498e-05 0.0050051366292758123 0 2.2295581919111994e-05 0.0050771380982408583 0 9.0264089346956498e-05 0.0050051366292758123 0 0.00021507757275589757 0.0049446084138302987 0 0.0002118701897791 0.0051550581162031484 0 0.00013943651475068118 0.0056014624629758944 0 0.00013709317273167336 0.0056052203819678152 0 0.00012252015259186022 0.0056085939337367531 0 0.00014748529483951745 0.0052550810604644546 0 0.00012537092899283736 0.0053613497701241707 0 0.00013943651475068118 0.0056014624629758944 0 8.8831584613510397e-05 0.0055703895020793844 0 0.00017989641413401929 0.0055773291707585503 0 0.00013943651475068118 0.0056014624629758944 0 8.8831584613510397e-05 0.0055703895020793844 0 0.00012252015259186022 0.0056085939337367531 0 0.00013943651475068118 0.0056014624629758944 0 0.00015716706301720636 0.0056118806750070907 0 0.00013709317273167336 0.0056052203819678152 0 7.2596831958942704e-05 0.0053552176296174916 0 8.8831584613510397e-05 0.0055703895020793844 0 0.00017989641413401929 0.0055773291707585503 0 0.00016892037251347913 0.0051470479586320792 0 0.00014748529483951745 0.0052550810604644546 0 0.00016756496793266911 0.0049213263165073552 0 0.00016199500912722701 0.0049079203375176125 0 0.00021507757275589757 0.0049446084138302987 0 7.2596831958942704e-05 0.0053552176296174916 0 0.00020622799205690986 0.0054452953754146102 0 0.00017989641413401929 0.0055773291707585503 0 0.00020622799205690986 0.0054452953754146102 0 0.00017989641413401929 0.0055773291707585503 0 0.00029178226418934892 0.0056300226619998579 0 0.00017989641413401929 0.0055773291707585503 0 0.00021740186708968408 0.0056039849307558285 0 0.00029178226418934892 0.0056300226619998579 0 0.00017989641413401929 0.0055773291707585503 0 0.00021740186708968408 0.0056039849307558285 0 0.00017841755160830823 0.0056074839320164813 0 0.00013943651475068118 0.0056014624629758944 0 0.00017989641413401929 0.0055773291707585503 0 0.00017841755160830823 0.0056074839320164813 0 0.00017841755160830823 0.0056074839320164813 0 0.00015716706301720636 0.0056118806750070907 0 0.00017997688334111048 0.0056290167778186269 0 0.00013943651475068118 0.0056014624629758944 0 0.00017841755160830823 0.0056074839320164813 0 0.00015716706301720636 0.0056118806750070907 0 0.00021740186708968408 0.0056039849307558285 0 0.00017841755160830823 0.0056074839320164813 0 0.00017997688334111048 0.0056290167778186269 0 -6.2996115707814632e-05 0.0056813636968290745 0 4.9546966367395254e-05 0.0055858918761889703 0 -1.2735701330170265e-05 0.0055856309740294008 0 -1.6766838162768366e-05 0.005633847669467347 0 1.4964949354748429e-05 0.0056465509857542111 0 0.0001006270012886956 0.0055709953808840617 0 -6.2996115707814632e-05 0.0056813636968290745 0 -7.4465267771472882e-05 0.0056113026284309838 0 -1.2735701330170265e-05 0.0055856309740294008 0 -7.1824248790405915e-05 0.0056672544939779645 0 1.4377410001342884e-05 0.0056309642075600156 0 -6.2996115707814632e-05 0.0056813636968290745 0 0.0001006270012886956 0.0055709953808840617 0 4.9546966367395254e-05 0.0055858918761889703 0 0.00017997688334111048 0.0056290167778186269 0 0.00013709317273167336 0.0056052203819678152 0 0.00010892819762027816 0.0055732487774305178 0 0.00015716706301720636 0.0056118806750070907 0 0.00017997688334111048 0.0056290167778186269 0 0.00013709317273167336 0.0056052203819678152 0 1.4964949354748429e-05 0.0056465509857542111 0 0.0001006270012886956 0.0055709953808840617 0 0.00010892819762027816 0.0055732487774305178 0 7.2306804152567271e-05 0.0056344376923118259 0 0.00010361702178123676 0.0056137051168795461 0 0.00013709317273167336 0.0056052203819678152 0 0.00012252015259186022 0.0056085939337367531 0 0.00010892819762027816 0.0055732487774305178 0 4.9546966367395254e-05 0.0055858918761889703 0 4.9505269231669485e-05 0.0055040564957822419 0 -1.2735701330170265e-05 0.0055856309740294008 0 4.9546966367395254e-05 0.0055858918761889703 0 8.0172554557711009e-05 0.0055411249233477582 0 4.9505269231669485e-05 0.0055040564957822419 0 0.0001006270012886956 0.0055709953808840617 0 4.9546966367395254e-05 0.0055858918761889703 0 8.1984610757141971e-05 0.0055619177703316253 0 9.6018564280480958e-05 0.0055519344821759941 0 8.0172554557711009e-05 0.0055411249233477582 0 0.00010826684090477578 0.0055344990206491066 0 0.0001006270012886956 0.0055709953808840617 0 9.6018564280480958e-05 0.0055519344821759941 0 0.00010741523268413387 0.0055438522131864721 0 0.0001006270012886956 0.0055709953808840617 0 9.6018564280480958e-05 0.0055519344821759941 0 8.1984610757141971e-05 0.0055619177703316253 0 4.9546966367395254e-05 0.0055858918761889703 0 8.1984610757141971e-05 0.0055619177703316253 0 8.0172554557711009e-05 0.0055411249233477582 0 9.6018564280480958e-05 0.0055519344821759941 0 8.1984610757141971e-05 0.0055619177703316253 0 8.0172554557711009e-05 0.0055411249233477582 0 8.0172554557711009e-05 0.0055411249233477582 0 0.00010826684090477578 0.0055344990206491066 0 0.00010170566536737334 0.0055287774490999078 0 8.0172554557711009e-05 0.0055411249233477582 0 4.9505269231669485e-05 0.0055040564957822419 0 0.00010170566536737334 0.0055287774490999078 0 4.9505269231669485e-05 0.0055040564957822419 0 -1.2735701330170265e-05 0.0055856309740294008 0 -0.00011243302807232883 0.0055501502851185323 0 -2.8157449387393547e-05 0.0055171500994269582 0 -0.00011152757157414444 0.0054892862761111985 0 -0.00016602825719242017 0.0055744194298673914 0 -0.00012919593445760613 0.0049783526987086397 0 -0.0002234143059630498 0.0052409139933905346 0 -7.4465267771472882e-05 0.0056113026284309838 0 -1.2735701330170265e-05 0.0055856309740294008 0 -0.00011243302807232883 0.0055501502851185323 0 9.0264089346956498e-05 0.0050051366292758123 0 9.2574481040583531e-05 0.0051401821539392651 0 2.2295581919111994e-05 0.0050771380982408583 0 0.00014672989531809514 0.005026988324664995 0 0.00015509158142723367 0.004971629363569552 0 -3.2514535585822397e-05 0.0051572198477518845 0 9.2574481040583531e-05 0.0051401821539392651 0 2.2295581919111994e-05 0.0050771380982408583 0 0.00012252015259186022 0.0056085939337367531 0 0.00010892819762027816 0.0055732487774305178 0 0.00010938202670781495 0.0054770927098285157 0 6.4490937925817417e-05 0.0053006009391826604 0 0.0002118701897791 0.0051550581162031484 0 0.00010938202670781495 0.0054770927098285157 0 0.00012537092899283736 0.0053613497701241707 0 0.00010914434185395839 0.005415568246123958 0 9.0264089346956498e-05 0.0050051366292758123 0 6.4490937925817417e-05 0.0053006009391826604 0 0.0002118701897791 0.0051550581162031484 0 6.4490937925817417e-05 0.0053006009391826604 0 0.00010938202670781495 0.0054770927098285157 0 9.9788127818778023e-05 0.0055804301986863286 0 0.00010741523268413387 0.0055438522131864721 0 0.00010826684090477578 0.0055344990206491066 0 0.00010938202670781495 0.0054770927098285157 0 0.00010892819762027816 0.0055732487774305178 0 0.00010741523268413387 0.0055438522131864721 0 0.00010938202670781495 0.0054770927098285157 0 0.0001006270012886956 0.0055709953808840617 0 0.00010892819762027816 0.0055732487774305178 0 0.00010741523268413387 0.0055438522131864721 0 9.6018564280480958e-05 0.0055519344821759941 0 0.00010741523268413387 0.0055438522131864721 0 0.00010826684090477578 0.0055344990206491066 0 0.00010826684090477578 0.0055344990206491066 0 0.00010170566536737334 0.0055287774490999078 0 0.00011808492134542743 0.0055194423972225815 0 0.00010170566536737334 0.0055287774490999078 0 0.00011808492134542743 0.0055194423972225815 0 0.00011613741054463052 0.0055407443745990204 0 0.00010826684090477578 0.0055344990206491066 0 0.00011808492134542743 0.0055194423972225815 0 0.00010938202670781495 0.0054770927098285157 0 0.00011808492134542743 0.0055194423972225815 0 0.00010938202670781495 0.0054770927098285157 0 9.9788127818778023e-05 0.0055804301986863286 0 0.00011808492134542743 0.0055194423972225815 0 9.9788127818778023e-05 0.0055804301986863286 0 0.00011613741054463052 0.0055407443745990204 0 7.4320734751905646e-05 0.0038915079248691606 0 0.00020138638351639763 0.0041097000531635135 0 0.00030598696907522426 0.0040908329872453844 0 -3.2514535585822397e-05 0.0051572198477518845 0 9.2574481040583531e-05 0.0051401821539392651 0 0.00010224829691149649 0.0052682727040529315 0 0.00015509158142723367 0.004971629363569552 0 0.00016377757469408129 0.0044461984535386729 0 0.0001615105398975352 0.004102018718914289 0 0.00016377757469408129 0.0044461984535386729 0 0.0001943679393203317 0.0036737088577587767 0 0.0001697219067212682 0.0034875055806471576 0 0.00029230255787697816 0.0036358557099679116 0 0.00037803505088399963 0.0033175886486247188 0 0.00030176724772533979 0.0035889731045649527 0 0.00024804062618411578 0.0035751451938409763 0 0.00030176724772533979 0.0035889731045649527 0 9.9524257339473262e-05 0.004079254822454477 0 0.00021201024223370629 0.0042151047094668454 0 0.00020138638351639763 0.0041097000531635135 0 0.00020138638351639763 0.0041097000531635135 0 0.00031237070477295264 0.0041765546829092993 0 0.00030598696907522426 0.0040908329872453844 0 0.00021201024223370629 0.0042151047094668454 0 0.00020138638351639763 0.0041097000531635135 0 0.00031237070477295264 0.0041765546829092993 0 0.00030176724772533979 0.0035889731045649527 0 0.00020022709525789538 0.0040262225063885911 0 5.2441512152225328e-05 0.0044170086011342414 0 -0.00013627591991904889 0.0046969852339225271 0 0.00048430995043263596 0.0029866025403880087 0 0.00041231180293138436 0.0030146938555123282 0 0.00040727600852109494 0.0028921214785547949 0 0.00020022709525789538 0.0040262225063885911 0 5.2441512152225328e-05 0.0044170086011342414 0 -0.00021414877675782825 0.004834755262033719 0 -0.00027057571212350687 0.0040540400514782948 0 0.00036971502102621951 0.0046086050490222385 0 0.00020022709525789538 0.0040262225063885911 0 0.00016377757469408129 0.0044461984535386729 0 9.9788127818778023e-05 0.0055804301986863286 0 0.00011613741054463052 0.0055407443745990204 0 0.00011965520771621919 0.0055340679129886883 0 0.00016377757469408129 0.0044461984535386729 0 5.2441512152225328e-05 0.0044170086011342414 0 0.00010170566536737334 0.0055287774490999078 0 0.00011613741054463052 0.0055407443745990204 0 0.00011965520771621919 0.0055340679129886883 0 0.00041231180293138436 0.0030146938555123282 0 0.00040727600852109494 0.0028921214785547949 0 0.00021344870726286772 0.0028366507516918069 0 0.0004700916945028193 0.0027884613084137931 0 0.00040727600852109494 0.0028921214785547949 0 0.00021344870726286772 0.0028366507516918069 0 0.00020022709525789538 0.0040262225063885911 0 0.00019808508358531141 0.0032458141410930063 0 0.00048430995043263596 0.0029866025403880087 0 0.0004700916945028193 0.0027884613084137931 0 0.00040727600852109494 0.0028921214785547949 0 0.00036907641690766228 0.0030876519949239877 0 0.00037803505088399963 0.0033175886486247188 0 0.00050042661558635793 0.0025726607368264111 0 0.00051287311853530934 0.0026569170542474845 0 0.0004747587197788873 0.0026232020884899331 0 0.00026132150923548149 0.0034640875299006973 0 0.00043175256928341087 0.0033982252167615344 0 0.00045336280386985562 0.0036962216483413237 0 0.00050042661558635793 0.0025726607368264111 0 0.00042044411237399841 0.0026110855207117207 0 0.0004747587197788873 0.0026232020884899331 0 0.00047040591437103925 0.0026720184372512217 0 0.00042044411237399841 0.0026110855207117207 0 0.0004747587197788873 0.0026232020884899331 0 0.00030176724772533979 0.0035889731045649527 0 0.00019808508358531141 0.0032458141410930063 0 0.00051287311853530934 0.0026569170542474845 0 0.00047040591437103925 0.0026720184372512217 0 0.0004747587197788873 0.0026232020884899331 0 -5.4868211312100078e-05 0.0054367521037608502 0 -0.0001179188439593548 0.0054238409187824911 0 -0.00011152757157414444 0.0054892862761111985 0 -0.0001179188439593548 0.0054238409187824911 0 -0.00011152757157414444 0.0054892862761111985 0 -0.00020039071430525811 0.0054956126980223998 0 -2.8157449387393547e-05 0.0055171500994269582 0 -5.4868211312100078e-05 0.0054367521037608502 0 -0.00011152757157414444 0.0054892862761111985 0 4.9505269231669485e-05 0.0055040564957822419 0 0.00010170566536737334 0.0055287774490999078 0 0.00011965520771621919 0.0055340679129886883 0 0.00010796752961894075 0.0054614191617961723 0 8.804046345533174e-06 0.0054461207665612811 0 1.1207371037191754e-06 0.0053702837992882606 0 -0.00012919593445760613 0.0049783526987086397 0 5.2441512152225328e-05 0.0044170086011342414 0 -2.8157449387393547e-05 0.0055171500994269582 0 0.00010796752961894075 0.0054614191617961723 0 8.804046345533174e-06 0.0054461207665612811 0 -2.8157449387393547e-05 0.0055171500994269582 0 -5.4868211312100078e-05 0.0054367521037608502 0 8.804046345533174e-06 0.0054461207665612811 0 -5.4868211312100078e-05 0.0054367521037608502 0 8.804046345533174e-06 0.0054461207665612811 0 1.1207371037191754e-06 0.0053702837992882606 0 0.0001783769417171213 0.0026761846676225873 0 0.0004700916945028193 0.0027884613084137931 0 0.00021344870726286772 0.0028366507516918069 0 -5.4868211312100078e-05 0.0054367521037608502 0 1.1207371037191754e-06 0.0053702837992882606 0 -8.2453471662047721e-05 0.0053742150989558772 0 -0.0001685807237312803 0.0054493361677011246 0 -0.00013627591991904889 0.0046969852339225271 0 -0.00010619021550023133 0.0052775282057496648 0 1.1207371037191754e-06 0.0053702837992882606 0 -8.2453471662047721e-05 0.0053742150989558772 0 -5.4868211312100078e-05 0.0054367521037608502 0 -0.0001179188439593548 0.0054238409187824911 0 -8.2453471662047721e-05 0.0053742150989558772 0 -0.00017127518582292348 0.005667540168093314 0 -0.00016148776507588159 0.0057049840413418091 0 -0.0001179188439593548 0.0054238409187824911 0 -8.2453471662047721e-05 0.0053742150989558772 0 -0.00014379943426490584 0.0053639655064712903 0 -0.00010619021550023133 0.0052775282057496648 0 -8.2453471662047721e-05 0.0053742150989558772 0 -0.00014379943426490584 0.0053639655064712903 0 -0.0001685807237312803 0.0054493361677011246 0 -0.00016148776507588159 0.0057049840413418091 0 -0.00021150381889621024 0.0052162846561513198 0 -0.00014538939543096542 0.0053669595050768529 0 -0.00025473425281485288 0.0053897695739153458 0 -0.0001179188439593548 0.0054238409187824911 0 -0.00014439441323080556 0.0053636221578143685 0 -0.00020039071430525811 0.0054956126980223998 0 -0.00016148776507588159 0.0057049840413418091 0 -0.00013504572553286863 0.0055933358268470288 0 -0.00014538939543096542 0.0053669595050768529 0 -0.00020039071430525811 0.0054956126980223998 0 -0.00025473425281485288 0.0053897695739153458 0 -0.00020039071430525811 0.0054956126980223998 0 -0.00033141099074668665 0.005486516134132818 0 -0.00024935756640027175 0.0055479690304244735 0 -0.00020039071430525811 0.0054956126980223998 0 -0.00033141099074668665 0.005486516134132818 0 -0.00025473425281485288 0.0053897695739153458 0 -0.00033141099074668665 0.005486516134132818 0 -0.00035047492651225405 0.005323549873323047 0 -0.00025473425281485288 0.0053897695739153458 0 0.0029053785890309361 0.011347919071356379 0 0.0025881334139473667 0.011341330496452542 0 0.0026125518053508683 0.011628688158274249 0 0.00089266360443488737 0.0080071590527193218 0 0.00092141266164199698 0.0084139506264146527 0 0.0025881334139473667 0.011341330496452542 0 0.0026125518053508683 0.011628688158274249 0 0.0023311035299751468 0.011623446319175073 0 0.00092141266164199698 0.0084139506264146527 0 0.00083490323804249588 0.0087667171515709384 0 -0.00033141099074668665 0.005486516134132818 0 -0.00035047492651225405 0.005323549873323047 0 -0.00050427705370248779 0.0054335494016454862 0 -0.00033141099074668665 0.005486516134132818 0 -0.00050427705370248779 0.0054335494016454862 0 -0.00047133032539365267 0.0055684828828715307 0 -0.00033141099074668665 0.005486516134132818 0 -0.00047133032539365267 0.0055684828828715307 0 -0.00030180365302170725 0.0056338788563294493 0 -0.00050427705370248779 0.0054335494016454862 0 -0.00047133032539365267 0.0055684828828715307 0 -0.00067757143888378649 0.0055555618215645565 0 -0.00047133032539365267 0.0055684828828715307 0 -0.00055562141325425001 0.005688138419532301 0 -0.00067757143888378649 0.0055555618215645565 0 -0.00055562141325425001 0.005688138419532301 0 -0.00043055547275899162 0.0057036895019438255 0 -0.00050744737359614215 0.0058596435585679656 0 -0.00047133032539365267 0.0055684828828715307 0 -0.00055562141325425001 0.005688138419532301 0 -0.00043055547275899162 0.0057036895019438255 0 -0.00047133032539365267 0.0055684828828715307 0 -0.00043055547275899162 0.0057036895019438255 0 -0.00030180365302170725 0.0056338788563294493 0 -0.00030180365302170725 0.0056338788563294493 0 -0.00019722989636650865 0.0056819189264454405 0 -0.00029592418554275665 0.0057778669832685243 0 -0.00043055547275899162 0.0057036895019438255 0 -0.00030180365302170725 0.0056338788563294493 0 -0.00029592418554275665 0.0057778669832685243 0 -0.00030180365302170725 0.0056338788563294493 0 -0.00019722989636650865 0.0056819189264454405 0 -0.00013520911158843699 0.0056328047753321977 0 -1.6766838162768366e-05 0.005633847669467347 0 1.4964949354748429e-05 0.0056465509857542111 0 -0.00010520626882701309 0.0057247558633275637 0 -6.2996115707814632e-05 0.0056813636968290745 0 -0.00019722989636650865 0.0056819189264454405 0 -0.00029592418554275665 0.0057778669832685243 0 -7.1824248790405915e-05 0.0056672544939779645 0 -0.00024759940312326132 0.0057368921908149961 0 -6.2996115707814632e-05 0.0056813636968290745 0 -7.4465267771472882e-05 0.0056113026284309838 0 -0.00013520911158843699 0.0056328047753321977 0 -6.2996115707814632e-05 0.0056813636968290745 0 -0.00019722989636650865 0.0056819189264454405 0 -0.00013520911158843699 0.0056328047753321977 0 -0.00027877212627611548 0.0053283261571815928 0 -0.0002234143059630498 0.0052409139933905346 0 -0.00030180365302170725 0.0056338788563294493 0 -0.00016602825719242017 0.0055744194298673914 0 -0.00024935756640027175 0.0055479690304244735 0 -0.00030180365302170725 0.0056338788563294493 0 -0.00013520911158843699 0.0056328047753321977 0 -0.00011243302807232883 0.0055501502851185323 0 -7.4465267771472882e-05 0.0056113026284309838 0 -0.00013520911158843699 0.0056328047753321977 0 -0.00011243302807232883 0.0055501502851185323 0 -0.00011152757157414444 0.0054892862761111985 0 -0.00020039071430525811 0.0054956126980223998 0 -0.00016602825719242017 0.0055744194298673914 0 -0.00020039071430525811 0.0054956126980223998 0 -0.00016602825719242017 0.0055744194298673914 0 -0.00024935756640027175 0.0055479690304244735 0 -0.00033141099074668665 0.005486516134132818 0 -0.00030180365302170725 0.0056338788563294493 0 -0.00024935756640027175 0.0055479690304244735 0 -4.2691439788774363e-05 0.0099015778363186827 0 -0.00021032938525403477 0.010313089942621636 0 -0.00067714551762857193 0.010387305397882763 0 -0.00082727300937885794 0.0099774026372814288 0 -0.00021855513123528571 0.010030068496739881 0 -0.0011059689606364111 0.010306907618205267 0 -0.00021855513123528571 0.010030068496739881 0 -0.0011059689606364111 0.010306907618205267 0 -0.0011230912354952382 0.010686475984233518 0 -0.00013243613974004808 0.010113890566270064 0 -0.00075799759306555484 0.010717994357387423 0 -0.00082727300937885794 0.0099774026372814288 0 -0.00049535794551249489 0.0095684562247583798 0 -0.00021855513123528571 0.010030068496739881 0 -0.00082727300937885794 0.0099774026372814288 0 -0.00091609988374502201 0.0097531489201135892 0 -0.00049535794551249489 0.0095684562247583798 0 -0.00091609988374502201 0.0097531489201135892 0 -0.0009712968403067418 0.0093130397747503719 0 -0.00049535794551249489 0.0095684562247583798 0 -0.00033221046012502217 0.0089626197820428938 0 -0.0009712968403067418 0.0093130397747503719 0 -0.00049535794551249489 0.0095684562247583798 0 -0.00049535794551249489 0.0095684562247583798 0 -2.0376106851516312e-05 0.0093941333742120978 0 -0.00021855513123528571 0.010030068496739881 0 -2.0376106851516312e-05 0.0093941333742120978 0 -0.00021855513123528571 0.010030068496739881 0 0.00060892301633302427 0.0093783680531072788 0 -0.00033221046012502217 0.0089626197820428938 0 -0.00049535794551249489 0.0095684562247583798 0 -2.0376106851516312e-05 0.0093941333742120978 0 0.0020665419830937148 0.011620214906220271 0 0.0020714120521678398 0.011909304211776618 0 0.0018247323498907795 0.011916107082380892 0 -4.2691439788774363e-05 0.0099015778363186827 0 0.00034851506071865941 0.0097776729848963705 0 -0.00021032938525403477 0.010313089942621636 0 0.0011244046513570218 0.010599763053539006 0 0.0007979383049341929 0.011077454580024872 0 0.0023311035299751468 0.011623446319175073 0 0.0023287341296112834 0.011913263219972868 0 0.0020714120521678398 0.011909304211776618 0 0.0020665419830937148 0.011620214906220271 0 0.0023311035299751468 0.011623446319175073 0 0.0020714120521678398 0.011909304211776618 0 -0.00013243613974004808 0.010113890566270064 0 0.00024091669326994276 0.0097977781322229097 0 0.00029609816960294563 0.0090927683481369318 0 -2.0376106851516312e-05 0.0093941333742120978 0 0.00060892301633302427 0.0093783680531072788 0 0.0013912393054994138 0.010069867735464701 0 0.0011244046513570218 0.010599763053539006 0 0.00091539349510931197 0.0092032334009267431 0 0.00034851506071865941 0.0097776729848963705 0 0.00060892301633302427 0.0093783680531072788 0 -4.2691439788774363e-05 0.0099015778363186827 0 0.00034851506071865941 0.0097776729848963705 0 0.00060892301633302427 0.0093783680531072788 0 0.0023266114216818025 0.011326958589986544 0 0.0020665419830937148 0.011620214906220271 0 0.0023311035299751468 0.011623446319175073 0 0.0023266114216818025 0.011326958589986544 0 0.0025881334139473667 0.011341330496452542 0 0.0023311035299751468 0.011623446319175073 0 0.0026125518053508683 0.011628688158274249 0 0.0023311035299751468 0.011623446319175073 0 0.0023287341296112834 0.011913263219972868 0 -0.00055562141325425001 0.005688138419532301 0 -0.00067757143888378649 0.0055555618215645565 0 -0.0006936786125067918 0.0057608634633331789 0 -0.00067757143888378649 0.0055555618215645565 0 -0.00086454330282673402 0.0056913194796004212 0 -0.0006936786125067918 0.0057608634633331789 0 0.00083490323804249588 0.0087667171515709384 0 0.0007573530217734705 0.0091383272043595691 0 0.0023287341296112834 0.011913263219972868 0 0.0020541415022551526 0.012188751718770598 0 0.0020714120521678398 0.011909304211776618 0 0.0020541415022551526 0.012188751718770598 0 0.0020714120521678398 0.011909304211776618 0 0.0018247323498907795 0.011916107082380892 0 0.0020541415022551526 0.012188751718770598 0 0.0017900774870995191 0.012219291875547373 0 0.0018247323498907795 0.011916107082380892 0 0.0020541415022551526 0.012188751718770598 0 0.0017900774870995191 0.012219291875547373 0 0.001796725285673048 0.012436384600148776 0 0.0017900774870995191 0.012219291875547373 0 0.0018247323498907795 0.011916107082380892 0 0.0016259247006997527 0.012198457963941494 0 0.0017900774870995191 0.012219291875547373 0 0.0016259247006997527 0.012198457963941494 0 0.0016717167905429616 0.012341259633270638 0 -0.00021032938525403477 0.010313089942621636 0 -0.00067714551762857193 0.010387305397882763 0 -0.00075599993845540901 0.010817058752705513 0 0.0007979383049341929 0.011077454580024872 0 0.00045697704174628016 0.011540079865528553 0 -0.0010644224855038591 0.0058342756602284941 0 -0.00097712824575263034 0.0060288741679983583 0 -0.0012862981670380635 0.0060043705272449259 0 0.00080589311689666511 0.0096253810707272007 0 0.0011920637103103628 0.010396903388218113 0 0.0017900774870995191 0.012219291875547373 0 0.001796725285673048 0.012436384600148776 0 0.0016717167905429616 0.012341259633270638 0 0.001796725285673048 0.012436384600148776 0 0.0016717167905429616 0.012341259633270638 0 0.0016580218556651091 0.012462270116815576 0 0.0007573530217734705 0.0091383272043595691 0 0.00080589311689666511 0.0096253810707272007 0 -0.00086454330282673402 0.0056913194796004212 0 -0.0010644224855038591 0.0058342756602284941 0 -0.00089091753298711123 0.0058799745291919087 0 -0.0010644224855038591 0.0058342756602284941 0 -0.00089091753298711123 0.0058799745291919087 0 -0.00097712824575263034 0.0060288741679983583 0 -0.00066385508525283114 0.0058687866099268625 0 -0.00081638862097842507 0.0060908797836153172 0 -0.00097712824575263034 0.0060288741679983583 0 -0.00067960682253045827 0.0059005758994269929 0 -0.00081682939062453211 0.0059527221991188236 0 -0.00089091753298711123 0.0058799745291919087 0 -0.00073282899235949214 0.0059458325769726518 0 -0.00097712824575263034 0.0060288741679983583 0 -0.00089091753298711123 0.0058799745291919087 0 -0.0006936786125067918 0.0057608634633331789 0 -0.00073282899235949214 0.0059458325769726518 0 -0.00086454330282673402 0.0056913194796004212 0 -0.00089091753298711123 0.0058799745291919087 0 -0.0006936786125067918 0.0057608634633331789 0 -0.0006936786125067918 0.0057608634633331789 0 -0.00073282899235949214 0.0059458325769726518 0 -0.00050744737359614215 0.0058596435585679656 0 -0.00067960682253045827 0.0059005758994269929 0 -0.00045686747434833629 0.0058164658029728937 0 -0.00066385508525283114 0.0058687866099268625 0 -0.00055353315091478039 0.0060635733050519646 0 -0.00045092964184995738 0.0059394771955476149 0 -0.00066385508525283114 0.0058687866099268625 0 -0.00055353315091478039 0.0060635733050519646 0 -0.0006811229930712274 0.0060915160865543687 0 -0.00055353315091478039 0.0060635733050519646 0 -0.00063104267401175901 0.00618599220457573 0 -0.0006811229930712274 0.0060915160865543687 0 -0.00055353315091478039 0.0060635733050519646 0 -0.00052399098471227592 0.006208053216581055 0 -0.00063104267401175901 0.00618599220457573 0 -0.00055353315091478039 0.0060635733050519646 0 -0.00052399098471227592 0.006208053216581055 0 -0.00040598640924593618 0.0060944138752764077 0 -0.00023037219964030007 0.0079867675947895723 0 -0.00028721613414627251 0.0081689530506897905 0 -0.00052399098471227592 0.006208053216581055 0 -0.0005887565834823981 0.0063124015779190152 0 -0.00043321146837364962 0.0062895973079742798 0 -0.00056386368211386209 0.0063210770926759906 0 -0.00065984340278194497 0.0063050790099626912 0 -0.00062837488797673946 0.0064728813503257647 0 -0.00052399098471227592 0.006208053216581055 0 -0.00056386368211386209 0.0063210770926759906 0 -0.00065984340278194497 0.0063050790099626912 0 -0.00052399098471227592 0.006208053216581055 0 -0.00065984340278194497 0.0063050790099626912 0 -0.00063104267401175901 0.00618599220457573 0 -0.00065984340278194497 0.0063050790099626912 0 -0.00063104267401175901 0.00618599220457573 0 -0.00075405895606997877 0.0062482985622179807 0 -0.00065984340278194497 0.0063050790099626912 0 -0.00075405895606997877 0.0062482985622179807 0 -0.00076651312267910052 0.0064066979670218318 0 -0.00075405895606997877 0.0062482985622179807 0 -0.00092065172666907016 0.0064309749147941145 0 -0.00076651312267910052 0.0064066979670218318 0 -0.00075405895606997877 0.0062482985622179807 0 -0.00081638862097842507 0.0060908797836153172 0 -0.00095764726832855572 0.0062263755028363005 0 -0.00066385508525283114 0.0058687866099268625 0 -0.0006811229930712274 0.0060915160865543687 0 -0.00081638862097842507 0.0060908797836153172 0 -0.00063104267401175901 0.00618599220457573 0 -0.00075405895606997877 0.0062482985622179807 0 -0.0006811229930712274 0.0060915160865543687 0 -0.00075405895606997877 0.0062482985622179807 0 -0.0006811229930712274 0.0060915160865543687 0 -0.00081638862097842507 0.0060908797836153172 0 -0.00081638862097842507 0.0060908797836153172 0 -0.00097712824575263034 0.0060288741679983583 0 -0.00095764726832855572 0.0062263755028363005 0 -0.00075405895606997877 0.0062482985622179807 0 -0.00095764726832855572 0.0062263755028363005 0 -0.00092065172666907016 0.0064309749147941145 0 -0.00095764726832855572 0.0062263755028363005 0 -0.00092065172666907016 0.0064309749147941145 0 -0.0012214488550546974 0.0062827404176761664 0 -0.00097712824575263034 0.0060288741679983583 0 -0.0012862981670380635 0.0060043705272449259 0 -0.0012214488550546974 0.0062827404176761664 0 -0.00097712824575263034 0.0060288741679983583 0 -0.00095764726832855572 0.0062263755028363005 0 -0.0012214488550546974 0.0062827404176761664 0 0.00010641344702540186 0.0057284413543457393 0 0.00021014708754289849 0.0055678490655723008 0 -0.00012048995848101487 0.0056973610021597331 0 0.00010641344702540186 0.0057284413543457393 0 -0.00012048995848101487 0.0056973610021597331 0 -1.1692286831729811e-05 0.0059325181178238665 0 0.00010641344702540186 0.0057284413543457393 0 0.00029178226418934892 0.0056300226619998579 0 0.00014990306525477717 0.005907127567207582 0 0.00010641344702540186 0.0057284413543457393 0 0.00029178226418934892 0.0056300226619998579 0 0.00021014708754289849 0.0055678490655723008 0 0.00021740186708968408 0.0056039849307558285 0 0.00017997688334111048 0.0056290167778186269 0 0.00021014708754289849 0.0055678490655723008 0 7.2306804152567271e-05 0.0056344376923118259 0 -1.5642529539553886e-05 0.005681419927997154 0 -1.6766838162768366e-05 0.005633847669467347 0 -0.00010520626882701309 0.0057247558633275637 0 -0.00017405090188768796 0.0056946615972226248 0 0.00021740186708968408 0.0056039849307558285 0 0.00029178226418934892 0.0056300226619998579 0 0.00021014708754289849 0.0055678490655723008 0 -1.5642529539553886e-05 0.005681419927997154 0 -0.0001757645999153587 0.0057645839039714847 0 -0.00010520626882701309 0.0057247558633275637 0 -0.00017405090188768796 0.0056946615972226248 0 -0.00025830344627800618 0.0058207633130510075 0 -0.00043055547275899162 0.0057036895019438255 0 -0.00029592418554275665 0.0057778669832685243 0 -0.00050744737359614215 0.0058596435585679656 0 -0.00017405090188768796 0.0056946615972226248 0 -0.00038387714123468559 0.0057641909399270726 0 -0.00025830344627800618 0.0058207633130510075 0 -0.00024759940312326132 0.0057368921908149961 0 -0.00045686747434833629 0.0058164658029728937 0 -0.00055562141325425001 0.005688138419532301 0 -0.0006936786125067918 0.0057608634633331789 0 -0.00050744737359614215 0.0058596435585679656 0 -0.00038387714123468559 0.0057641909399270726 0 -0.00045092964184995738 0.0059394771955476149 0 -0.00025830344627800618 0.0058207633130510075 0 -0.00066385508525283114 0.0058687866099268625 0 -0.00038387714123468559 0.0057641909399270726 0 -0.00045092964184995738 0.0059394771955476149 0 -0.00045092964184995738 0.0059394771955476149 0 -0.00012048995848101487 0.0056973610021597331 0 -0.00023433875644151582 0.006021831057199202 0 -0.00028632856875350477 0.0058244348152211084 0 -0.0001757645999153587 0.0057645839039714847 0 -0.00012048995848101487 0.0056973610021597331 0 -0.00023433875644151582 0.006021831057199202 0 -1.1692286831729811e-05 0.0059325181178238665 0 -0.00023433875644151582 0.006021831057199202 0 -7.7633978730258534e-05 0.0061199196251660324 0 -1.1692286831729811e-05 0.0059325181178238665 0 -0.00055353315091478039 0.0060635733050519646 0 -0.00045092964184995738 0.0059394771955476149 0 -0.00040598640924593618 0.0060944138752764077 0 -0.00045092964184995738 0.0059394771955476149 0 -0.00023433875644151582 0.006021831057199202 0 -0.00040598640924593618 0.0060944138752764077 0 -0.00023433875644151582 0.006021831057199202 0 -0.00040598640924593618 0.0060944138752764077 0 -0.00033039112705230973 0.0062111637376992945 0 -0.00052399098471227592 0.006208053216581055 0 -0.00042488376900158396 0.0062028883719714009 0 -0.00043321146837364962 0.0062895973079742798 0 -0.00052399098471227592 0.006208053216581055 0 -0.00040598640924593618 0.0060944138752764077 0 -0.00042488376900158396 0.0062028883719714009 0 -0.00040598640924593618 0.0060944138752764077 0 -0.00042488376900158396 0.0062028883719714009 0 -0.00033039112705230973 0.0062111637376992945 0 -0.00042488376900158396 0.0062028883719714009 0 -0.00033039112705230973 0.0062111637376992945 0 -0.00043321146837364962 0.0062895973079742798 0 -0.00033039112705230973 0.0062111637376992945 0 -0.00031599535572424017 0.0063331375944573843 0 -0.00043321146837364962 0.0062895973079742798 0 -0.00031599535572424017 0.0063331375944573843 0 -0.00043321146837364962 0.0062895973079742798 0 -0.00039513724070198378 0.0064585518248678597 0 -0.0005887565834823981 0.0063124015779190152 0 -0.00043321146837364962 0.0062895973079742798 0 -0.00039513724070198378 0.0064585518248678597 0 -0.00023433875644151582 0.006021831057199202 0 -0.00033039112705230973 0.0062111637376992945 0 -0.00017790588135165793 0.00625908370349945 0 -0.00023433875644151582 0.006021831057199202 0 -7.7633978730258534e-05 0.0061199196251660324 0 -0.00017790588135165793 0.00625908370349945 0 -7.7633978730258534e-05 0.0061199196251660324 0 -0.00017790588135165793 0.00625908370349945 0 -4.3516972935783373e-05 0.0062980122612590912 0 -0.00033039112705230973 0.0062111637376992945 0 -0.00031599535572424017 0.0063331375944573843 0 -0.00017790588135165793 0.00625908370349945 0 -0.00031599535572424017 0.0063331375944573843 0 -0.00017790588135165793 0.00625908370349945 0 -0.00020383125496789369 0.0064153190497200632 0 -0.00017790588135165793 0.00625908370349945 0 -4.3516972935783373e-05 0.0062980122612590912 0 -0.00020383125496789369 0.0064153190497200632 0 -4.3516972935783373e-05 0.0062980122612590912 0 0.00013534307407031255 0.0063319168558059937 0 8.7493739472385855e-05 0.0061275021234774895 0 -7.7633978730258534e-05 0.0061199196251660324 0 -4.3516972935783373e-05 0.0062980122612590912 0 8.7493739472385855e-05 0.0061275021234774895 0 -7.7633978730258534e-05 0.0061199196251660324 0 8.7493739472385855e-05 0.0061275021234774895 0 -1.1692286831729811e-05 0.0059325181178238665 0 8.7493739472385855e-05 0.0061275021234774895 0 0.00014990306525477717 0.005907127567207582 0 -1.1692286831729811e-05 0.0059325181178238665 0 0.00010641344702540186 0.0057284413543457393 0 0.00014990306525477717 0.005907127567207582 0 -1.1692286831729811e-05 0.0059325181178238665 0 0.00018198293689775392 0.0056788496151946076 0 0.00014136065036352596 0.0057524428439562139 0 0.00020622799205690986 0.0054452953754146102 0 0.00029178226418934892 0.0056300226619998579 0 0.00032286527346411624 0.0051613837872143868 0 0.00029178226418934892 0.0056300226619998579 0 0.00014990306525477717 0.005907127567207582 0 0.00038977132704938624 0.0061426099784536595 0 8.7493739472385855e-05 0.0061275021234774895 0 0.00014990306525477717 0.005907127567207582 0 0.00038977132704938624 0.0061426099784536595 0 0.00013534307407031255 0.0063319168558059937 0 8.7493739472385855e-05 0.0061275021234774895 0 0.00038977132704938624 0.0061426099784536595 0 0.00013534307407031255 0.0063319168558059937 0 0.00038977132704938624 0.0061426099784536595 0 0.00022898532426977639 0.006491965698373162 0 0.00038977132704938624 0.0061426099784536595 0 0.00022898532426977639 0.006491965698373162 0 0.00041867748591707644 0.0065795063247280428 0 0.00014136065036352596 0.0057524428439562139 0 -1.7862971485711988e-05 0.0061307019368068393 0 0.00022898532426977639 0.006491965698373162 0 0.00018185855350908377 0.0067059641166156885 0 0.00041867748591707644 0.0065795063247280428 0 0.00018185855350908377 0.0067059641166156885 0 0.00041867748591707644 0.0065795063247280428 0 0.00044828139976785784 0.0070050044118272004 0 0.00018185855350908377 0.0067059641166156885 0 -5.3293163257745247e-05 0.0067288190704609362 0 8.7489306369051685e-05 0.0069402133260685912 0 0.00018185855350908377 0.0067059641166156885 0 -5.3293163257745247e-05 0.0067288190704609362 0 -1.6717468815386434e-05 0.0065312135399068945 0 0.00013534307407031255 0.0063319168558059937 0 0.00022898532426977639 0.006491965698373162 0 -1.6717468815386434e-05 0.0065312135399068945 0 0.00022898532426977639 0.006491965698373162 0 0.00018185855350908377 0.0067059641166156885 0 -1.6717468815386434e-05 0.0065312135399068945 0 -4.3516972935783373e-05 0.0062980122612590912 0 0.00013534307407031255 0.0063319168558059937 0 -1.6717468815386434e-05 0.0065312135399068945 0 -4.3516972935783373e-05 0.0062980122612590912 0 -1.6717468815386434e-05 0.0065312135399068945 0 -0.00020383125496789369 0.0064153190497200632 0 -1.6717468815386434e-05 0.0065312135399068945 0 -0.00020383125496789369 0.0064153190497200632 0 -0.00024790302445812997 0.006590888841476389 0 -0.00020383125496789369 0.0064153190497200632 0 -0.00024790302445812997 0.006590888841476389 0 -0.00039513724070198378 0.0064585518248678597 0 -0.0005887565834823981 0.0063124015779190152 0 -0.00039513724070198378 0.0064585518248678597 0 -0.00041999904146225383 0.0065995759284202754 0 -0.00031599535572424017 0.0063331375944573843 0 -0.00020383125496789369 0.0064153190497200632 0 -0.00039513724070198378 0.0064585518248678597 0 -0.00024790302445812997 0.006590888841476389 0 -0.00039513724070198378 0.0064585518248678597 0 -0.00042669305222529978 0.0066145955029660716 0 -0.00038903771877884911 0.0088909761141375328 0 -0.0004429842971113254 0.0093130363311677289 0 -0.00025238628151788247 0.010635086072751062 0 -0.00040987014291645483 0.010390196168087279 0 -0.00021602494643640989 0.01042297388277917 0 -0.0004429842971113254 0.0093130363311677289 0 -0.00063756665020064669 0.0106342079475399 0 -0.00024790302445812997 0.006590888841476389 0 -0.00042669305222529978 0.0066145955029660716 0 -0.00026830204087940288 0.0068767130721208679 0 -0.00024808614720183851 0.0099355489867299432 0 -0.00026655657062078379 0.010046181088386444 0 -0.00032087695996377128 0.0099776205685278545 0 -0.0004429842971113254 0.0093130363311677289 0 -0.00044010773495817024 0.010974806167794022 0 -5.3293163257745247e-05 0.0067288190704609362 0 -0.00024790302445812997 0.006590888841476389 0 -0.00026830204087940288 0.0068767130721208679 0 -5.3293163257745247e-05 0.0067288190704609362 0 -1.6717468815386434e-05 0.0065312135399068945 0 -0.00024790302445812997 0.006590888841476389 0 -5.3293163257745247e-05 0.0067288190704609362 0 -0.00026830204087940288 0.0068767130721208679 0 8.7489306369051685e-05 0.0069402133260685912 0 -0.0012082590935012026 0.013083636381459176 0 -0.001376315860236915 0.012825139401721693 0 -0.0014726106348480735 0.013045778141306056 0 -0.00063756665020064669 0.0106342079475399 0 -0.00055841705584609171 0.009439472516468754 0 -0.00063756665020064669 0.0106342079475399 0 -0.0006853128541816592 0.012235842545591329 0 -0.00085779642157423296 0.013596520418581578 0 -0.00057784665166889194 0.013642946344676042 0 -0.00078400426427831693 0.013293403524009866 0 -0.00044010773495817024 0.010974806167794022 0 -0.00055621102708478052 0.012555823308174251 0 -0.00057784665166889194 0.013642946344676042 0 -0.00078400426427831693 0.013293403524009866 0 -0.00049969326638055873 0.013203044719600009 0 -0.00063756665020064669 0.0106342079475399 0 -0.00044010773495817024 0.010974806167794022 0 -0.00078400426427831693 0.013293403524009866 0 -0.00049969326638055873 0.013203044719600009 0 -0.00080257792170840725 0.01292206050066411 0 -0.00085779642157423296 0.013596520418581578 0 -0.00078400426427831693 0.013293403524009866 0 -0.0011874542131376903 0.013097449230871694 0 -0.00078400426427831693 0.013293403524009866 0 -0.0011874542131376903 0.013097449230871694 0 -0.00080257792170840725 0.01292206050066411 0 -0.001376315860236915 0.012825139401721693 0 -0.0015975622111382222 0.012847877798066837 0 -0.0014726106348480735 0.013045778141306056 0 -0.0015975622111382222 0.012847877798066837 0 -0.0017943928543330831 0.012713461140388438 0 -0.0017447422392862101 0.013003842982080323 0 -0.00055841705584609171 0.009439472516468754 0 -0.00032474795972860086 0.007978898388746318 0 0.00018185855350908377 0.0067059641166156885 0 8.7489306369051685e-05 0.0069402133260685912 0 0.00044828139976785784 0.0070050044118272004 0 -0.0015975622111382222 0.012847877798066837 0 -0.0014726106348480735 0.013045778141306056 0 -0.0017447422392862101 0.013003842982080323 0 1.1379170569113083e-05 0.010124580526496852 0 -0.00023341151561228471 0.01136673772409405 0 1.1379170569113083e-05 0.010124580526496852 0 0.00039459112234617515 0.0098223671010080303 0 -0.0011457766307227577 0.0066087827213956191 0 -0.00092065172666907016 0.0064309749147941145 0 -0.0012214488550546974 0.0062827404176761664 0 -0.0011457766307227577 0.0066087827213956191 0 -0.00092065172666907016 0.0064309749147941145 0 -0.00089578951987389602 0.0066027412912088267 0 -0.00092065172666907016 0.0064309749147941145 0 -0.00089578951987389602 0.0066027412912088267 0 -0.00076217634100798968 0.0065608208185115617 0 -0.0011457766307227577 0.0066087827213956191 0 -0.00089578951987389602 0.0066027412912088267 0 -0.0010484068213727229 0.0069540898186005685 0 -0.00089578951987389602 0.0066027412912088267 0 -0.00079136553594093154 0.0067221974116521413 0 -0.0010484068213727229 0.0069540898186005685 0 -0.00016756703950070306 0.010597881931328669 0 -0.00017986637186063204 0.0087772647370634189 0 -0.00074816587092594927 0.0067286848161982197 0 -0.00076217634100798968 0.0065608208185115617 0 -0.00062837488797673946 0.0064728813503257647 0 -0.00079136553594093154 0.0067221974116521413 0 -0.00074816587092594927 0.0067286848161982197 0 -0.00080593192687147461 0.0066423573395687574 0 -0.00018743659173315404 0.010576355659911454 0 -0.00016756703950070306 0.010597881931328669 0 -0.00074816587092594927 0.0067286848161982197 0 -0.00080593192687147461 0.0066423573395687574 0 -0.00076217634100798968 0.0065608208185115617 0 -0.00089578951987389602 0.0066027412912088267 0 -0.00079136553594093154 0.0067221974116521413 0 -0.00080593192687147461 0.0066423573395687574 0 -0.00089578951987389602 0.0066027412912088267 0 -0.00080593192687147461 0.0066423573395687574 0 -0.00076217634100798968 0.0065608208185115617 0 -0.00092065172666907016 0.0064309749147941145 0 -0.00076217634100798968 0.0065608208185115617 0 -0.00076651312267910052 0.0064066979670218318 0 -0.00065984340278194497 0.0063050790099626912 0 -0.00076651312267910052 0.0064066979670218318 0 -0.00062837488797673946 0.0064728813503257647 0 -0.00076217634100798968 0.0065608208185115617 0 -0.00076651312267910052 0.0064066979670218318 0 -0.00062837488797673946 0.0064728813503257647 0 -0.00034337673336591281 0.0097832916205613865 0 -0.00038675656867228356 0.0098675093159711069 0 -0.00032441539878817722 0.0099086984501199835 0 -0.00034337673336591281 0.0097832916205613865 0 -0.00024808614720183851 0.0099355489867299432 0 -0.00032441539878817722 0.0099086984501199835 0 -0.00028721613414627251 0.0081689530506897905 0 -0.0004429842971113254 0.0093130363311677289 0 -0.00028721613414627251 0.0081689530506897905 0 -0.00017986637186063204 0.0087772647370634189 0 -0.00026655657062078379 0.010046181088386444 0 -0.00046703370360935161 0.010012309503321078 0 -0.00032087695996377128 0.0099776205685278545 0 -0.00024808614720183851 0.0099355489867299432 0 -0.00032441539878817722 0.0099086984501199835 0 -0.00032087695996377128 0.0099776205685278545 0 -0.00046703370360935161 0.010012309503321078 0 -0.00032441539878817722 0.0099086984501199835 0 -0.00032087695996377128 0.0099776205685278545 0 -0.00044010773495817024 0.010974806167794022 0 -0.00016756703950070306 0.010597881931328669 0 -0.00045793192616645718 0.010008338851732402 0 -0.00038675656867228356 0.0098675093159711069 0 -0.00032441539878817722 0.0099086984501199835 0 -0.00016756703950070306 0.010597881931328669 0 -0.00014348134807593257 0.010424052232676449 0 -0.00055284928458738155 0.013928258340832507 0 -0.00046739331924317863 0.013415074572128899 0 -3.8626505697719532e-05 0.013592449885597846 0 -0.00055284928458738155 0.013928258340832507 0 0.00011262925301915342 0.014046060498513117 0 -3.8626505697719532e-05 0.013592449885597846 0 -0.00046739331924317863 0.013415074572128899 0 -1.2029225981662856e-05 0.013199875062372952 0 -3.8626505697719532e-05 0.013592449885597846 0 -1.2029225981662856e-05 0.013199875062372952 0 0.00024771321102181324 0.013336712728962953 0 -3.8626505697719532e-05 0.013592449885597846 0 0.00024771321102181324 0.013336712728962953 0 -3.8626505697719532e-05 0.013592449885597846 0 0.00034842729625392444 0.013620715486232653 0 -0.00016756703950070306 0.010597881931328669 0 -0.00017839214878372523 0.012273120126014064 0 0.00011262925301915342 0.014046060498513117 0 -3.8626505697719532e-05 0.013592449885597846 0 0.00034842729625392444 0.013620715486232653 0 -0.00016756703950070306 0.010597881931328669 0 -0.00023341151561228471 0.01136673772409405 0 0.00043197666798500979 0.013657948240502767 0 0.0005908019930389002 0.01338367124538584 0 0.00083173091645438822 0.013399921396323282 0 -0.00079136553594093154 0.0067221974116521413 0 -0.00074760452133341732 0.0067290130252161996 0 -0.0010484068213727229 0.0069540898186005685 0 0.0005908019930389002 0.01338367124538584 0 0.00081328749467453169 0.013333369787525208 0 0.00083173091645438822 0.013399921396323282 0 0.00024771321102181324 0.013336712728962953 0 0.00034842729625392444 0.013620715486232653 0 0.00059755593617572694 0.01319868170917401 0 0.0005908019930389002 0.01338367124538584 0 0.00074819384907695466 0.01307438481467155 0 0.00081328749467453169 0.013333369787525208 0 -0.00017839214878372523 0.012273120126014064 0 6.9714416407201299e-05 0.012618528158151357 0 -0.00023341151561228471 0.01136673772409405 0 0.00025351890821786143 0.01179893301076722 0 0.00096724910363302685 0.013161998294714573 0 0.00083720861834920115 0.013419844648143334 0 0.0013298879489768937 0.013082222212205279 0 0.00081328749467453169 0.013333369787525208 0 0.00096724910363302685 0.013161998294714573 0 0.00083720861834920115 0.013419844648143334 0 0.00074819384907695466 0.01307438481467155 0 0.00081328749467453169 0.013333369787525208 0 0.00096724910363302685 0.013161998294714573 0 0.0014459395789935276 0.013100082731344014 0 0.001405109542517552 0.01310277668970674 0 0.0014066381973337919 0.01310703589387472 0 -0.00021043318932844159 0.011429698132140719 0 -0.00023341151561228471 0.01136673772409405 0 0.00088279278661856139 0.01275383169978103 0 0.00061291786941424485 0.012261482902093354 0 0.0011353920861872479 0.01253389517010964 0 0.00088279278661856139 0.01275383169978103 0 0.0011070928350237798 0.01276551170370745 0 0.0011353920861872479 0.01253389517010964 0 0.00088279278661856139 0.01275383169978103 0 0.0011070928350237798 0.01276551170370745 0 0.0010989529444452885 0.012931377240799562 0 0.00074819384907695466 0.01307438481467155 0 0.00096724910363302685 0.013161998294714573 0 0.0010989529444452885 0.012931377240799562 0 6.9714416407201299e-05 0.012618528158151357 0 0.00020163557195256975 0.012615236977276558 0 0.00096724910363302685 0.013161998294714573 0 0.0010989529444452885 0.012931377240799562 0 0.0013298879489768937 0.013082222212205279 0 0.00074819384907695466 0.01307438481467155 0 0.00088279278661856139 0.01275383169978103 0 0.0010989529444452885 0.012931377240799562 0 0.00059755593617572694 0.01319868170917401 0 0.00088279278661856139 0.01275383169978103 0 0.00052810456651703472 0.012854850750184194 0 0.00024771321102181324 0.013336712728962953 0 0.00059755593617572694 0.01319868170917401 0 0.00026464619834064767 0.013024357847666085 0 0.00059755593617572694 0.01319868170917401 0 0.00052810456651703472 0.012854850750184194 0 0.00026464619834064767 0.013024357847666085 0 0.00052810456651703472 0.012854850750184194 0 0.00027844002578547935 0.012658677257149878 0 0.00026464619834064767 0.013024357847666085 0 0.00088279278661856139 0.01275383169978103 0 0.00054599061730200367 0.012588645698819194 0 0.00061291786941424485 0.012261482902093354 0 0.00052810456651703472 0.012854850750184194 0 0.00054599061730200367 0.012588645698819194 0 0.00027844002578547935 0.012658677257149878 0 0.00088279278661856139 0.01275383169978103 0 0.00052810456651703472 0.012854850750184194 0 0.00054599061730200367 0.012588645698819194 0 0.00054599061730200367 0.012588645698819194 0 0.00027844002578547935 0.012658677257149878 0 0.00042190783431384843 0.012336712824337947 0 -4.8657816839343769e-05 0.012585436580978012 0 0.00027844002578547935 0.012658677257149878 0 0.00015863303603951283 0.012271736139477072 0 0.00027844002578547935 0.012658677257149878 0 0.00015863303603951283 0.012271736139477072 0 0.00042190783431384843 0.012336712824337947 0 -4.8657816839343769e-05 0.012585436580978012 0 0.00027844002578547935 0.012658677257149878 0 -2.2484964593741995e-05 0.012877320209550526 0 0.00027844002578547935 0.012658677257149878 0 0.00026464619834064767 0.013024357847666085 0 -2.2484964593741995e-05 0.012877320209550526 0 -1.2029225981662856e-05 0.013199875062372952 0 0.00024771321102181324 0.013336712728962953 0 0.00026464619834064767 0.013024357847666085 0 -1.2029225981662856e-05 0.013199875062372952 0 0.00026464619834064767 0.013024357847666085 0 -2.2484964593741995e-05 0.012877320209550526 0 -1.2029225981662856e-05 0.013199875062372952 0 -2.2484964593741995e-05 0.012877320209550526 0 -0.00038924514283216963 0.012891312442254544 0 -0.00055621102708478052 0.012555823308174251 0 -0.000504294879427593 0.012683274759099281 0 -0.00046739331924317863 0.013415074572128899 0 -1.2029225981662856e-05 0.013199875062372952 0 -0.00038924514283216963 0.012891312442254544 0 -4.8657816839343769e-05 0.012585436580978012 0 -0.00038924514283216963 0.012891312442254544 0 -0.00031084894450742026 0.012335312838068669 0 -0.000504294879427593 0.012683274759099281 0 -0.00046406764179508271 0.012577196960481768 0 -4.8657816839343769e-05 0.012585436580978012 0 -2.2484964593741995e-05 0.012877320209550526 0 -0.00038924514283216963 0.012891312442254544 0 -0.00031084894450742026 0.012335312838068669 0 -0.00035365953941097415 0.011844725184496776 0 -5.1697543654096875e-05 0.012082082021899565 0 -0.00031084894450742026 0.012335312838068669 0 -0.00035365953941097415 0.011844725184496776 0 -0.00066744307408545228 0.012120527166813937 0 -0.00039063631956990573 0.011879329842645468 0 -9.6328757761444836e-05 0.01188428242994541 0 -0.00031003989921841589 0.011914028484533093 0 0.00029349796601312619 0.011884936711985674 0 -0.0001008903354546962 0.011620778973343427 0 -0.00035365953941097415 0.011844725184496776 0 0.00029349796601312619 0.011884936711985674 0 -5.1697543654096875e-05 0.012082082021899565 0 0.00029349796601312619 0.011884936711985674 0 0.00022581845905200436 0.011627684141439309 0 -0.0001008903354546962 0.011620778973343427 0 0.00029349796601312619 0.011884936711985674 0 0.00015863303603951283 0.012271736139477072 0 0.00038084341949912322 0.012129960122120252 0 -4.8657816839343769e-05 0.012585436580978012 0 -0.00031084894450742026 0.012335312838068669 0 0.00015863303603951283 0.012271736139477072 0 -0.00031084894450742026 0.012335312838068669 0 -5.1697543654096875e-05 0.012082082021899565 0 0.00015863303603951283 0.012271736139477072 0 0.00029349796601312619 0.011884936711985674 0 -5.1697543654096875e-05 0.012082082021899565 0 0.00015863303603951283 0.012271736139477072 0 0.00015863303603951283 0.012271736139477072 0 0.00042190783431384843 0.012336712824337947 0 0.00038084341949912322 0.012129960122120252 0 0.00042190783431384843 0.012336712824337947 0 0.00061291786941424485 0.012261482902093354 0 0.00055336907362144526 0.012131311816255574 0 0.00054599061730200367 0.012588645698819194 0 0.00042190783431384843 0.012336712824337947 0 0.00061291786941424485 0.012261482902093354 0 0.00055336907362144526 0.012131311816255574 0 0.00065938145336055646 0.012036545882359719 0 0.00042291009672121814 0.011958248715352797 0 0.00055336907362144526 0.012131311816255574 0 0.00065938145336055646 0.012036545882359719 0 0.00072492279567130968 0.012231476094104186 0 0.00061291786941424485 0.012261482902093354 0 0.00055336907362144526 0.012131311816255574 0 0.00072492279567130968 0.012231476094104186 0 0.00055336907362144526 0.012131311816255574 0 0.00038084341949912322 0.012129960122120252 0 0.00042291009672121814 0.011958248715352797 0 0.00042190783431384843 0.012336712824337947 0 0.00055336907362144526 0.012131311816255574 0 0.00038084341949912322 0.012129960122120252 0 0.00029349796601312619 0.011884936711985674 0 0.00038084341949912322 0.012129960122120252 0 0.00042291009672121814 0.011958248715352797 0 0.00029349796601312619 0.011884936711985674 0 0.00042291009672121814 0.011958248715352797 0 0.00022581845905200436 0.011627684141439309 0 0.00054370670022773704 0.01226214899224887 0 0.00049054821263843024 0.011950891152502814 0 0.00020872197826753288 0.011829512468628097 0 0.00065938145336055646 0.012036545882359719 0 0.00042291009672121814 0.011958248715352797 0 0.00022581845905200436 0.011627684141439309 0 0.00061660261567882146 0.012145249456617466 0 0.00029060115820129433 0.011782544403378364 0 0.00049054821263843024 0.011950891152502814 0 0.00058082909657917623 0.012156734133650952 0 0.00059231294081182873 0.011992512316648118 0 0.00054370670022773704 0.01226214899224887 0 0.00049054821263843024 0.011950891152502814 0 0.00058082909657917623 0.012156734133650952 0 0.00054370670022773704 0.01226214899224887 0 0.00058098300485202924 0.01223000368628922 0 0.00057805379957452674 0.012267141015723166 0 0.00058098300485202924 0.01223000368628922 0 0.00067130866885261936 0.012219174650731152 0 0.00057805379957452674 0.012267141015723166 0 0.00067130866885261936 0.012219174650731152 0 0.00058082909657917623 0.012156734133650952 0 0.00070070669884786884 0.012042618365494593 0 0.00058098300485202924 0.01223000368628922 0 0.00067130866885261936 0.012219174650731152 0 0.00058082909657917623 0.012156734133650952 0 0.00054370670022773704 0.01226214899224887 0 0.00058098300485202924 0.01223000368628922 0 0.00058082909657917623 0.012156734133650952 0 0.00070070669884786884 0.012042618365494593 0 0.00059231294081182873 0.011992512316648118 0 0.00063697142379128544 0.011833878088903941 0 0.00058082909657917623 0.012156734133650952 0 0.00070070669884786884 0.012042618365494593 0 0.00059231294081182873 0.011992512316648118 0 0.00070070669884786884 0.012042618365494593 0 0.00083084656548708467 0.01216526686194459 0 0.00088748964546745378 0.011877962777239761 0 0.00067130866885261936 0.012219174650731152 0 0.00070070669884786884 0.012042618365494593 0 0.00083084656548708467 0.01216526686194459 0 0.00067130866885261936 0.012219174650731152 0 0.00087563122044797517 0.012329366517379824 0 0.00083084656548708467 0.01216526686194459 0 0.00057805379957452674 0.012267141015723166 0 0.0009537714830209536 0.012525006683142548 0 0.00081088928774334095 0.012562601034394789 0 0.00054370670022773704 0.01226214899224887 0 0.00057805379957452674 0.012267141015723166 0 0.00081088928774334095 0.012562601034394789 0 0.00061660261567882146 0.012145249456617466 0 0.0009620460070286288 0.012516497264634068 0 0.00085791137690763666 0.012450389792316194 0 0.0009620460070286288 0.012516497264634068 0 0.00065938145336055646 0.012036545882359719 0 0.00072492279567130968 0.012231476094104186 0 0.0010681574557999808 0.012497319365288173 0 0.00057805379957452674 0.012267141015723166 0 0.00094752995341899307 0.012600262285908244 0 0.00087563122044797517 0.012329366517379824 0 0.00067130866885261936 0.012219174650731152 0 0.00057805379957452674 0.012267141015723166 0 0.00087563122044797517 0.012329366517379824 0 0.00078126040339607759 0.012441970689079315 0 0.00097480962211418751 0.012584025662963284 0 0.00061291786941424485 0.012261482902093354 0 0.00072492279567130968 0.012231476094104186 0 0.0010681574557999808 0.012497319365288173 0 -0.0015292663974584672 0.01254776199205462 0 -0.0011349506574405428 0.012655432943779349 0 -0.0012537585281696237 0.012154388619024722 0 -0.0015292663974584672 0.01254776199205462 0 -0.00164914289988526 0.012157535580361298 0 -0.0018870724583401142 0.012312286123256595 0 -0.0015292663974584672 0.01254776199205462 0 -0.0018870724583401142 0.012312286123256595 0 -0.0017943928543330831 0.012713461140388438 0 -0.0015975622111382222 0.012847877798066837 0 -0.0015292663974584672 0.01254776199205462 0 -0.0017943928543330831 0.012713461140388438 0 -0.0006853128541816592 0.012235842545591329 0 -0.00089831008722718873 0.012345709487136189 0 -0.001376315860236915 0.012825139401721693 0 -0.0015975622111382222 0.012847877798066837 0 -0.0015292663974584672 0.01254776199205462 0 -0.0011874542131376903 0.013097449230871694 0 -0.0015292663974584672 0.01254776199205462 0 -0.0011349506574405428 0.012655432943779349 0 -0.0011874542131376903 0.013097449230871694 0 -0.00080257792170840725 0.01292206050066411 0 -0.0011349506574405428 0.012655432943779349 0 -0.00080257792170840725 0.01292206050066411 0 -0.00084508121173945433 0.012472563537598767 0 -0.0011349506574405428 0.012655432943779349 0 -0.00041410081336088069 0.012764398060574347 0 -0.00080257792170840725 0.01292206050066411 0 -0.00084508121173945433 0.012472563537598767 0 -0.00049969326638055873 0.013203044719600009 0 -0.00041410081336088069 0.012764398060574347 0 -0.00080257792170840725 0.01292206050066411 0 -0.00041410081336088069 0.012764398060574347 0 -0.00031084894450742026 0.012335312838068669 0 -0.00084508121173945433 0.012472563537598767 0 -0.00084508121173945433 0.012472563537598767 0 -0.0011349506574405428 0.012655432943779349 0 -0.0012537585281696237 0.012154388619024722 0 -0.00066744307408545228 0.012120527166813937 0 -0.00095970460899003616 0.011842612415550988 0 -0.0012537585281696237 0.012154388619024722 0 -0.00084508121173945433 0.012472563537598767 0 -0.00066744307408545228 0.012120527166813937 0 -0.0012537585281696237 0.012154388619024722 0 -0.00031084894450742026 0.012335312838068669 0 -0.00084508121173945433 0.012472563537598767 0 -0.00066744307408545228 0.012120527166813937 0 -0.00039063631956990573 0.011879329842645468 0 -0.00087620071318220019 0.011871072538233291 0 -0.00031003989921841589 0.011914028484533093 0 -0.00093268063471520224 0.01190191341850612 0 -0.00051144211386306413 0.011502042556817265 0 -0.00035365953941097415 0.011844725184496776 0 -0.00066744307408545228 0.012120527166813937 0 -0.00095970460899003616 0.011842612415550988 0 -0.00087620071318220019 0.011871072538233291 0 -0.0011605529817883199 0.011865926419346189 0 -0.00093268063471520224 0.01190191341850612 0 -0.0015279690887324753 0.011862797395976453 0 -0.0012500710014884211 0.011606966258532974 0 -0.0012537585281696237 0.012154388619024722 0 -0.0016139016609995132 0.011992238896812375 0 -0.0015279690887324753 0.011862797395976453 0 -0.00095970460899003616 0.011842612415550988 0 -0.0012537585281696237 0.012154388619024722 0 -0.0015279690887324753 0.011862797395976453 0 -0.0015292663974584672 0.01254776199205462 0 -0.0012537585281696237 0.012154388619024722 0 -0.00164914289988526 0.012157535580361298 0 -0.00164914289988526 0.012157535580361298 0 -0.0017368685353952693 0.011839909972384051 0 -0.0018870724583401142 0.012312286123256595 0 -0.0012537585281696237 0.012154388619024722 0 -0.00164914289988526 0.012157535580361298 0 -0.0016139016609995132 0.011992238896812375 0 -0.00164914289988526 0.012157535580361298 0 -0.0016139016609995132 0.011992238896812375 0 -0.0017368685353952693 0.011839909972384051 0 -0.0016139016609995132 0.011992238896812375 0 -0.0015279690887324753 0.011862797395976453 0 -0.0017368685353952693 0.011839909972384051 0 -0.0012829397842332258 0.0085955838545222242 0 -0.0012885721289248042 0.0085850907664834185 0 -0.0012898782840436132 0.0086069159831230029 0 -0.0018144814644290204 0.011703781779444989 0 -0.0019851053286430776 0.011785498433858697 0 -0.0020154451962494544 0.011527412482106694 0 -0.0015681928237960643 0.0098554828512266452 0 -0.0017878121450737446 0.0091887538659735785 0 -0.0012885721289248042 0.0085850907664834185 0 -0.0012805337464542284 0.0085880375450267197 0 -0.001276791772612865 0.0085812112306470831 0 -0.0012829397842332258 0.0085955838545222242 0 -0.0012885721289248042 0.0085850907664834185 0 -0.0012805337464542284 0.0085880375450267197 0 -0.00092837073070765126 0.0072410040286516007 0 -0.0010468014280986529 0.0075394317899918619 0 -0.001216764531738006 0.0071169187042502031 0 -0.00095612200628003433 0.0072255971479404319 0 -0.0010517399756865074 0.0067224880872316919 0 -0.00092837073070765126 0.0072410040286516007 0 -0.001216764531738006 0.0071169187042502031 0 -0.00108819757709946 0.0069580698345200831 0 -0.0012650349782577053 0.0078523990091512903 0 -0.0013434869102130053 0.0074982116799765935 0 -0.0012829397842332258 0.0085955838545222242 0 -0.0012732308614326637 0.0085891082720232579 0 -0.0012819864941558618 0.008608435036783808 0 -0.0012650349782577053 0.0078523990091512903 0 -0.0016821579056058595 0.0088248157260396205 0 -0.0012829397842332258 0.0085955838545222242 0 -0.0012805337464542284 0.0085880375450267197 0 -0.0012732308614326637 0.0085891082720232579 0 -0.001276791772612865 0.0085812112306470831 0 -0.001273915623056785 0.0085862064905782645 0 -0.0012673107704646591 0.0085733468763865318 0 -0.0012805337464542284 0.0085880375450267197 0 -0.001276791772612865 0.0085812112306470831 0 -0.0012732308614326637 0.0085891082720232579 0 -0.0012468588206011844 0.0079005118333909594 0 -0.0012650349782577053 0.0078523990091512903 0 -0.0012650349782577053 0.0078523990091512903 0 -0.00095612200628003433 0.0072255971479404319 0 -0.001276791772612865 0.0085812112306470831 0 -0.0012673107704646591 0.0085733468763865318 0 -0.001278234773468142 0.0085706695783079011 0 -0.0015681928237960643 0.0098554828512266452 0 -0.0013537534807752793 0.010144530595893764 0 -0.0012885721289248042 0.0085850907664834185 0 -0.0012859619976229998 0.0085674876738891445 0 -0.001278234773468142 0.0085706695783079011 0 -0.0018144814644290204 0.011703781779444989 0 -0.0019851053286430776 0.011785498433858697 0 -0.0019665394513613426 0.012009466713456681 0 -0.0017560784649987516 0.011345270826154715 0 -0.0013537534807752793 0.010144530595893764 0 -0.0012885721289248042 0.0085850907664834185 0 -0.001276791772612865 0.0085812112306470831 0 -0.001278234773468142 0.0085706695783079011 0 -0.00081740526609161846 0.009461011931621837 0 -0.0006134006822682309 0.0090280545947494604 0 -0.00085482192526408754 0.0088849235804087552 0 -0.0013537534807752793 0.010144530595893764 0 -0.00073474503349310637 0.0079852967929387939 0 -0.0013537534807752793 0.010144530595893764 0 -0.00090243184550813267 0.01015151608872045 0 -0.0012859619976229998 0.0085674876738891445 0 -0.001278234773468142 0.0085706695783079011 0 -0.001273505923328388 0.0085467442238929704 0 -0.0012673107704646591 0.0085733468763865318 0 -0.001278234773468142 0.0085706695783079011 0 -0.001273505923328388 0.0085467442238929704 0 -0.00066575920101934638 0.007394765630337698 0 -0.00094845464934663836 0.0066794960477721431 0 -0.00038975066017782496 0.0067108125517283844 0 -0.00095612200628003433 0.0072255971479404319 0 -0.00073474503349310637 0.0079852967929387939 0 -0.0006531804068986264 0.0073552889198373519 0 -0.00065644247488916025 0.0073428491145001084 0 -0.00064753943070096852 0.0073434711518567102 0 -0.00094845464934663836 0.0066794960477721431 0 -0.00038975066017782496 0.0067108125517283844 0 -0.00077787474692905985 0.0063100873081572469 0 -0.00073474503349310637 0.0079852967929387939 0 -0.00043921373044221169 0.0070446952295083673 0 -0.0006134006822682309 0.0090280545947494604 0 -0.00085482192526408754 0.0088849235804087552 0 -0.00074795596768377048 0.0086794666729009904 0 -0.00073474503349310637 0.0079852967929387939 0 -0.00055977504892614611 0.0079752690315624299 0 -0.00042297968189211263 0.0050747961886092822 0 -0.00087180833827222649 0.0053132816725258653 0 -0.00050185241631163545 0.0059152985907126743 0 -0.00042297968189211263 0.0050747961886092822 0 -0.00050185241631163545 0.0059152985907126743 0 -5.6416506407417285e-05 0.0053629921844783237 0 -0.00042297968189211263 0.0050747961886092822 0 -0.00087180833827222649 0.0053132816725258653 0 -0.00060338361047168566 0.0046450246363620223 0 -0.00052795591642940077 0.0061102566092973059 0 -0.00010144051170122174 0.0052599269764811449 0 -0.00038975066017782496 0.0067108125517283844 0 -0.00077787474692905985 0.0063100873081572469 0 -0.00035325307417845969 0.0061403462028368563 0 -0.001141100286381621 0.0059840136534433054 0 -0.00087180833827222649 0.0053132816725258653 0 -0.00050185241631163545 0.0059152985907126743 0 -0.00095612200628003433 0.0072255971479404319 0 -0.00052795591642940077 0.0061102566092973059 0 -0.00056620899889794625 0.0054426934970206228 0 -0.00027653595383459812 0.0045980442613969613 0 -0.001141100286381621 0.0059840136534433054 0 -0.00050185241631163545 0.0059152985907126743 0 -0.00094940481137011968 0.0064681639853883628 0 -0.00056620899889794625 0.0054426934970206228 0 -0.0010517399756865074 0.0067224880872316919 0 -0.00076606822990129869 0.0045887409588092976 0 -0.0011717660019855453 0.0050923216319963618 0 -0.00074660063546932553 0.0051215130129484629 0 -0.00076606822990129869 0.0045887409588092976 0 -0.00074660063546932553 0.0051215130129484629 0 -0.0003132104692000045 0.0050634261844554425 0 -0.00053181242997678985 0.0038284406684854504 0 -0.0003321206295373883 0.0034911975606765882 0 -0.00059076671523144325 0.0023403280287830133 0 -0.00056470603968133222 0.0023439756386567411 0 -0.00056484182381697293 0.0023047408568185324 0 -0.00024428219288837304 0.0027814305273906256 0 -0.00031718115742830426 0.0024785495764889404 0 -0.00056470603968133222 0.0023439756386567411 0 -0.00056484182381697293 0.0023047408568185324 0 -0.00055211861651324149 0.002294652192768283 0 -0.00056484182381697293 0.0023047408568185324 0 -0.00055211861651324149 0.002294652192768283 0 -0.00056106228781296376 0.0023126258092632909 0 -0.00076606822990129869 0.0045887409588092976 0 -0.0003132104692000045 0.0050634261844554425 0 -0.00011428380801934241 0.0045825531410923293 0 -0.00066691729635262446 0.0019850622116826112 0 -0.00073859581981332398 0.0017851701253716664 0 -0.00094093289945588435 0.0018709052139262202 0 -0.00066691729635262446 0.0019850622116826112 0 -0.00056880277793458338 0.0017713853394530309 0 -0.00073859581981332398 0.0017851701253716664 0 -0.00024894333813145757 0.0018399165664680205 0 -0.00044080415003516804 0.0018530285860568899 0 -0.00045248045634478651 0.0020816752844346458 0 -0.00066691729635262446 0.0019850622116826112 0 -0.00044080415003516804 0.0018530285860568899 0 -0.00056880277793458338 0.0017713853394530309 0 -0.00066691729635262446 0.0019850622116826112 0 -0.00044080415003516804 0.0018530285860568899 0 -0.00045248045634478651 0.0020816752844346458 0 -0.00055211861651324149 0.002294652192768283 0 -0.00056810568752026257 0.0023295482433629542 0 -0.00056106228781296376 0.0023126258092632909 0 -0.00031718115742830426 0.0024785495764889404 0 -0.00039739302668719023 0.0024571973031079011 0 -0.00045248045634478651 0.0020816752844346458 0 -0.00069587579844224818 0.0021515964918036997 0 -0.00067805831860308417 0.0023263672754728153 0 -0.00066691729635262446 0.0019850622116826112 0 -0.00069587579844224818 0.0021515964918036997 0 -0.00087632005405008958 0.0020844787134716648 0 -0.00066691729635262446 0.0019850622116826112 0 -0.00045248045634478651 0.0020816752844346458 0 -0.00069587579844224818 0.0021515964918036997 0 -0.00067805831860308417 0.0023263672754728153 0 -0.00056810568752026257 0.0023295482433629542 0 -0.00084561172520075949 0.0023866331192087717 0 -0.00056810568752026257 0.0023295482433629542 0 -0.00053786020637936827 0.0023056577934421935 0 -0.00049812967532955317 0.002318867038802669 0 -0.00069755619280295936 0.0017303107229865184 0 -0.00067390428871242356 0.0014945729465123032 0 -0.00069587579844224818 0.0021515964918036997 0 -0.00067805831860308417 0.0023263672754728153 0 -0.00082863819768591953 0.0022338742205815221 0 -0.00055211861651324149 0.002294652192768283 0 -0.00067805831860308417 0.0023263672754728153 0 -0.00056810568752026257 0.0023295482433629542 0 -0.00056810568752026257 0.0023295482433629542 0 -0.00056242252498194434 0.002309527042863772 0 -0.00053786020637936827 0.0023056577934421935 0 -0.00056810568752026257 0.0023295482433629542 0 -0.00056106228781296376 0.0023126258092632909 0 -0.00056821464388345344 0.0023178628249132796 0 -0.00056810568752026257 0.0023295482433629542 0 -0.00056242252498194434 0.002309527042863772 0 -0.00056821464388345344 0.0023178628249132796 0 -0.00056242252498194434 0.002309527042863772 0 -0.00056821464388345344 0.0023178628249132796 0 -0.00056829231675476681 0.0022829803816635619 0 -0.00056242252498194434 0.002309527042863772 0 -0.00053786020637936827 0.0023056577934421935 0 -0.00056829231675476681 0.0022829803816635619 0 -0.00053786020637936827 0.0023056577934421935 0 -0.00049812967532955317 0.002318867038802669 0 -0.00050968728629426281 0.0022777426738920395 0 -0.00053786020637936827 0.0023056577934421935 0 -0.00056829231675476681 0.0022829803816635619 0 -0.00050968728629426281 0.0022777426738920395 0 -0.00076606822990129869 0.0045887409588092976 0 -0.00011428380801934241 0.0045825531410923293 0 -0.00035850792968215774 0.0040831321033259222 0 -0.0003321206295373883 0.0034911975606765882 0 -0.00015196261142765631 0.0032310282518493052 0 -0.00056484182381697293 0.0023047408568185324 0 -0.00056106228781296376 0.0023126258092632909 0 -0.00056821464388345344 0.0023178628249132796 0 -0.00011428380801934241 0.0045825531410923293 0 -0.00035850792968215774 0.0040831321033259222 0 8.4857731946450895e-05 0.0041000503161816087 0 8.4857731946450895e-05 0.0041000503161816087 0 5.028345149421376e-05 0.0035769511945433507 0 0.0002835438206737414 0.0036165882593403517 0 -0.00035850792968215774 0.0040831321033259222 0 8.4857731946450895e-05 0.0041000503161816087 0 5.028345149421376e-05 0.0035769511945433507 0 -0.00027653595383459812 0.0045980442613969613 0 8.8496987633713027e-05 0.0035120859044338697 0 -0.00015196261142765631 0.0032310282518493052 0 7.275202818887609e-05 0.0029692383335642807 0 -5.6416506407417285e-05 0.0053629921844783237 0 -0.00010809302872654299 0.0047289228871752742 0 0.00038718963876406765 0.0048120100883967181 0 -0.00042297968189211263 0.0050747961886092822 0 -5.6416506407417285e-05 0.0053629921844783237 0 -0.00010809302872654299 0.0047289228871752742 0 2.3854509675069665e-05 0.0044141100265813566 0 8.8496987633713027e-05 0.0035120859044338697 0 0.0001933606955167337 0.0043745429785267045 0 0.00035933388571980277 0.0044029763310759577 0 0.00036210768081146831 0.0042453915438929908 0 8.8496987633713027e-05 0.0035120859044338697 0 7.275202818887609e-05 0.0029692383335642807 0 0.00035933388571980277 0.0044029763310759577 0 0.00036210768081146831 0.0042453915438929908 0 0.00050584142793147827 0.0042281754729336643 0 0.0001933606955167337 0.0043745429785267045 0 0.00036210768081146831 0.0042453915438929908 0 0.00022615211402642133 0.0042163103572197512 0 0.0001933606955167337 0.0043745429785267045 0 0.00022615211402642133 0.0042163103572197512 0 0.00012212089187048358 0.0042753259207182993 0 0.00022615211402642133 0.0042163103572197512 0 0.00011023561870388458 0.0041422941949178461 0 0.00012212089187048358 0.0042753259207182993 0 0.00046030795848350916 0.0014901254085175094 0 0.0006056037775290994 0.0015209246178390747 0 0.00060358310300292963 0.0016623127511791989 0 7.275202818887609e-05 0.0029692383335642807 0 0.0001019629547031569 0.0018191612202936628 0 0.00029826488642155087 0.0016201731375994261 0 0.00046030795848350916 0.0014901254085175094 0 0.00060358310300292963 0.0016623127511791989 0 0.00018032394425655489 0.0016121783044539401 0 0.00034376757913271827 0.0015095376033127939 0 0.00036273356220230642 0.001387727932398226 0 8.8496987633713027e-05 0.0035120859044338697 0 0.00044758994221343458 0.0029373539254695159 0 0.00034376757913271827 0.0015095376033127939 0 0.00029826488642155087 0.0016201731375994261 0 0.00046030795848350916 0.0014901254085175094 0 0.00015704764287950029 0.0027239188263977303 0 7.275202818887609e-05 0.0029692383335642807 0 0.00018032394425655489 0.0016121783044539401 0 0.00034376757913271827 0.0015095376033127939 0 0.00029488789803475834 0.0016322241562941905 0 0.00036210768081146831 0.0042453915438929908 0 0.00050584142793147827 0.0042281754729336643 0 0.00041357233529820388 0.0041194493744216611 0 0.00034376757913271827 0.0015095376033127939 0 0.00036273356220230642 0.001387727932398226 0 0.00046030795848350916 0.0014901254085175094 0 0.00036273356220230642 0.001387727932398226 0 0.00046030795848350916 0.0014901254085175094 0 0.00047471299985550369 0.001352883568548742 0 0.00046030795848350916 0.0014901254085175094 0 0.00047471299985550369 0.001352883568548742 0 0.00056784291908305124 0.0013942965092132069 0 0.00047471299985550369 0.001352883568548742 0 0.00056784291908305124 0.0013942965092132069 0 0.00055041406329669606 0.0013089660969646043 0 0.00046030795848350916 0.0014901254085175094 0 0.00056784291908305124 0.0013942965092132069 0 0.0006056037775290994 0.0015209246178390747 0 0.00044758994221343458 0.0029373539254695159 0 0.00066218644598084106 0.0026243942730842947 0 0.00047471299985550369 0.001352883568548742 0 0.00053315716930720262 0.0011821600653887524 0 0.00055041406329669606 0.0013089660969646043 0 0.00053315716930720262 0.0011821600653887524 0 0.00055041406329669606 0.0013089660969646043 0 0.00064695194467664853 0.0013483718298191838 0 0.00036273356220230642 0.001387727932398226 0 0.00047471299985550369 0.001352883568548742 0 0.00053315716930720262 0.0011821600653887524 0 0.00050584142793147827 0.0042281754729336643 0 0.00065847310612061601 0.0040402468219562452 0 0.00049451231358506147 0.0040524077102866238 0 0.00050584142793147827 0.0042281754729336643 0 0.00049451231358506147 0.0040524077102866238 0 0.00041357233529820388 0.0041194493744216611 0 0.00049451231358506147 0.0040524077102866238 0 0.00041357233529820388 0.0041194493744216611 0 0.00039791076467883985 0.0039920655809245276 0 0.00049451231358506147 0.0040524077102866238 0 0.00044143953981041524 0.0038968950066464174 0 0.00039791076467883985 0.0039920655809245276 0 0.00065847310612061601 0.0040402468219562452 0 0.00049451231358506147 0.0040524077102866238 0 0.00044143953981041524 0.0038968950066464174 0 0.0010042715663859379 0.0038694157284446693 0 0.00083476437439971446 0.0037605118661454399 0 0.00093164740526257477 0.0038006905929864583 0 0.00066218644598084106 0.0026243942730842947 0 0.00053767082232030014 0.0038283430861944627 0 0.00099537786036298375 0.0037024494656771397 0 0.00083476437439971446 0.0037605118661454399 0 0.00093164740526257477 0.0038006905929864583 0 0.00053767082232030014 0.0038283430861944627 0 0.00052254251063854141 0.0038544565367463943 0 0.00099537786036298375 0.0037024494656771397 0 0.00093164740526257477 0.0038006905929864583 0 0.0010371814570483036 0.003839871093290064 0 0.00092788149533707114 0.0025633414172540254 0 0.00079226794659869432 0.0024036522256991079 0 0.0010042715663859379 0.0038694157284446693 0 0.00093164740526257477 0.0038006905929864583 0 0.0010321462844404552 0.0038340577716361453 0 0.00066218644598084106 0.0026243942730842947 0 0.00079226794659869432 0.0024036522256991079 0 0.00022615211402642133 0.0042163103572197512 0 0.00029720836106283851 0.0040995318304058994 0 0.00011023561870388458 0.0041422941949178461 0 0.00029720836106283851 0.0040995318304058994 0 0.00023537838541081655 0.0039513066896370531 0 0.00011023561870388458 0.0041422941949178461 0 0.00036210768081146831 0.0042453915438929908 0 0.00041357233529820388 0.0041194493744216611 0 0.0002908920096851199 0.0040718477155803076 0 0.00036210768081146831 0.0042453915438929908 0 0.00022615211402642133 0.0042163103572197512 0 0.00029720836106283851 0.0040995318304058994 0 0.00024016472433201422 0.004234574335937622 0 0.00022338858930377051 0.0042413443723679795 0 0.00041357233529820388 0.0041194493744216611 0 0.0002908920096851199 0.0040718477155803076 0 0.00039791076467883985 0.0039920655809245276 0 0.0002908920096851199 0.0040718477155803076 0 0.00032868881300815699 0.0039344905537115954 0 0.00022395804032648099 0.0039051793647230607 0 0.0002908920096851199 0.0040718477155803076 0 0.00039791076467883985 0.0039920655809245276 0 0.00032868881300815699 0.0039344905537115954 0 0.00043919621235252309 0.0039023692298854199 0 0.00039791076467883985 0.0039920655809245276 0 0.00032868881300815699 0.0039344905537115954 0 0.00015874806942635207 0.0049174351276622804 0 0.000138610725044443 0.0049261654219840472 0 0.00013648350621483157 0.0049651995015555913 0 0.00022338858930377051 0.0042413443723679795 0 0.00023868737225637122 0.0044356221026315137 0 0.00023868737225637122 0.0044356221026315137 0 0.00015493822830482638 0.0047103040149661796 0 0.00013697374292538441 0.0049104205028248655 0 0.00015874806942635207 0.0049174351276622804 0 0.000138610725044443 0.0049261654219840472 0 0.000138610725044443 0.0049261654219840472 0 0.00012293234216433443 0.0049152394890031592 0 0.00013648350621483157 0.0049651995015555913 0 0.00013697374292538441 0.0049104205028248655 0 0.000138610725044443 0.0049261654219840472 0 0.00012293234216433443 0.0049152394890031592 0 0.00012293234216433443 0.0049152394890031592 0 0.00013648350621483157 0.0049651995015555913 0 9.4667111368599652e-05 0.0049644433418496977 0 0.0001538490750347685 0.0049320223941424889 0 0.00012293234216433443 0.0049152394890031592 0 0.00014340311080101946 0.0049084489993706064 0 0.00013260111582131799 0.0048797356787671402 0 0.00014340311080101946 0.0049084489993706064 0 0.00016362432264844373 0.0049048703924859582 0 0.00020531464379706428 0.0050839607811997301 0 0.00017048100527600549 0.0052533868242231165 0 0.00012293234216433443 0.0049152394890031592 0 0.00013260111582131799 0.0048797356787671402 0 0.00014340311080101946 0.0049084489993706064 0 0.0001926720232401642 0.0049942840890316274 0 0.0001538490750347685 0.0049320223941424889 0 0.00016362432264844373 0.0049048703924859582 0 0.0001538490750347685 0.0049320223941424889 0 0.00014340311080101946 0.0049084489993706064 0 0.00016362432264844373 0.0049048703924859582 0 0.0001926720232401642 0.0049942840890316274 0 0.00016362432264844373 0.0049048703924859582 0 0.00023750348948715214 0.0048793876270601033 0 0.00023750348948715214 0.0048793876270601033 0 0.00019754219585479689 0.0048671923193621403 0 0.00021542267946774951 0.0048371542862971021 0 -1.7862971485711988e-05 0.0061307019368068393 0 -0.00032474795972860086 0.007978898388746318 0 0.00016362432264844373 0.0049048703924859582 0 0.00023750348948715214 0.0048793876270601033 0 0.00019754219585479689 0.0048671923193621403 0 0.00013260111582131799 0.0048797356787671402 0 0.00016362432264844373 0.0049048703924859582 0 0.0001661738241085047 0.0048608399515937201 0 0.00016362432264844373 0.0049048703924859582 0 0.00019754219585479689 0.0048671923193621403 0 0.0001661738241085047 0.0048608399515937201 0 0.0001661738241085047 0.0048608399515937201 0 0.00015412972452429993 0.0048270514593833679 0 0.00021542267946774951 0.0048371542862971021 0 -0.00011231971719769193 0.0062021444754136084 0 -0.00032474795972860086 0.007978898388746318 0 0.00013260111582131799 0.0048797356787671402 0 0.0001661738241085047 0.0048608399515937201 0 0.00015412972452429993 0.0048270514593833679 0 0.00019754219585479689 0.0048671923193621403 0 0.0001661738241085047 0.0048608399515937201 0 0.00021542267946774951 0.0048371542862971021 0 -0.00032474795972860086 0.007978898388746318 0 -0.00055977504892614611 0.0079752690315624299 0 -0.00064258284731760935 0.0073325056095325525 0 -0.00066014249495727293 0.0073318129669135016 0 -0.00065644247488916025 0.0073428491145001084 0 -0.00090243184550813267 0.01015151608872045 0 -0.00032474795972860086 0.007978898388746318 0 -0.00085482192526408754 0.0088849235804087552 0 -0.00089007172562165064 0.0083106011993327178 0 -0.00074795596768377048 0.0086794666729009904 0 -0.00064258284731760935 0.0073325056095325525 0 -0.00065644247488916025 0.0073428491145001084 0 -0.00064753943070096852 0.0073434711518567102 0 -0.00060711027085647051 0.005940573315359317 0 -0.00077787474692905985 0.0063100873081572469 0 -0.00035325307417845969 0.0061403462028368563 0 -0.00011231971719769193 0.0062021444754136084 0 -0.00043921373044221169 0.0070446952295083673 0 -0.00038975066017782496 0.0067108125517283844 0 -0.00035325307417845969 0.0061403462028368563 0 -0.00011362240802409364 0.006023733014116215 0 -0.00011231971719769193 0.0062021444754136084 0 -0.00012365931157696405 0.0054328803416442391 0 -0.00060711027085647051 0.005940573315359317 0 -0.00035325307417845969 0.0061403462028368563 0 -0.0002623545749413954 0.0059992252775594185 0 -0.00035325307417845969 0.0061403462028368563 0 -0.00026222527999961696 0.0059981443937879532 0 -0.00011362240802409364 0.006023733014116215 0 -0.00012365931157696405 0.0054328803416442391 0 -0.00010144051170122174 0.0052599269764811449 0 -0.00014422739882065958 0.0054706955532941703 0 -0.00012365931157696405 0.0054328803416442391 0 2.3854509675069665e-05 0.0044141100265813566 0 -0.00010144051170122174 0.0052599269764811449 0 -0.00042297968189211263 0.0050747961886092822 0 -0.00010809302872654299 0.0047289228871752742 0 -0.00060338361047168566 0.0046450246363620223 0 0.0001933606955167337 0.0043745429785267045 0 2.9717345734470059e-05 0.0043489025377132914 0 0.00012212089187048358 0.0042753259207182993 0 -1.9328239247113527e-05 0.0043420813352101524 0 2.9454113175639029e-05 0.0043507787994284926 0 5.1758037024500756e-05 0.0042939331625442036 0 0.00011023561870388458 0.0041422941949178461 0 5.1758037024500756e-05 0.0042939331625442036 0 0.00012212089187048358 0.0042753259207182993 0 2.9717345734470059e-05 0.0043489025377132914 0 5.1758037024500756e-05 0.0042939331625442036 0 0.00012212089187048358 0.0042753259207182993 0 0.00011023561870388458 0.0041422941949178461 0 -1.9328239247113527e-05 0.0043420813352101524 0 5.1758037024500756e-05 0.0042939331625442036 0 -0.00010144051170122174 0.0052599269764811449 0 -7.8823763879470529e-05 0.0051917597072511203 0 0.00015493822830482638 0.0047103040149661796 0 -0.00012365931157696405 0.0054328803416442391 0 0.00017048100527600549 0.0052533868242231165 0 -0.00011231971719769193 0.0062021444754136084 0 9.4667111368599652e-05 0.0049644433418496977 0 6.7241029955701008e-05 0.0050233771243627431 0 0.00010110369848667521 0.0050279071662048128 0 0.00013648350621483157 0.0049651995015555913 0 9.4667111368599652e-05 0.0049644433418496977 0 0.00010110369848667521 0.0050279071662048128 0 -3.5578670597476238e-06 0.014989909264707266 0 -2.0555223252254996e-09 0.014999990972707142 0 -2.5324517334031805e-06 0.014994857511016297 0 -2.0555223252254996e-09 0.014999990972707142 0 -2.5324517334031805e-06 0.014994857511016297 0 -9.7058005495468757e-10 0.014999994504627676 0 -5.0364621614923605e-05 0.014733235098675921 0 -8.1239587160675833e-05 0.014487634014947673 0 -3.5578670597476238e-06 0.014989909264707266 0 -2.5324517334031805e-06 0.014994857511016297 0 -6.8852679835008927e-07 0.014990514714223828 0 -5.0364621614923605e-05 0.014733235098675921 0 -4.2239334293590144e-06 0.014351750612418475 0 -0.0002030964834737057 0.014243641944924971 0 -8.7317568363027437e-05 0.01418998581876954 0 -5.1963462787898915e-05 0.014216893746235708 0 -8.1239587160675833e-05 0.014487634014947673 0 -0.0001176665850132562 0.014188034220705787 0 -8.7317568363027437e-05 0.01418998581876954 0 -5.1963462787898915e-05 0.014216893746235708 0 2.8769079111067552e-05 0.014137262664953659 0 -6.8852679835008927e-07 0.014990514714223828 0 3.4047218294836661e-08 0.014984425129494263 0 5.739554316702452e-06 0.014984954258789967 0 -3.5578670597476238e-06 0.014989909264707266 0 -6.8852679835008927e-07 0.014990514714223828 0 3.4047218294836661e-08 0.014984425129494263 0 -3.5578670597476238e-06 0.014989909264707266 0 -2.3129191646387001e-06 0.014974899480726809 0 -4.2050257565686804e-06 0.014980558704957927 0 -3.5578670597476238e-06 0.014989909264707266 0 3.4047218294836661e-08 0.014984425129494263 0 -2.3129191646387001e-06 0.014974899480726809 0 3.4047218294836661e-08 0.014984425129494263 0 -2.3129191646387001e-06 0.014974899480726809 0 7.9774047469332483e-06 0.014976494849283655 0 7.5582659315463047e-05 0.014521029214688634 0 1.5034681340170422e-05 0.014366438434149201 0 -2.3129191646387001e-06 0.014974899480726809 0 -1.6579344680082886e-06 0.014952853645426855 0 6.8093856382146392e-06 0.01495555495353872 0 -2.3129191646387001e-06 0.014974899480726809 0 -4.2050257565686804e-06 0.014980558704957927 0 -4.7314314470521556e-06 0.014961707326153482 0 -3.5578670597476238e-06 0.014989909264707266 0 -4.2050257565686804e-06 0.014980558704957927 0 -7.985763301643752e-09 0.014999979232518003 0 -3.5578670597476238e-06 0.014989909264707266 0 -2.0555223252254996e-09 0.014999990972707142 0 -7.985763301643752e-09 0.014999979232518003 0 -7.985763301643752e-09 0.014999979232518003 0 -4.2501033957562064e-06 0.014976304056810354 0 -2.4306353575616521e-09 0.01499997222024364 0 -4.2050257565686804e-06 0.014980558704957927 0 -7.985763301643752e-09 0.014999979232518003 0 -4.2501033957562064e-06 0.014976304056810354 0 -2.4306353575616521e-09 0.01499997222024364 0 -1.7683555940776513e-07 0.01497510360588895 0 -1.5011124964117426e-09 0.01499996171763821 0 -4.2501033957562064e-06 0.014976304056810354 0 -2.4306353575616521e-09 0.01499997222024364 0 -1.7683555940776513e-07 0.01497510360588895 0 -4.2501033957562064e-06 0.014976304056810354 0 -1.7683555940776513e-07 0.01497510360588895 0 -4.3794224642939078e-06 0.014948992823900172 0 -4.4524106780561625e-07 0.014911387808925666 0 -1.0420146350156413e-06 0.014937189064245732 0 -1.2571362733098921e-06 0.014899111781454161 0 -1.0420146350156413e-06 0.014937189064245732 0 -3.5379247046634236e-06 0.014923348007431423 0 -1.2571362733098921e-06 0.014899111781454161 0 2.0329306174912605e-06 0.014963075265711064 0 -1.7683555940776513e-07 0.01497510360588895 0 -1.0420146350156413e-06 0.014937189064245732 0 -1.7683555940776513e-07 0.01497510360588895 0 -1.0420146350156413e-06 0.014937189064245732 0 -4.3794224642939078e-06 0.014948992823900172 0 -4.3794224642939078e-06 0.014948992823900172 0 -3.5379247046634236e-06 0.014923348007431423 0 -4.0141766952904538e-06 0.01493777621605291 0 -1.0420146350156413e-06 0.014937189064245732 0 -4.3794224642939078e-06 0.014948992823900172 0 -3.5379247046634236e-06 0.014923348007431423 0 -4.3794224642939078e-06 0.014948992823900172 0 -4.0141766952904538e-06 0.01493777621605291 0 -4.7314314470521556e-06 0.014961707326153482 0 -4.2501033957562064e-06 0.014976304056810354 0 -4.3794224642939078e-06 0.014948992823900172 0 -4.7314314470521556e-06 0.014961707326153482 0 -4.2050257565686804e-06 0.014980558704957927 0 -4.2501033957562064e-06 0.014976304056810354 0 -4.7314314470521556e-06 0.014961707326153482 0 -4.0141766952904538e-06 0.01493777621605291 0 -4.7314314470521556e-06 0.014961707326153482 0 -1.6579344680082886e-06 0.014952853645426855 0 -2.3129191646387001e-06 0.014974899480726809 0 -4.7314314470521556e-06 0.014961707326153482 0 -1.6579344680082886e-06 0.014952853645426855 0 -1.6579344680082886e-06 0.014952853645426855 0 2.1739472899068618e-06 0.014928534283715784 0 6.8093856382146392e-06 0.01495555495353872 0 1.5956342940349157e-05 0.014936532418338288 0 2.544750903663689e-05 0.014950495365010159 0 6.8093856382146392e-06 0.01495555495353872 0 1.5956342940349157e-05 0.014936532418338288 0 2.1739472899068618e-06 0.014928534283715784 0 2.0049548875673299e-05 0.014913550983532215 0 1.5956342940349157e-05 0.014936532418338288 0 2.1739472899068618e-06 0.014928534283715784 0 6.8093856382146392e-06 0.01495555495353872 0 1.5956342940349157e-05 0.014936532418338288 0 2.9367868351247338e-05 0.014931343059978418 0 2.544750903663689e-05 0.014950495365010159 0 1.5956342940349157e-05 0.014936532418338288 0 2.0049548875673299e-05 0.014913550983532215 0 2.9367868351247338e-05 0.014931343059978418 0 5.647671759003183e-06 0.014891176487299512 0 2.1739472899068618e-06 0.014928534283715784 0 2.0049548875673299e-05 0.014913550983532215 0 5.647671759003183e-06 0.014891176487299512 0 2.1739472899068618e-06 0.014928534283715784 0 -7.3462490090228441e-07 0.014907821002116338 0 -4.0141766952904538e-06 0.01493777621605291 0 -1.6579344680082886e-06 0.014952853645426855 0 2.1739472899068618e-06 0.014928534283715784 0 -4.0141766952904538e-06 0.01493777621605291 0 2.1739472899068618e-06 0.014928534283715784 0 -7.3462490090228441e-07 0.014907821002116338 0 -3.5379247046634236e-06 0.014923348007431423 0 -4.0141766952904538e-06 0.01493777621605291 0 -7.3462490090228441e-07 0.014907821002116338 0 -3.5379247046634236e-06 0.014923348007431423 0 -7.3462490090228441e-07 0.014907821002116338 0 -1.2571362733098921e-06 0.014899111781454161 0 -7.3462490090228441e-07 0.014907821002116338 0 4.8889861120074401e-06 0.014875768628653347 0 -1.2571362733098921e-06 0.014899111781454161 0 5.647671759003183e-06 0.014891176487299512 0 -7.3462490090228441e-07 0.014907821002116338 0 4.8889861120074401e-06 0.014875768628653347 0 5.647671759003183e-06 0.014891176487299512 0 4.8889861120074401e-06 0.014875768628653347 0 5.9208933238272064e-06 0.014843801442914514 0 4.8889861120074401e-06 0.014875768628653347 0 1.5328743927806885e-05 0.014841865604697243 0 5.9208933238272064e-06 0.014843801442914514 0 4.8889861120074401e-06 0.014875768628653347 0 1.5328743927806885e-05 0.014841865604697243 0 -1.2571362733098921e-06 0.014899111781454161 0 -4.4524106780561625e-07 0.014911387808925666 0 1.5328743927806885e-05 0.014841865604697243 0 -1.2571362733098921e-06 0.014899111781454161 0 -3.2310148465682742e-05 0.014858188565209804 0 -0.00025838197814760118 0.014661972321197385 0 1.8741070696262634e-06 0.014735910994232337 0 -0.00025838197814760118 0.014661972321197385 0 1.8741070696262634e-06 0.014735910994232337 0 -0.00024053040483632357 0.014460945783942391 0 -0.00025838197814760118 0.014661972321197385 0 -0.00024053040483632357 0.014460945783942391 0 -0.00039999915321786532 0.014460942492131685 0 -3.2310148465682742e-05 0.014858188565209804 0 1.5328743927806885e-05 0.014841865604697243 0 1.8741070696262634e-06 0.014735910994232337 0 1.5328743927806885e-05 0.014841865604697243 0 1.8741070696262634e-06 0.014735910994232337 0 5.9208933238272064e-06 0.014843801442914514 0 1.8741070696262634e-06 0.014735910994232337 0 5.9208933238272064e-06 0.014843801442914514 0 3.6976329289505398e-05 0.014859289113079622 0 5.647671759003183e-06 0.014891176487299512 0 5.9208933238272064e-06 0.014843801442914514 0 3.0888616548587371e-05 0.014891518411079097 0 5.9208933238272064e-06 0.014843801442914514 0 3.6976329289505398e-05 0.014859289113079622 0 3.0888616548587371e-05 0.014891518411079097 0 1.8741070696262634e-06 0.014735910994232337 0 3.6976329289505398e-05 0.014859289113079622 0 8.9496771065924826e-05 0.0148945523722031 0 -0.00024053040483632357 0.014460945783942391 0 -9.8302459396066959e-05 0.014097380091199574 0 -0.00038588224460876108 0.01429711753679137 0 1.8741070696262634e-06 0.014735910994232337 0 -0.00024053040483632357 0.014460945783942391 0 -9.8302459396066959e-05 0.014097380091199574 0 -0.00032371089740202628 0.014623997465766748 0 -0.00051548569950522977 0.014423957082369373 0 3.6976329289505398e-05 0.014859289113079622 0 7.2734557175257089e-05 0.014890659498467008 0 8.9496771065924826e-05 0.0148945523722031 0 3.6976329289505398e-05 0.014859289113079622 0 7.2734557175257089e-05 0.014890659498467008 0 4.7679517165200274e-05 0.014885631233146868 0 7.2855858056231258e-05 0.014892000507108984 0 5.7798352208730346e-05 0.014907014863545849 0 7.3161408798263713e-05 0.014932316525319766 0 -0.00051548569950522977 0.014423957082369373 0 -0.00072575496068985742 0.014255554838965987 0 -0.0005084017001556958 0.014426439644246695 0 -0.00051548569950522977 0.014423957082369373 0 7.2734557175257089e-05 0.014890659498467008 0 5.7798352208730346e-05 0.014907014863545849 0 4.7679517165200274e-05 0.014885631233146868 0 7.2734557175257089e-05 0.014890659498467008 0 7.2855858056231258e-05 0.014892000507108984 0 5.7798352208730346e-05 0.014907014863545849 0 5.647671759003183e-06 0.014891176487299512 0 3.0888616548587371e-05 0.014891518411079097 0 2.0049548875673299e-05 0.014913550983532215 0 5.7798352208730346e-05 0.014907014863545849 0 3.0888616548587371e-05 0.014891518411079097 0 4.7679517165200274e-05 0.014885631233146868 0 3.6976329289505398e-05 0.014859289113079622 0 3.0888616548587371e-05 0.014891518411079097 0 4.7679517165200274e-05 0.014885631233146868 0 5.7798352208730346e-05 0.014907014863545849 0 3.0888616548587371e-05 0.014891518411079097 0 3.7045136543590733e-05 0.014915607774002651 0 5.7798352208730346e-05 0.014907014863545849 0 3.7045136543590733e-05 0.014915607774002651 0 5.0272847952301876e-05 0.014927464376772014 0 3.7045136543590733e-05 0.014915607774002651 0 2.0049548875673299e-05 0.014913550983532215 0 2.9367868351247338e-05 0.014931343059978418 0 3.0888616548587371e-05 0.014891518411079097 0 3.7045136543590733e-05 0.014915607774002651 0 2.0049548875673299e-05 0.014913550983532215 0 2.9367868351247338e-05 0.014931343059978418 0 5.0406559863552272e-05 0.014948290128555728 0 2.544750903663689e-05 0.014950495365010159 0 3.7045136543590733e-05 0.014915607774002651 0 2.9367868351247338e-05 0.014931343059978418 0 5.0272847952301876e-05 0.014927464376772014 0 2.9367868351247338e-05 0.014931343059978418 0 5.0272847952301876e-05 0.014927464376772014 0 5.0406559863552272e-05 0.014948290128555728 0 5.0272847952301876e-05 0.014927464376772014 0 5.0406559863552272e-05 0.014948290128555728 0 7.3161408798263713e-05 0.014932316525319766 0 5.7798352208730346e-05 0.014907014863545849 0 5.0272847952301876e-05 0.014927464376772014 0 7.3161408798263713e-05 0.014932316525319766 0 5.0406559863552272e-05 0.014948290128555728 0 6.4881338863460869e-05 0.014953153493397381 0 7.3161408798263713e-05 0.014932316525319766 0 5.0406559863552272e-05 0.014948290128555728 0 6.4881338863460869e-05 0.014953153493397381 0 5.5903237227051821e-05 0.014971495898031619 0 5.0406559863552272e-05 0.014948290128555728 0 5.5903237227051821e-05 0.014971495898031619 0 3.7077969797414436e-05 0.014964125556612513 0 -0.0013920900951482009 0.012583851962074092 0 -0.001040823380282249 0.012434805919349102 0 -0.0015529413898677418 0.012268209675818155 0 -0.0013920900951482009 0.012583851962074092 0 -0.0015529413898677418 0.012268209675818155 0 -0.0016381449961709053 0.012485984961974993 0 -0.00079726718312616554 0.013661551706857962 0 -0.00048477947632288675 0.013725161779677484 0 5.5903237227051821e-05 0.014971495898031619 0 3.044868890026727e-05 0.014980712824403813 0 3.7077969797414436e-05 0.014964125556612513 0 3.044868890026727e-05 0.014980712824403813 0 3.7077969797414436e-05 0.014964125556612513 0 2.0592538534629856e-05 0.014964509150231281 0 5.0406559863552272e-05 0.014948290128555728 0 3.7077969797414436e-05 0.014964125556612513 0 2.544750903663689e-05 0.014950495365010159 0 3.7077969797414436e-05 0.014964125556612513 0 2.544750903663689e-05 0.014950495365010159 0 2.0592538534629856e-05 0.014964509150231281 0 2.544750903663689e-05 0.014950495365010159 0 2.0592538534629856e-05 0.014964509150231281 0 6.8093856382146392e-06 0.01495555495353872 0 2.0592538534629856e-05 0.014964509150231281 0 6.8093856382146392e-06 0.01495555495353872 0 6.4547959253153867e-06 0.014971067701280958 0 -2.3129191646387001e-06 0.014974899480726809 0 6.8093856382146392e-06 0.01495555495353872 0 6.4547959253153867e-06 0.014971067701280958 0 -0.00048477947632288675 0.013725161779677484 0 1.5034681340170422e-05 0.014366438434149201 0 3.044868890026727e-05 0.014980712824403813 0 2.0592538534629856e-05 0.014964509150231281 0 6.4547959253153867e-06 0.014971067701280958 0 1.4677399731921127e-05 0.014975519791078999 0 7.9774047469332483e-06 0.014976494849283655 0 1.2454401349509145e-05 0.014977950302620618 0 -0.00016395887703008643 0.013688505046960878 0 -0.0001176665850132562 0.014188034220705787 0 1.36393802568784e-05 0.013411933676959371 0 4.0673113252589512e-05 0.013349520158750751 0 -2.6721568018535931e-05 0.013359155484480422 0 0.0001446147482077251 0.014084731751838648 0 2.8769079111067552e-05 0.014137262664953659 0 9.9753488909322063e-05 0.014191566199136319 0 -0.00016395887703008643 0.013688505046960878 0 0.00021094938900884393 0.01379239780107387 0 7.9774047469332483e-06 0.014976494849283655 0 1.2454401349509145e-05 0.014977950302620618 0 5.739554316702452e-06 0.014984954258789967 0 3.4047218294836661e-08 0.014984425129494263 0 7.9774047469332483e-06 0.014976494849283655 0 5.739554316702452e-06 0.014984954258789967 0 -4.2239334293590144e-06 0.014351750612418475 0 0.00021094938900884393 0.01379239780107387 0 -5.1963462787898915e-05 0.014216893746235708 0 2.8769079111067552e-05 0.014137262664953659 0 9.9753488909322063e-05 0.014191566199136319 0 0.00021094938900884393 0.01379239780107387 0 0.00040195580987337974 0.013403129400019394 0 0.0010891763196538506 0.012827805039575752 0 0.0012942477660931953 0.012984881228097718 0 0.0011107641727650509 0.012993663179752975 0 0.00078680747514894671 0.012823308170887971 0 0.0010891763196538506 0.012827805039575752 0 0.0011107641727650509 0.012993663179752975 0 0.00040195580987337974 0.013403129400019394 0 0.00032892951657384798 0.013164939100509039 0 0.0010891763196538506 0.012827805039575752 0 0.001330975992241722 0.012881040169809796 0 0.0012942477660931953 0.012984881228097718 0 -0.001030232680647294 0.012435786670175834 0 -0.0013943386056663983 0.012268759949499485 0 -0.0015529413898677418 0.012268209675818155 0 -2.6721568018535931e-05 0.013359155484480422 0 -9.4840740803858761e-05 0.013369240559369059 0 -7.4841262690243565e-05 0.013395591781936653 0 -0.00048477947632288675 0.013725161779677484 0 -0.0012495062220927772 0.013181092533344138 0 -0.001030232680647294 0.012435786670175834 0 -0.00086333300312048302 0.012367054846298395 0 -0.0013943386056663983 0.012268759949499485 0 -0.00016395887703008643 0.013688505046960878 0 -0.00059118800341197934 0.013165615625528763 0 1.36393802568784e-05 0.013411933676959371 0 -2.6721568018535931e-05 0.013359155484480422 0 -7.4841262690243565e-05 0.013395591781936653 0 -0.00048477947632288675 0.013725161779677484 0 -0.00016395887703008643 0.013688505046960878 0 -0.00023300170341288858 0.013000077166120958 0 -0.00049709414167483192 0.012943923003894794 0 -0.0019109041581939256 0.012188144391314411 0 -0.0020189869659405922 0.012363712672607347 0 -0.00186637618798255 0.012459700889626868 0 -0.00021215878526825558 0.012940527702080661 0 -0.00024438734196327632 0.012935308422862295 0 -0.00027299794699522071 0.012951026810522716 0 -0.0019109041581939256 0.012188144391314411 0 -0.0020189869659405922 0.012363712672607347 0 -0.0021604565638028194 0.012250063753321317 0 -0.00023300170341288858 0.013000077166120958 0 -0.00010961256763680002 0.01291921679754115 0 -0.00010961256763680002 0.01291921679754115 0 -5.4018007227748304e-05 0.012899706953160726 0 0.0014831021780224141 0.012945095397429173 0 0.0015391046755980275 0.012969366146037851 0 0.0015067920085833977 0.012985752391576896 0 -0.0019109041581939256 0.012188144391314411 0 -0.0017435050224434826 0.012349121729159107 0 -0.00186637618798255 0.012459700889626868 0 0.00032892951657384798 0.013164939100509039 0 -0.00023300170341288858 0.013000077166120958 0 -9.4840740803858761e-05 0.013369240559369059 0 -7.4841262690243565e-05 0.013395591781936653 0 -0.00016353389668841042 0.013380182541734604 0 -0.0019109041581939256 0.012188144391314411 0 -0.0017435050224434826 0.012349121729159107 0 -0.0015529413898677418 0.012268209675818155 0 -0.00059118800341197934 0.013165615625528763 0 -0.00023300170341288858 0.013000077166120958 0 -0.0013943386056663983 0.012268759949499485 0 -0.0019109041581939256 0.012188144391314411 0 -0.0015529413898677418 0.012268209675818155 0 -0.0017435050224434826 0.012349121729159107 0 -0.0015529413898677418 0.012268209675818155 0 -0.0016381449961709053 0.012485984961974993 0 0.0012942477660931953 0.012984881228097718 0 0.0014412581705686518 0.01298862228667926 0 0.0014394917464388229 0.013086703964795707 0 0.001330975992241722 0.012881040169809796 0 0.0014831021780224141 0.012945095397429173 0 0.0014412581705686518 0.01298862228667926 0 0.001330975992241722 0.012881040169809796 0 0.0012942477660931953 0.012984881228097718 0 0.0014412581705686518 0.01298862228667926 0 0.0014412581705686518 0.01298862228667926 0 0.0015038525152911682 0.013048281470474061 0 0.0014394917464388229 0.013086703964795707 0 0.0014831021780224141 0.012945095397429173 0 0.0014412581705686518 0.01298862228667926 0 0.0015067920085833977 0.012985752391576896 0 0.0014412581705686518 0.01298862228667926 0 0.0015038525152911682 0.013048281470474061 0 0.0015067920085833977 0.012985752391576896 0 0.0015218652668458562 0.013003019400904939 0 0.0015067920085833977 0.012985752391576896 0 0.0015257311008578327 0.013036340161688094 0 0.0015038525152911682 0.013048281470474061 0 0.0015067920085833977 0.012985752391576896 0 0.0015257311008578327 0.013036340161688094 0 0.0015038525152911682 0.013048281470474061 0 0.0015257311008578327 0.013036340161688094 0 0.0015411195987859597 0.013082273271449594 0 0.0015218652668458562 0.013003019400904939 0 0.0015387920930453661 0.013062603134130671 0 0.0015441588958820492 0.013086458290021249 0 -0.00010961256763680002 0.01291921679754115 0 0.00027846368723275926 0.012966579926425071 0 0.0015257311008578327 0.013036340161688094 0 0.0015387920930453661 0.013062603134130671 0 0.0015411195987859597 0.013082273271449594 0 0.0015387920930453661 0.013062603134130671 0 0.001541040542928696 0.013092799592294931 0 0.0015411195987859597 0.013082273271449594 0 0.0015387920930453661 0.013062603134130671 0 0.001541040542928696 0.013092799592294931 0 0.0015441588958820492 0.013086458290021249 0 0.0015218652668458562 0.013003019400904939 0 0.0015257311008578327 0.013036340161688094 0 0.0015387920930453661 0.013062603134130671 0 0.00027846368723275926 0.012966579926425071 0 0.00023440603308841508 0.012985341917749138 0 -0.00036817425596596747 0.012670539087750241 0 -0.0003581319291020907 0.012668735711558358 0 -0.00034152152452174549 0.012677661189497565 0 0.0015068253613651664 0.013103047244279614 0 0.0015441588958820492 0.013086458290021249 0 0.0014781680092776591 0.013125501388072927 0 0.0015068253613651664 0.013103047244279614 0 0.001541040542928696 0.013092799592294931 0 0.0015201565602387945 0.013105573313907302 0 0.0015068253613651664 0.013103047244279614 0 0.001541040542928696 0.013092799592294931 0 0.0015441588958820492 0.013086458290021249 0 -0.00049709414167483192 0.012943923003894794 0 -0.0011063823079078946 0.012768514553915903 0 -0.00037560965415009482 0.012664491572473404 0 -0.00036877642815271811 0.012664044004953169 0 -0.00035776391649085357 0.012657304953255897 0 -0.00036188475393635191 0.012663988253760963 0 -0.00036877642815271811 0.012664044004953169 0 -0.00035776391649085357 0.012657304953255897 0 -0.0003581319291020907 0.012668735711558358 0 -0.00036188475393635191 0.012663988253760963 0 -0.000358379965816932 0.012662294982346622 0 -0.0003581319291020907 0.012668735711558358 0 -0.000358379965816932 0.012662294982346622 0 -0.00035513028148444653 0.012659913285079233 0 -0.00036817425596596747 0.012670539087750241 0 -0.0003581319291020907 0.012668735711558358 0 -0.00036188475393635191 0.012663988253760963 0 -0.00036817425596596747 0.012670539087750241 0 -0.00036188475393635191 0.012663988253760963 0 -0.00036877642815271811 0.012664044004953169 0 -0.00036188475393635191 0.012663988253760963 0 -0.000358379965816932 0.012662294982346622 0 -0.00035776391649085357 0.012657304953255897 0 -0.0020189869659405922 0.012363712672607347 0 -0.0021604565638028194 0.012250063753321317 0 -0.0021403711439673214 0.012514105606489835 0 -0.00037835666265870102 0.012666787186681946 0 -0.00036817425596596747 0.012670539087750241 0 -0.00037460001783731485 0.012665159380346784 0 -0.00010961256763680002 0.01291921679754115 0 -0.00049709414167483192 0.012943923003894794 0 -0.00036817425596596747 0.012670539087750241 0 -0.00037460001783731485 0.012665159380346784 0 -0.00036877642815271811 0.012664044004953169 0 -0.00049709414167483192 0.012943923003894794 0 -0.00047466311253161446 0.012930345918063911 0 -0.0021604565638028194 0.012250063753321317 0 -0.0021403711439673214 0.012514105606489835 0 -0.0025280221693421761 0.012472851680747217 0 -0.0021403711439673214 0.012514105606489835 0 -0.0025280221693421761 0.012472851680747217 0 -0.0023464181080268191 0.012666657773186247 0 -0.0023464181080268191 0.012666657773186247 0 -0.0023710985483069986 0.012854868992443974 0 -0.0025828976276471177 0.012736582422036003 0 -0.0025280221693421761 0.012472851680747217 0 -0.0023464181080268191 0.012666657773186247 0 -0.0025828976276471177 0.012736582422036003 0 -0.001612233246451617 0.013501791023282432 0 -0.0019229316698747825 0.01352207944065033 0 -0.0021403711439673214 0.012514105606489835 0 -0.0023464181080268191 0.012666657773186247 0 -0.0020885933481507094 0.012762795476803063 0 -0.0023464181080268191 0.012666657773186247 0 -0.0020885933481507094 0.012762795476803063 0 -0.0023710985483069986 0.012854868992443974 0 -0.0020885933481507094 0.012762795476803063 0 -0.0019764911065580904 0.012579744989626463 0 -0.0017933183107189026 0.012652514059841974 0 -0.001612233246451617 0.013501791023282432 0 -0.0012443643286814206 0.013596104064487519 0 -0.0014060309924713572 0.01367627702134059 0 -0.0011310277937088184 0.013557016445955561 0 -0.0012254602211239757 0.013801936110949322 0 -0.0021403711439673214 0.012514105606489835 0 -0.0020885933481507094 0.012762795476803063 0 -0.0019764911065580904 0.012579744989626463 0 -0.0019764911065580904 0.012579744989626463 0 -0.00186637618798255 0.012459700889626868 0 -0.0017933183107189026 0.012652514059841974 0 -0.0020189869659405922 0.012363712672607347 0 -0.0019764911065580904 0.012579744989626463 0 -0.00186637618798255 0.012459700889626868 0 -0.0020189869659405922 0.012363712672607347 0 -0.0021403711439673214 0.012514105606489835 0 -0.0019764911065580904 0.012579744989626463 0 -0.0013920900951482009 0.012583851962074092 0 -0.0016381449961709053 0.012485984961974993 0 -0.0017482467871454848 0.012739110492018228 0 -0.00079726718312616554 0.013661551706857962 0 -0.0012443643286814206 0.013596104064487519 0 -0.0017435050224434826 0.012349121729159107 0 -0.00186637618798255 0.012459700889626868 0 -0.0016381449961709053 0.012485984961974993 0 -0.00186637618798255 0.012459700889626868 0 -0.0016381449961709053 0.012485984961974993 0 -0.0017482467871454848 0.012739110492018228 0 -0.0013952083334646884 0.013272299061946902 0 -0.0012443643286814206 0.013596104064487519 0 -0.0011310277937088184 0.013557016445955561 0 -0.0010021136695578174 0.013854709269935723 0 -0.0012254602211239757 0.013801936110949322 0 6.4881338863460869e-05 0.014953153493397381 0 5.5903237227051821e-05 0.014971495898031619 0 7.9982902404748265e-05 0.014959464093264169 0 6.4881338863460869e-05 0.014953153493397381 0 7.9982902404748265e-05 0.014959464093264169 0 7.3161408798263713e-05 0.014932316525319766 0 -0.0012443643286814206 0.013596104064487519 0 -0.00072575496068985742 0.014255554838965987 0 -0.0010021136695578174 0.013854709269935723 0 -0.0012254602211239757 0.013801936110949322 0 -0.0012349373000298466 0.014073668447510497 0 -0.0014060309924713572 0.01367627702134059 0 -0.0012254602211239757 0.013801936110949322 0 -0.0013872965167645924 0.013903174208127523 0 -0.0012254602211239757 0.013801936110949322 0 -0.0013872965167645924 0.013903174208127523 0 -0.0012349373000298466 0.014073668447510497 0 -0.00074199073085627555 0.013847159615408704 0 -0.00054750116901254608 0.014112695990565097 0 -0.0014012730312710894 0.014118806883835702 0 -0.0013872965167645924 0.013903174208127523 0 -0.0012349373000298466 0.014073668447510497 0 -0.0015964670396874778 0.01399399489066162 0 -9.8302459396066959e-05 0.014097380091199574 0 -0.00074199073085627555 0.013847159615408704 0 -0.00054750116901254608 0.014112695990565097 0 -0.00087272555253738312 0.01415337493486428 0 -0.0010021136695578174 0.013854709269935723 0 -0.0012349373000298466 0.014073668447510497 0 -0.00051548569950522977 0.014423957082369373 0 -0.0010625292264447492 0.014077943029923295 0 -9.8302459396066959e-05 0.014097380091199574 0 -0.00054750116901254608 0.014112695990565097 0 -0.00038588224460876108 0.01429711753679137 0 -0.00024053040483632357 0.014460945783942391 0 -0.00038588224460876108 0.01429711753679137 0 -0.00039999915321786532 0.014460942492131685 0 -0.00038588224460876108 0.01429711753679137 0 -0.00052423122382529684 0.014365683026177455 0 -0.00039999915321786532 0.014460942492131685 0 -0.00054750116901254608 0.014112695990565097 0 -0.00052423122382529684 0.014365683026177455 0 -0.00064921004508452249 0.014360820182455401 0 -0.00054750116901254608 0.014112695990565097 0 -0.00038588224460876108 0.01429711753679137 0 -0.00052423122382529684 0.014365683026177455 0 -0.00081447281705641428 0.014010422369772723 0 -0.0011657155793196011 0.014017905858789493 0 -0.00054750116901254608 0.014112695990565097 0 -0.00064921004508452249 0.014360820182455401 0 -0.00076156009064425718 0.01435000506153861 0 -0.00052423122382529684 0.014365683026177455 0 -0.00064921004508452249 0.014360820182455401 0 -0.00061958589948518921 0.014459312161648674 0 -0.00061958589948518921 0.014459312161648674 0 -0.0006303248339302516 0.014536523244474216 0 -0.00053737798578755045 0.014546471139582679 0 -0.00069032713470895473 0.014501006236793042 0 -0.00069279762179291153 0.014469513655781027 0 -0.0006303248339302516 0.014536523244474216 0 -0.00061958589948518921 0.014459312161648674 0 -0.00069279762179291153 0.014469513655781027 0 -0.0006303248339302516 0.014536523244474216 0 -0.00064921004508452249 0.014360820182455401 0 -0.00061958589948518921 0.014459312161648674 0 -0.00069279762179291153 0.014469513655781027 0 -0.00053362976069219964 0.014620847186926458 0 -0.0006303248339302516 0.014536523244474216 0 -0.00053737798578755045 0.014546471139582679 0 -0.00023997947522184766 0.014882870384976031 0 -0.00025838197814760118 0.014661972321197385 0 -0.00053737798578755045 0.014546471139582679 0 -0.00025838197814760118 0.014661972321197385 0 -0.00053737798578755045 0.014546471139582679 0 -0.00039999915321786532 0.014460942492131685 0 -0.00052423122382529684 0.014365683026177455 0 -0.00053737798578755045 0.014546471139582679 0 -0.00039999915321786532 0.014460942492131685 0 -0.00052423122382529684 0.014365683026177455 0 -0.00061958589948518921 0.014459312161648674 0 -0.00053737798578755045 0.014546471139582679 0 -0.00086543651691380627 0.014532296361642414 0 -0.00078145604138939238 0.014433935830616626 0 -0.00086735773465110224 0.014382945956737543 0 -0.00068184388047642301 0.014508025962239381 0 -0.00069279762179291153 0.014469513655781027 0 -0.00078145604138939238 0.014433935830616626 0 -0.00069279762179291153 0.014469513655781027 0 -0.00078145604138939238 0.014433935830616626 0 -0.00076156009064425718 0.01435000506153861 0 -0.00064921004508452249 0.014360820182455401 0 -0.00069279762179291153 0.014469513655781027 0 -0.00076156009064425718 0.01435000506153861 0 -0.0011657155793196011 0.014017905858789493 0 -0.0019967021241320566 0.013944890395369516 0 -0.0014012730312710894 0.014118806883835702 0 -0.0020429950387734516 0.013757850375918453 0 -0.0023683008677514552 0.014234014315351762 0 -0.00078145604138939238 0.014433935830616626 0 -0.00076156009064425718 0.01435000506153861 0 -0.00086735773465110224 0.014382945956737543 0 -0.0020429950387734516 0.013757850375918453 0 -0.0015498971589339534 0.013485743125096771 0 -0.0024232178643283611 0.013183278639253343 0 -0.0014012730312710894 0.014118806883835702 0 -0.0020429950387734516 0.013757850375918453 0 -0.0015498971589339534 0.013485743125096771 0 -0.00074199073085627555 0.013847159615408704 0 -0.0014012730312710894 0.014118806883835702 0 -0.0015498971589339534 0.013485743125096771 0 -0.0010625292264447492 0.014077943029923295 0 -0.0016231971993194054 0.013818156663778102 0 -0.0014060309924713572 0.01367627702134059 0 -0.0013872965167645924 0.013903174208127523 0 -0.0016819835991636089 0.013795232559179924 0 -0.0013872965167645924 0.013903174208127523 0 -0.0015964670396874778 0.01399399489066162 0 -0.0016819835991636089 0.013795232559179924 0 -0.0016231971993194054 0.013818156663778102 0 -0.0021737540622689473 0.01361351305082611 0 -0.0015964670396874778 0.01399399489066162 0 -0.0016819835991636089 0.013795232559179924 0 -0.001958319451819319 0.013914294979137215 0 -0.0019229316698747825 0.01352207944065033 0 -0.0021737540622689473 0.01361351305082611 0 -0.0023710985483069986 0.012854868992443974 0 -0.0026236717425092062 0.012977609678362154 0 -0.0025828976276471177 0.012736582422036003 0 -0.0026663615500744703 0.012829652234900072 0 -0.0026236717425092062 0.012977609678362154 0 -0.0025828976276471177 0.012736582422036003 0 -0.0026446961552979409 0.013249010848447129 0 -0.0023601120316928547 0.013125655127324734 0 -0.0027565570588962245 0.013034953342858297 0 -0.0026663615500744703 0.012829652234900072 0 -0.0026236717425092062 0.012977609678362154 0 -0.0027565570588962245 0.013034953342858297 0 -0.0021737540622689473 0.01361351305082611 0 -0.0022560723125912667 0.013579119852801401 0 -0.0021938418922791327 0.013610721347605549 0 -0.0021737540622689473 0.01361351305082611 0 -0.0027565570588962245 0.013034953342858297 0 -0.0031332873695362204 0.013637650528857344 0 -0.0028126286806498023 0.01267026197764012 0 -0.0027463413991049919 0.011416719648004349 0 -0.0025177100289961586 0.01198844790559497 0 -0.0028126286806498023 0.01267026197764012 0 -0.002604186253853604 0.012419873169783673 0 -0.0026871929596631225 0.012520794875554528 0 -0.0025177100289961586 0.01198844790559497 0 -0.0024081959715144025 0.012327705639874351 0 -0.0028126286806498023 0.01267026197764012 0 -0.0026663615500744703 0.012829652234900072 0 -0.0027565570588962245 0.013034953342858297 0 -0.0028126286806498023 0.01267026197764012 0 -0.0026446961552979409 0.013249010848447129 0 -0.0027046345709542583 0.01366353619753021 0 -0.0031332873695362204 0.013637650528857344 0 -0.0026446961552979409 0.013249010848447129 0 -0.0027565570588962245 0.013034953342858297 0 -0.0031332873695362204 0.013637650528857344 0 -0.0027046345709542583 0.01366353619753021 0 -0.0031332873695362204 0.013637650528857344 0 -0.0026911006672182304 0.013932530736496357 0 -0.0020429950387734516 0.013757850375918453 0 -0.0024232178643283611 0.013183278639253343 0 -0.0024278388436474725 0.013555586051792499 0 -0.0026446961552979409 0.013249010848447129 0 -0.0024232178643283611 0.013183278639253343 0 -0.0024278388436474725 0.013555586051792499 0 -0.0026446961552979409 0.013249010848447129 0 -0.0027046345709542583 0.01366353619753021 0 -0.0024278388436474725 0.013555586051792499 0 -0.0027046345709542583 0.01366353619753021 0 -0.0024278388436474725 0.013555586051792499 0 -0.0023929365930095725 0.013929692022925204 0 -0.0020429950387734516 0.013757850375918453 0 -0.0024278388436474725 0.013555586051792499 0 -0.0023929365930095725 0.013929692022925204 0 -0.0020429950387734516 0.013757850375918453 0 -0.0023929365930095725 0.013929692022925204 0 -0.0023683008677514552 0.014234014315351762 0 -0.0020083699686233563 0.013950417690288206 0 -0.0019967021241320566 0.013944890395369516 0 -0.0023859455187713475 0.014178678343003003 0 -0.0026911006672182304 0.013932530736496357 0 -0.002853459566602037 0.014239619325738143 0 -0.0019967021241320566 0.013944890395369516 0 -0.0025339834078590665 0.014075844667516905 0 -0.0027046345709542583 0.01366353619753021 0 -0.0023929365930095725 0.013929692022925204 0 -0.0026911006672182304 0.013932530736496357 0 -0.0023929365930095725 0.013929692022925204 0 -0.0023859455187713475 0.014178678343003003 0 -0.0026911006672182304 0.013932530736496357 0 -0.0031332873695362204 0.013637650528857344 0 -0.002853459566602037 0.014239619325738143 0 -0.0032711110276281543 0.014289184033474792 0 -0.0031332873695362204 0.013637650528857344 0 -0.0026911006672182304 0.013932530736496357 0 -0.002853459566602037 0.014239619325738143 0 -0.0030252826156114613 0.014246954349262804 0 -0.0032145610937396739 0.014407248482628188 0 -0.0032711110276281543 0.014289184033474792 0 -0.0025339834078590665 0.014075844667516905 0 -0.0027230394476145587 0.01412022925922872 0 -0.0030252826156114613 0.014246954349262804 0 -0.0031130064545001552 0.014485405296591277 0 -0.0032145610937396739 0.014407248482628188 0 -0.0030252826156114613 0.014246954349262804 0 -0.0031130064545001552 0.014485405296591277 0 -0.002934688313546545 0.014459314380412524 0 -0.0027807383897912913 0.014197088562814139 0 -0.0030252826156114613 0.014246954349262804 0 -0.002934688313546545 0.014459314380412524 0 -0.0017412520366221107 0.012971986640098954 0 -0.0019967021241320566 0.013944890395369516 0 -0.0027510835020499967 0.014668409145612064 0 -0.0027807383897912913 0.014197088562814139 0 -0.002934688313546545 0.014459314380412524 0 -0.00091609988374502201 0.0097531489201135892 0 -0.0009712968403067418 0.0093130397747503719 0 -0.0014823306344956058 0.010326455503163164 0 -0.0009712968403067418 0.0093130397747503719 0 -0.0016224605633583396 0.009895812802896458 0 -0.0015235414692553178 0.010766921745202409 0 -0.0010561649999720469 0.010113574036264818 0 -0.0012636296274359819 0.01071533820773702 0 -0.0016224605633583396 0.009895812802896458 0 -0.001777575710432951 0.0095711429237737931 0 -0.0019242152486086282 0.0099412603337995144 0 -0.0009712968403067418 0.0093130397747503719 0 -0.0016224605633583396 0.009895812802896458 0 -0.0014843597902091232 0.0093366116360647858 0 -0.0016224605633583396 0.009895812802896458 0 -0.0014843597902091232 0.0093366116360647858 0 -0.001777575710432951 0.0095711429237737931 0 -0.0016777579939330847 0.0092142514455925313 0 -0.0014843597902091232 0.0093366116360647858 0 -0.001777575710432951 0.0095711429237737931 0 -0.0016777579939330847 0.0092142514455925313 0 -0.001777575710432951 0.0095711429237737931 0 -0.0022357841644490327 0.0097821719534927562 0 -0.003249988199978601 0.014545463101926798 0 -0.0032145610937396739 0.014407248482628188 0 -0.003335574388447479 0.014367326070190129 0 -0.003249988199978601 0.014545463101926798 0 -0.0031130064545001552 0.014485405296591277 0 -0.0032145610937396739 0.014407248482628188 0 -0.0032145610937396739 0.014407248482628188 0 -0.0032711110276281543 0.014289184033474792 0 -0.003335574388447479 0.014367326070190129 0 -0.0022357841644490327 0.0097821719534927562 0 -0.0019242152486086282 0.0099412603337995144 0 -0.0020141494727691119 0.010483828672493299 0 -0.001777575710432951 0.0095711429237737931 0 -0.0022357841644490327 0.0097821719534927562 0 -0.0019242152486086282 0.0099412603337995144 0 -0.0027463413991049919 0.011416719648004349 0 -0.0022357841644490327 0.0097821719534927562 0 -0.0020141494727691119 0.010483828672493299 0 -0.0016224605633583396 0.009895812802896458 0 -0.0019242152486086282 0.0099412603337995144 0 -0.0020141494727691119 0.010483828672493299 0 -0.0031332873695362204 0.013637650528857344 0 -0.0032711110276281543 0.014289184033474792 0 -0.003335574388447479 0.014367326070190129 0 -0.002604186253853604 0.012419873169783673 0 -0.0022288644654422417 0.012036550669681907 0 -0.0027463413991049919 0.011416719648004349 0 -0.0020141494727691119 0.010483828672493299 0 -0.0021422316891493475 0.01109165577990359 0 -0.0020141494727691119 0.010483828672493299 0 -0.0015235414692553178 0.010766921745202409 0 -0.0021422316891493475 0.01109165577990359 0 -0.00082727300937885794 0.0099774026372814288 0 -0.00091609988374502201 0.0097531489201135892 0 -0.0014823306344956058 0.010326455503163164 0 -0.00082727300937885794 0.0099774026372814288 0 -0.0014823306344956058 0.010326455503163164 0 -0.0011059689606364111 0.010306907618205267 0 -0.0016224605633583396 0.009895812802896458 0 -0.0020141494727691119 0.010483828672493299 0 -0.0015235414692553178 0.010766921745202409 0 -0.0014823306344956058 0.010326455503163164 0 -0.0011059689606364111 0.010306907618205267 0 -0.0011230912354952382 0.010686475984233518 0 -0.0014823306344956058 0.010326455503163164 0 -0.0011230912354952382 0.010686475984233518 0 -0.0020066069331094714 0.011323851840949285 0 -0.00075799759306555484 0.010717994357387423 0 -0.0012835760254250375 0.011448228280581049 0 -0.0015235414692553178 0.010766921745202409 0 -0.0022410136763426954 0.011504396809901432 0 -0.0022520514261990319 0.012243189249917632 0 -0.0012636296274359819 0.01071533820773702 0 -0.0012835760254250375 0.011448228280581049 0 -0.0027463413991049919 0.011416719648004349 0 -0.0021422316891493475 0.01109165577990359 0 -0.0022410136763426954 0.011504396809901432 0 -0.0015235414692553178 0.010766921745202409 0 -0.0021422316891493475 0.01109165577990359 0 -0.0022410136763426954 0.011504396809901432 0 -0.0022410136763426954 0.011504396809901432 0 -0.0025177100289961586 0.01198844790559497 0 -0.0022520514261990319 0.012243189249917632 0 -0.0027463413991049919 0.011416719648004349 0 -0.0022410136763426954 0.011504396809901432 0 -0.0025177100289961586 0.01198844790559497 0 -0.0012980139052751612 0.010847946289216818 0 -0.00075599993845540901 0.010817058752705513 0 -0.0012916231027526564 0.011306417191750419 0 -0.0023266952214881223 0.012294279818118689 0 -0.0024081959715144025 0.012327705639874351 0 -0.0027906422406006005 0.012715115752077753 0 -0.0025177100289961586 0.01198844790559497 0 -0.0022520514261990319 0.012243189249917632 0 -0.0024081959715144025 0.012327705639874351 0 -0.0012835760254250375 0.011448228280581049 0 -0.0013035750293437581 0.011462984624072119 0 0.00045697704174628016 0.011540079865528553 0 6.5601569384344304e-05 0.012081137801563049 0 -0.00067714551762857193 0.010387305397882763 0 -0.0012980139052751612 0.010847946289216818 0 -0.00075599993845540901 0.010817058752705513 0 0.0016259247006997527 0.012198457963941494 0 0.0015793678533383873 0.012346700980069887 0 0.001448501311912104 0.012450020164563844 0 0.0016259247006997527 0.012198457963941494 0 0.0015793678533383873 0.012346700980069887 0 0.0016717167905429616 0.012341259633270638 0 0.00160265090398915 0.012443501428762369 0 0.001591121075858466 0.012589662147851852 0 0.0015384172854013081 0.012434363571129448 0 0.0016717167905429616 0.012341259633270638 0 0.00160265090398915 0.012443501428762369 0 0.0016580218556651091 0.012462270116815576 0 0.0015793678533383873 0.012346700980069887 0 0.0016717167905429616 0.012341259633270638 0 0.00160265090398915 0.012443501428762369 0 0.0015793678533383873 0.012346700980069887 0 0.00160265090398915 0.012443501428762369 0 0.0015384172854013081 0.012434363571129448 0 0.00160265090398915 0.012443501428762369 0 0.0016580218556651091 0.012462270116815576 0 0.001591121075858466 0.012589662147851852 0 0.001796725285673048 0.012436384600148776 0 0.0016580218556651091 0.012462270116815576 0 0.001591121075858466 0.012589662147851852 0 0.0011920637103103628 0.010396903388218113 0 0.0015062920244869244 0.011581810246784069 0 0.0017048384402769188 0.012827985357228858 0 0.0014864486685346654 0.012756900301039214 0 0.0015384172854013081 0.012434363571129448 0 0.0014864486685346654 0.012756900301039214 0 0.0014686773335254645 0.012505339076847942 0 0.0013193342296040507 0.012800243288530648 0 0.0014864486685346654 0.012756900301039214 0 0.0014052139641411343 0.012922577604173974 0 0.0015025675167951616 0.012978535475240914 0 0.0017048384402769188 0.012827985357228858 0 0.0014864486685346654 0.012756900301039214 0 0.0015025675167951616 0.012978535475240914 0 0.0014864486685346654 0.012756900301039214 0 0.0015384172854013081 0.012434363571129448 0 0.0014686773335254645 0.012505339076847942 0 -0.0012980139052751612 0.010847946289216818 0 -0.0012916231027526564 0.011306417191750419 0 -0.0016332104432642104 0.011490393311684477 0 -0.0012835760254250375 0.011448228280581049 0 -0.00071624422583756555 0.012364365495384558 0 6.5601569384344304e-05 0.012081137801563049 0 -0.00071624422583756555 0.012364365495384558 0 0.00040276193914731142 0.011993435908715431 0 6.5601569384344304e-05 0.012081137801563049 0 0.0015793678533383873 0.012346700980069887 0 0.0015384172854013081 0.012434363571129448 0 0.0014686773335254645 0.012505339076847942 0 6.5601569384344304e-05 0.012081137801563049 0 -0.00028477156818303942 0.012391678025106557 0 -0.00012517097987005301 0.012275118596148453 0 -0.00029432795295242903 0.012363307766362819 0 -0.00035887103970252493 0.012482433366483428 0 -0.0028126286806498023 0.01267026197764012 0 -0.0027906422406006005 0.012715115752077753 0 -0.0025828976276471177 0.012736582422036003 0 -0.0024081959715144025 0.012327705639874351 0 -0.0028126286806498023 0.01267026197764012 0 -0.0027906422406006005 0.012715115752077753 0 -0.0025280221693421761 0.012472851680747217 0 -0.0027906422406006005 0.012715115752077753 0 -0.0025828976276471177 0.012736582422036003 0 -0.0026663615500744703 0.012829652234900072 0 -0.0028126286806498023 0.01267026197764012 0 -0.0025828976276471177 0.012736582422036003 0 -0.00035776391649085357 0.012657304953255897 0 -0.00035120726206556562 0.012654345963769513 0 -0.00035223557577427971 0.012656307953890578 0 -0.0011063823079078946 0.012768514553915903 0 -0.00071624422583756555 0.012364365495384558 0 -0.00035776391649085357 0.012657304953255897 0 -0.00035223557577427971 0.012656307953890578 0 -0.00035513028148444653 0.012659913285079233 0 -0.00028477156818303942 0.012391678025106557 0 -0.0003593566965470173 0.012518559402967148 0 0.0014864486685346654 0.012756900301039214 0 0.0013193342296040507 0.012800243288530648 0 0.0014052139641411343 0.012922577604173974 0 -0.00071624422583756555 0.012364365495384558 0 -0.00028477156818303942 0.012391678025106557 0 0.0013193342296040507 0.012800243288530648 0 0.0014052139641411343 0.012922577604173974 0 0.0013408986951728168 0.01297171634149985 0 -0.00028477156818303942 0.012391678025106557 0 5.4939708888907851e-05 0.012659255318170113 0 0.0014052139641411343 0.012922577604173974 0 0.0014299572829034957 0.013026467469188866 0 0.0013408986951728168 0.01297171634149985 0 0.0014299572829034957 0.013026467469188866 0 0.0013408986951728168 0.01297171634149985 0 0.0013882768592357411 0.013039452973146865 0 -0.000358379965816932 0.012662294982346622 0 -0.00035776391649085357 0.012657304953255897 0 -0.00035513028148444653 0.012659913285079233 0 -0.0003065884652092142 0.012617748042078993 0 -0.00033613049096552726 0.012645423923387038 0 -0.00032453873944427613 0.012651262771883227 0 -0.00033613049096552726 0.012645423923387038 0 -0.00032453873944427613 0.012651262771883227 0 -0.0003404559765707954 0.012660867673316836 0 0.0013408986951728168 0.01297171634149985 0 0.0013620079956995995 0.013083556683359983 0 0.0013882768592357411 0.013039452973146865 0 5.4939708888907851e-05 0.012659255318170113 0 0.00023440603308841508 0.012985341917749138 0 -0.0003581319291020907 0.012668735711558358 0 -0.00033613049096552726 0.012645423923387038 0 -0.0003404559765707954 0.012660867673316836 0 -0.00032453873944427613 0.012651262771883227 0 -0.0003404559765707954 0.012660867673316836 0 -0.00034152152452174549 0.012677661189497565 0 -0.00037762489094915724 0.012553420624546389 0 -0.0003593566965470173 0.012518559402967148 0 -0.0003581319291020907 0.012668735711558358 0 -0.0003404559765707954 0.012660867673316836 0 -0.00034152152452174549 0.012677661189497565 0 0.0014781680092776591 0.013125501388072927 0 0.0014072952418922829 0.013093572106003053 0 0.0014623592106202366 0.013105862354161123 0 0.0013620079956995995 0.013083556683359983 0 0.0013882768592357411 0.013039452973146865 0 0.0014072952418922829 0.013093572106003053 0 0.0013882768592357411 0.013039452973146865 0 0.0014072952418922829 0.013093572106003053 0 0.0014254446806710138 0.013074584873539468 0 0.00023440603308841508 0.012985341917749138 0 0.00030193684505492739 0.012996098533344574 0 0.0014072952418922829 0.013093572106003053 0 0.001436420826835885 0.013097538104741445 0 0.0014254446806710138 0.013074584873539468 0 0.001436420826835885 0.013097538104741445 0 0.0014469935868372389 0.013097645844173739 0 0.001464728517202503 0.013100573303232593 0 0.0014072952418922829 0.013093572106003053 0 0.001436420826835885 0.013097538104741445 0 0.0014469935868372389 0.013097645844173739 0 0.0014072952418922829 0.013093572106003053 0 0.0014469935868372389 0.013097645844173739 0 0.0014623592106202366 0.013105862354161123 0 0.0014469935868372389 0.013097645844173739 0 0.0014623592106202366 0.013105862354161123 0 0.0014760142183612118 0.013102951178059088 0 0.0014781680092776591 0.013125501388072927 0 0.0014623592106202366 0.013105862354161123 0 0.0014824573665022478 0.013108215940567448 0 0.0014623592106202366 0.013105862354161123 0 0.0014760142183612118 0.013102951178059088 0 0.0014824573665022478 0.013108215940567448 0 0.001464728517202503 0.013100573303232593 0 0.0014760142183612118 0.013102951178059088 0 0.0014853017908868177 0.013103013061504154 0 0.0014469935868372389 0.013097645844173739 0 0.001464728517202503 0.013100573303232593 0 0.0014760142183612118 0.013102951178059088 0 0.0015068253613651664 0.013103047244279614 0 0.0014853017908868177 0.013103013061504154 0 0.0014939301458291132 0.013105205015163018 0 0.0015068253613651664 0.013103047244279614 0 0.0014760142183612118 0.013102951178059088 0 0.0014853017908868177 0.013103013061504154 0 0.0015068253613651664 0.013103047244279614 0 0.0014781680092776591 0.013125501388072927 0 0.0014824573665022478 0.013108215940567448 0 0.0015068253613651664 0.013103047244279614 0 0.0014760142183612118 0.013102951178059088 0 0.0014824573665022478 0.013108215940567448 0 0.0014299572829034957 0.013026467469188866 0 0.0014254446806710138 0.013074584873539468 0 0.0014555555868057464 0.013079788954609282 0 0.0014299572829034957 0.013026467469188866 0 0.0013882768592357411 0.013039452973146865 0 0.0014254446806710138 0.013074584873539468 0 0.001436420826835885 0.013097538104741445 0 0.0014254446806710138 0.013074584873539468 0 0.0014483146921500313 0.013098277979971144 0 0.0014254446806710138 0.013074584873539468 0 0.0014555555868057464 0.013079788954609282 0 0.0014483146921500313 0.013098277979971144 0 0.0014299572829034957 0.013026467469188866 0 0.0014555555868057464 0.013079788954609282 0 0.0014817552599433158 0.013049663339918631 0 0.0014555555868057464 0.013079788954609282 0 0.0014817552599433158 0.013049663339918631 0 0.0014730612991643995 0.013087627283465807 0 0.0014817552599433158 0.013049663339918631 0 0.0015088635048052306 0.013052547949032052 0 0.0015025675167951616 0.012978535475240914 0 0.0014817552599433158 0.013049663339918631 0 0.0015088635048052306 0.013052547949032052 0 0.0014730612991643995 0.013087627283465807 0 0.0011920637103103628 0.010396903388218113 0 0.00039459112234617515 0.0098223671010080303 0 0.0015244854618766716 0.012955829514528774 0 0.0015088635048052306 0.013052547949032052 0 0.0015025675167951616 0.012978535475240914 0 0.0011920637103103628 0.010396903388218113 0 0.00099290648680119289 0.010830570142076263 0 0.0014052139641411343 0.012922577604173974 0 0.0014299572829034957 0.013026467469188866 0 0.0015025675167951616 0.012978535475240914 0 0.0014299572829034957 0.013026467469188866 0 0.0014817552599433158 0.013049663339918631 0 0.0015025675167951616 0.012978535475240914 0 0.0014488975866694797 0.013113374425931591 0 0.0014602862924018494 0.013115739082422459 0 0.00145946718360731 0.013105048271059285 0 0.0014488975866694797 0.013113374425931591 0 0.0014602862924018494 0.013115739082422459 0 0.0014580632657929956 0.013120392369869652 0 0.0014488975866694797 0.013113374425931591 0 0.0014580632657929956 0.013120392369869652 0 0.0014368171083212822 0.013113390883403664 0 0.0014459395789935276 0.013100082731344014 0 0.0014488975866694797 0.013113374425931591 0 0.0014066381973337919 0.01310703589387472 0 0.0014459395789935276 0.013100082731344014 0 0.0015088635048052306 0.013052547949032052 0 0.0014730612991643995 0.013087627283465807 0 0.0014459395789935276 0.013100082731344014 0 0.0014488975866694797 0.013113374425931591 0 0.0014730612991643995 0.013087627283465807 0 0.0014488975866694797 0.013113374425931591 0 0.0014730612991643995 0.013087627283465807 0 0.00145946718360731 0.013105048271059285 0 0.0014555555868057464 0.013079788954609282 0 0.0014730612991643995 0.013087627283465807 0 0.00145946718360731 0.013105048271059285 0 0.00145946718360731 0.013105048271059285 0 0.0014483146921500313 0.013098277979971144 0 0.0014609552261632386 0.01311158279442266 0 0.0014555555868057464 0.013079788954609282 0 0.00145946718360731 0.013105048271059285 0 0.0014483146921500313 0.013098277979971144 0 0.001436420826835885 0.013097538104741445 0 0.0014483146921500313 0.013098277979971144 0 0.0014560011517083182 0.013105683358435221 0 0.0014483146921500313 0.013098277979971144 0 0.0014560011517083182 0.013105683358435221 0 0.0014609552261632386 0.01311158279442266 0 0.0014609552261632386 0.01311158279442266 0 0.0014731932421848848 0.013113443710603086 0 0.0014775921261517811 0.013120150863904011 0 0.0014560011517083182 0.013105683358435221 0 0.0014609552261632386 0.01311158279442266 0 0.0014731932421848848 0.013113443710603086 0 0.0014602862924018494 0.013115739082422459 0 0.00145946718360731 0.013105048271059285 0 0.0014609552261632386 0.01311158279442266 0 0.001464728517202503 0.013100573303232593 0 0.0014853017908868177 0.013103013061504154 0 0.0014939301458291132 0.013105205015163018 0 0.001464728517202503 0.013100573303232593 0 0.0014939301458291132 0.013105205015163018 0 0.00146722735115125 0.013105111587815492 0 0.0014939301458291132 0.013105205015163018 0 0.00146722735115125 0.013105111587815492 0 0.0014856309301017113 0.01311182547074753 0 0.001436420826835885 0.013097538104741445 0 0.001464728517202503 0.013100573303232593 0 0.00146722735115125 0.013105111587815492 0 0.001436420826835885 0.013097538104741445 0 0.0014560011517083182 0.013105683358435221 0 0.00146722735115125 0.013105111587815492 0 0.0014560011517083182 0.013105683358435221 0 0.00146722735115125 0.013105111587815492 0 0.0014731932421848848 0.013113443710603086 0 0.0014731932421848848 0.013113443710603086 0 0.0014955978788832552 0.013122915578909692 0 0.0014775921261517811 0.013120150863904011 0 0.0014731932421848848 0.013113443710603086 0 0.0014856309301017113 0.01311182547074753 0 0.0014955978788832552 0.013122915578909692 0 0.00146722735115125 0.013105111587815492 0 0.0014731932421848848 0.013113443710603086 0 0.0014856309301017113 0.01311182547074753 0 0.0015042398948703862 0.01311592731978348 0 0.001515686063250467 0.013126045773999442 0 0.0014955978788832552 0.013122915578909692 0 0.0014939301458291132 0.013105205015163018 0 0.0014856309301017113 0.01311182547074753 0 0.0015042398948703862 0.01311592731978348 0 0.0014856309301017113 0.01311182547074753 0 0.0015042398948703862 0.01311592731978348 0 0.0014955978788832552 0.013122915578909692 0 0.0015042398948703862 0.01311592731978348 0 0.001515686063250467 0.013126045773999442 0 0.0015206913747403033 0.013116054591942945 0 0.0014939301458291132 0.013105205015163018 0 0.0015042398948703862 0.01311592731978348 0 0.0015206913747403033 0.013116054591942945 0 0.0015230426182151517 0.013137627450074889 0 0.001515686063250467 0.013126045773999442 0 0.0014955978788832552 0.013122915578909692 0 0.0015230426182151517 0.013137627450074889 0 0.0014955978788832552 0.013122915578909692 0 0.0015084842708348238 0.01313475820270898 0 0.0014955978788832552 0.013122915578909692 0 0.0014897038203194007 0.013127990725683304 0 0.0015084842708348238 0.01313475820270898 0 0.0014955978788832552 0.013122915578909692 0 0.0014897038203194007 0.013127990725683304 0 0.0014775921261517811 0.013120150863904011 0 0.0015084842708348238 0.01313475820270898 0 0.0015265676119494748 0.013146793221403047 0 0.001503252866439031 0.013134135844857535 0 0.0014897038203194007 0.013127990725683304 0 0.0015084842708348238 0.01313475820270898 0 0.001503252866439031 0.013134135844857535 0 0.0015230426182151517 0.013137627450074889 0 0.0015084842708348238 0.01313475820270898 0 0.0015265676119494748 0.013146793221403047 0 0.0015230426182151517 0.013137627450074889 0 0.0015265676119494748 0.013146793221403047 0 0.0015424702670830124 0.013152535352752228 0 0.0014602862924018494 0.013115739082422459 0 0.0014580632657929956 0.013120392369869652 0 0.0014721614859999359 0.013122818296069805 0 0.0014602862924018494 0.013115739082422459 0 0.0014609552261632386 0.01311158279442266 0 0.0014721614859999359 0.013122818296069805 0 0.0014897038203194007 0.013127990725683304 0 0.0014721614859999359 0.013122818296069805 0 0.0014775921261517811 0.013120150863904011 0 0.0014609552261632386 0.01311158279442266 0 0.0014721614859999359 0.013122818296069805 0 0.0014775921261517811 0.013120150863904011 0 0.0014897038203194007 0.013127990725683304 0 0.0014829774152319633 0.013126350816386979 0 0.001503252866439031 0.013134135844857535 0 0.0014897038203194007 0.013127990725683304 0 0.0014721614859999359 0.013122818296069805 0 0.0014829774152319633 0.013126350816386979 0 0.0014580632657929956 0.013120392369869652 0 0.0014721614859999359 0.013122818296069805 0 0.0014829774152319633 0.013126350816386979 0 0.0014580632657929956 0.013120392369869652 0 0.0014829774152319633 0.013126350816386979 0 0.0014587041764063165 0.013114892874778818 0 0.0014829774152319633 0.013126350816386979 0 0.0014841076901404926 0.013114499930819992 0 0.0014587041764063165 0.013114892874778818 0 0.0014829774152319633 0.013126350816386979 0 0.0014841076901404926 0.013114499930819992 0 0.0015083381178189748 0.013129176845326062 0 0.0014841076901404926 0.013114499930819992 0 0.0015083381178189748 0.013129176845326062 0 0.0014978349689267743 0.013094082775524778 0 0.0014841076901404926 0.013114499930819992 0 0.0014675409760609417 0.013097070039619407 0 0.0014587041764063165 0.013114892874778818 0 0.0014829774152319633 0.013126350816386979 0 0.001503252866439031 0.013134135844857535 0 0.0015083381178189748 0.013129176845326062 0 0.0015265676119494748 0.013146793221403047 0 0.001503252866439031 0.013134135844857535 0 0.0015083381178189748 0.013129176845326062 0 0.0015083381178189748 0.013129176845326062 0 0.0015143159148344747 0.013115646146919084 0 0.0015398583477338114 0.013153834838147881 0 0.0015265676119494748 0.013146793221403047 0 0.0015083381178189748 0.013129176845326062 0 0.0015398583477338114 0.013153834838147881 0 0.0015143159148344747 0.013115646146919084 0 0.0015148689548632169 0.013118875260129918 0 0.0015398583477338114 0.013153834838147881 0 0.0015083381178189748 0.013129176845326062 0 0.0015143159148344747 0.013115646146919084 0 0.0014978349689267743 0.013094082775524778 0 0.0015143159148344747 0.013115646146919084 0 0.0015148689548632169 0.013118875260129918 0 0.0015261246796919679 0.01307090335963168 0 0.0014115137236937342 0.012898528104514667 0 0.0013888053064783547 0.012876074446030851 0 0.0015143159148344747 0.013115646146919084 0 0.0014978349689267743 0.013094082775524778 0 0.0015261246796919679 0.01307090335963168 0 0.0014675409760609417 0.013097070039619407 0 0.0014978349689267743 0.013094082775524778 0 0.0014649242142202709 0.01305281911493574 0 0.0014841076901404926 0.013114499930819992 0 0.0014675409760609417 0.013097070039619407 0 0.0014978349689267743 0.013094082775524778 0 0.0014978349689267743 0.013094082775524778 0 0.001489468558090179 0.013053132322599232 0 0.0015261246796919679 0.01307090335963168 0 0.0014978349689267743 0.013094082775524778 0 0.001489468558090179 0.013053132322599232 0 0.0014649242142202709 0.01305281911493574 0 0.0014649242142202709 0.01305281911493574 0 0.0014205678992206153 0.013098922075109397 0 0.0014183340917333501 0.013013665258330939 0 0.0014205678992206153 0.013098922075109397 0 0.0013298879489768937 0.013082222212205279 0 0.0014183340917333501 0.013013665258330939 0 0.0014675409760609417 0.013097070039619407 0 0.0014649242142202709 0.01305281911493574 0 0.0014205678992206153 0.013098922075109397 0 0.0014205678992206153 0.013098922075109397 0 0.0014587041764063165 0.013114892874778818 0 0.0014368171083212822 0.013113390883403664 0 0.0014675409760609417 0.013097070039619407 0 0.0014205678992206153 0.013098922075109397 0 0.0014587041764063165 0.013114892874778818 0 0.0014205678992206153 0.013098922075109397 0 0.0014368171083212822 0.013113390883403664 0 0.0014066381973337919 0.01310703589387472 0 0.0014580632657929956 0.013120392369869652 0 0.0014587041764063165 0.013114892874778818 0 0.0014368171083212822 0.013113390883403664 0 0.0014488975866694797 0.013113374425931591 0 0.0014368171083212822 0.013113390883403664 0 0.0014066381973337919 0.01310703589387472 0 0.001405109542517552 0.01310277668970674 0 0.0014066381973337919 0.01310703589387472 0 0.0013298879489768937 0.013082222212205279 0 0.0014205678992206153 0.013098922075109397 0 0.0014066381973337919 0.01310703589387472 0 0.0013298879489768937 0.013082222212205279 0 0.0010989529444452885 0.012931377240799562 0 0.0013298879489768937 0.013082222212205279 0 0.0012960604963533511 0.012810730191206966 0 0.0013298879489768937 0.013082222212205279 0 0.0014183340917333501 0.013013665258330939 0 0.0012960604963533511 0.012810730191206966 0 0.0011070928350237798 0.01276551170370745 0 0.0010989529444452885 0.012931377240799562 0 0.0012960604963533511 0.012810730191206966 0 0.0014183340917333501 0.013013665258330939 0 0.0014542434715768796 0.012898668506087686 0 0.0014711340541010284 0.013007309279416924 0 0.0014649242142202709 0.01305281911493574 0 0.0014183340917333501 0.013013665258330939 0 0.0014711340541010284 0.013007309279416924 0 0.0014183340917333501 0.013013665258330939 0 0.0014542434715768796 0.012898668506087686 0 0.0012960604963533511 0.012810730191206966 0 0.0011645685084056812 0.012655791438788764 0 0.00094752995341899307 0.012600262285908244 0 0.0010715180307467223 0.012526287129760208 0 0.0011809759227244612 0.012751755590097473 0 0.0009537714830209536 0.012525006683142548 0 0.0013203198973871808 0.012778389254779105 0 0.00097480962211418751 0.012584025662963284 0 0.0012646707742654567 0.012794556086143043 0 0.0011645685084056812 0.012655791438788764 0 0.00094752995341899307 0.012600262285908244 0 0.0012440758210474838 0.012906882165934587 0 0.0014542434715768796 0.012898668506087686 0 0.0012960604963533511 0.012810730191206966 0 0.0012089235996557634 0.012664738178559077 0 0.0011809759227244612 0.012751755590097473 0 0.0009537714830209536 0.012525006683142548 0 0.00081088928774334095 0.012562601034394789 0 0.0012545643590903849 0.012751640515365438 0 0.0009620460070286288 0.012516497264634068 0 0.0011070928350237798 0.01276551170370745 0 0.0012960604963533511 0.012810730191206966 0 0.0011353920861872479 0.01253389517010964 0 0.0010189093866184399 0.012574443037998883 0 0.0009620460070286288 0.012516497264634068 0 0.00087563122044797517 0.012329366517379824 0 0.0010658315447602744 0.012400091736531111 0 0.0010229922098470331 0.012174857916021102 0 0.00087563122044797517 0.012329366517379824 0 0.00098868445974935651 0.012468322833363153 0 0.0010658315447602744 0.012400091736531111 0 0.00094752995341899307 0.012600262285908244 0 0.00098868445974935651 0.012468322833363153 0 0.0010715180307467223 0.012526287129760208 0 0.00094752995341899307 0.012600262285908244 0 0.00087563122044797517 0.012329366517379824 0 0.00098868445974935651 0.012468322833363153 0 0.0010715180307467223 0.012526287129760208 0 0.0011905888314961497 0.012495507707041692 0 0.0010658315447602744 0.012400091736531111 0 0.00098868445974935651 0.012468322833363153 0 0.0010715180307467223 0.012526287129760208 0 0.0010658315447602744 0.012400091736531111 0 0.0011645685084056812 0.012655791438788764 0 0.0011905888314961497 0.012495507707041692 0 0.001322084080781894 0.012625093830974651 0 0.0011645685084056812 0.012655791438788764 0 0.0010715180307467223 0.012526287129760208 0 0.0011905888314961497 0.012495507707041692 0 0.0011905888314961497 0.012495507707041692 0 0.0012092271851047586 0.012305857683481154 0 0.0013198173585202498 0.012435917016891515 0 0.0011905888314961497 0.012495507707041692 0 0.0010658315447602744 0.012400091736531111 0 0.0012092271851047586 0.012305857683481154 0 0.0012092271851047586 0.012305857683481154 0 0.0012084388645407294 0.012068264532928492 0 0.0010229922098470331 0.012174857916021102 0 0.0010658315447602744 0.012400091736531111 0 0.0012092271851047586 0.012305857683481154 0 0.0010229922098470331 0.012174857916021102 0 0.0012084388645407294 0.012068264532928492 0 0.0010229922098470331 0.012174857916021102 0 0.0011092628977895571 0.011890856438448935 0 0.00083084656548708467 0.01216526686194459 0 0.0010229922098470331 0.012174857916021102 0 0.00088748964546745378 0.011877962777239761 0 0.00087563122044797517 0.012329366517379824 0 0.00083084656548708467 0.01216526686194459 0 0.0010229922098470331 0.012174857916021102 0 0.0015438612422509291 0.012420348258498304 0 0.0014089263798890571 0.012197860652570941 0 0.001574670900585625 0.012197026421028961 0 0.0015438612422509291 0.012420348258498304 0 0.0014089263798890571 0.012197860652570941 0 0.0014549935779069303 0.012536238865462223 0 0.0014089263798890571 0.012197860652570941 0 0.0013198173585202498 0.012435917016891515 0 0.0014549935779069303 0.012536238865462223 0 0.0012092271851047586 0.012305857683481154 0 0.0012084388645407294 0.012068264532928492 0 0.0014089263798890571 0.012197860652570941 0 0.0012092271851047586 0.012305857683481154 0 0.0014089263798890571 0.012197860652570941 0 0.0013198173585202498 0.012435917016891515 0 0.0011905888314961497 0.012495507707041692 0 0.0013198173585202498 0.012435917016891515 0 0.001322084080781894 0.012625093830974651 0 0.0013198173585202498 0.012435917016891515 0 0.001322084080781894 0.012625093830974651 0 0.0014549935779069303 0.012536238865462223 0 0.0014549935779069303 0.012536238865462223 0 0.0015194716613893715 0.012742940575812732 0 0.0015960752203052425 0.012629023910337897 0 0.001322084080781894 0.012625093830974651 0 0.0014549935779069303 0.012536238865462223 0 0.0014399952726091947 0.012721600402974423 0 0.0015438612422509291 0.012420348258498304 0 0.0014549935779069303 0.012536238865462223 0 0.0015960752203052425 0.012629023910337897 0 0.0014549935779069303 0.012536238865462223 0 0.0015194716613893715 0.012742940575812732 0 0.0014399952726091947 0.012721600402974423 0 0.0015194716613893715 0.012742940575812732 0 0.0014399952726091947 0.012721600402974423 0 0.0014745267411544359 0.01288657926314502 0 0.0014399952726091947 0.012721600402974423 0 0.0014745267411544359 0.01288657926314502 0 0.0013615292008025378 0.012770458396127581 0 0.0014745267411544359 0.01288657926314502 0 0.0013615292008025378 0.012770458396127581 0 0.0013506555758242538 0.012870274615801636 0 0.0011645685084056812 0.012655791438788764 0 0.001322084080781894 0.012625093830974651 0 0.0012809238916363932 0.012762474707942192 0 0.001322084080781894 0.012625093830974651 0 0.0013615292008025378 0.012770458396127581 0 0.0012809238916363932 0.012762474707942192 0 0.001322084080781894 0.012625093830974651 0 0.0014399952726091947 0.012721600402974423 0 0.0013615292008025378 0.012770458396127581 0 0.0013615292008025378 0.012770458396127581 0 0.0013506555758242538 0.012870274615801636 0 0.0012809238916363932 0.012762474707942192 0 0.0013506555758242538 0.012870274615801636 0 0.0012809238916363932 0.012762474707942192 0 0.0012440758210474838 0.012906882165934587 0 0.0011645685084056812 0.012655791438788764 0 0.0012809238916363932 0.012762474707942192 0 0.0012440758210474838 0.012906882165934587 0 0.0011809759227244612 0.012751755590097473 0 0.0013203198973871808 0.012778389254779105 0 0.0015502649492655873 0.012937336313361792 0 0.001489468558090179 0.013053132322599232 0 0.0014711340541010284 0.013007309279416924 0 0.0015261246796919679 0.01307090335963168 0 0.0012440758210474838 0.012906882165934587 0 0.0014190424794319129 0.012973320034992642 0 0.0014110938295043773 0.01305721329931408 0 0.0013506555758242538 0.012870274615801636 0 0.0012440758210474838 0.012906882165934587 0 0.0014190424794319129 0.012973320034992642 0 0.0012545643590903849 0.012751640515365438 0 0.0013888053064783547 0.012876074446030851 0 0.0014542434715768796 0.012898668506087686 0 0.0014711340541010284 0.013007309279416924 0 0.0015261246796919679 0.01307090335963168 0 0.0012646707742654567 0.012794556086143043 0 0.0013888053064783547 0.012876074446030851 0 0.001489468558090179 0.013053132322599232 0 0.0014649242142202709 0.01305281911493574 0 0.0014711340541010284 0.013007309279416924 0 0.0014745267411544359 0.01288657926314502 0 0.0014995208616643753 0.013035577367225879 0 0.0015611306652388219 0.013061171898758477 0 0.0014745267411544359 0.01288657926314502 0 0.0014190424794319129 0.012973320034992642 0 0.0014995208616643753 0.013035577367225879 0 0.0014745267411544359 0.01288657926314502 0 0.0013506555758242538 0.012870274615801636 0 0.0014190424794319129 0.012973320034992642 0 0.0015148689548632169 0.013118875260129918 0 0.0014190424794319129 0.012973320034992642 0 0.0014110938295043773 0.01305721329931408 0 0.0015148689548632169 0.013118875260129918 0 0.0014995208616643753 0.013035577367225879 0 0.0015611306652388219 0.013061171898758477 0 0.0015148689548632169 0.013118875260129918 0 0.0014190424794319129 0.012973320034992642 0 0.0014995208616643753 0.013035577367225879 0 0.0015611306652388219 0.013061171898758477 0 0.0016343528714191969 0.01317526573906959 0 0.0016013315388361056 0.012922566343545204 0 0.0015611306652388219 0.013061171898758477 0 0.0016343528714191969 0.01317526573906959 0 0.0015799413119719681 0.013171622426426081 0 0.0016343528714191969 0.01317526573906959 0 0.0017079628502224052 0.013136298211716264 0 0.0016971013768546843 0.013361846544346844 0 0.0016343528714191969 0.01317526573906959 0 0.0016013315388361056 0.012922566343545204 0 0.0017079628502224052 0.013136298211716264 0 0.0016013315388361056 0.012922566343545204 0 0.0017123867289917706 0.012727874146622185 0 0.0017079628502224052 0.013136298211716264 0 0.0014745267411544359 0.01288657926314502 0 0.0015611306652388219 0.013061171898758477 0 0.0016013315388361056 0.012922566343545204 0 0.0015194716613893715 0.012742940575812732 0 0.0014745267411544359 0.01288657926314502 0 0.0016013315388361056 0.012922566343545204 0 0.0016013315388361056 0.012922566343545204 0 0.0015960752203052425 0.012629023910337897 0 0.0017123867289917706 0.012727874146622185 0 0.0015194716613893715 0.012742940575812732 0 0.0016013315388361056 0.012922566343545204 0 0.0015960752203052425 0.012629023910337897 0 0.0015960752203052425 0.012629023910337897 0 0.0017123867289917706 0.012727874146622185 0 0.0016851015225334749 0.012381850173110503 0 0.0017123867289917706 0.012727874146622185 0 0.0016851015225334749 0.012381850173110503 0 0.0018811653723507292 0.012440184830172778 0 0.0015438612422509291 0.012420348258498304 0 0.0015960752203052425 0.012629023910337897 0 0.0016851015225334749 0.012381850173110503 0 0.0015438612422509291 0.012420348258498304 0 0.0016851015225334749 0.012381850173110503 0 0.001574670900585625 0.012197026421028961 0 0.0021237594405929261 0.012493731487004845 0 0.0018811653723507292 0.012440184830172778 0 0.00188716109754224 0.012829616703455208 0 0.0017123867289917706 0.012727874146622185 0 0.0018811653723507292 0.012440184830172778 0 0.00188716109754224 0.012829616703455208 0 0.0017123867289917706 0.012727874146622185 0 0.00188716109754224 0.012829616703455208 0 0.0017079628502224052 0.013136298211716264 0 0.00188716109754224 0.012829616703455208 0 0.0018018314260855343 0.013532169887598148 0 0.0023542832228363613 0.012780231166499201 0 0.0021237594405929261 0.012493731487004845 0 0.00188716109754224 0.012829616703455208 0 0.0023542832228363613 0.012780231166499201 0 0.0016475533053885803 0.013514846196895866 0 0.0015481269345302365 0.013537224103990461 0 0.00188716109754224 0.012829616703455208 0 0.0017079628502224052 0.013136298211716264 0 0.0018018314260855343 0.013532169887598148 0 0.0017079628502224052 0.013136298211716264 0 0.0016971013768546843 0.013361846544346844 0 0.0018018314260855343 0.013532169887598148 0 0.0016971013768546843 0.013361846544346844 0 0.0018018314260855343 0.013532169887598148 0 0.0014712349539280579 0.013442042050119767 0 0.0016971013768546843 0.013361846544346844 0 0.0014712349539280579 0.013442042050119767 0 0.0015890862070040751 0.013300149127122214 0 0.0014569246619727393 0.01328900683867244 0 0.0015890862070040751 0.013300149127122214 0 0.0014961766236851145 0.013203046481056689 0 0.0014712349539280579 0.013442042050119767 0 0.0014569246619727393 0.01328900683867244 0 0.0015890862070040751 0.013300149127122214 0 0.0015890862070040751 0.013300149127122214 0 0.0016294445193215344 0.013255760867971509 0 0.0015892433922230754 0.013224204179854664 0 0.0015890862070040751 0.013300149127122214 0 0.0014961766236851145 0.013203046481056689 0 0.0015578931652793311 0.013209926393308483 0 0.0015890862070040751 0.013300149127122214 0 0.0015892433922230754 0.013224204179854664 0 0.0015578931652793311 0.013209926393308483 0 0.0016971013768546843 0.013361846544346844 0 0.0015890862070040751 0.013300149127122214 0 0.0016294445193215344 0.013255760867971509 0 0.0016343528714191969 0.01317526573906959 0 0.0016294445193215344 0.013255760867971509 0 0.0015799413119719681 0.013171622426426081 0 0.0016343528714191969 0.01317526573906959 0 0.0016971013768546843 0.013361846544346844 0 0.0016294445193215344 0.013255760867971509 0 0.0016294445193215344 0.013255760867971509 0 0.0015799413119719681 0.013171622426426081 0 0.0015788407077530584 0.013194310245132018 0 0.0015799413119719681 0.013171622426426081 0 0.0015398583477338114 0.013153834838147881 0 0.0015788407077530584 0.013194310245132018 0 0.0015148689548632169 0.013118875260129918 0 0.0015611306652388219 0.013061171898758477 0 0.0015799413119719681 0.013171622426426081 0 0.0015148689548632169 0.013118875260129918 0 0.0015799413119719681 0.013171622426426081 0 0.0015398583477338114 0.013153834838147881 0 0.0015398583477338114 0.013153834838147881 0 0.0015788407077530584 0.013194310245132018 0 0.0015508485661171257 0.013165379643978957 0 0.0015788407077530584 0.013194310245132018 0 0.0015597132999460978 0.013168660257075332 0 0.0015508485661171257 0.013165379643978957 0 0.0015788407077530584 0.013194310245132018 0 0.0015597132999460978 0.013168660257075332 0 0.0015692258673610136 0.013176686545458099 0 0.0015265676119494748 0.013146793221403047 0 0.0015398583477338114 0.013153834838147881 0 0.0015508485661171257 0.013165379643978957 0 0.0015265676119494748 0.013146793221403047 0 0.0015508485661171257 0.013165379643978957 0 0.0015424702670830124 0.013152535352752228 0 0.0015597132999460978 0.013168660257075332 0 0.0015508485661171257 0.013165379643978957 0 0.0015424702670830124 0.013152535352752228 0 0.0016294445193215344 0.013255760867971509 0 0.0015788407077530584 0.013194310245132018 0 0.0015892433922230754 0.013224204179854664 0 0.0015788407077530584 0.013194310245132018 0 0.0015892433922230754 0.013224204179854664 0 0.0015692258673610136 0.013176686545458099 0 0.0015892433922230754 0.013224204179854664 0 0.0015573507938053237 0.013160112660339156 0 0.0015578931652793311 0.013209926393308483 0 0.0015892433922230754 0.013224204179854664 0 0.0015692258673610136 0.013176686545458099 0 0.0015573507938053237 0.013160112660339156 0 0.0015692258673610136 0.013176686545458099 0 0.0015555559698702788 0.013142412189485003 0 0.0015524950046705329 0.013151804323823194 0 0.0015692258673610136 0.013176686545458099 0 0.0015555559698702788 0.013142412189485003 0 0.0015573507938053237 0.013160112660339156 0 0.0015555559698702788 0.013142412189485003 0 0.0015573507938053237 0.013160112660339156 0 0.0015483390276269664 0.01312296051250438 0 0.0015230426182151517 0.013137627450074889 0 0.0015424702670830124 0.013152535352752228 0 0.0015337475630108933 0.013136562147395406 0 0.0015424702670830124 0.013152535352752228 0 0.0015524950046705329 0.013151804323823194 0 0.0015337475630108933 0.013136562147395406 0 0.0015597132999460978 0.013168660257075332 0 0.0015692258673610136 0.013176686545458099 0 0.0015524950046705329 0.013151804323823194 0 0.0015597132999460978 0.013168660257075332 0 0.0015424702670830124 0.013152535352752228 0 0.0015524950046705329 0.013151804323823194 0 0.0015555559698702788 0.013142412189485003 0 0.0015524950046705329 0.013151804323823194 0 0.0015422542004570612 0.013130077116599075 0 0.0015524950046705329 0.013151804323823194 0 0.0015337475630108933 0.013136562147395406 0 0.0015422542004570612 0.013130077116599075 0 0.0015230426182151517 0.013137627450074889 0 0.001515686063250467 0.013126045773999442 0 0.0015337475630108933 0.013136562147395406 0 0.001515686063250467 0.013126045773999442 0 0.0015337475630108933 0.013136562147395406 0 0.0015206913747403033 0.013116054591942945 0 0.0015337475630108933 0.013136562147395406 0 0.0015206913747403033 0.013116054591942945 0 0.0015422542004570612 0.013130077116599075 0 0.0015206913747403033 0.013116054591942945 0 0.0015356709029456666 0.013113058565364979 0 0.0015422542004570612 0.013130077116599075 0 0.0015356709029456666 0.013113058565364979 0 0.0015422542004570612 0.013130077116599075 0 0.0015472416745812136 0.013112675759495295 0 0.001541040542928696 0.013092799592294931 0 0.0015356709029456666 0.013113058565364979 0 0.0015472416745812136 0.013112675759495295 0 0.001541040542928696 0.013092799592294931 0 0.0015356709029456666 0.013113058565364979 0 0.0015201565602387945 0.013105573313907302 0 0.0015206913747403033 0.013116054591942945 0 0.0015356709029456666 0.013113058565364979 0 0.0015201565602387945 0.013105573313907302 0 0.0015068253613651664 0.013103047244279614 0 0.0014939301458291132 0.013105205015163018 0 0.0015201565602387945 0.013105573313907302 0 0.0014939301458291132 0.013105205015163018 0 0.0015206913747403033 0.013116054591942945 0 0.0015201565602387945 0.013105573313907302 0 0.0015573507938053237 0.013160112660339156 0 0.0015483390276269664 0.01312296051250438 0 0.0015267445585248731 0.013121772727809466 0 0.0015483390276269664 0.01312296051250438 0 0.0015411195987859597 0.013082273271449594 0 0.0015267445585248731 0.013121772727809466 0 0.0015555559698702788 0.013142412189485003 0 0.0015483390276269664 0.01312296051250438 0 0.0015472416745812136 0.013112675759495295 0 0.0015555559698702788 0.013142412189485003 0 0.0015422542004570612 0.013130077116599075 0 0.0015472416745812136 0.013112675759495295 0 0.001541040542928696 0.013092799592294931 0 0.0015472416745812136 0.013112675759495295 0 0.0015411195987859597 0.013082273271449594 0 0.0015483390276269664 0.01312296051250438 0 0.0015472416745812136 0.013112675759495295 0 0.0015411195987859597 0.013082273271449594 0 0.0015038525152911682 0.013048281470474061 0 0.0015267445585248731 0.013121772727809466 0 0.0014394917464388229 0.013086703964795707 0 0.0015038525152911682 0.013048281470474061 0 0.0015411195987859597 0.013082273271449594 0 0.0015267445585248731 0.013121772727809466 0 0.0015267445585248731 0.013121772727809466 0 0.0014394917464388229 0.013086703964795707 0 0.0014961766236851145 0.013203046481056689 0 0.0014394917464388229 0.013086703964795707 0 0.0013898863127711995 0.013196006761467734 0 0.0012555512979572196 0.013119989228181826 0 0.0014394917464388229 0.013086703964795707 0 0.0013898863127711995 0.013196006761467734 0 0.0014961766236851145 0.013203046481056689 0 0.0014569246619727393 0.01328900683867244 0 0.0013898863127711995 0.013196006761467734 0 0.0014961766236851145 0.013203046481056689 0 0.0015573507938053237 0.013160112660339156 0 0.0015267445585248731 0.013121772727809466 0 0.0015578931652793311 0.013209926393308483 0 0.0015267445585248731 0.013121772727809466 0 0.0014961766236851145 0.013203046481056689 0 0.0015578931652793311 0.013209926393308483 0 0.001110783074812226 0.013281040550423583 0 0.00095998622473786029 0.013142003341794837 0 0.00094330892714703798 0.01343815375807322 0 0.001110783074812226 0.013281040550423583 0 0.0012555512979572196 0.013119989228181826 0 0.00095998622473786029 0.013142003341794837 0 0.001110783074812226 0.013281040550423583 0 0.0012867888858337532 0.013296445851397172 0 0.0012555512979572196 0.013119989228181826 0 0.0013898863127711995 0.013196006761467734 0 0.0012867888858337532 0.013296445851397172 0 0.0012555512979572196 0.013119989228181826 0 0.0014569246619727393 0.01328900683867244 0 0.0013898863127711995 0.013196006761467734 0 0.0012867888858337532 0.013296445851397172 0 0.0012942477660931953 0.012984881228097718 0 0.0014394917464388229 0.013086703964795707 0 0.0012555512979572196 0.013119989228181826 0 0.0012942477660931953 0.012984881228097718 0 0.0012555512979572196 0.013119989228181826 0 0.0011107641727650509 0.012993663179752975 0 0.0012555512979572196 0.013119989228181826 0 0.0011107641727650509 0.012993663179752975 0 0.00095998622473786029 0.013142003341794837 0 0.00078680747514894671 0.012823308170887971 0 0.0011107641727650509 0.012993663179752975 0 0.00095998622473786029 0.013142003341794837 0 0.00078680747514894671 0.012823308170887971 0 0.00095998622473786029 0.013142003341794837 0 0.00054326684142177778 0.013189315401808543 0 0.00021094938900884393 0.01379239780107387 0 0.00021118510327825359 0.014074046771293916 0 2.2086493084649078e-05 0.014911658939330431 0 0.00010937874582178844 0.014897680138597968 0 5.7740044290630489e-05 0.014970389396061035 0 0.00010937874582178844 0.014897680138597968 0 5.7740044290630489e-05 0.014970389396061035 0 6.7739143446080924e-05 0.014981459836072646 0 0.00095998622473786029 0.013142003341794837 0 0.00094330892714703798 0.01343815375807322 0 0.00066793590972331277 0.013435959993318897 0 0.00095998622473786029 0.013142003341794837 0 0.00054326684142177778 0.013189315401808543 0 0.00066793590972331277 0.013435959993318897 0 0.00094330892714703798 0.01343815375807322 0 0.00058669204575831466 0.013800819149976112 0 0.00092149542646328237 0.013690207325045001 0 0.00094330892714703798 0.01343815375807322 0 0.00066793590972331277 0.013435959993318897 0 0.00058669204575831466 0.013800819149976112 0 0.00066793590972331277 0.013435959993318897 0 0.00058669204575831466 0.013800819149976112 0 0.00024754444784397489 0.013706765599125809 0 0.00021118510327825359 0.014074046771293916 0 0.00013086850678648744 0.014351101651548237 0 0.00054326684142177778 0.013189315401808543 0 0.00066793590972331277 0.013435959993318897 0 0.00024754444784397489 0.013706765599125809 0 0.00058669204575831466 0.013800819149976112 0 0.00030421602552485155 0.014157463769431722 0 0.00017460860868527173 0.013913800987063222 0 0.00025589884069425668 0.014302647396969051 0 0.00013086850678648744 0.014351101651548237 0 0.00058669204575831466 0.013800819149976112 0 0.00075740156043515954 0.013981664403082949 0 0.00043689238923712997 0.01419215889048304 0 0.00058669204575831466 0.013800819149976112 0 0.00030421602552485155 0.014157463769431722 0 0.00043689238923712997 0.01419215889048304 0 0.00058669204575831466 0.013800819149976112 0 0.00092149542646328237 0.013690207325045001 0 0.00075740156043515954 0.013981664403082949 0 0.00092149542646328237 0.013690207325045001 0 0.0011605545054083617 0.013489255780979422 0 0.001129495997067113 0.013746778386241705 0 0.00092149542646328237 0.013690207325045001 0 0.001129495997067113 0.013746778386241705 0 0.00075740156043515954 0.013981664403082949 0 0.001110783074812226 0.013281040550423583 0 0.0012867888858337532 0.013296445851397172 0 0.0011605545054083617 0.013489255780979422 0 0.001110783074812226 0.013281040550423583 0 0.00094330892714703798 0.01343815375807322 0 0.0011605545054083617 0.013489255780979422 0 0.00094330892714703798 0.01343815375807322 0 0.00092149542646328237 0.013690207325045001 0 0.0011605545054083617 0.013489255780979422 0 0.0014712349539280579 0.013442042050119767 0 0.0014569246619727393 0.01328900683867244 0 0.0012867888858337532 0.013296445851397172 0 0.0014712349539280579 0.013442042050119767 0 0.0012867888858337532 0.013296445851397172 0 0.0011605545054083617 0.013489255780979422 0 0.0014712349539280579 0.013442042050119767 0 0.0011605545054083617 0.013489255780979422 0 0.001129495997067113 0.013746778386241705 0 0.0018018314260855343 0.013532169887598148 0 0.001129495997067113 0.013746778386241705 0 0.0011527280041643668 0.014110109897316299 0 0.0018018314260855343 0.013532169887598148 0 0.0014712349539280579 0.013442042050119767 0 0.001129495997067113 0.013746778386241705 0 0.001129495997067113 0.013746778386241705 0 0.0011527280041643668 0.014110109897316299 0 0.00083327231752428738 0.014176725126252249 0 0.001129495997067113 0.013746778386241705 0 0.00083327231752428738 0.014176725126252249 0 0.00075740156043515954 0.013981664403082949 0 0.0011527280041643668 0.014110109897316299 0 0.00078598006891651012 0.014545383759514693 0 0.00083327231752428738 0.014176725126252249 0 0.0018018314260855343 0.013532169887598148 0 0.0011527280041643668 0.014110109897316299 0 0.0014318055546444809 0.014590140256769284 0 0.0011527280041643668 0.014110109897316299 0 0.0014318055546444809 0.014590140256769284 0 0.00078598006891651012 0.014545383759514693 0 0.00078598006891651012 0.014545383759514693 0 0.00049187917703778902 0.014966950915912672 0 0.0010514553454115025 0.015156476218786668 0 0.0014318055546444809 0.014590140256769284 0 0.00078598006891651012 0.014545383759514693 0 0.0010514553454115025 0.015156476218786668 0 0.0015481269345302365 0.013537224103990461 0 0.0011192088765336315 0.013604615181268773 0 0.0021237594405929261 0.012493731487004845 0 0.0023542832228363613 0.012780231166499201 0 0.0025762261274971466 0.012287602328877581 0 0.00049187917703778902 0.014966950915912672 0 0.00042755444778312776 0.014717110765969994 0 0.00025619344827966609 0.01489391506664825 0 0.00078598006891651012 0.014545383759514693 0 0.00049187917703778902 0.014966950915912672 0 0.00042755444778312776 0.014717110765969994 0 0.00078598006891651012 0.014545383759514693 0 0.00042755444778312776 0.014717110765969994 0 0.00044435560335255104 0.014421007433312717 0 0.00042755444778312776 0.014717110765969994 0 0.00044435560335255104 0.014421007433312717 0 0.00026417181424751311 0.014692116208204618 0 0.00042755444778312776 0.014717110765969994 0 0.00026417181424751311 0.014692116208204618 0 0.00025619344827966609 0.01489391506664825 0 0.00078598006891651012 0.014545383759514693 0 0.00044435560335255104 0.014421007433312717 0 0.00083327231752428738 0.014176725126252249 0 0.00044435560335255104 0.014421007433312717 0 0.00083327231752428738 0.014176725126252249 0 0.00075740156043515954 0.013981664403082949 0 0.00044435560335255104 0.014421007433312717 0 0.00043689238923712997 0.01419215889048304 0 0.00020579970333736499 0.014417255031249725 0 0.00044435560335255104 0.014421007433312717 0 0.00075740156043515954 0.013981664403082949 0 0.00043689238923712997 0.01419215889048304 0 0.00030421602552485155 0.014157463769431722 0 0.00043689238923712997 0.01419215889048304 0 0.00020579970333736499 0.014417255031249725 0 0.00020579970333736499 0.014417255031249725 0 9.3806828581751377e-05 0.014557188122459788 0 9.4854658412623979e-05 0.014374359550601868 0 0.00020579970333736499 0.014417255031249725 0 9.3806828581751377e-05 0.014557188122459788 0 0.00015667401344921102 0.014610042220307573 0 9.3806828581751377e-05 0.014557188122459788 0 0.00015667401344921102 0.014610042220307573 0 3.6506185772025759e-05 0.014760954461149769 0 9.3806828581751377e-05 0.014557188122459788 0 3.6506185772025759e-05 0.014760954461149769 0 5.7818818747356216e-05 0.01467317064358253 0 9.3806828581751377e-05 0.014557188122459788 0 5.7818818747356216e-05 0.01467317064358253 0 9.4854658412623979e-05 0.014374359550601868 0 0.00015667401344921102 0.014610042220307573 0 0.00011181753636407962 0.014811191590877159 0 3.6506185772025759e-05 0.014760954461149769 0 0.00044435560335255104 0.014421007433312717 0 0.00020579970333736499 0.014417255031249725 0 0.00015667401344921102 0.014610042220307573 0 0.00044435560335255104 0.014421007433312717 0 0.00015667401344921102 0.014610042220307573 0 0.00026417181424751311 0.014692116208204618 0 0.00026417181424751311 0.014692116208204618 0 0.00011181753636407962 0.014811191590877159 0 0.00025619344827966609 0.01489391506664825 0 0.00015667401344921102 0.014610042220307573 0 0.00026417181424751311 0.014692116208204618 0 0.00011181753636407962 0.014811191590877159 0 0.00011181753636407962 0.014811191590877159 0 0.00014454764602514324 0.014918817536031354 0 5.6225517936108523e-05 0.014950336858404814 0 0.00011181753636407962 0.014811191590877159 0 0.00014454764602514324 0.014918817536031354 0 0.00025619344827966609 0.01489391506664825 0 -4.8270526989457914e-10 0.014999940266321692 0 2.7915039773976951e-05 0.014898714551746364 0 5.6225517936108523e-05 0.014950336858404814 0 0.00011181753636407962 0.014811191590877159 0 2.7915039773976951e-05 0.014898714551746364 0 5.6225517936108523e-05 0.014950336858404814 0 0.00011181753636407962 0.014811191590877159 0 2.7915039773976951e-05 0.014898714551746364 0 3.6506185772025759e-05 0.014760954461149769 0 -4.8270526989457914e-10 0.014999940266321692 0 2.7915039773976951e-05 0.014898714551746364 0 -1.1894459104451353e-08 0.014999819843830793 0 3.6506185772025759e-05 0.014760954461149769 0 2.535112183774334e-08 0.014999692775604662 0 5.7818818747356216e-05 0.01467317064358253 0 -1.1894459104451353e-08 0.014999819843830793 0 3.6506185772025759e-05 0.014760954461149769 0 2.535112183774334e-08 0.014999692775604662 0 2.7915039773976951e-05 0.014898714551746364 0 -1.1894459104451353e-08 0.014999819843830793 0 3.6506185772025759e-05 0.014760954461149769 0 2.535112183774334e-08 0.014999692775604662 0 7.1537232269009327e-05 0.014735713010691442 0 5.7818818747356216e-05 0.01467317064358253 0 2.535112183774334e-08 0.014999692775604662 0 3.0925045103956769e-08 0.014999778471601267 0 7.1537232269009327e-05 0.014735713010691442 0 1.8378572909685046e-07 0.014999581800978679 0 0.00010194310012118705 0.014738416699951774 0 -2.65882715931533e-09 0.015000022287890567 0 1.487693222263882e-05 0.015007522503004592 0 1.0251479766809185e-05 0.014995308388971808 0 7.1537232269009327e-05 0.014735713010691442 0 5.7818818747356216e-05 0.01467317064358253 0 9.4854658412623979e-05 0.014374359550601868 0 7.1537232269009327e-05 0.014735713010691442 0 9.4854658412623979e-05 0.014374359550601868 0 4.7486026600577324e-05 0.014469227674272292 0 0.00030421602552485155 0.014157463769431722 0 0.00020579970333736499 0.014417255031249725 0 9.4854658412623979e-05 0.014374359550601868 0 0.00013493153997333934 0.014335627453950329 0 0.00013086850678648744 0.014351101651548237 0 0.00030421602552485155 0.014157463769431722 0 9.4854658412623979e-05 0.014374359550601868 0 0.00017460860868527173 0.013913800987063222 0 0.00010194310012118705 0.014738416699951774 0 0.00013086850678648744 0.014351101651548237 0 1.487693222263882e-05 0.015007522503004592 0 4.6954255674816474e-05 0.015016406114682711 0 3.6219766630064281e-05 0.01499250136605544 0 1.487693222263882e-05 0.015007522503004592 0 2.0647816495243057e-05 0.014994122745952985 0 3.6219766630064281e-05 0.01499250136605544 0 2.0647816495243057e-05 0.014994122745952985 0 3.6219766630064281e-05 0.01499250136605544 0 2.2435809685705078e-05 0.014980503346530602 0 5.7740044290630489e-05 0.014970389396061035 0 6.7739143446080924e-05 0.014981459836072646 0 3.6219766630064281e-05 0.01499250136605544 0 6.7739143446080924e-05 0.014981459836072646 0 4.6954255674816474e-05 0.015016406114682711 0 3.6219766630064281e-05 0.01499250136605544 0 5.7740044290630489e-05 0.014970389396061035 0 3.6219766630064281e-05 0.01499250136605544 0 2.2435809685705078e-05 0.014980503346530602 0 2.9694870559383344e-05 0.014963501448516131 0 3.8916885988342054e-06 0.014958162168243312 0 2.2086493084649078e-05 0.014911658939330431 0 5.7740044290630489e-05 0.014970389396061035 0 -2.6865999413564596e-05 0.014957193048585973 0 -6.3051094055247209e-05 0.014925108477212014 0 2.2086493084649078e-05 0.014911658939330431 0 -2.6865999413564596e-05 0.014957193048585973 0 3.8916885988342054e-06 0.014958162168243312 0 -2.215733980684499e-05 0.014944892454169759 0 -6.3051094055247209e-05 0.014925108477212014 0 -2.6865999413564596e-05 0.014957193048585973 0 -0.00010957998144298289 0.014945344218255004 0 2.2435809685705078e-05 0.014980503346530602 0 3.2838721472242349e-06 0.014991307810010327 0 1.0251479766809185e-05 0.014995308388971808 0 -5.0364621614923605e-05 0.014733235098675921 0 -2.215733980684499e-05 0.014944892454169759 0 -5.0364621614923605e-05 0.014733235098675921 0 -8.0742541671637345e-08 0.014999521900012067 0 -1.7937900188715847e-06 0.014997999109910877 0 -6.8035997392276632e-07 0.014999043231101327 0 3.9934801604458553e-11 0.01500000060428229 0 -2.215733980684499e-05 0.014944892454169759 0 -3.5532321823425394e-08 0.014999734421099753 0 -5.5607265398299983e-08 0.014999891897466087 0 -2.2219916120751763e-11 0.014999999939734457 0 -7.0264555149525987e-14 0.014999999951995744 0 -6.8035997392276632e-07 0.014999043231101327 0 3.9934801604458553e-11 0.01500000060428229 0 -1.8303781679832801e-10 0.014999998802227939 0 3.2838721472242349e-06 0.014991307810010327 0 5.1607764619488396e-09 0.014999965515657434 0 3.4064428171177396e-06 0.014997104385762327 0 -2.215733980684499e-05 0.014944892454169759 0 -1.0440294371710528e-07 0.014999745869849885 0 -2.65882715931533e-09 0.015000022287890567 0 5.1607764619488396e-09 0.014999965515657434 0 3.4064428171177396e-06 0.014997104385762327 0 -2.65882715931533e-09 0.015000022287890567 0 3.4064428171177396e-06 0.014997104385762327 0 1.0251479766809185e-05 0.014995308388971808 0 3.2838721472242349e-06 0.014991307810010327 0 3.4064428171177396e-06 0.014997104385762327 0 1.0251479766809185e-05 0.014995308388971808 0 1.487693222263882e-05 0.015007522503004592 0 2.0647816495243057e-05 0.014994122745952985 0 1.0251479766809185e-05 0.014995308388971808 0 2.0647816495243057e-05 0.014994122745952985 0 2.2435809685705078e-05 0.014980503346530602 0 1.0251479766809185e-05 0.014995308388971808 0 1.1571520182787346e-05 0.015001533211520731 0 2.445675427800733e-05 0.014950185554628095 0 -2.6274753360334239e-05 0.014931976247744725 0 1.1571520182787346e-05 0.015001533211520731 0 1.8828275816314415e-05 0.014997721852354444 0 2.445675427800733e-05 0.014950185554628095 0 1.8828275816314415e-05 0.014997721852354444 0 -1.8163814845441521e-08 0.015000023963251435 0 2.445675427800733e-05 0.014950185554628095 0 1.8828275816314415e-05 0.014997721852354444 0 -1.8163814845441521e-08 0.015000023963251435 0 4.2907456810805899e-08 0.015000018679527813 0 -1.8163814845441521e-08 0.015000023963251435 0 2.445675427800733e-05 0.014950185554628095 0 4.1004588127675422e-05 0.014907412604401274 0 2.445675427800733e-05 0.014950185554628095 0 -2.0236649171360152e-06 0.014844794591969319 0 4.1004588127675422e-05 0.014907412604401274 0 2.445675427800733e-05 0.014950185554628095 0 -2.6274753360334239e-05 0.014931976247744725 0 -2.0236649171360152e-06 0.014844794591969319 0 -2.6274753360334239e-05 0.014931976247744725 0 -0.00012947022858611766 0.014773315087654403 0 -2.0236649171360152e-06 0.014844794591969319 0 -2.6274753360334239e-05 0.014931976247744725 0 -0.00012278067118070139 0.014978834505131518 0 -0.00012947022858611766 0.014773315087654403 0 -0.00012278067118070139 0.014978834505131518 0 -0.00028164705700367353 0.014882165291878425 0 -0.00012947022858611766 0.014773315087654403 0 -0.00010183924583550154 0.014748839656336544 0 -3.0811085496456445e-05 0.014574647992574002 0 -0.00012278067118070139 0.014978834505131518 0 -4.595793297270212e-05 0.015037728229473803 0 -0.00010538376815267277 0.015046308597478143 0 -2.6274753360334239e-05 0.014931976247744725 0 -0.00012278067118070139 0.014978834505131518 0 -3.4460613971200776e-05 0.015001151633033784 0 -0.00012278067118070139 0.014978834505131518 0 -3.4460613971200776e-05 0.015001151633033784 0 -4.595793297270212e-05 0.015037728229473803 0 1.1571520182787346e-05 0.015001533211520731 0 -2.6274753360334239e-05 0.014931976247744725 0 -3.4460613971200776e-05 0.015001151633033784 0 1.1571520182787346e-05 0.015001533211520731 0 -3.4460613971200776e-05 0.015001151633033784 0 5.1580360927963876e-06 0.015041585728027326 0 5.1580360927963876e-06 0.015041585728027326 0 3.6634544905578628e-05 0.015092646199037897 0 2.724719033272712e-05 0.015046385149464514 0 1.1571520182787346e-05 0.015001533211520731 0 5.1580360927963876e-06 0.015041585728027326 0 2.724719033272712e-05 0.015046385149464514 0 -4.595793297270212e-05 0.015037728229473803 0 3.6634544905578628e-05 0.015092646199037897 0 -0.00010297951888496999 0.015060036317448174 0 6.7154226792255116e-05 0.014669385886027389 0 4.4258589283904978e-06 0.014568369113243823 0 -4.595793297270212e-05 0.015037728229473803 0 -0.00010297951888496999 0.015060036317448174 0 -0.00010538376815267277 0.015046308597478143 0 -3.4460613971200776e-05 0.015001151633033784 0 5.1580360927963876e-06 0.015041585728027326 0 -4.595793297270212e-05 0.015037728229473803 0 5.1580360927963876e-06 0.015041585728027326 0 -4.595793297270212e-05 0.015037728229473803 0 3.6634544905578628e-05 0.015092646199037897 0 3.6634544905578628e-05 0.015092646199037897 0 0.00015210812737448688 0.015097550495162634 0 7.62404864897651e-05 0.015115127418533108 0 3.6634544905578628e-05 0.015092646199037897 0 7.3160737987593329e-05 0.015077103179085408 0 0.00015210812737448688 0.015097550495162634 0 3.6634544905578628e-05 0.015092646199037897 0 2.724719033272712e-05 0.015046385149464514 0 7.3160737987593329e-05 0.015077103179085408 0 2.724719033272712e-05 0.015046385149464514 0 4.8907524821973252e-05 0.015045290842049535 0 2.114623476868916e-05 0.015028008861615989 0 1.1571520182787346e-05 0.015001533211520731 0 1.8828275816314415e-05 0.014997721852354444 0 2.724719033272712e-05 0.015046385149464514 0 1.8828275816314415e-05 0.014997721852354444 0 2.724719033272712e-05 0.015046385149464514 0 4.2907456810805899e-08 0.015000018679527813 0 2.724719033272712e-05 0.015046385149464514 0 4.2907456810805899e-08 0.015000018679527813 0 2.114623476868916e-05 0.015028008861615989 0 4.2907456810805899e-08 0.015000018679527813 0 1.1174925832535844e-08 0.01500005740356776 0 2.114623476868916e-05 0.015028008861615989 0 1.1174925832535844e-08 0.01500005740356776 0 2.114623476868916e-05 0.015028008861615989 0 2.0803097743328605e-05 0.015016248213542534 0 4.8907524821973252e-05 0.015045290842049535 0 2.114623476868916e-05 0.015028008861615989 0 2.0803097743328605e-05 0.015016248213542534 0 4.8907524821973252e-05 0.015045290842049535 0 2.0803097743328605e-05 0.015016248213542534 0 4.9638269602328724e-05 0.015009753065569726 0 1.1174925832535844e-08 0.01500005740356776 0 2.0803097743328605e-05 0.015016248213542534 0 1.7643206461735448e-08 0.015000008440736724 0 1.7643206461735448e-08 0.015000008440736724 0 4.9638269602328724e-05 0.015009753065569726 0 2.0876526213296439e-05 0.014989051976449954 0 2.0803097743328605e-05 0.015016248213542534 0 1.7643206461735448e-08 0.015000008440736724 0 4.9638269602328724e-05 0.015009753065569726 0 4.9638269602328724e-05 0.015009753065569726 0 5.6225517936108523e-05 0.014950336858404814 0 2.0876526213296439e-05 0.014989051976449954 0 -4.8270526989457914e-10 0.014999940266321692 0 5.6225517936108523e-05 0.014950336858404814 0 2.0876526213296439e-05 0.014989051976449954 0 -4.8270526989457914e-10 0.014999940266321692 0 1.7643206461735448e-08 0.015000008440736724 0 2.0876526213296439e-05 0.014989051976449954 0 0.00014454764602514324 0.014918817536031354 0 0.00025619344827966609 0.01489391506664825 0 0.0001584192556114561 0.014996719543324872 0 0.00025619344827966609 0.01489391506664825 0 0.0001584192556114561 0.014996719543324872 0 0.00032271976039234513 0.015003008261465438 0 0.00014454764602514324 0.014918817536031354 0 5.6225517936108523e-05 0.014950336858404814 0 0.0001584192556114561 0.014996719543324872 0 4.9638269602328724e-05 0.015009753065569726 0 5.6225517936108523e-05 0.014950336858404814 0 0.0001584192556114561 0.014996719543324872 0 4.9638269602328724e-05 0.015009753065569726 0 0.0001584192556114561 0.014996719543324872 0 0.00012209230966024598 0.015047272749306595 0 0.0001584192556114561 0.014996719543324872 0 0.00012209230966024598 0.015047272749306595 0 0.00024541659788537108 0.015046754393520802 0 0.00012209230966024598 0.015047272749306595 0 0.00015210812737448688 0.015097550495162634 0 0.00024541659788537108 0.015046754393520802 0 4.8907524821973252e-05 0.015045290842049535 0 4.9638269602328724e-05 0.015009753065569726 0 0.00012209230966024598 0.015047272749306595 0 2.724719033272712e-05 0.015046385149464514 0 4.8907524821973252e-05 0.015045290842049535 0 7.3160737987593329e-05 0.015077103179085408 0 4.8907524821973252e-05 0.015045290842049535 0 0.00012209230966024598 0.015047272749306595 0 7.3160737987593329e-05 0.015077103179085408 0 0.00012209230966024598 0.015047272749306595 0 7.3160737987593329e-05 0.015077103179085408 0 0.00015210812737448688 0.015097550495162634 0 0.00015210812737448688 0.015097550495162634 0 0.00029051619759978429 0.0151278588687189 0 0.00024541659788537108 0.015046754393520802 0 0.00065416190504059661 0.012932266396297765 0 0.00056189425658966614 0.012945041618778833 0 0.00067877752391445217 0.012889746785548288 0 0.00062378672298550413 0.012961153542035588 0 0.00065416190504059661 0.012932266396297765 0 0.00069704757965888384 0.012954151128719333 0 0.00062378672298550413 0.012961153542035588 0 0.00065416190504059661 0.012932266396297765 0 0.00056189425658966614 0.012945041618778833 0 0.00056189425658966614 0.012945041618778833 0 0.00067270067283875491 0.012836101222951491 0 0.00067877752391445217 0.012889746785548288 0 0.00039805374791812293 0.014071221880445616 0 0.00067326437222086331 0.013893212965609738 0 0.00056189425658966614 0.012945041618778833 0 0.00067388371499075672 0.0127128612756204 0 0.00067270067283875491 0.012836101222951491 0 0.00029051619759978429 0.0151278588687189 0 0.00024541659788537108 0.015046754393520802 0 0.00041226915184110289 0.015036594959248183 0 0.00049187917703778902 0.014966950915912672 0 0.00032271976039234513 0.015003008261465438 0 0.00041226915184110289 0.015036594959248183 0 0.0001584192556114561 0.014996719543324872 0 0.00024541659788537108 0.015046754393520802 0 0.00032271976039234513 0.015003008261465438 0 0.00024541659788537108 0.015046754393520802 0 0.00032271976039234513 0.015003008261465438 0 0.00041226915184110289 0.015036594959248183 0 0.00049187917703778902 0.014966950915912672 0 0.00025619344827966609 0.01489391506664825 0 0.00032271976039234513 0.015003008261465438 0 0.00049187917703778902 0.014966950915912672 0 0.00049244567442682156 0.014981170368855035 0 0.00041226915184110289 0.015036594959248183 0 0.0011192088765336315 0.013604615181268773 0 0.001409688909125291 0.012910445704773378 0 0.00080041044406152571 0.012461256077061599 0 0.00087196560659284533 0.012636277356314712 0 0.0010320992375896358 0.012519923190649186 0 0.0021237594405929261 0.012493731487004845 0 0.0025762261274971466 0.012287602328877581 0 0.0021428869777206159 0.012184731381190092 0 0.00096679216149009285 0.013859618699603997 0 0.0011192088765336315 0.013604615181268773 0 0.00087196560659284533 0.012636277356314712 0 0.00067388371499075672 0.0127128612756204 0 0.00080372284994040569 0.012761984927685804 0 0.0011192088765336315 0.013604615181268773 0 0.00067326437222086331 0.013893212965609738 0 0.00080041044406152571 0.012461256077061599 0 0.00087196560659284533 0.012636277356314712 0 0.00067388371499075672 0.0127128612756204 0 0.00087196560659284533 0.012636277356314712 0 0.00095396254161830732 0.012728438138627011 0 0.00097420475441239573 0.012632130977698277 0 0.00087196560659284533 0.012636277356314712 0 0.00095396254161830732 0.012728438138627011 0 0.00080372284994040569 0.012761984927685804 0 0.00092451612449306116 0.012822034489100151 0 0.00080372284994040569 0.012761984927685804 0 0.00073266886134085618 0.012877109539874721 0 0.00095396254161830732 0.012728438138627011 0 0.00092451612449306116 0.012822034489100151 0 0.00080372284994040569 0.012761984927685804 0 0.00067388371499075672 0.0127128612756204 0 0.00080372284994040569 0.012761984927685804 0 0.00072027858835966489 0.012811300160719694 0 0.00080372284994040569 0.012761984927685804 0 0.00072027858835966489 0.012811300160719694 0 0.00073266886134085618 0.012877109539874721 0 0.00067388371499075672 0.0127128612756204 0 0.00072027858835966489 0.012811300160719694 0 0.00067270067283875491 0.012836101222951491 0 0.00072027858835966489 0.012811300160719694 0 0.00067270067283875491 0.012836101222951491 0 0.00071721129280906035 0.012875562294110634 0 0.00067270067283875491 0.012836101222951491 0 0.00067877752391445217 0.012889746785548288 0 0.00071721129280906035 0.012875562294110634 0 0.00072027858835966489 0.012811300160719694 0 0.00071721129280906035 0.012875562294110634 0 0.00073266886134085618 0.012877109539874721 0 0.00086988468501275845 0.012571975538433549 0 0.00087048784308703777 0.01257166150631007 0 0.00085778584065558357 0.012579420840983764 0 0.00087048784308703777 0.01257166150631007 0 0.00067877752391445217 0.012889746785548288 0 0.00072476617931138221 0.012873750921579148 0 0.00071307287100247298 0.012905400118122665 0 0.00067877752391445217 0.012889746785548288 0 0.00071721129280906035 0.012875562294110634 0 0.0007325489778218508 0.012877154113618611 0 0.00087048784308703777 0.01257166150631007 0 0.00091410421700809574 0.012541330800666224 0 0.00072476617931138221 0.012873750921579148 0 0.00071307287100247298 0.012905400118122665 0 0.00081370532295168608 0.012877239870195187 0 0.00076965657720984087 0.012881379514278495 0 0.00078774823614154307 0.012882076503059579 0 0.00069954372574514026 0.012966961810134158 0 0.00073525420750846556 0.012723741961361062 0 0.00091410421700809574 0.012541330800666224 0 0.00094256427449788244 0.01250435879556093 0 0.00075640097831110125 0.012738445581848272 0 0.00071307287100247298 0.012905400118122665 0 0.00069704757965888384 0.012954151128719333 0 0.00081370532295168608 0.012877239870195187 0 0.00067050790015896124 0.012950018396510839 0 0.00076965657720984087 0.012881379514278495 0 0.00069954372574514026 0.012966961810134158 0 0.00065416190504059661 0.012932266396297765 0 0.00067877752391445217 0.012889746785548288 0 0.00071307287100247298 0.012905400118122665 0 0.00065416190504059661 0.012932266396297765 0 0.00071307287100247298 0.012905400118122665 0 0.00069704757965888384 0.012954151128719333 0 0.00097755919566472576 0.012542590234362334 0 0.00087048784308703777 0.01257166150631007 0 0.00095030949145234202 0.012551638466052827 0 0.00089836850024949523 0.012568001359951205 0 0.00092518855319755576 0.012569204488495279 0 0.00094256427449788244 0.01250435879556093 0 0.0012420951208016282 0.012057028472323298 0 0.00079352998655336533 0.012861377058614223 0 0.00079232945443454082 0.0129410394951242 0 0.00091969532078996501 0.012865307354263514 0 0.0011482961417277695 0.012294553677958661 0 0.0010655216656459436 0.0123729462202868 0 0.0012288176760381349 0.012380406476620443 0 0.00097755919566472576 0.012542590234362334 0 0.00094256427449788244 0.01250435879556093 0 0.00096705677537906748 0.012554874456508202 0 0.00097882560653166735 0.012546350246707662 0 0.00097585861221826504 0.012546232331450262 0 0.00097755919566472576 0.012542590234362334 0 0.00091410421700809574 0.012541330800666224 0 0.00091410421700809574 0.012541330800666224 0 0.00094256427449788244 0.01250435879556093 0 0.00079352998655336533 0.012861377058614223 0 0.00079232945443454082 0.0129410394951242 0 0.00069501506581800957 0.012959911280468896 0 0.00089774319014669125 0.012131023916456032 0 0.0012420951208016282 0.012057028472323298 0 0.00037765906617621156 0.010829873527330641 0 0.00057119135261086604 0.010915305708425598 0 0.00056807213156338137 0.01071325617328971 0 0.00089774319014669125 0.012131023916456032 0 0.00047891150657600678 0.012301411801058759 0 0.00037765906617621156 0.010829873527330641 0 0.00050529839457190298 0.011180560494807999 0 0.00057119135261086604 0.010915305708425598 0 0.00076203529583801987 0.012956411685241032 0 0.0008143578302011893 0.013120615779030521 0 0.00069163127544953217 0.013107259370941496 0 0.0008143578302011893 0.013120615779030521 0 0.00069163127544953217 0.013107259370941496 0 0.00074676814945994461 0.013186596514162043 0 0.00069163127544953217 0.013107259370941496 0 0.00060798202478918153 0.013117986355119111 0 0.00062794107101205444 0.013196137693191756 0 0.00069163127544953217 0.013107259370941496 0 0.00061647326261141306 0.01304348110929779 0 0.00060798202478918153 0.013117986355119111 0 0.00069163127544953217 0.013107259370941496 0 0.00067656166690478834 0.013008221987816792 0 0.00061647326261141306 0.01304348110929779 0 0.00076203529583801987 0.012956411685241032 0 0.00069163127544953217 0.013107259370941496 0 0.00067656166690478834 0.013008221987816792 0 0.00089774319014669125 0.012131023916456032 0 0.00075198231895179509 0.012296741296717366 0 0.00079232945443454082 0.0129410394951242 0 0.00069501506581800957 0.012959911280468896 0 0.00067656166690478834 0.013008221987816792 0 0.00075640097831110125 0.012738445581848272 0 0.00069770548940962097 0.012812062638597767 0 0.00067050790015896124 0.012950018396510839 0 0.00069954372574514026 0.012966961810134158 0 0.00061647326261141306 0.01304348110929779 0 0.00069501506581800957 0.012959911280468896 0 0.00067656166690478834 0.013008221987816792 0 0.00061647326261141306 0.01304348110929779 0 0.00067050790015896124 0.012950018396510839 0 0.0005819904790477598 0.013014130044411524 0 0.00061647326261141306 0.01304348110929779 0 0.00062378672298550413 0.012961153542035588 0 0.00069704757965888384 0.012954151128719333 0 0.0005819904790477598 0.013014130044411524 0 0.00056189425658966614 0.012945041618778833 0 0.0005819904790477598 0.013014130044411524 0 0.0005551373061581838 0.013074754755215747 0 0.00073525420750846556 0.012723741961361062 0 0.00067591802927111425 0.012782680602110134 0 0.00062378672298550413 0.012961153542035588 0 0.00056189425658966614 0.012945041618778833 0 0.0005819904790477598 0.013014130044411524 0 0.0005819904790477598 0.013014130044411524 0 0.00061647326261141306 0.01304348110929779 0 0.0005551373061581838 0.013074754755215747 0 0.00029051619759978429 0.0151278588687189 0 0.00018180909062660735 0.015301695201024243 0 0.00019164621843021029 0.015307451325857171 0 0.00039805374791812293 0.014071221880445616 0 -1.7397801902805578e-05 0.014501374024397901 0 0.00015210812737448688 0.015097550495162634 0 0.00029051619759978429 0.0151278588687189 0 0.00018180909062660735 0.015301695201024243 0 0.00056189425658966614 0.012945041618778833 0 0.00047980327364626922 0.013115957059866738 0 0.0005551373061581838 0.013074754755215747 0 7.7169610698609567e-05 0.014958483520439866 0 4.4258589283904978e-06 0.014568369113243823 0 -0.0001196308212404956 0.014371867288033666 0 -9.5970859255388945e-05 0.014385994954624347 0 -0.00011278266022266764 0.014419264798550432 0 4.4258589283904978e-06 0.014568369113243823 0 -1.7397801902805578e-05 0.014501374024397901 0 -0.00034654359556890164 0.014745442945431276 0 -0.00034099053781569167 0.014734419055777706 0 -0.00039507051814236134 0.014666341537562589 0 -1.7397801902805578e-05 0.014501374024397901 0 -3.0811085496456445e-05 0.014574647992574002 0 4.4258589283904978e-06 0.014568369113243823 0 -3.0811085496456445e-05 0.014574647992574002 0 0.00047980327364626922 0.013115957059866738 0 0.00060798202478918153 0.013117986355119111 0 0.00062794107101205444 0.013196137693191756 0 0.00047980327364626922 0.013115957059866738 0 0.0005551373061581838 0.013074754755215747 0 0.00060798202478918153 0.013117986355119111 0 -1.7397801902805578e-05 0.014501374024397901 0 -2.5920593902533831e-06 0.014025356148231962 0 0.00061647326261141306 0.01304348110929779 0 0.0005551373061581838 0.013074754755215747 0 0.00060798202478918153 0.013117986355119111 0 -0.00034654359556890164 0.014745442945431276 0 -0.00048174312159150019 0.014669933753451795 0 -0.00039507051814236134 0.014666341537562589 0 -0.00048174312159150019 0.014669933753451795 0 -0.00043837863989271809 0.014603955158874186 0 -0.00054954481093235882 0.014590636951699546 0 -0.00048174312159150019 0.014669933753451795 0 -0.00039507051814236134 0.014666341537562589 0 -0.00043837863989271809 0.014603955158874186 0 -0.00012278067118070139 0.014978834505131518 0 -0.00021389581041999416 0.015162932052465579 0 -0.00028164705700367353 0.014882165291878425 0 -0.00034099053781569167 0.014734419055777706 0 -0.00039507051814236134 0.014666341537562589 0 -0.00036936119137114117 0.014581061752063251 0 -3.0811085496456445e-05 0.014574647992574002 0 -0.00017412592830637908 0.014666631046292924 0 -0.00039507051814236134 0.014666341537562589 0 -0.00036936119137114117 0.014581061752063251 0 -0.00043837863989271809 0.014603955158874186 0 -0.00036936119137114117 0.014581061752063251 0 -0.00043837863989271809 0.014603955158874186 0 -0.00044287345433295183 0.014524399244573525 0 -0.00043837863989271809 0.014603955158874186 0 -0.00054954481093235882 0.014590636951699546 0 -0.00044287345433295183 0.014524399244573525 0 -0.00054954481093235882 0.014590636951699546 0 -0.00060926189315970087 0.014452219322041894 0 -0.00044287345433295183 0.014524399244573525 0 -0.00048174312159150019 0.014669933753451795 0 -0.00054954481093235882 0.014590636951699546 0 -0.00062648044902763398 0.014589027303561456 0 -0.00066745302682460713 0.014587340419453339 0 -0.00075142398612265628 0.014450025406175331 0 -0.00060926189315970087 0.014452219322041894 0 -0.00066745302682460713 0.014587340419453339 0 -0.00085060441058266371 0.014587015679352406 0 -0.00075142398612265628 0.014450025406175331 0 -0.00054954481093235882 0.014590636951699546 0 -0.00066745302682460713 0.014587340419453339 0 -0.00060926189315970087 0.014452219322041894 0 -8.4112538164360267e-05 0.013589558868013843 0 4.0959639381131318e-05 0.012910177146281563 0 -0.00019892307845888549 0.013655269860177956 0 -8.4112538164360267e-05 0.013589558868013843 0 0.0008143578302011893 0.013120615779030521 0 0.00074676814945994461 0.013186596514162043 0 0.00086553122782112471 0.013277189100769107 0 0.0007679970865169945 0.013275548188363703 0 0.00074676814945994461 0.013186596514162043 0 0.00086553122782112471 0.013277189100769107 0 0.00069163127544953217 0.013107259370941496 0 0.00062794107101205444 0.013196137693191756 0 0.00074676814945994461 0.013186596514162043 0 -2.5920593902533831e-06 0.014025356148231962 0 -8.4112538164360267e-05 0.013589558868013843 0 0.00062794107101205444 0.013196137693191756 0 0.0007679970865169945 0.013275548188363703 0 0.00074676814945994461 0.013186596514162043 0 0.00076444336184846283 0.011296607540935161 0 0.00062767347767653551 0.011512895655122457 0 0.0008818719941210189 0.011511773919000648 0 0.00076444336184846283 0.011296607540935161 0 0.0008818719941210189 0.011511773919000648 0 0.00093704975603528724 0.011309322458519592 0 0.00050529839457190298 0.011180560494807999 0 0.00076444336184846283 0.011296607540935161 0 0.00062767347767653551 0.011512895655122457 0 0.00047891150657600678 0.012301411801058759 0 4.0959639381131318e-05 0.012910177146281563 0 4.0959639381131318e-05 0.012910177146281563 0 0.00022397866205508694 0.012343877758019933 0 -0.0016915442451896484 0.011577372018164389 0 -0.00062011503089505157 0.011600536300354219 0 -0.0013371482278804294 0.012605737792634332 0 0.00022397866205508694 0.012343877758019933 0 0.00064067999773223874 0.012088306683473953 0 0.0008818719941210189 0.011511773919000648 0 0.0010981439766483538 0.011530998104039519 0 0.00093704975603528724 0.011309322458519592 0 -0.00062011503089505157 0.011600536300354219 0 0.00037246876816064987 0.011657771410125028 0 0.00017631112829261228 0.012360368510268956 0 0.00037246876816064987 0.011657771410125028 0 0.0012649041305593655 0.011679721976124411 0 0.00076337600092170289 0.012372155343573093 0 0.00064067999773223874 0.012088306683473953 0 0.0008789469281606316 0.012020119463229928 0 0.0010981439766483538 0.011530998104039519 0 0.0011291728341679816 0.011230290836947807 0 0.0012316907113748654 0.011364889570643891 0 0.0010981439766483538 0.011530998104039519 0 0.00093704975603528724 0.011309322458519592 0 0.0011291728341679816 0.011230290836947807 0 0.00093704975603528724 0.011309322458519592 0 0.00093738556915807592 0.011093901698984911 0 0.0011291728341679816 0.011230290836947807 0 0.00093738556915807592 0.011093901698984911 0 0.0011291728341679816 0.011230290836947807 0 0.0012561577696058651 0.010959992918990255 0 0.0011291728341679816 0.011230290836947807 0 0.0013194589645134666 0.011103638330911469 0 0.0012316907113748654 0.011364889570643891 0 0.0011291728341679816 0.011230290836947807 0 0.0012561577696058651 0.010959992918990255 0 0.0013194589645134666 0.011103638330911469 0 0.0012561577696058651 0.010959992918990255 0 0.0010074527583487903 0.010873170687138577 0 0.0011618594834845973 0.010725658762766176 0 0.00093738556915807592 0.011093901698984911 0 0.0012561577696058651 0.010959992918990255 0 0.0010074527583487903 0.010873170687138577 0 0.00093738556915807592 0.011093901698984911 0 0.0010074527583487903 0.010873170687138577 0 0.00083825046544183711 0.010896522657893351 0 0.00093738556915807592 0.011093901698984911 0 0.00083825046544183711 0.010896522657893351 0 0.00070816738916435894 0.01101029078222278 0 0.00083825046544183711 0.010896522657893351 0 0.00070816738916435894 0.01101029078222278 0 0.00069918601336018966 0.010839292917052882 0 0.00076444336184846283 0.011296607540935161 0 0.00093704975603528724 0.011309322458519592 0 0.00093738556915807592 0.011093901698984911 0 0.00076444336184846283 0.011296607540935161 0 0.00093738556915807592 0.011093901698984911 0 0.00070816738916435894 0.01101029078222278 0 0.00050529839457190298 0.011180560494807999 0 0.00076444336184846283 0.011296607540935161 0 0.00070816738916435894 0.01101029078222278 0 0.00050529839457190298 0.011180560494807999 0 0.00070816738916435894 0.01101029078222278 0 0.00057119135261086604 0.010915305708425598 0 0.00070816738916435894 0.01101029078222278 0 0.00057119135261086604 0.010915305708425598 0 0.00069918601336018966 0.010839292917052882 0 0.0012420951208016282 0.012057028472323298 0 0.0015228391730438438 0.011535092301546694 0 0.00057119135261086604 0.010915305708425598 0 0.00069918601336018966 0.010839292917052882 0 0.00056807213156338137 0.01071325617328971 0 0.00069918601336018966 0.010839292917052882 0 0.00056807213156338137 0.01071325617328971 0 0.00084818671150096059 0.010715099201182731 0 0.0028617613860913759 0.010933137339148814 0 0.0025037601050866007 0.01090967295251655 0 0.0025569678527480461 0.011116210290295634 0 0.0010074527583487903 0.010873170687138577 0 0.00083825046544183711 0.010896522657893351 0 0.00084818671150096059 0.010715099201182731 0 0.00083825046544183711 0.010896522657893351 0 0.00069918601336018966 0.010839292917052882 0 0.00084818671150096059 0.010715099201182731 0 0.0014314276197013433 0.012261868705065335 0 0.0013967040296621839 0.012217189667688028 0 0.0016338324102125087 0.012144884677496097 0 0.0012721495150191874 0.012376950955503927 0 0.0016045299670422951 0.012160748963024834 0 0.0011411410898618981 0.012733904589678696 0 0.0012655786883485722 0.012644277028503783 0 0.0013270759589229762 0.012678128442604663 0 0.001707741195155486 0.011927864445083931 0 0.0016045299670422951 0.012160748963024834 0 0.0025037601050866007 0.01090967295251655 0 0.0025569678527480461 0.011116210290295634 0 0.0023077916364555788 0.011069140798863003 0 0.0011411410898618981 0.012733904589678696 0 0.0010788672949112797 0.012712815187200355 0 0.0011944563259834535 0.012635678472074193 0 0.00095688948562242947 0.012788331309878087 0 0.0011411410898618981 0.012733904589678696 0 0.0010788672949112797 0.012712815187200355 0 0.00097755919566472576 0.012542590234362334 0 0.0012721495150191874 0.012376950955503927 0 0.0012420951208016282 0.012057028472323298 0 0.001707741195155486 0.011927864445083931 0 0.0011482961417277695 0.012294553677958661 0 0.0012288176760381349 0.012380406476620443 0 0.0013967040296621839 0.012217189667688028 0 0.0012288176760381349 0.012380406476620443 0 0.0014314276197013433 0.012261868705065335 0 0.0013967040296621839 0.012217189667688028 0 0.00097755919566472576 0.012542590234362334 0 0.001013248674243515 0.012580883295887857 0 0.00095396254161830732 0.012728438138627011 0 0.0010507479725312373 0.012704887298958904 0 0.0010007349453315538 0.012680892391577955 0 0.00097755919566472576 0.012542590234362334 0 0.0010010450227969075 0.012585562198190688 0 0.00095396254161830732 0.012728438138627011 0 0.00092451612449306116 0.012822034489100151 0 0.0010507479725312373 0.012704887298958904 0 0.00096478601961706798 0.012782113594178132 0 0.0010807456025648033 0.012709164921117283 0 0.0010684321462804474 0.012684544803471106 0 0.00095396254161830732 0.012728438138627011 0 0.0010007349453315538 0.012680892391577955 0 0.00097420475441239573 0.012632130977698277 0 0.001024479982627824 0.012658487493483424 0 0.00097420475441239573 0.012632130977698277 0 0.0010774502179490394 0.012606331293976123 0 0.00087196560659284533 0.012636277356314712 0 0.00097420475441239573 0.012632130977698277 0 0.0010320992375896358 0.012519923190649186 0 0.0010507479725312373 0.012704887298958904 0 0.0010007349453315538 0.012680892391577955 0 0.001024479982627824 0.012658487493483424 0 0.0010007349453315538 0.012680892391577955 0 0.001024479982627824 0.012658487493483424 0 0.00097420475441239573 0.012632130977698277 0 0.00097420475441239573 0.012632130977698277 0 0.0010774502179490394 0.012606331293976123 0 0.0010320992375896358 0.012519923190649186 0 0.0010774502179490394 0.012606331293976123 0 0.0011750104719795255 0.012581593705071987 0 0.0010320992375896358 0.012519923190649186 0 0.0010507479725312373 0.012704887298958904 0 0.0010774502179490394 0.012606331293976123 0 0.0011750104719795255 0.012581593705071987 0 0.0010507479725312373 0.012704887298958904 0 0.001024479982627824 0.012658487493483424 0 0.0010774502179490394 0.012606331293976123 0 0.0010807456025648033 0.012709164921117283 0 0.0010684321462804474 0.012684544803471106 0 0.0011944563259834535 0.012635678472074193 0 0.0010010450227969075 0.012585562198190688 0 0.0010319638870606453 0.012575966318847746 0 0.001013248674243515 0.012580883295887857 0 0.0010426800882734784 0.012579077541295209 0 0.0011750104719795255 0.012581593705071987 0 0.0010320992375896358 0.012519923190649186 0 0.0012598558076555102 0.012574929356353938 0 0.0010684321462804474 0.012684544803471106 0 0.0011944563259834535 0.012635678472074193 0 0.0011750104719795255 0.012581593705071987 0 0.0011411410898618981 0.012733904589678696 0 0.0011944563259834535 0.012635678472074193 0 0.0012655786883485722 0.012644277028503783 0 0.0011944563259834535 0.012635678472074193 0 0.0012598558076555102 0.012574929356353938 0 0.0012655786883485722 0.012644277028503783 0 0.0011944563259834535 0.012635678472074193 0 0.0011750104719795255 0.012581593705071987 0 0.0012598558076555102 0.012574929356353938 0 0.001409688909125291 0.012910445704773378 0 0.0015031257679783954 0.012507479585049474 0 0.0018811653723507292 0.012440184830172778 0 0.0021428869777206159 0.012184731381190092 0 0.0018157687221307267 0.012086839484366023 0 0.0021237594405929261 0.012493731487004845 0 0.0018811653723507292 0.012440184830172778 0 0.0021428869777206159 0.012184731381190092 0 0.0016851015225334749 0.012381850173110503 0 0.0016553862426203201 0.012130878378619685 0 0.001574670900585625 0.012197026421028961 0 0.0016553862426203201 0.012130878378619685 0 0.001574670900585625 0.012197026421028961 0 0.0015867092740220134 0.012013019599985266 0 0.0016851015225334749 0.012381850173110503 0 0.0016553862426203201 0.012130878378619685 0 0.0018157687221307267 0.012086839484366023 0 0.0016851015225334749 0.012381850173110503 0 0.0018811653723507292 0.012440184830172778 0 0.0018157687221307267 0.012086839484366023 0 0.0016553862426203201 0.012130878378619685 0 0.0018157687221307267 0.012086839484366023 0 0.0016186412330932449 0.01198835208862291 0 0.0015031257679783954 0.012507479585049474 0 0.0015961982489089497 0.012211172701117549 0 0.0012598558076555102 0.012574929356353938 0 0.0013644543543344738 0.01265578053570921 0 0.0014738580640254852 0.012630720629985614 0 0.0012598558076555102 0.012574929356353938 0 0.0012655786883485722 0.012644277028503783 0 0.0013644543543344738 0.01265578053570921 0 0.0012655786883485722 0.012644277028503783 0 0.0013270759589229762 0.012678128442604663 0 0.0013644543543344738 0.01265578053570921 0 0.0016045299670422951 0.012160748963024834 0 0.0015908247682068089 0.012172202479684046 0 0.0013278174276967751 0.012677627908645685 0 0.0013644543543344738 0.01265578053570921 0 0.0014738580640254852 0.012630720629985614 0 0.0016045299670422951 0.012160748963024834 0 0.0015961982489089497 0.012211172701117549 0 0.0016553862426203201 0.012130878378619685 0 0.0016186412330932449 0.01198835208862291 0 0.0015867092740220134 0.012013019599985266 0 0.0018877662369659858 0.011411951363631377 0 0.0019285343543155352 0.011426004943017909 0 0.0018281198582503801 0.01126338263298478 0 0.0015985672306966284 0.012208810178875935 0 0.0015961982489089497 0.012211172701117549 0 0.0022233468427883141 0.011325600315168877 0 0.0019285343543155352 0.011426004943017909 0 0.0020224817157728971 0.011171574561239067 0 0.0019285343543155352 0.011426004943017909 0 0.0018281198582503801 0.01126338263298478 0 0.0020224817157728971 0.011171574561239067 0 0.0018281198582503801 0.01126338263298478 0 0.0020224817157728971 0.011171574561239067 0 0.0018250785946113894 0.011061585220008559 0 0.0020224817157728971 0.011171574561239067 0 0.0018250785946113894 0.011061585220008559 0 0.0021186680294193417 0.01086524328563796 0 0.0025569678527480461 0.011116210290295634 0 0.0022233468427883141 0.011325600315168877 0 0.0023077916364555788 0.011069140798863003 0 0.0022233468427883141 0.011325600315168877 0 0.0020224817157728971 0.011171574561239067 0 0.0023077916364555788 0.011069140798863003 0 0.0020224817157728971 0.011171574561239067 0 0.0023077916364555788 0.011069140798863003 0 0.0021186680294193417 0.01086524328563796 0 0.0025037601050866007 0.01090967295251655 0 0.0023077916364555788 0.011069140798863003 0 0.0021186680294193417 0.01086524328563796 0 0.0010074527583487903 0.010873170687138577 0 0.00084818671150096059 0.010715099201182731 0 0.0011618594834845973 0.010725658762766176 0 0.0015228391730438438 0.011535092301546694 0 0.0015704148409562055 0.011280395817480455 0 0.0018250785946113894 0.011061585220008559 0 0.0021186680294193417 0.01086524328563796 0 0.0015738575959499271 0.010826775720320571 0 0.0012561577696058651 0.010959992918990255 0 0.0011618594834845973 0.010725658762766176 0 0.0015738575959499271 0.010826775720320571 0 0.0015704148409562055 0.011280395817480455 0 0.001562217029850776 0.011205671263468549 0 0.0015738575959499271 0.010826775720320571 0 0.0015441897769734811 0.010946539880149909 0 0.0015504574148496838 0.010796574435247454 0 0.0015738575959499271 0.010826775720320571 0 0.0015441897769734811 0.010946539880149909 0 0.0016523850527582372 0.011117037748020555 0 0.0015441897769734811 0.010946539880149909 0 0.0014728015355357877 0.01093774540722634 0 0.0015504574148496838 0.010796574435247454 0 0.0015441897769734811 0.010946539880149909 0 0.0014786691891485121 0.011322476538861393 0 0.0014728015355357877 0.01093774540722634 0 0.0015441897769734811 0.010946539880149909 0 0.0014786691891485121 0.011322476538861393 0 0.0016523850527582372 0.011117037748020555 0 0.0018250785946113894 0.011061585220008559 0 0.0015738575959499271 0.010826775720320571 0 0.0016523850527582372 0.011117037748020555 0 0.0018281198582503801 0.01126338263298478 0 0.0018250785946113894 0.011061585220008559 0 0.0016523850527582372 0.011117037748020555 0 0.0014786691891485121 0.011322476538861393 0 0.0016523850527582372 0.011117037748020555 0 0.0016750161230591164 0.011357632884330638 0 0.0018281198582503801 0.01126338263298478 0 0.0016523850527582372 0.011117037748020555 0 0.0016750161230591164 0.011357632884330638 0 0.0018877662369659858 0.011411951363631377 0 0.0018281198582503801 0.01126338263298478 0 0.0016750161230591164 0.011357632884330638 0 0.0018877662369659858 0.011411951363631377 0 0.0016750161230591164 0.011357632884330638 0 0.0014874502329555446 0.011753571680973719 0 0.0015961982489089497 0.012211172701117549 0 0.0015794303395802991 0.012099290396141814 0 0.0016186412330932449 0.01198835208862291 0 0.0014874502329555446 0.011753571680973719 0 0.0015867092740220134 0.012013019599985266 0 0.0018877662369659858 0.011411951363631377 0 0.0019386781995454189 0.01141189036049013 0 0.0014874502329555446 0.011753571680973719 0 0.0014786691891485121 0.011322476538861393 0 0.0014874502329555446 0.011753571680973719 0 0.0012904370870757138 0.011799401301478177 0 0.0014786691891485121 0.011322476538861393 0 0.0016750161230591164 0.011357632884330638 0 0.0014874502329555446 0.011753571680973719 0 0.0014089263798890571 0.012197860652570941 0 0.0014874502329555446 0.011753571680973719 0 0.0012904370870757138 0.011799401301478177 0 0.0012084388645407294 0.012068264532928492 0 0.0014089263798890571 0.012197860652570941 0 0.0012904370870757138 0.011799401301478177 0 0.0014874502329555446 0.011753571680973719 0 0.001574670900585625 0.012197026421028961 0 0.0015867092740220134 0.012013019599985266 0 0.0014089263798890571 0.012197860652570941 0 0.0014874502329555446 0.011753571680973719 0 0.001574670900585625 0.012197026421028961 0 0.00088748964546745378 0.011877962777239761 0 0.0011092628977895571 0.011890856438448935 0 0.0011316706046191015 0.011528458017930555 0 0.0010229922098470331 0.012174857916021102 0 0.00088748964546745378 0.011877962777239761 0 0.0011092628977895571 0.011890856438448935 0 0.0011092628977895571 0.011890856438448935 0 0.0012904370870757138 0.011799401301478177 0 0.0011316706046191015 0.011528458017930555 0 0.0012084388645407294 0.012068264532928492 0 0.0011092628977895571 0.011890856438448935 0 0.0012904370870757138 0.011799401301478177 0 0.0014786691891485121 0.011322476538861393 0 0.0012904370870757138 0.011799401301478177 0 0.0011316706046191015 0.011528458017930555 0 0.00088748964546745378 0.011877962777239761 0 0.0011316706046191015 0.011528458017930555 0 0.00080517546890229263 0.011420213681279037 0 0.0011316706046191015 0.011528458017930555 0 0.0011421932793951352 0.01092975752516945 0 0.00080517546890229263 0.011420213681279037 0 0.0011316706046191015 0.011528458017930555 0 0.0014728015355357877 0.01093774540722634 0 0.0011421932793951352 0.01092975752516945 0 0.0014786691891485121 0.011322476538861393 0 0.0011316706046191015 0.011528458017930555 0 0.0014728015355357877 0.01093774540722634 0 0.0014728015355357877 0.01093774540722634 0 0.0011421932793951352 0.01092975752516945 0 0.0016757077452268585 0.010527574153153764 0 0.0011421932793951352 0.01092975752516945 0 0.0016757077452268585 0.010527574153153764 0 0.0009753554475106606 0.010172193704198406 0 0.0016862447355657673 0.0093515890856379919 0 0.0009753554475106606 0.010172193704198406 0 0.0010122787477752798 0.0092202723375647867 0 0.0016757077452268585 0.010527574153153764 0 0.0016862447355657673 0.0093515890856379919 0 0.0009753554475106606 0.010172193704198406 0 0.0016757077452268585 0.010527574153153764 0 0.0015364188399660864 0.011179995128646194 0 0.0021024897249423522 0.011241721606558923 0 0.0017851520188503897 0.010449947584262686 0 0.0017878761186512272 0.010382812381092421 0 0.0014728015355357877 0.01093774540722634 0 0.0016757077452268585 0.010527574153153764 0 0.0015504574148496838 0.010796574435247454 0 0.0012561577696058651 0.010959992918990255 0 0.0015738575959499271 0.010826775720320571 0 0.0015504574148496838 0.010796574435247454 0 0.0012561577696058651 0.010959992918990255 0 0.0015504574148496838 0.010796574435247454 0 0.0013194589645134666 0.011103638330911469 0 0.0015504574148496838 0.010796574435247454 0 0.0013194589645134666 0.011103638330911469 0 0.0015364188399660864 0.011179995128646194 0 0.0016757077452268585 0.010527574153153764 0 0.0015504574148496838 0.010796574435247454 0 0.0015364188399660864 0.011179995128646194 0 0.0015364188399660864 0.011179995128646194 0 0.0012316907113748654 0.011364889570643891 0 0.0012649041305593655 0.011679721976124411 0 0.0013194589645134666 0.011103638330911469 0 0.0015364188399660864 0.011179995128646194 0 0.0012316907113748654 0.011364889570643891 0 0.0010981439766483538 0.011530998104039519 0 0.0012316907113748654 0.011364889570643891 0 0.0012649041305593655 0.011679721976124411 0 0.0012649041305593655 0.011679721976124411 0 0.0017516092295368853 0.011950240257961767 0 0.0012887849162427148 0.012342968717516771 0 0.0015364188399660864 0.011179995128646194 0 0.0012649041305593655 0.011679721976124411 0 0.0017516092295368853 0.011950240257961767 0 0.0017516092295368853 0.011950240257961767 0 0.0023586604081074127 0.012033312876264227 0 0.0021024897249423522 0.011241721606558923 0 0.001739229252931309 0.010329923981080768 0 0.0017878761186512272 0.010382812381092421 0 0.0015432445413608657 0.0084703224549273343 0 0.0016862447355657673 0.0093515890856379919 0 0.0010122787477752798 0.0092202723375647867 0 0.0015364188399660864 0.011179995128646194 0 0.0017516092295368853 0.011950240257961767 0 0.0021024897249423522 0.011241721606558923 0 0.001942021732199876 0.012968160082762855 0 0.0024801307014166458 0.012920848466658381 0 0.0019982225381536124 0.012482660217602838 0 0.001942021732199876 0.012968160082762855 0 0.0019982225381536124 0.012482660217602838 0 0.0015892897124199308 0.012655000789352654 0 0.001739229252931309 0.010329923981080768 0 0.0015671921353029251 0.010305058364556042 0 0.0023586604081074127 0.012033312876264227 0 0.0024801307014166458 0.012920848466658381 0 0.0019982225381536124 0.012482660217602838 0 0.0015432445413608657 0.0084703224549273343 0 0.0013808165733316987 0.0077142248761524765 0 0.000879945651890771 0.007934169875920315 0 0.0017516092295368853 0.011950240257961767 0 0.0023586604081074127 0.012033312876264227 0 0.0019982225381536124 0.012482660217602838 0 0.0017516092295368853 0.011950240257961767 0 0.0019982225381536124 0.012482660217602838 0 0.0015892897124199308 0.012655000789352654 0 0.0017516092295368853 0.011950240257961767 0 0.0012887849162427148 0.012342968717516771 0 0.0015892897124199308 0.012655000789352654 0 0.0012887849162427148 0.012342968717516771 0 0.00098600286992146834 0.013063187221554626 0 0.00076337600092170289 0.012372155343573093 0 0.0012649041305593655 0.011679721976124411 0 0.0012887849162427148 0.012342968717516771 0 0.00076337600092170289 0.012372155343573093 0 0.0012887849162427148 0.012342968717516771 0 0.00098600286992146834 0.013063187221554626 0 0.0015892897124199308 0.012655000789352654 0 0.00098600286992146834 0.013063187221554626 0 0.0015892897124199308 0.012655000789352654 0 0.0014770509855192924 0.013196908729103944 0 0.001942021732199876 0.012968160082762855 0 0.0015892897124199308 0.012655000789352654 0 0.0014770509855192924 0.013196908729103944 0 0.0014770509855192924 0.013196908729103944 0 0.0012129391510917128 0.013658248543853653 0 0.0020410026505128542 0.013428462234252642 0 0.0012328445514692488 0.013553640439837587 0 0.0015673215926395123 0.013511283167227146 0 0.0012129391510917128 0.013658248543853653 0 0.00080165682150315639 0.013471017647173822 0 0.00038141504438387631 0.013790554224129033 0 0.00098600286992146834 0.013063187221554626 0 0.0011032607085504846 0.013358774035343154 0 0.00080165682150315639 0.013471017647173822 0 0.0014770509855192924 0.013196908729103944 0 0.0011032607085504846 0.013358774035343154 0 0.0012129391510917128 0.013658248543853653 0 0.00098600286992146834 0.013063187221554626 0 0.0014770509855192924 0.013196908729103944 0 0.0011032607085504846 0.013358774035343154 0 0.0011032607085504846 0.013358774035343154 0 0.0012129391510917128 0.013658248543853653 0 0.00080165682150315639 0.013471017647173822 0 0.0012328445514692488 0.013553640439837587 0 0.00062437276234956552 0.013615769350922093 0 0.0014566554304888829 0.013484267039120784 0 0.0014228882213056392 0.013667807327253567 0 0.0011796279929381702 0.013689985885122203 0 0.00063785097366015535 0.012116192659049098 0 0.00074957352942934261 0.011679566189118676 0 0.0014228882213056392 0.013667807327253567 0 0.0012407208034999969 0.013907368792060037 0 0.0011796279929381702 0.013689985885122203 0 0.0014566554304888829 0.013484267039120784 0 0.001774543668194985 0.013643771144829306 0 0.0020410026505128542 0.013428462234252642 0 0.0014228882213056392 0.013667807327253567 0 0.001774543668194985 0.013643771144829306 0 0.0018878741144302943 0.014102956402188872 0 0.0014566554304888829 0.013484267039120784 0 0.0014228882213056392 0.013667807327253567 0 0.001774543668194985 0.013643771144829306 0 0.002152107642431332 0.013808996571527029 0 0.0020410026505128542 0.013428462234252642 0 0.0024984365242619404 0.013634543394043422 0 0.001774543668194985 0.013643771144829306 0 0.002152107642431332 0.013808996571527029 0 0.0018878741144302943 0.014102956402188872 0 0.001774543668194985 0.013643771144829306 0 0.002152107642431332 0.013808996571527029 0 0.0020410026505128542 0.013428462234252642 0 0.001942021732199876 0.012968160082762855 0 0.0014770509855192924 0.013196908729103944 0 0.0020410026505128542 0.013428462234252642 0 0.001942021732199876 0.012968160082762855 0 0.0024801307014166458 0.012920848466658381 0 0.0020410026505128542 0.013428462234252642 0 0.0015671921353029251 0.010305058364556042 0 0.0011602238203225047 0.01011135473459744 0 0.0024801307014166458 0.012920848466658381 0 0.0020410026505128542 0.013428462234252642 0 0.0024984365242619404 0.013634543394043422 0 0.0013808165733316987 0.0077142248761524765 0 0.0011168028914402448 0.006894957995521536 0 0.00099037064707952101 0.0073502773441752279 0 0.0011602238203225047 0.01011135473459744 0 0.00025683191066191194 0.0090344437303260354 0 0.0011168028914402448 0.006894957995521536 0 0.00076987344888531913 0.006129067765960363 0 0.00074475620568842447 0.0064375516513781195 0 0.002152107642431332 0.013808996571527029 0 0.0024984365242619404 0.013634543394043422 0 0.0025512788883132109 0.014222557487093647 0 0.0008508865796715199 0.010566055101481788 0 0.00025683191066191194 0.0090344437303260354 0 0.002152107642431332 0.013808996571527029 0 0.0018878741144302943 0.014102956402188872 0 0.0025512788883132109 0.014222557487093647 0 0.00011576775980219347 0.007827687897908716 0 9.0814167103652586e-05 0.0077490603110712828 0 9.2233419366925663e-05 0.0079254355006307536 0 0.00011576775980219347 0.007827687897908716 0 -1.9145814824429437e-05 0.0079328275824908107 0 9.0814167103652586e-05 0.0077490603110712828 0 -1.9145814824429437e-05 0.0079328275824908107 0 9.0814167103652586e-05 0.0077490603110712828 0 -3.6123522225059047e-05 0.0072947354978300386 0 0.00025683191066191194 0.0090344437303260354 0 7.0032965718135989e-05 0.0077520379458161821 0 9.0814167103652586e-05 0.0077490603110712828 0 5.7399592280254196e-05 0.0077005130516642518 0 -3.6123522225059047e-05 0.0072947354978300386 0 9.0814167103652586e-05 0.0077490603110712828 0 5.7399592280254196e-05 0.0077005130516642518 0 9.2233419366925663e-05 0.0079254355006307536 0 5.7399592280254196e-05 0.0077005130516642518 0 9.2233419366925663e-05 0.0079254355006307536 0 5.7209079118933858e-05 0.0080847865735184429 0 5.7209079118933858e-05 0.0080847865735184429 0 1.804602089328871e-08 0.0077364820352773022 0 5.6668879202733432e-08 0.0086348260745593101 0 5.7399592280254196e-05 0.0077005130516642518 0 1.804602089328871e-08 0.0077364820352773022 0 -3.6123522225059047e-05 0.0072947354978300386 0 5.7399592280254196e-05 0.0077005130516642518 0 5.7209079118933858e-05 0.0080847865735184429 0 1.804602089328871e-08 0.0077364820352773022 0 -4.965650940758873e-05 0.0090794010564732904 0 5.6668879202733432e-08 0.0086348260745593101 0 -2.1458693403747235e-07 0.0095341995785396278 0 -0.00026249210744107955 0.0085108751986920656 0 -4.965650940758873e-05 0.0090794010564732904 0 4.7920406219563983e-06 0.0083960496690477903 0 -0.00026249210744107955 0.0085108751986920656 0 -4.965650940758873e-05 0.0090794010564732904 0 -0.00063472362503587767 0.0086468158805431891 0 5.7209079118933858e-05 0.0080847865735184429 0 5.6668879202733432e-08 0.0086348260745593101 0 4.7920406219563983e-06 0.0083960496690477903 0 -4.965650940758873e-05 0.0090794010564732904 0 5.6668879202733432e-08 0.0086348260745593101 0 4.7920406219563983e-06 0.0083960496690477903 0 9.2233419366925663e-05 0.0079254355006307536 0 5.7209079118933858e-05 0.0080847865735184429 0 4.7920406219563983e-06 0.0083960496690477903 0 9.2233419366925663e-05 0.0079254355006307536 0 4.7920406219563983e-06 0.0083960496690477903 0 4.7392703087873891e-06 0.0080035085461542931 0 4.7920406219563983e-06 0.0083960496690477903 0 -0.00022236761634117656 0.0081606640890105487 0 4.7392703087873891e-06 0.0080035085461542931 0 -0.00026249210744107955 0.0085108751986920656 0 4.7920406219563983e-06 0.0083960496690477903 0 -0.00022236761634117656 0.0081606640890105487 0 -0.00026249210744107955 0.0085108751986920656 0 -0.00022236761634117656 0.0081606640890105487 0 -0.00054655508857532394 0.0082915060703765888 0 -0.00022236761634117656 0.0081606640890105487 0 -0.00016085406477986966 0.0079069617793395639 0 -0.00060817027007320078 0.0079552827649087051 0 -0.00016085406477986966 0.0079069617793395639 0 -0.00030170613977357287 0.0076464829178655323 0 -0.00060817027007320078 0.0079552827649087051 0 -0.00022236761634117656 0.0081606640890105487 0 -0.00016085406477986966 0.0079069617793395639 0 4.7392703087873891e-06 0.0080035085461542931 0 0.00011576775980219347 0.007827687897908716 0 -0.00016085406477986966 0.0079069617793395639 0 4.7392703087873891e-06 0.0080035085461542931 0 0.00011576775980219347 0.007827687897908716 0 9.2233419366925663e-05 0.0079254355006307536 0 4.7392703087873891e-06 0.0080035085461542931 0 0.0008508865796715199 0.010566055101481788 0 0.00074957352942934261 0.011679566189118676 0 0.0014228882213056392 0.013667807327253567 0 0.0018878741144302943 0.014102956402188872 0 0.0012168015482653118 0.01396708688772757 0 0.00011576775980219347 0.007827687897908716 0 -0.00016085406477986966 0.0079069617793395639 0 -0.00030170613977357287 0.0076464829178655323 0 0.00074957352942934261 0.011679566189118676 0 0.00046139132526072115 0.010602719328948351 0 0.00042507124796283398 0.011676994500038035 0 0.00050056695015480122 0.011691959671537619 0 0.00047480882729048157 0.011600713029934673 0 0.00074957352942934261 0.011679566189118676 0 0.00077336382648123415 0.012170232155327018 0 0.0012407208034999969 0.013907368792060037 0 0.00086243074024905733 0.013820077900179025 0 0.0011796279929381702 0.013689985885122203 0 0.00050056695015480122 0.011691959671537619 0 0.00052598264746601432 0.011640853784107556 0 0.00057754843932331828 0.011707825724613491 0 0.00050056695015480122 0.011691959671537619 0 0.00052598264746601432 0.011640853784107556 0 0.00047480882729048157 0.011600713029934673 0 0.00052598264746601432 0.011640853784107556 0 0.00053334630786394113 0.011588325856177762 0 0.00057541647666746313 0.011628890732605771 0 0.00052598264746601432 0.011640853784107556 0 0.00053334630786394113 0.011588325856177762 0 0.00047480882729048157 0.011600713029934673 0 -0.00054655508857532394 0.0082915060703765888 0 -0.00098944365007016199 0.008415445624988022 0 -0.00063472362503587767 0.0086468158805431891 0 -0.00060817027007320078 0.0079552827649087051 0 -0.00054655508857532394 0.0082915060703765888 0 -0.00098944365007016199 0.008415445624988022 0 -0.00022236761634117656 0.0081606640890105487 0 -0.00060817027007320078 0.0079552827649087051 0 -0.00054655508857532394 0.0082915060703765888 0 -0.00026249210744107955 0.0085108751986920656 0 -0.00054655508857532394 0.0082915060703765888 0 -0.00063472362503587767 0.0086468158805431891 0 0.00046139132526072115 0.010602719328948351 0 3.7542523684550681e-05 0.010468749626981876 0 0.00053334630786394113 0.011588325856177762 0 0.00052438550655636894 0.011523795619784243 0 0.00057293656689350774 0.011549955211140968 0 0.00053334630786394113 0.011588325856177762 0 0.00047480882729048157 0.011600713029934673 0 0.00052438550655636894 0.011523795619784243 0 3.7542523684550681e-05 0.010468749626981876 0 0.00016077241134995347 0.011394210888211865 0 3.7542523684550681e-05 0.010468749626981876 0 -0.00020294696442268913 0.010037685351459921 0 3.7542523684550681e-05 0.010468749626981876 0 9.5603093485788151e-06 0.01048003176159714 0 -2.1458693403747235e-07 0.0095341995785396278 0 2.5375783974707594e-05 0.0097279853984655711 0 -1.1941897129408392e-06 0.010378167541467557 0 -2.1458693403747235e-07 0.0095341995785396278 0 -1.1941897129408392e-06 0.010378167541467557 0 2.9995020581548507e-08 0.010431631984781123 0 -2.0558398647576045e-05 0.0098928498130179121 0 2.5375783974707594e-05 0.0097279853984655711 0 -1.1941897129408392e-06 0.010378167541467557 0 -0.00020112979159515355 0.0099346146147177676 0 -0.00020294696442268913 0.010037685351459921 0 -4.965650940758873e-05 0.0090794010564732904 0 -2.1458693403747235e-07 0.0095341995785396278 0 2.5375783974707594e-05 0.0097279853984655711 0 3.6082410571624464e-07 0.011152583594875119 0 3.7978805172896491e-05 0.011035084102139823 0 -6.0503445728363542e-07 0.010433846396236566 0 3.6082410571624464e-07 0.011152583594875119 0 3.7978805172896491e-05 0.011035084102139823 0 9.1535326545178549e-05 0.011329318090710324 0 -6.4578779463119569e-05 0.010625654005506835 0 -0.00012818041408499528 0.010718181835482388 0 -0.00012959219608187875 0.010592161679047614 0 3.7978805172896491e-05 0.011035084102139823 0 -4.0913132678159074e-05 0.010517083447133178 0 -0.00018484165973010338 0.011253118663956381 0 3.7978805172896491e-05 0.011035084102139823 0 -4.0913132678159074e-05 0.010517083447133178 0 -6.0503445728363542e-07 0.010433846396236566 0 9.5603093485788151e-06 0.01048003176159714 0 0.00016077241134995347 0.011394210888211865 0 9.5603093485788151e-06 0.01048003176159714 0 2.9441436237443027e-07 0.010433404751384797 0 3.7978805172896491e-05 0.011035084102139823 0 -0.00018484165973010338 0.011253118663956381 0 6.251946808907251e-05 0.011334059094956137 0 0.00016077241134995347 0.011394210888211865 0 0.00014597666018243571 0.012253507956824164 0 6.251946808907251e-05 0.011334059094956137 0 7.3204595345126929e-05 0.011312143324949427 0 9.1535326545178549e-05 0.011329318090710324 0 3.7978805172896491e-05 0.011035084102139823 0 6.251946808907251e-05 0.011334059094956137 0 9.1535326545178549e-05 0.011329318090710324 0 0.00014597666018243571 0.012253507956824164 0 -4.9217651688219109e-05 0.012975154677098227 0 0.0004900122428033426 0.013642520758395027 0 0.00048866797439616036 0.013651636153670443 0 0.00049832772005978894 0.013647846080992072 0 0.00053334630786394113 0.011588325856177762 0 0.00057293656689350774 0.011549955211140968 0 0.00057541647666746313 0.011628890732605771 0 0.00016077241134995347 0.011394210888211865 0 0.00048768123974552173 0.012237539574798621 0 0.00048063487586290707 0.01363313528243624 0 0.0004900122428033426 0.013642520758395027 0 0.00048441761476952642 0.013651001070514208 0 0.0004900122428033426 0.013642520758395027 0 0.00048866797439616036 0.013651636153670443 0 0.00048441761476952642 0.013651001070514208 0 0.00052598264746601432 0.011640853784107556 0 0.00057541647666746313 0.011628890732605771 0 0.00057754843932331828 0.011707825724613491 0 0.00048441761476952642 0.013651001070514208 0 0.00049103699539129622 0.013655149306673295 0 0.00049940927494959361 0.013652586229704236 0 0.00048768123974552173 0.012237539574798621 0 0.00079235342591603398 0.012460393246905434 0 0.00048866797439616036 0.013651636153670443 0 0.00048441761476952642 0.013651001070514208 0 0.00049103699539129622 0.013655149306673295 0 0.00049103699539129622 0.013655149306673295 0 0.00048607674246997233 0.013660214004522411 0 0.00050000310526152395 0.013652104116471914 0 0.00049103699539129622 0.013655149306673295 0 0.00049940927494959361 0.013652586229704236 0 0.00050000310526152395 0.013652104116471914 0 0.00048866797439616036 0.013651636153670443 0 0.00048607674246997233 0.013660214004522411 0 0.00049832772005978894 0.013647846080992072 0 -0.0001958060755750672 0.0134932844125004 0 -4.9217651688219109e-05 0.012975154677098227 0 0.00048866797439616036 0.013651636153670443 0 0.00049103699539129622 0.013655149306673295 0 0.00048607674246997233 0.013660214004522411 0 -0.00087096039300138073 0.014064623388161814 0 -0.00080041006560092301 0.014080146694957526 0 -0.00077054796080876188 0.013992861015882886 0 -0.0008742061601100811 0.01394837944678603 0 -0.00087096039300138073 0.014064623388161814 0 -0.00077054796080876188 0.013992861015882886 0 -0.0008742061601100811 0.01394837944678603 0 -0.00087096039300138073 0.014064623388161814 0 -0.00097711652405505487 0.014077522101628583 0 -0.00087096039300138073 0.014064623388161814 0 -0.0008777222633474614 0.014034688311574539 0 -0.00080041006560092301 0.014080146694957526 0 -0.0008777222633474614 0.014034688311574539 0 -0.00079696644983033344 0.014115840984325712 0 -0.00080041006560092301 0.014080146694957526 0 -0.0008777222633474614 0.014034688311574539 0 -0.00079696644983033344 0.014115840984325712 0 -0.00084780991603381427 0.014061419321483894 0 -0.00090964702226496946 0.013840008790652666 0 -0.00076887914184092386 0.014025105180544763 0 -0.0003509927344503122 0.014008648959536251 0 -0.0008777222633474614 0.014034688311574539 0 -0.00090964702226496946 0.013840008790652666 0 -0.00084780991603381427 0.014061419321483894 0 -0.0008777222633474614 0.014034688311574539 0 -0.00090964702226496946 0.013840008790652666 0 -0.00076887914184092386 0.014025105180544763 0 -0.0008777222633474614 0.014034688311574539 0 -0.00076887914184092386 0.014025105180544763 0 -0.00080221762649215289 0.01417571365351636 0 -0.00012905593526646675 0.01366324446214591 0 -8.6158582829301257e-05 0.013619496271838262 0 -0.00076887914184092386 0.014025105180544763 0 -0.00080221762649215289 0.01417571365351636 0 -0.0003509927344503122 0.014008648959536251 0 -0.00087096039300138073 0.014064623388161814 0 -0.0008777222633474614 0.014034688311574539 0 -0.00080221762649215289 0.01417571365351636 0 -0.00030587283340640276 0.01370778028730359 0 -0.00012905593526646675 0.01366324446214591 0 0.00048607674246997233 0.013660214004522411 0 0.00048996111308712562 0.013617001743811712 0 0.00050000310526152395 0.013652104116471914 0 -0.0001958060755750672 0.0134932844125004 0 -0.00012905593526646675 0.01366324446214591 0 0.00079079782626682567 0.012493418770652019 0 0.00079235342591603398 0.012460393246905434 0 0.00048996111308712562 0.013617001743811712 0 0.00051472730399387682 0.013658095431846118 0 0.00050000310526152395 0.013652104116471914 0 0.00051472730399387682 0.013658095431846118 0 0.00050339151085863627 0.013653347657169744 0 0.00050000310526152395 0.013652104116471914 0 0.00079235342591603398 0.012460393246905434 0 0.00079134714646856826 0.012462767234459601 0 -0.00012905593526646675 0.01366324446214591 0 0.00062437276234956552 0.013615769350922093 0 0.00077336382648123415 0.012170232155327018 0 0.00079235342591603398 0.012460393246905434 0 0.00086243074024905733 0.013820077900179025 0 0.00051472730399387682 0.013658095431846118 0 0.00051550925971898247 0.013735537100646983 0 0.00048996111308712562 0.013617001743811712 0 0.00051472730399387682 0.013658095431846118 0 0.00093602238403649532 0.013547781615059748 0 0.00086243074024905733 0.013820077900179025 0 0.00051472730399387682 0.013658095431846118 0 0.00093602238403649532 0.013547781615059748 0 0.00086243074024905733 0.013820077900179025 0 0.0011796279929381702 0.013689985885122203 0 0.00093602238403649532 0.013547781615059748 0 0.0014566554304888829 0.013484267039120784 0 0.0011796279929381702 0.013689985885122203 0 0.00093602238403649532 0.013547781615059748 0 0.00098600286992146834 0.013063187221554626 0 0.00080165682150315639 0.013471017647173822 0 0.00042060807982439351 0.013419803055812189 0 0.00080165682150315639 0.013471017647173822 0 0.00038141504438387631 0.013790554224129033 0 0.00042060807982439351 0.013419803055812189 0 -0.00032932130405382047 0.013868267274788964 0 0.00038141504438387631 0.013790554224129033 0 2.9279438155730978e-05 0.013479628741946512 0 0.00038141504438387631 0.013790554224129033 0 0.00042060807982439351 0.013419803055812189 0 2.9279438155730978e-05 0.013479628741946512 0 0.00042060807982439351 0.013419803055812189 0 2.9279438155730978e-05 0.013479628741946512 0 0.00035649625496487217 0.013125222557180315 0 -8.6158582829301257e-05 0.013619496271838262 0 1.7729438358714839e-05 0.013507420077908346 0 -0.00090964702226496946 0.013840008790652666 0 -0.0003509927344503122 0.014008648959536251 0 -0.00042789181782811172 0.012870301458013223 0 -0.0003509927344503122 0.014008648959536251 0 -0.00042789181782811172 0.012870301458013223 0 0.00035649625496487217 0.013125222557180315 0 0.00098600286992146834 0.013063187221554626 0 0.00042060807982439351 0.013419803055812189 0 0.00035649625496487217 0.013125222557180315 0 0.00098600286992146834 0.013063187221554626 0 0.00035649625496487217 0.013125222557180315 0 0.00076337600092170289 0.012372155343573093 0 0.00037246876816064987 0.011657771410125028 0 0.00076337600092170289 0.012372155343573093 0 0.00017631112829261228 0.012360368510268956 0 0.00035649625496487217 0.013125222557180315 0 0.00076337600092170289 0.012372155343573093 0 0.00017631112829261228 0.012360368510268956 0 -0.00042789181782811172 0.012870301458013223 0 0.00035649625496487217 0.013125222557180315 0 0.00017631112829261228 0.012360368510268956 0 -0.00062011503089505157 0.011600536300354219 0 -0.00042789181782811172 0.012870301458013223 0 0.00017631112829261228 0.012360368510268956 0 -0.00062011503089505157 0.011600536300354219 0 -0.00042789181782811172 0.012870301458013223 0 -0.0013371482278804294 0.012605737792634332 0 4.0959639381131318e-05 0.012910177146281563 0 -0.00034871849110142215 0.013221723271463325 0 -0.00093582358437692111 0.014331465922952541 0 -0.0007544065031035187 0.014267174091484402 0 -0.00075142398612265628 0.014450025406175331 0 -0.00085060441058266371 0.014587015679352406 0 -0.00093582358437692111 0.014331465922952541 0 -0.00075142398612265628 0.014450025406175331 0 -0.00079696644983033344 0.014115840984325712 0 -0.0007544065031035187 0.014267174091484402 0 -0.00084780991603381427 0.014061419321483894 0 -0.00093582358437692111 0.014331465922952541 0 -0.0007544065031035187 0.014267174091484402 0 -0.00084780991603381427 0.014061419321483894 0 -0.00090964702226496946 0.013840008790652666 0 -0.00042789181782811172 0.012870301458013223 0 -0.0013371482278804294 0.012605737792634332 0 -0.00042023899766202761 0.013415953548568478 0 -0.00034871849110142215 0.013221723271463325 0 -0.00090964702226496946 0.013840008790652666 0 -0.00093582358437692111 0.014331465922952541 0 -0.00084780991603381427 0.014061419321483894 0 -0.00050504211050440275 0.014412726166224767 0 -0.00064232696864939033 0.014284184247471189 0 -0.00049904447749050355 0.014283614195312679 0 -0.00079696644983033344 0.014115840984325712 0 -0.0007544065031035187 0.014267174091484402 0 -0.00064232696864939033 0.014284184247471189 0 -0.0007544065031035187 0.014267174091484402 0 -0.00064232696864939033 0.014284184247471189 0 -0.00060926189315970087 0.014452219322041894 0 -0.0007544065031035187 0.014267174091484402 0 -0.00075142398612265628 0.014450025406175331 0 -0.00060926189315970087 0.014452219322041894 0 -0.00050504211050440275 0.014412726166224767 0 -0.00064232696864939033 0.014284184247471189 0 -0.00060926189315970087 0.014452219322041894 0 -0.00050504211050440275 0.014412726166224767 0 -0.00060926189315970087 0.014452219322041894 0 -0.00044287345433295183 0.014524399244573525 0 -0.00050504211050440275 0.014412726166224767 0 -0.00044287345433295183 0.014524399244573525 0 -0.00035884915815459874 0.014504499602065655 0 -0.00028164705700367353 0.014882165291878425 0 -0.00035884915815459874 0.014504499602065655 0 -0.00012947022858611766 0.014773315087654403 0 -0.00036936119137114117 0.014581061752063251 0 -0.00044287345433295183 0.014524399244573525 0 -0.00035884915815459874 0.014504499602065655 0 -0.00017412592830637908 0.014666631046292924 0 -0.00022800083550925701 0.014590335043997305 0 -0.00035884915815459874 0.014504499602065655 0 -0.00032964329321803683 0.014349392070746451 0 -0.00019391455391836563 0.014503166345366671 0 -0.00035884915815459874 0.014504499602065655 0 -0.00019391455391836563 0.014503166345366671 0 -0.00012947022858611766 0.014773315087654403 0 -0.00035884915815459874 0.014504499602065655 0 -0.00049904447749050355 0.014283614195312679 0 -0.00032964329321803683 0.014349392070746451 0 -0.00050504211050440275 0.014412726166224767 0 -0.00035884915815459874 0.014504499602065655 0 -0.00049904447749050355 0.014283614195312679 0 -0.00049904447749050355 0.014283614195312679 0 -0.00032964329321803683 0.014349392070746451 0 -0.00035573423382985941 0.014175473784354001 0 -0.00032964329321803683 0.014349392070746451 0 -0.00020707213414525701 0.014270080902255721 0 -0.00035573423382985941 0.014175473784354001 0 -0.00032964329321803683 0.014349392070746451 0 -0.00020707213414525701 0.014270080902255721 0 -0.00019391455391836563 0.014503166345366671 0 -0.00018164460697968769 0.014110013239927333 0 -0.00035573423382985941 0.014175473784354001 0 -0.0002805063219430411 0.013960537575833923 0 -0.00020707213414525701 0.014270080902255721 0 -0.00018164460697968769 0.014110013239927333 0 -0.00035573423382985941 0.014175473784354001 0 -0.00020707213414525701 0.014270080902255721 0 -0.00018164460697968769 0.014110013239927333 0 -0.00011640267830778283 0.014191776796483707 0 -0.00049904447749050355 0.014283614195312679 0 -0.00035573423382985941 0.014175473784354001 0 -0.00054990251628151375 0.014047702654158561 0 -0.00035573423382985941 0.014175473784354001 0 -0.00054990251628151375 0.014047702654158561 0 -0.0002805063219430411 0.013960537575833923 0 -0.00054990251628151375 0.014047702654158561 0 -0.00069467732022334436 0.014126432709283774 0 -0.00077054796080876188 0.013992861015882886 0 -0.00049904447749050355 0.014283614195312679 0 -0.00054990251628151375 0.014047702654158561 0 -0.00069467732022334436 0.014126432709283774 0 -0.00064232696864939033 0.014284184247471189 0 -0.00049904447749050355 0.014283614195312679 0 -0.00069467732022334436 0.014126432709283774 0 -0.00079696644983033344 0.014115840984325712 0 -0.00064232696864939033 0.014284184247471189 0 -0.00069467732022334436 0.014126432709283774 0 -0.00079696644983033344 0.014115840984325712 0 -0.00069467732022334436 0.014126432709283774 0 -0.00080041006560092301 0.014080146694957526 0 -0.00069467732022334436 0.014126432709283774 0 -0.00080041006560092301 0.014080146694957526 0 -0.00077054796080876188 0.013992861015882886 0 -0.0008742061601100811 0.01394837944678603 0 -0.00077054796080876188 0.013992861015882886 0 -0.00078281100003195676 0.013819092676409586 0 -0.00077054796080876188 0.013992861015882886 0 -0.00066980640106907281 0.013858809278274421 0 -0.00078281100003195676 0.013819092676409586 0 -0.00054990251628151375 0.014047702654158561 0 -0.00077054796080876188 0.013992861015882886 0 -0.00066980640106907281 0.013858809278274421 0 -0.00054990251628151375 0.014047702654158561 0 -0.00066980640106907281 0.013858809278274421 0 -0.00035349750108087079 0.013685913478610846 0 -0.00066980640106907281 0.013858809278274421 0 -0.00069585140702047694 0.013208777395177514 0 -0.00035349750108087079 0.013685913478610846 0 -0.00066980640106907281 0.013858809278274421 0 -0.0010594850524943955 0.013659916514952746 0 -0.00069585140702047694 0.013208777395177514 0 -4.9217651688219109e-05 0.012975154677098227 0 -5.0118810539254343e-05 0.012600308579526986 0 -0.00020799901989879249 0.013062390835558777 0 -4.9217651688219109e-05 0.012975154677098227 0 7.3204595345126929e-05 0.011312143324949427 0 9.1535326545178549e-05 0.011329318090710324 0 -3.8978264572595581e-05 0.011486060435671028 0 -3.8978264572595581e-05 0.011486060435671028 0 1.6415165081364969e-07 0.011841590770067632 0 -4.4352774036052714e-07 0.012529228140649811 0 9.1535326545178549e-05 0.011329318090710324 0 -3.8978264572595581e-05 0.011486060435671028 0 1.6415165081364969e-07 0.011841590770067632 0 3.6082410571624464e-07 0.011152583594875119 0 9.1535326545178549e-05 0.011329318090710324 0 1.6415165081364969e-07 0.011841590770067632 0 5.1888354466095251e-05 0.013040000478361877 0 -9.1715481082732298e-07 0.012532174155058489 0 -2.3525611728830567e-05 0.013196889368008342 0 5.1888354466095251e-05 0.013040000478361877 0 -9.1715481082732298e-07 0.012532174155058489 0 6.5802073908894263e-07 0.013261973432682893 0 -9.1715481082732298e-07 0.012532174155058489 0 -0.00023163080552782489 0.013262216215018632 0 -2.3525611728830567e-05 0.013196889368008342 0 -0.00069585140702047694 0.013208777395177514 0 -9.1715481082732298e-07 0.012532174155058489 0 -0.00023163080552782489 0.013262216215018632 0 -5.0118810539254343e-05 0.012600308579526986 0 1.4684768771166078e-08 0.012530166360315714 0 -0.00069585140702047694 0.013208777395177514 0 -0.00023163080552782489 0.013262216215018632 0 -0.00035349750108087079 0.013685913478610846 0 -0.00023163080552782489 0.013262216215018632 0 -8.9932465427571841e-05 0.013412447447493344 0 -2.3525611728830567e-05 0.013196889368008342 0 5.1888354466095251e-05 0.013040000478361877 0 -2.3525611728830567e-05 0.013196889368008342 0 0.0001216559633075485 0.013152384555063779 0 -8.9932465427571841e-05 0.013412447447493344 0 -2.3525611728830567e-05 0.013196889368008342 0 0.0001216559633075485 0.013152384555063779 0 -8.9932465427571841e-05 0.013412447447493344 0 -2.5910703644913462e-05 0.013724353583933476 0 -0.00035349750108087079 0.013685913478610846 0 -8.9932465427571841e-05 0.013412447447493344 0 -2.5910703644913462e-05 0.013724353583933476 0 0.0001216559633075485 0.013152384555063779 0 -0.00023163080552782489 0.013262216215018632 0 -8.9932465427571841e-05 0.013412447447493344 0 -0.00035349750108087079 0.013685913478610846 0 -0.00054990251628151375 0.014047702654158561 0 -0.00035349750108087079 0.013685913478610846 0 -0.0002805063219430411 0.013960537575833923 0 -2.5910703644913462e-05 0.013724353583933476 0 -0.00035349750108087079 0.013685913478610846 0 -0.0002805063219430411 0.013960537575833923 0 -2.5910703644913462e-05 0.013724353583933476 0 -0.0002805063219430411 0.013960537575833923 0 -0.00010130637701436936 0.0139575881727201 0 -0.00018164460697968769 0.014110013239927333 0 -0.0002805063219430411 0.013960537575833923 0 -0.00010130637701436936 0.0139575881727201 0 -0.00010130637701436936 0.0139575881727201 0 -3.9942196789057405e-05 0.014089697259095188 0 8.5463254734941452e-05 0.013958167294356323 0 -0.00018164460697968769 0.014110013239927333 0 -0.00010130637701436936 0.0139575881727201 0 -3.9942196789057405e-05 0.014089697259095188 0 -0.00010750482271468111 0.014190186122571141 0 -6.6693939537023112e-05 0.014231132469579799 0 -8.0051726035173886e-05 0.014177673736969569 0 -3.9942196789057405e-05 0.014089697259095188 0 -9.2005965389533014e-05 0.014163226843173704 0 -8.0051726035173886e-05 0.014177673736969569 0 -9.2005965389533014e-05 0.014163226843173704 0 -0.00010750482271468111 0.014190186122571141 0 -8.0051726035173886e-05 0.014177673736969569 0 3.010916099514749e-05 0.014117951192815515 0 3.5007021327337268e-05 0.014115354832152722 0 -9.2005965389533014e-05 0.014163226843173704 0 -0.0001179324303770598 0.01419217762497442 0 -0.00010750482271468111 0.014190186122571141 0 -3.9942196789057405e-05 0.014089697259095188 0 -9.2005965389533014e-05 0.014163226843173704 0 -0.0001179324303770598 0.01419217762497442 0 -2.5910703644913462e-05 0.013724353583933476 0 -0.00010130637701436936 0.0139575881727201 0 8.5463254734941452e-05 0.013958167294356323 0 -0.00010750482271468111 0.014190186122571141 0 -2.3411273841889706e-05 0.014308973244793353 0 -3.273263731645649e-05 0.014162056476085257 0 3.5007021327337268e-05 0.014115354832152722 0 5.4116898929505006e-05 0.014305885432631546 0 -0.00010750482271468111 0.014190186122571141 0 -2.3411273841889706e-05 0.014308973244793353 0 -7.6410565414547033e-05 0.014602518181876403 0 -0.0001179324303770598 0.01419217762497442 0 -0.00010750482271468111 0.014190186122571141 0 -3.273263731645649e-05 0.014162056476085257 0 -3.6024170527790794e-05 0.014148880757477509 0 2.318461252726145e-05 0.014102353092242028 0 -5.8741765316147463e-05 0.014096140091643165 0 3.5007021327337268e-05 0.014115354832152722 0 1.6523290953890061e-05 0.013825797611525869 0 4.147614477773521e-07 0.013473378693758101 0 7.3967501800037458e-06 0.013373858990086415 0 -2.5910703644913462e-05 0.013724353583933476 0 8.5463254734941452e-05 0.013958167294356323 0 8.7101080545758219e-05 0.013536061767042876 0 8.7101080545758219e-05 0.013536061767042876 0 2.8227654702503724e-05 0.013501751791142503 0 4.7588022746305626e-07 0.013545010000536527 0 -2.5910703644913462e-05 0.013724353583933476 0 8.7101080545758219e-05 0.013536061767042876 0 2.8227654702503724e-05 0.013501751791142503 0 -5.8741765316147463e-05 0.014096140091643165 0 8.2874739824245072e-05 0.014070165034983118 0 -3.0937718799272679e-07 0.013548323768001138 0 2.318461252726145e-05 0.014102353092242028 0 -5.8741765316147463e-05 0.014096140091643165 0 8.2874739824245072e-05 0.014070165034983118 0 8.2874739824245072e-05 0.014070165034983118 0 3.0918471378718659e-07 0.014053051455604162 0 -3.0937718799272679e-07 0.013548323768001138 0 7.3967501800037458e-06 0.013373858990086415 0 4.0009082233195672e-08 0.013263776792251067 0 2.8227654702503724e-05 0.013501751791142503 0 4.7588022746305626e-07 0.013545010000536527 0 -4.4175531931747501e-07 0.013265769991624096 0 1.6523290953890061e-05 0.013825797611525869 0 4.2147164655953868e-08 0.013547382420223731 0 5.1888354466095251e-05 0.013040000478361877 0 0.0001216559633075485 0.013152384555063779 0 6.5802073908894263e-07 0.013261973432682893 0 -3.8265631268670062e-06 0.014894054332344205 0 -3.9332050453217132e-07 0.014560462259397213 0 -0.0002077539156040726 0.015237793826775797 0 -3.8265631268670062e-06 0.014894054332344205 0 8.650187536932312e-08 0.0149994124227791 0 2.2161226910467346e-07 0.01499999366767467 0 3.3160724077258424e-08 0.014559371159878785 0 3.6235121223313168e-05 0.014621693721473462 0 -3.8265631268670062e-06 0.014894054332344205 0 8.650187536932312e-08 0.0149994124227791 0 -3.9332050453217132e-07 0.014560462259397213 0 -3.074521939908165e-07 0.014558354693772946 0 5.6790108406612548e-05 0.014209685150058077 0 -2.0161635818910904e-05 0.014001897533227078 0 8.2874739824245072e-05 0.014070165034983118 0 3.0918471378718659e-07 0.014053051455604162 0 5.6790108406612548e-05 0.014209685150058077 0 3.0918471378718659e-07 0.014053051455604162 0 -3.074521939908165e-07 0.014558354693772946 0 5.6790108406612548e-05 0.014209685150058077 0 2.318461252726145e-05 0.014102353092242028 0 8.2874739824245072e-05 0.014070165034983118 0 -2.0161635818910904e-05 0.014001897533227078 0 8.2874739824245072e-05 0.014070165034983118 0 5.6790108406612548e-05 0.014209685150058077 0 -2.0161635818910904e-05 0.014001897533227078 0 2.6993432047424948e-06 0.015000941548976398 0 -7.8101044862099135e-09 0.014999992467108959 0 1.8239204229639785e-08 0.015000020050897088 0 -3.8265631268670062e-06 0.014894054332344205 0 -0.0002077539156040726 0.015237793826775797 0 2.2161226910467346e-07 0.01499999366767467 0 3.6235121223313168e-05 0.014621693721473462 0 -2.398800708419762e-07 0.014999348560161951 0 2.6993432047424948e-06 0.015000941548976398 0 1.8239204229639785e-08 0.015000020050897088 0 1.8902864586087724e-05 0.015011024011301064 0 5.4116898929505006e-05 0.014305885432631546 0 3.6235121223313168e-05 0.014621693721473462 0 3.6235121223313168e-05 0.014621693721473462 0 5.9895936462706854e-05 0.014672401107788082 0 -3.273263731645649e-05 0.014162056476085257 0 0.00018777179238532114 0.013999401623911296 0 0.00018173185307224883 0.014334942191851961 0 -2.3411273841889706e-05 0.014308973244793353 0 0.00018173185307224883 0.014334942191851961 0 -7.6410565414547033e-05 0.014602518181876403 0 -2.3411273841889706e-05 0.014308973244793353 0 -3.273263731645649e-05 0.014162056476085257 0 0.00018173185307224883 0.014334942191851961 0 1.8239204229639785e-08 0.015000020050897088 0 1.8902864586087724e-05 0.015011024011301064 0 -1.6664779573546857e-08 0.014999988581159744 0 1.8902864586087724e-05 0.015011024011301064 0 1.6730326283424447e-05 0.014971225885424879 0 4.9889608298925286e-05 0.014898688327561535 0 -1.6664779573546857e-08 0.014999988581159744 0 1.6730326283424447e-05 0.014971225885424879 0 2.2539704897967798e-05 0.014965461887686441 0 1.8902864586087724e-05 0.015011024011301064 0 -1.6664779573546857e-08 0.014999988581159744 0 1.6730326283424447e-05 0.014971225885424879 0 -1.6664779573546857e-08 0.014999988581159744 0 6.8452312559598712e-08 0.014999925123049105 0 2.2539704897967798e-05 0.014965461887686441 0 6.8452312559598712e-08 0.014999925123049105 0 2.2539704897967798e-05 0.014965461887686441 0 5.6018205743034004e-05 0.014988258978931699 0 1.6730326283424447e-05 0.014971225885424879 0 2.2539704897967798e-05 0.014965461887686441 0 4.9889608298925286e-05 0.014898688327561535 0 2.2539704897967798e-05 0.014965461887686441 0 5.6018205743034004e-05 0.014988258978931699 0 4.9889608298925286e-05 0.014898688327561535 0 1.7882466475748212e-05 0.014558105585635339 0 0.00012307178784149881 0.014613715666421785 0 2.1233232471044515e-05 0.014284942797335115 0 -1.6233253594721098e-05 0.014785332789758942 0 -6.1944595712937978e-05 0.014585361639294655 0 5.6018205743034004e-05 0.014988258978931699 0 4.9889608298925286e-05 0.014898688327561535 0 -7.6410565414547033e-05 0.014602518181876403 0 1.7882466475748212e-05 0.014558105585635339 0 0.00012307178784149881 0.014613715666421785 0 5.5383793225642121e-05 0.014677456702717894 0 5.9895936462706854e-05 0.014672401107788082 0 5.9760975610339217e-05 0.014755624316388884 0 0.00018173185307224883 0.014334942191851961 0 4.9889608298925286e-05 0.014898688327561535 0 -7.6410565414547033e-05 0.014602518181876403 0 -9.9222639429451926e-05 0.014483511749642469 0 -6.1944595712937978e-05 0.014585361639294655 0 -0.00010750482271468111 0.014190186122571141 0 -6.6693939537023112e-05 0.014231132469579799 0 2.1233232471044515e-05 0.014284942797335115 0 -6.6693939537023112e-05 0.014231132469579799 0 2.1233232471044515e-05 0.014284942797335115 0 -4.1769611955499573e-05 0.014405365854348394 0 -3.9942196789057405e-05 0.014089697259095188 0 -0.00011640267830778283 0.014191776796483707 0 -8.0051726035173886e-05 0.014177673736969569 0 -0.00018164460697968769 0.014110013239927333 0 -3.9942196789057405e-05 0.014089697259095188 0 -0.00011640267830778283 0.014191776796483707 0 -6.6693939537023112e-05 0.014231132469579799 0 -0.00011640267830778283 0.014191776796483707 0 -8.0051726035173886e-05 0.014177673736969569 0 -6.6693939537023112e-05 0.014231132469579799 0 -0.00011640267830778283 0.014191776796483707 0 -0.00011313312077053476 0.014368809548776699 0 -0.00020707213414525701 0.014270080902255721 0 -0.00011640267830778283 0.014191776796483707 0 -0.00011313312077053476 0.014368809548776699 0 -0.00011313312077053476 0.014368809548776699 0 -6.1028175835492216e-05 0.014565283893604286 0 -0.00019391455391836563 0.014503166345366671 0 -0.00020707213414525701 0.014270080902255721 0 -0.00011313312077053476 0.014368809548776699 0 -0.00019391455391836563 0.014503166345366671 0 1.7882466475748212e-05 0.014558105585635339 0 2.1233232471044515e-05 0.014284942797335115 0 -4.1769611955499573e-05 0.014405365854348394 0 -6.6693939537023112e-05 0.014231132469579799 0 -0.00011313312077053476 0.014368809548776699 0 -4.1769611955499573e-05 0.014405365854348394 0 -0.00011313312077053476 0.014368809548776699 0 -4.1769611955499573e-05 0.014405365854348394 0 -6.1028175835492216e-05 0.014565283893604286 0 1.7882466475748212e-05 0.014558105585635339 0 -4.1769611955499573e-05 0.014405365854348394 0 -6.1028175835492216e-05 0.014565283893604286 0 1.7882466475748212e-05 0.014558105585635339 0 -6.1028175835492216e-05 0.014565283893604286 0 2.231758983336248e-05 0.014742717257765782 0 -6.1028175835492216e-05 0.014565283893604286 0 -6.9156889678367734e-05 0.014700943541503798 0 2.231758983336248e-05 0.014742717257765782 0 -6.1028175835492216e-05 0.014565283893604286 0 -0.00019391455391836563 0.014503166345366671 0 -6.9156889678367734e-05 0.014700943541503798 0 -0.00019391455391836563 0.014503166345366671 0 -0.00012947022858611766 0.014773315087654403 0 -6.9156889678367734e-05 0.014700943541503798 0 -0.00012947022858611766 0.014773315087654403 0 -6.9156889678367734e-05 0.014700943541503798 0 -2.0236649171360152e-06 0.014844794591969319 0 -6.9156889678367734e-05 0.014700943541503798 0 -2.0236649171360152e-06 0.014844794591969319 0 2.231758983336248e-05 0.014742717257765782 0 -2.0236649171360152e-06 0.014844794591969319 0 4.1004588127675422e-05 0.014907412604401274 0 2.231758983336248e-05 0.014742717257765782 0 4.1004588127675422e-05 0.014907412604401274 0 2.231758983336248e-05 0.014742717257765782 0 5.4406234662151981e-05 0.014802480247418242 0 -1.8163814845441521e-08 0.015000023963251435 0 4.1004588127675422e-05 0.014907412604401274 0 3.1302645797813613e-07 0.014999471425737968 0 4.1004588127675422e-05 0.014907412604401274 0 3.1302645797813613e-07 0.014999471425737968 0 5.4406234662151981e-05 0.014802480247418242 0 -1.6233253594721098e-05 0.014785332789758942 0 5.9272734435033632e-08 0.014999649708607584 0 0.00012307178784149881 0.014613715666421785 0 3.1302645797813613e-07 0.014999471425737968 0 5.4406234662151981e-05 0.014802480247418242 0 6.8452312559598712e-08 0.014999925123049105 0 5.6018205743034004e-05 0.014988258978931699 0 -2.2056870189248189e-08 0.014999990088341563 0 0.00012307178784149881 0.014613715666421785 0 5.5383793225642121e-05 0.014677456702717894 0 5.4406234662151981e-05 0.014802480247418242 0 1.7882466475748212e-05 0.014558105585635339 0 5.5383793225642121e-05 0.014677456702717894 0 2.231758983336248e-05 0.014742717257765782 0 5.5383793225642121e-05 0.014677456702717894 0 2.231758983336248e-05 0.014742717257765782 0 5.4406234662151981e-05 0.014802480247418242 0 -0.0021340381758463748 0.0063807236132109556 0 -0.0019653463014970402 0.0060887936052344454 0 -0.0030698901248283257 0.0090481082396406416 0 -0.0030615468998592384 0.0091088155418573777 0 -0.0031918484523785085 0.0095026041969716434 0 -0.0030615468998592384 0.0091088155418573777 0 -0.0031918484523785085 0.0095026041969716434 0 -0.0030080401425873603 0.0092715434479072427 0 -0.0017253247984416701 0.0033131435409005858 0 -0.00084420887875069151 0.0030349514701263612 0 -0.0013217105975319068 0.0023624400165471538 0 -0.00084420887875069151 0.0030349514701263612 0 -0.00085528744121856064 0.003932694895441337 0 -2.7972142392647216e-05 0.0031653847313010152 0 -0.0013217105975319068 0.0023624400165471538 0 -0.00042037877544341115 0.0023142535615324846 0 -0.00071336662976623428 0.0018180050047063325 0 -0.00084420887875069151 0.0030349514701263612 0 -0.00035600629664801612 0.0027617984173769101 0 -0.00042037877544341115 0.0023142535615324846 0 -0.00084420887875069151 0.0030349514701263612 0 -0.0013217105975319068 0.0023624400165471538 0 -0.00042037877544341115 0.0023142535615324846 0 -0.0031918484523785085 0.0095026041969716434 0 -0.0029437232440280379 0.0093725821225702829 0 -0.0030080401425873603 0.0092715434479072427 0 -0.0031918484523785085 0.0095026041969716434 0 -0.0029437232440280379 0.0093725821225702829 0 -0.0030109382360988253 0.0096195842674727597 0 -0.0029437232440280379 0.0093725821225702829 0 -0.0026122391304453586 0.0092702147062886618 0 -0.0030109382360988253 0.0096195842674727597 0 -0.002718335736738034 0.0091247656911093017 0 -0.0029776906803309607 0.0090238328589586792 0 -0.0025642214749503588 0.0095140703016155567 0 -0.0024541600706337384 0.0101359591180039 0 -0.0030403541526857381 0.010146292606573563 0 -0.0025642214749503588 0.0095140703016155567 0 -0.0024541600706337384 0.0101359591180039 0 -0.0020172682287988809 0.0097793295178005904 0 -0.0025642214749503588 0.0095140703016155567 0 -0.0020172682287988809 0.0097793295178005904 0 -0.0020274399542927414 0.0087853202493683689 0 -0.002718335736738034 0.0091247656911093017 0 -0.002453687134858178 0.0089294141903605972 0 -0.0026122391304453586 0.0092702147062886618 0 -0.0028285717286815953 0.0090022330174028119 0 -0.0025823921694336383 0.0087821507075205758 0 -0.0030615468998592384 0.0091088155418573777 0 -0.0030080401425873603 0.0092715434479072427 0 -0.0029452571229105075 0.0091503229933139699 0 -0.0029437232440280379 0.0093725821225702829 0 -0.0028702920064791059 0.0092177547699730349 0 -0.0030080401425873603 0.0092715434479072427 0 -0.0028702920064791059 0.0092177547699730349 0 -0.0030080401425873603 0.0092715434479072427 0 -0.0029452571229105075 0.0091503229933139699 0 -0.0029437232440280379 0.0093725821225702829 0 -0.0026122391304453586 0.0092702147062886618 0 -0.0028702920064791059 0.0092177547699730349 0 -0.0026122391304453586 0.0092702147062886618 0 -0.0028702920064791059 0.0092177547699730349 0 -0.0028285717286815953 0.0090022330174028119 0 -0.0028702920064791059 0.0092177547699730349 0 -0.0028285717286815953 0.0090022330174028119 0 -0.0029452571229105075 0.0091503229933139699 0 -0.0030615468998592384 0.0091088155418573777 0 -0.0028285717286815953 0.0090022330174028119 0 -0.0029452571229105075 0.0091503229933139699 0 -0.0028285717286815953 0.0090022330174028119 0 -0.0025823921694336383 0.0087821507075205758 0 -0.0029243554146506936 0.0084088598871865476 0 -0.0030615468998592384 0.0091088155418573777 0 -0.0028285717286815953 0.0090022330174028119 0 -0.0029243554146506936 0.0084088598871865476 0 -0.0030698901248283257 0.0090481082396406416 0 -0.0030615468998592384 0.0091088155418573777 0 -0.0028903644444094718 0.0085310090394025654 0 -0.0027257999682579167 0.0082621102357784987 0 -0.0022568377484424463 0.0070051440210098124 0 -0.0021340381758463748 0.0063807236132109556 0 -0.0022568377484424463 0.0070051440210098124 0 -0.0026122391304453586 0.0092702147062886618 0 -0.0025823921694336383 0.0087821507075205758 0 -0.0020274399542927414 0.0087853202493683689 0 -0.0025823921694336383 0.0087821507075205758 0 -0.0024242892647583017 0.0083279099121334101 0 -0.0020274399542927414 0.0087853202493683689 0 -0.0025823921694336383 0.0087821507075205758 0 -0.0024242892647583017 0.0083279099121334101 0 -0.0029243554146506936 0.0084088598871865476 0 -0.0024242892647583017 0.0083279099121334101 0 -0.001914529481983597 0.0082305737554377173 0 -0.0022291414362633558 0.0077919650773439174 0 -0.0024242892647583017 0.0083279099121334101 0 -0.0029243554146506936 0.0084088598871865476 0 -0.0028085259681802765 0.0078698662568898667 0 -0.0022568377484424463 0.0070051440210098124 0 -0.0017349274191135646 0.0061736926199465443 0 -0.002127610894069877 0.0042804393902773439 0 -0.0016995139773910502 0.0047003968142254396 0 -0.0023585160828268176 0.0049270853607841511 0 -0.0016995139773910502 0.0047003968142254396 0 -0.0015553986115274302 0.0039934642681546655 0 -0.00085528744121856064 0.003932694895441337 0 -0.002127610894069877 0.0042804393902773439 0 -0.0016995139773910502 0.0047003968142254396 0 -0.0015553986115274302 0.0039934642681546655 0 -0.0011268128564543493 0.0049908955004810702 0 -0.00087314229215073669 0.0042864131889629297 0 -0.0017253247984416701 0.0033131435409005858 0 -0.0015553986115274302 0.0039934642681546655 0 -0.00085528744121856064 0.003932694895441337 0 -0.0017253247984416701 0.0033131435409005858 0 -0.002127610894069877 0.0042804393902773439 0 -0.0015553986115274302 0.0039934642681546655 0 -0.0017253247984416701 0.0033131435409005858 0 -0.00084420887875069151 0.0030349514701263612 0 -0.00085528744121856064 0.003932694895441337 0 -0.00050723763943035525 0.0054343912071778844 0 -0.00067751730403236502 0.0055434553571989745 0 -0.00067639156831938313 0.0054110970335776512 0 -0.00067751730403236502 0.0055434553571989745 0 -0.00078964559239495607 0.0054666958667510656 0 -0.00067639156831938313 0.0054110970335776512 0 -0.00081222591919058397 0.0053232590147347936 0 -0.00084317624805857016 0.0053693311717967129 0 -0.00082718520106239376 0.0049257885426039075 0 8.5149857206142149e-05 7.3568556077944689e-05 0 0.00011150501371355161 0.00013826498985897382 0 7.2251318744193728e-05 0.0001657315980019969 0 0.00011150501371355161 0.00013826498985897382 0 9.6676966563521543e-05 7.5485990850317675e-05 0 0.00016192182516402856 0.00019548839353417314 0 9.6676966563521543e-05 7.5485990850317675e-05 0 -0.00022094090746846315 -0.00013900808115472973 0 -0.00015014192799219148 -0.00067431101835489467 0 9.6676966563521543e-05 7.5485990850317675e-05 0 -0.0001068409594456152 -0.00072500827158427012 0 -0.00015014192799219148 -0.00067431101835489467 0 7.4027644496656457e-05 -0.00014866782687909507 0 4.0389256764085412e-05 -0.00024882812654783648 0 0.00011150501371355161 0.00013826498985897382 0 9.7034750402966659e-05 0.00017915671700302984 0 7.2251318744193728e-05 0.0001657315980019969 0 0.00011150501371355161 0.00013826498985897382 0 0.00012264587390915904 0.0001785277927805417 0 9.7034750402966659e-05 0.00017915671700302984 0 8.5149857206142149e-05 7.3568556077944689e-05 0 0.00011150501371355161 0.00013826498985897382 0 9.6676966563521543e-05 7.5485990850317675e-05 0 9.6676966563521543e-05 7.5485990850317675e-05 0 -0.00022094090746846315 -0.00013900808115472973 0 -0.00012751495313889261 0.00033014856571620625 0 9.6676966563521543e-05 7.5485990850317675e-05 0 0.00011921430583261061 0.0002310662197948496 0 -0.00012751495313889261 0.00033014856571620625 0 -0.00067751730403236502 0.0055434553571989745 0 -0.00080800679494644017 0.005637899276688417 0 -0.00084607392006654089 0.0056950810273901989 0 -0.00084317624805857016 0.0053693311717967129 0 -0.00080800679494644017 0.005637899276688417 0 -0.00084607392006654089 0.0056950810273901989 0 -0.00060543932902062622 0.0047791415196292908 0 -0.00065744018370739459 0.0052128151868437011 0 -0.00087314229215073669 0.0042864131889629297 0 -0.00016067445732200429 0.0028183831418279277 0 -0.00067751730403236502 0.0055434553571989745 0 -0.00078964559239495607 0.0054666958667510656 0 -0.00080800679494644017 0.005637899276688417 0 -0.0003016050528008192 0.0027973173822354496 0 -0.00016067445732200429 0.0028183831418279277 0 8.5149857206142149e-05 7.3568556077944689e-05 0 0.00011921430583261061 0.0002310662197948496 0 0.00021232569641399347 0.00032904496550853886 0 8.5149857206142149e-05 7.3568556077944689e-05 0 9.6676966563521543e-05 7.5485990850317675e-05 0 0.00011921430583261061 0.0002310662197948496 0 -0.00081222591919058397 0.0053232590147347936 0 -0.00084317624805857016 0.0053693311717967129 0 -0.00080800679494644017 0.005637899276688417 0 -0.00021536219262579729 -0.00070616215536555829 0 -0.00019258629182755948 -0.00073332860783484235 0 -0.0002619137241568313 -0.00075192863802692677 0 -0.00045587300098629192 -0.00040856851124570267 0 -0.00032308776351014216 -0.00054619757806253729 0 -0.00022094090746846315 -0.00013900808115472973 0 -0.00061762257940420481 -7.9202421620778189e-06 0 -0.00015014192799219148 -0.00067431101835489467 0 -0.00021536219262579729 -0.00070616215536555829 0 -0.00019258629182755948 -0.00073332860783484235 0 -0.00015014192799219148 -0.00067431101835489467 0 -0.00022094090746846315 -0.00013900808115472973 0 -0.00061762257940420481 -7.9202421620778189e-06 0 -0.00047833909042028751 0.00032704295129564338 0 -0.00022094090746846315 -0.00013900808115472973 0 -0.00047833909042028751 0.00032704295129564338 0 -0.00012751495313889261 0.00033014856571620625 0 -0.00061762257940420481 -7.9202421620778189e-06 0 -0.00047833909042028751 0.00032704295129564338 0 -0.00089893783005754477 0.00046308205716204026 0 -0.00045587300098629192 -0.00040856851124570267 0 -0.00068405112139963283 -0.00022402089798577541 0 -0.00047833909042028751 0.00032704295129564338 0 -0.00036456180092901875 0.00066455812173058242 0 -0.00089893783005754477 0.00046308205716204026 0 -0.00047833909042028751 0.00032704295129564338 0 -0.00036456180092901875 0.00066455812173058242 0 -0.00012751495313889261 0.00033014856571620625 0 -0.00036456180092901875 0.00066455812173058242 0 -0.00012751495313889261 0.00033014856571620625 0 -6.4419658062741541e-05 0.00058515837818464084 0 -0.00036456180092901875 0.00066455812173058242 0 -8.4722431879739849e-05 0.00086568233642456876 0 -0.00027448001034154973 0.0010450574139472992 0 -0.00036456180092901875 0.00066455812173058242 0 -0.00063203649196428636 0.00094439033732034822 0 -0.00027448001034154973 0.0010450574139472992 0 -0.00036456180092901875 0.00066455812173058242 0 -6.4419658062741541e-05 0.00058515837818464084 0 -8.4722431879739849e-05 0.00086568233642456876 0 -0.00036456180092901875 0.00066455812173058242 0 -0.00063203649196428636 0.00094439033732034822 0 -0.00089893783005754477 0.00046308205716204026 0 -0.00084420887875069151 0.0030349514701263612 0 -0.00035600629664801612 0.0027617984173769101 0 -2.7972142392647216e-05 0.0031653847313010152 0 0.00023436299473659342 0.00034015669594091681 0 0.00018562302797426106 0.00038398443122135547 0 0.00017339578814820275 0.00087597159599890769 0 0.00011921430583261061 0.0002310662197948496 0 0.00021232569641399347 0.00032904496550853886 0 0.00018562302797426106 0.00038398443122135547 0 -0.00016067445732200429 0.0028183831418279277 0 -0.00014544574447745602 0.0027974356824143742 0 0.00011921430583261061 0.0002310662197948496 0 4.2254869935047493e-05 0.00041060752052902083 0 -0.00012751495313889261 0.00033014856571620625 0 0.00011921430583261061 0.0002310662197948496 0 0.00018562302797426106 0.00038398443122135547 0 4.2254869935047493e-05 0.00041060752052902083 0 4.2254869935047493e-05 0.00041060752052902083 0 -0.00012751495313889261 0.00033014856571620625 0 -6.4419658062741541e-05 0.00058515837818464084 0 0.00018562302797426106 0.00038398443122135547 0 4.2254869935047493e-05 0.00041060752052902083 0 6.2094621538245912e-05 0.00052332334253168229 0 0.00018562302797426106 0.00038398443122135547 0 6.2094621538245912e-05 0.00052332334253168229 0 7.00242424071185e-05 0.00068171443572951533 0 4.2254869935047493e-05 0.00041060752052902083 0 6.2094621538245912e-05 0.00052332334253168229 0 -6.4419658062741541e-05 0.00058515837818464084 0 0.00018562302797426106 0.00038398443122135547 0 7.00242424071185e-05 0.00068171443572951533 0 0.00017339578814820275 0.00087597159599890769 0 6.2094621538245912e-05 0.00052332334253168229 0 7.00242424071185e-05 0.00068171443572951533 0 -6.4419658062741541e-05 0.00058515837818464084 0 7.00242424071185e-05 0.00068171443572951533 0 -6.4419658062741541e-05 0.00058515837818464084 0 -8.4722431879739849e-05 0.00086568233642456876 0 7.00242424071185e-05 0.00068171443572951533 0 -8.4722431879739849e-05 0.00086568233642456876 0 0.00017339578814820275 0.00087597159599890769 0 -0.00016067445732200429 0.0028183831418279277 0 -4.804102805394837e-06 0.0018438633083147648 0 -0.00035600629664801612 0.0027617984173769101 0 -2.7972142392647216e-05 0.0031653847313010152 0 4.9652796323410782e-05 0.0021949055866127012 0 -0.00035600629664801612 0.0027617984173769101 0 4.9652796323410782e-05 0.0021949055866127012 0 -0.00042037877544341115 0.0023142535615324846 0 4.9652796323410782e-05 0.0021949055866127012 0 -0.00042037877544341115 0.0023142535615324846 0 -0.00026708873857725737 0.0018359238507662762 0 -0.00042037877544341115 0.0023142535615324846 0 -0.00026708873857725737 0.0018359238507662762 0 -0.00057729815595107732 0.0018763791518408052 0 4.9652796323410782e-05 0.0021949055866127012 0 -0.00026708873857725737 0.0018359238507662762 0 1.0594778467432273e-05 0.0014032211343364893 0 -0.00026708873857725737 0.0018359238507662762 0 -0.00027877412462028525 0.0015422937903101137 0 -0.00045768642687857888 0.0016483838753048976 0 0.00017339578814820275 0.00087597159599890769 0 -7.7569324513651833e-05 0.0011339751114516458 0 1.0594778467432273e-05 0.0014032211343364893 0 -4.804102805394837e-06 0.0018438633083147648 0 2.3086416556830407e-05 0.0016255050842637899 0 -7.7569324513651833e-05 0.0011339751114516458 0 -0.00014344778307425447 0.0013715362772832897 0 -0.00027448001034154973 0.0010450574139472992 0 -8.4722431879739849e-05 0.00086568233642456876 0 0.00017339578814820275 0.00087597159599890769 0 -7.7569324513651833e-05 0.0011339751114516458 0 -8.4722431879739849e-05 0.00086568233642456876 0 -7.7569324513651833e-05 0.0011339751114516458 0 -0.00027448001034154973 0.0010450574139472992 0 -0.00014344778307425447 0.0013715362772832897 0 -0.00033677850296308815 0.0014392660213828849 0 -2.9494413093930091e-05 0.0013802206031687286 0 -7.7569324513651833e-05 0.0011339751114516458 0 1.0594778467432273e-05 0.0014032211343364893 0 -0.00014344778307425447 0.0013715362772832897 0 -0.00014344778307425447 0.0013715362772832897 0 -3.6683631060985363e-05 0.0013892383863308257 0 -2.9494413093930091e-05 0.0013802206031687286 0 1.0594778467432273e-05 0.0014032211343364893 0 -0.00014344778307425447 0.0013715362772832897 0 -3.6683631060985363e-05 0.0013892383863308257 0 -3.6683631060985363e-05 0.0013892383863308257 0 -0.00018916983821617094 0.0013454250901959197 0 -2.9494413093930091e-05 0.0013802206031687286 0 1.0594778467432273e-05 0.0014032211343364893 0 -3.6683631060985363e-05 0.0013892383863308257 0 -0.00018916983821617094 0.0013454250901959197 0 1.0594778467432273e-05 0.0014032211343364893 0 -0.00018916983821617094 0.0013454250901959197 0 -0.00027877412462028525 0.0015422937903101137 0 -0.00018916983821617094 0.0013454250901959197 0 -0.00037482708381083896 0.0014316840851885579 0 -0.00027877412462028525 0.0015422937903101137 0 -0.00018916983821617094 0.0013454250901959197 0 -0.00037482708381083896 0.0014316840851885579 0 -0.00031965131751195787 0.0012979161833708531 0 -0.00037482708381083896 0.0014316840851885579 0 -0.00027877412462028525 0.0015422937903101137 0 -0.00045768642687857888 0.0016483838753048976 0 -0.00026708873857725737 0.0018359238507662762 0 1.0594778467432273e-05 0.0014032211343364893 0 -0.00027877412462028525 0.0015422937903101137 0 -0.00063203649196428636 0.00094439033732034822 0 -0.0004475904795820139 0.0012020622303336157 0 -0.00074007927777893108 0.0013085464419644852 0 -0.00063203649196428636 0.00094439033732034822 0 -0.00027448001034154973 0.0010450574139472992 0 -0.0004475904795820139 0.0012020622303336157 0 -0.00014344778307425447 0.0013715362772832897 0 -0.0004475904795820139 0.0012020622303336157 0 -0.00033677850296308815 0.0014392660213828849 0 -0.00014344778307425447 0.0013715362772832897 0 -0.00027448001034154973 0.0010450574139472992 0 -0.0004475904795820139 0.0012020622303336157 0 -0.0004475904795820139 0.0012020622303336157 0 -0.00033677850296308815 0.0014392660213828849 0 -0.00074007927777893108 0.0013085464419644852 0 -0.000504877508727014 0.0014018603341608019 0 -0.00074007927777893108 0.0013085464419644852 0 -0.00065435559645859553 0.0014891348535728665 0 -0.00074507704056368113 0.0025231788003036949 0 -0.0008009553800263562 0.0023211837434884571 0 -0.00074007927777893108 0.0013085464419644852 0 -0.00065435559645859553 0.0014891348535728665 0 -0.00082681145858736101 0.0015942407317735437 0 -0.00065435559645859553 0.0014891348535728665 0 -0.00066037295488265764 0.0016442306615110371 0 -0.00082681145858736101 0.0015942407317735437 0 -0.00065435559645859553 0.0014891348535728665 0 -0.00051834428867621434 0.0015806824996025214 0 -0.00066037295488265764 0.0016442306615110371 0 -0.00074507704056368113 0.0025231788003036949 0 -0.00072963998229432436 0.0031510484542428547 0 -0.000504877508727014 0.0014018603341608019 0 -0.00065435559645859553 0.0014891348535728665 0 -0.00051834428867621434 0.0015806824996025214 0 -0.000504877508727014 0.0014018603341608019 0 -0.00051834428867621434 0.0015806824996025214 0 -0.0003483887080989718 0.0015387574844871086 0 -0.00051834428867621434 0.0015806824996025214 0 -0.00040753708311945167 0.0016187824106951162 0 -0.0003483887080989718 0.0015387574844871086 0 -0.00051834428867621434 0.0015806824996025214 0 -0.00040753708311945167 0.0016187824106951162 0 -0.00042353068547389626 0.0017052994706706242 0 -0.00040753708311945167 0.0016187824106951162 0 -0.00042353068547389626 0.0017052994706706242 0 -0.0003402801820651262 0.0016512971387418391 0 -0.00044080415003516804 0.0018530285860568899 0 -0.00042353068547389626 0.0017052994706706242 0 -0.00056880277793458338 0.0017713853394530309 0 -0.00044080415003516804 0.0018530285860568899 0 -0.00042353068547389626 0.0017052994706706242 0 -0.00032180861119332483 0.0017416585619292849 0 -0.00051834428867621434 0.0015806824996025214 0 -0.00042353068547389626 0.0017052994706706242 0 -0.00056880277793458338 0.0017713853394530309 0 -0.00051834428867621434 0.0015806824996025214 0 -0.00056880277793458338 0.0017713853394530309 0 -0.00066037295488265764 0.0016442306615110371 0 -0.00056880277793458338 0.0017713853394530309 0 -0.00066037295488265764 0.0016442306615110371 0 -0.00073859581981332398 0.0017851701253716664 0 -0.00066037295488265764 0.0016442306615110371 0 -0.00073859581981332398 0.0017851701253716664 0 -0.00082681145858736101 0.0015942407317735437 0 -0.00018916983821617094 0.0013454250901959197 0 -0.00029949028188767316 0.0011694906749500395 0 -2.9494413093930091e-05 0.0013802206031687286 0 -5.7085987508853403e-05 0.0016212033521430824 0 -2.0342249199208695e-05 0.0015789264874980595 0 -0.00026164042727851492 0.0014907357063805218 0 -0.00084496509163620029 0.0044211008379969356 0 -0.00072963998229432436 0.0031510484542428547 0 -0.0014426701137775721 0.0046013818964218819 0 -0.0006736520166476409 0.0047722736147619979 0 -0.00085000988118593237 0.0039045522545111825 0 -0.0007077538771990934 0.0041807718186310959 0 -0.00086506857532182401 0.0044598535795137041 0 -0.00086506857532182401 0.0044598535795137041 0 -0.00093416214749047783 0.0046282394892212123 0 -0.0006736520166476409 0.0047722736147619979 0 -0.00085000988118593237 0.0039045522545111825 0 -0.00037595535609231831 0.0040487252662152768 0 -0.00084496509163620029 0.0044211008379969356 0 -0.00093416214749047783 0.0046282394892212123 0 -0.0007077538771990934 0.0041807718186310959 0 -0.00084496509163620029 0.0044211008379969356 0 -0.00029949028188767316 0.0011694906749500395 0 -0.00031965131751195787 0.0012979161833708531 0 -0.00041921528015122065 0.0012576795747823205 0 -0.00018916983821617094 0.0013454250901959197 0 -0.00029949028188767316 0.0011694906749500395 0 -0.00031965131751195787 0.0012979161833708531 0 -0.000504877508727014 0.0014018603341608019 0 -0.00026164042727851492 0.0014907357063805218 0 -0.0003483887080989718 0.0015387574844871086 0 -5.7085987508853403e-05 0.0016212033521430824 0 -0.00026164042727851492 0.0014907357063805218 0 -0.0003483887080989718 0.0015387574844871086 0 -5.3156328440877635e-05 0.0016107430030681416 0 -0.0003483887080989718 0.0015387574844871086 0 -0.00022030057543802832 0.0016649656109241919 0 -0.0007077538771990934 0.0041807718186310959 0 -0.0006566804107114156 0.0036339891945275349 0 -0.00040753708311945167 0.0016187824106951162 0 -0.0003483887080989718 0.0015387574844871086 0 -0.0003402801820651262 0.0016512971387418391 0 -0.0003483887080989718 0.0015387574844871086 0 -0.00022030057543802832 0.0016649656109241919 0 -0.0003402801820651262 0.0016512971387418391 0 -0.00042353068547389626 0.0017052994706706242 0 -0.0003402801820651262 0.0016512971387418391 0 -0.00032180861119332483 0.0017416585619292849 0 -0.00022030057543802832 0.0016649656109241919 0 -0.0003402801820651262 0.0016512971387418391 0 -0.00032180861119332483 0.0017416585619292849 0 -0.00024894333813145757 0.0018399165664680205 0 -0.00044080415003516804 0.0018530285860568899 0 -0.00032180861119332483 0.0017416585619292849 0 -0.00024894333813145757 0.0018399165664680205 0 -0.00022030057543802832 0.0016649656109241919 0 -0.00032180861119332483 0.0017416585619292849 0 -0.00024894333813145757 0.0018399165664680205 0 -5.3156328440877635e-05 0.0016107430030681416 0 -0.00022030057543802832 0.0016649656109241919 0 -0.00024428219288837304 0.0027814305273906256 0 -0.0007077538771990934 0.0041807718186310959 0 -0.00059076671523144325 0.0023403280287830133 0 -0.00056470603968133222 0.0023439756386567411 0 -0.00060656524457345013 0.0024079333941271681 0 -0.00074660063546932553 0.0051215130129484629 0 -0.0003132104692000045 0.0050634261844554425 0 -0.00051150594393838621 0.0055421644948151719 0 -0.00053181242997678985 0.0038284406684854504 0 -0.00086506857532182401 0.0044598535795137041 0 -0.00059076671523144325 0.0023403280287830133 0 -0.00060656524457345013 0.0024079333941271681 0 -0.00061854432363098524 0.0024059312481493041 0 -0.00074660063546932553 0.0051215130129484629 0 -0.00051150594393838621 0.0055421644948151719 0 -0.0010376896241628556 0.0054279985977314354 0 -0.00086506857532182401 0.0044598535795137041 0 -0.0012400896799340097 0.0065217110844820693 0 -0.0012694832027039006 0.0054957450583285657 0 -0.00097576606700533475 0.0055343120136665093 0 -0.00096235340052527548 0.0055684101107956298 0 -0.0011717660019855453 0.0050923216319963618 0 -0.00074660063546932553 0.0051215130129484629 0 -0.0010376896241628556 0.0054279985977314354 0 -0.0010517399756865074 0.0067224880872316919 0 -0.0012400896799340097 0.0065217110844820693 0 -0.00092140758134939024 0.0073945920119391972 0 -0.00082039841077490862 0.0069214505993821351 0 -0.0007046632446659468 0.0071273831806796303 0 -0.00092140758134939024 0.0073945920119391972 0 -0.0011386992847611432 0.0068503913518842482 0 -0.00082039841077490862 0.0069214505993821351 0 -0.0010517399756865074 0.0067224880872316919 0 -0.0013434869102130053 0.0074982116799765935 0 -0.0012783017553859711 0.0064917906214085374 0 -0.0012400896799340097 0.0065217110844820693 0 -0.0012400896799340097 0.0065217110844820693 0 -0.0013686230919585012 0.007369729078761213 0 -0.0012783017553859711 0.0064917906214085374 0 -0.0013711705350291192 0.007352152000781792 0 -0.0013270472785226661 0.0069965894845283889 0 -0.001333708083003415 0.0069970224240053364 0 -0.0013346039544839183 0.0069955082442156652 0 -0.0013261727197565205 0.0069987084872741709 0 -0.0013270472785226661 0.0069965894845283889 0 -0.001333708083003415 0.0069970224240053364 0 -0.0013711705350291192 0.007352152000781792 0 -0.0013686230919585012 0.007369729078761213 0 -0.0012783017553859711 0.0064917906214085374 0 -0.0015274133777708496 0.0061162983985084667 0 -0.0016039041422069905 0.0070976525057479508 0 -0.0015832372117864568 0.0067541287748048504 0 -0.001882600201264459 0.0064031948765992013 0 -0.0030741128011031764 0.011471508794639073 0 -0.0032907048200385108 0.011097787060564284 0 -0.0030293169552687116 0.011101752842505933 0 -0.0013711705350291192 0.007352152000781792 0 -0.0015113447977978946 0.0074316111614876447 0 -0.0016039041422069905 0.0070976525057479508 0 -0.001345082462263002 0.0071763606908974674 0 -0.0015832372117864568 0.0067541287748048504 0 -0.0032907048200385108 0.011097787060564284 0 -0.0030399792039723528 0.010852707209430594 0 -0.0030293169552687116 0.011101752842505933 0 -0.0012783017553859711 0.0064917906214085374 0 -0.00093416214749047783 0.0046282394892212123 0 -0.0012694832027039006 0.0054957450583285657 0 -0.00097576606700533475 0.0055343120136665093 0 -0.0012494182614114979 0.0054470263563664951 0 -0.0013263547682889159 0.0057596770329757076 0 -0.001773218231155591 0.0056219813748691 0 -0.0017121639444906743 0.0054728871943899764 0 -0.0013263547682889159 0.0057596770329757076 0 -0.0017121639444906743 0.0054728871943899764 0 -0.0015277032532022697 0.005256045143364107 0 -0.0011778991422255549 0.0045471609410050158 0 -0.0011312300080399823 0.0045614282354143896 0 -0.0010765194334180579 0.0044280359714189933 0 -0.00093416214749047783 0.0046282394892212123 0 -0.0010416575677216231 0.0048608437617371396 0 -0.00084496509163620029 0.0044211008379969356 0 -0.0010416575677216231 0.0048608437617371396 0 -0.0010416575677216231 0.0048608437617371396 0 -0.0015274133777708496 0.0061162983985084667 0 -0.0010416575677216231 0.0048608437617371396 0 -0.0015804859340461544 0.0056428960995465816 0 -0.00037482708381083896 0.0014316840851885579 0 -0.00031965131751195787 0.0012979161833708531 0 -0.00041921528015122065 0.0012576795747823205 0 -0.00037482708381083896 0.0014316840851885579 0 -0.00041921528015122065 0.0012576795747823205 0 -0.00061944410694164621 0.0015590154842118904 0 -0.00037482708381083896 0.0014316840851885579 0 -0.00061944410694164621 0.0015590154842118904 0 -0.00045768642687857888 0.0016483838753048976 0 -0.0016863363408760911 0.0059948718476169373 0 -0.0015804859340461544 0.0056428960995465816 0 -0.001762533450898692 0.0055906656766053714 0 -0.0019571874957931661 0.0060648353310548322 0 -0.0011784942937442908 0.0066293349383195702 0 -0.0015804859340461544 0.0056428960995465816 0 -0.0015274133777708496 0.0061162983985084667 0 -0.0019571874957931661 0.0060648353310548322 0 -0.0011784942937442908 0.0066293349383195702 0 -0.0015548996353682944 0.0070723018711763772 0 -0.0016863363408760911 0.0059948718476169373 0 -0.0017628811458889461 0.0066390807501835467 0 -0.0012370167330780504 0.0052819478621511573 0 -0.0015618584213726798 0.0060649528174969479 0 -0.0016706550310459538 0.0057899339599403899 0 -0.0017628811458889461 0.0066390807501835467 0 -0.0015274133777708496 0.0061162983985084667 0 -0.0015113447977978946 0.0074316111614876447 0 -0.0017628811458889461 0.0066390807501835467 0 -0.0015832372117864568 0.0067541287748048504 0 -0.0018218660528823095 0.0063316123019508336 0 -0.001882600201264459 0.0064031948765992013 0 -0.0032907048200385108 0.011097787060564284 0 -0.0035054128618550581 0.010719002889016506 0 -0.003238431738850512 0.010757121681278207 0 -0.0032907048200385108 0.011097787060564284 0 -0.003238431738850512 0.010757121681278207 0 -0.0030399792039723528 0.010852707209430594 0 -0.003238431738850512 0.010757121681278207 0 -0.0030399792039723528 0.010852707209430594 0 -0.0029831318753589047 0.010659102986041748 0 -0.003238431738850512 0.010757121681278207 0 -0.0031446466633355107 0.010532919052259542 0 -0.0029831318753589047 0.010659102986041748 0 -0.0035054128618550581 0.010719002889016506 0 -0.003238431738850512 0.010757121681278207 0 -0.0031446466633355107 0.010532919052259542 0 -0.0033050913277230566 0.0098181236740914491 0 -0.003261637177770877 0.0098921980353801307 0 -0.0030109382360988253 0.0096195842674727597 0 -0.0017628811458889461 0.0066390807501835467 0 -0.0029776906803309607 0.0090238328589586792 0 -0.0035054128618550581 0.010719002889016506 0 -0.0031446466633355107 0.010532919052259542 0 -0.0030403541526857381 0.010146292606573563 0 -0.0031918484523785085 0.0095026041969716434 0 -0.0033050913277230566 0.0098181236740914491 0 -0.0030109382360988253 0.0096195842674727597 0 -0.0019653463014970402 0.0060887936052344454 0 -0.0016863363408760911 0.0059948718476169373 0 -0.0013217105975319068 0.0023624400165471538 0 -0.00092794766193981702 0.0014401904975460333 0 -0.00071336662976623428 0.0018180050047063325 0 -0.0018703388550615255 0.0045136259864328706 0 -0.0018020938005255584 0.0050374711871162912 0 -0.00061944410694164621 0.0015590154842118904 0 -0.00057729815595107732 0.0018763791518408052 0 -0.00045768642687857888 0.0016483838753048976 0 -0.00026708873857725737 0.0018359238507662762 0 -0.00057729815595107732 0.0018763791518408052 0 -0.00045768642687857888 0.0016483838753048976 0 -0.0015804859340461544 0.0056428960995465816 0 -0.0018020938005255584 0.0050374711871162912 0 -0.0016863363408760911 0.0059948718476169373 0 -0.0018020938005255584 0.0050374711871162912 0 -0.0013929051532652311 0.0059087054433386264 0 -0.001475771400204827 0.0061111938297008601 0 -0.0018166835982442486 0.0051574827016576561 0 -0.0024541600706337384 0.0101359591180039 0 -0.0026741329446368601 0.010388079122677783 0 -0.0023870801975010626 0.01070736486510635 0 -0.0024541600706337384 0.0101359591180039 0 -0.0020206369547283889 0.010587339477167803 0 -0.0020172682287988809 0.0097793295178005904 0 -0.0024541600706337384 0.0101359591180039 0 -0.0023870801975010626 0.01070736486510635 0 -0.0020206369547283889 0.010587339477167803 0 -0.0024541600706337384 0.0101359591180039 0 -0.0030403541526857381 0.010146292606573563 0 -0.0026741329446368601 0.010388079122677783 0 -0.0030403541526857381 0.010146292606573563 0 -0.002923873370049361 0.010418292184307417 0 -0.0026741329446368601 0.010388079122677783 0 -0.0031446466633355107 0.010532919052259542 0 -0.002923873370049361 0.010418292184307417 0 -0.0029831318753589047 0.010659102986041748 0 -0.0031446466633355107 0.010532919052259542 0 -0.0030403541526857381 0.010146292606573563 0 -0.002923873370049361 0.010418292184307417 0 -0.002923873370049361 0.010418292184307417 0 -0.0026741329446368601 0.010388079122677783 0 -0.0027197628274189521 0.010660880747487665 0 -0.0027197628274189521 0.010660880747487665 0 -0.0029831318753589047 0.010659102986041748 0 -0.0028622649719091549 0.010808857569350327 0 -0.002923873370049361 0.010418292184307417 0 -0.0027197628274189521 0.010660880747487665 0 -0.0029831318753589047 0.010659102986041748 0 -0.0030399792039723528 0.010852707209430594 0 -0.0029831318753589047 0.010659102986041748 0 -0.0028622649719091549 0.010808857569350327 0 -0.0030399792039723528 0.010852707209430594 0 -0.0028622649719091549 0.010808857569350327 0 -0.0028667544360230696 0.01096833116125083 0 -0.0027197628274189521 0.010660880747487665 0 -0.0026995991942855252 0.010905923697980952 0 -0.0025537919574761332 0.01082704145555272 0 -0.0027197628274189521 0.010660880747487665 0 -0.0028622649719091549 0.010808857569350327 0 -0.0026995991942855252 0.010905923697980952 0 -0.0028622649719091549 0.010808857569350327 0 -0.0026995991942855252 0.010905923697980952 0 -0.0028667544360230696 0.01096833116125083 0 -0.0026995991942855252 0.010905923697980952 0 -0.0025941343984355776 0.010963846476311628 0 -0.0025537919574761332 0.01082704145555272 0 -0.002356915688506986 0.010005794818353703 0 -0.0021703708229400564 0.010225037989682889 0 -0.0025537919574761332 0.01082704145555272 0 -0.0023870801975010626 0.01070736486510635 0 -0.002457669304919587 0.011061133322133099 0 -0.0021152566297566251 0.011053222872063265 0 -0.0018154805018482292 0.011016512328400719 0 -0.0018423033481737457 0.010614263236105943 0 -0.0023870801975010626 0.01070736486510635 0 -0.002457669304919587 0.011061133322133099 0 -0.0020206369547283889 0.010587339477167803 0 -0.0025941343984355776 0.010963846476311628 0 -0.0025537919574761332 0.01082704145555272 0 -0.002457669304919587 0.011061133322133099 0 -0.0026741329446368601 0.010388079122677783 0 -0.0027197628274189521 0.010660880747487665 0 -0.0023870801975010626 0.01070736486510635 0 -0.0027197628274189521 0.010660880747487665 0 -0.0025537919574761332 0.01082704145555272 0 -0.0023870801975010626 0.01070736486510635 0 -0.0020911345875682138 0.011103990709209753 0 -0.0021447254381528609 0.011158742797508546 0 -0.0021555358879001645 0.011231660343919559 0 -0.0021152566297566251 0.011053222872063265 0 -0.0020911345875682138 0.011103990709209753 0 -0.0018154805018482292 0.011016512328400719 0 -0.0020911345875682138 0.011103990709209753 0 -0.0018456597204191598 0.011160451863800581 0 -0.0018154805018482292 0.011016512328400719 0 -0.0025941343984355776 0.010963846476311628 0 -0.002457669304919587 0.011061133322133099 0 -0.0026757371160252836 0.011079759878320489 0 -0.0021152566297566251 0.011053222872063265 0 -0.0020911345875682138 0.011103990709209753 0 -0.0021447254381528609 0.011158742797508546 0 -0.0020911345875682138 0.011103990709209753 0 -0.0020129482436856429 0.011226248599708648 0 -0.0021169143157033677 0.011310023069570784 0 -0.0020911345875682138 0.011103990709209753 0 -0.0020129482436856429 0.011226248599708648 0 -0.0018456597204191598 0.011160451863800581 0 -0.0020129482436856429 0.011226248599708648 0 -0.002031621796075936 0.011306074419639933 0 -0.0021169143157033677 0.011310023069570784 0 -0.0020129482436856429 0.011226248599708648 0 -0.0018956372816488736 0.011303825899114413 0 -0.0018456597204191598 0.011160451863800581 0 -0.0020129482436856429 0.011226248599708648 0 -0.002031621796075936 0.011306074419639933 0 -0.0018956372816488736 0.011303825899114413 0 -0.0021152566297566251 0.011053222872063265 0 -0.0021447254381528609 0.011158742797508546 0 -0.0022283366638554641 0.011221631813052333 0 -0.002356915688506986 0.010005794818353703 0 -0.0015394662566582959 0.0079379896621990798 0 -0.002457669304919587 0.011061133322133099 0 -0.0027512573317952523 0.01122381419434528 0 -0.0028749291886978686 0.011556449025197268 0 -0.0030399792039723528 0.010852707209430594 0 -0.0030293169552687116 0.011101752842505933 0 -0.0028667544360230696 0.01096833116125083 0 -0.0030293169552687116 0.011101752842505933 0 -0.0028667544360230696 0.01096833116125083 0 -0.0028545996709025494 0.011140339958205785 0 -0.002457669304919587 0.011061133322133099 0 -0.0026757371160252836 0.011079759878320489 0 -0.0027512573317952523 0.01122381419434528 0 -0.0028545996709025494 0.011140339958205785 0 -0.0026757371160252836 0.011079759878320489 0 -0.0027512573317952523 0.01122381419434528 0 -0.0026995991942855252 0.010905923697980952 0 -0.0028667544360230696 0.01096833116125083 0 -0.0026757371160252836 0.011079759878320489 0 -0.0028667544360230696 0.01096833116125083 0 -0.0028545996709025494 0.011140339958205785 0 -0.0026757371160252836 0.011079759878320489 0 -0.0026995991942855252 0.010905923697980952 0 -0.0025941343984355776 0.010963846476311628 0 -0.0026757371160252836 0.011079759878320489 0 -0.0030741128011031764 0.011471508794639073 0 -0.0030293169552687116 0.011101752842505933 0 -0.0029111025682084187 0.011300955480775456 0 -0.0027512573317952523 0.01122381419434528 0 -0.0029111025682084187 0.011300955480775456 0 -0.0028749291886978686 0.011556449025197268 0 -0.0028545996709025494 0.011140339958205785 0 -0.0027512573317952523 0.01122381419434528 0 -0.0029111025682084187 0.011300955480775456 0 -0.0030293169552687116 0.011101752842505933 0 -0.0028545996709025494 0.011140339958205785 0 -0.0029111025682084187 0.011300955480775456 0 -0.0030741128011031764 0.011471508794639073 0 -0.0029111025682084187 0.011300955480775456 0 -0.0028749291886978686 0.011556449025197268 0 -0.001515856111233872 0.0077332240973679665 0 -0.0015098816249890358 0.0077440565248076704 0 -0.0014720804530165635 0.0077530149460094625 0 -0.0013711705350291192 0.007352152000781792 0 -0.0015394662566582959 0.0079379896621990798 0 -0.0013686230919585012 0.007369729078761213 0 -0.0015394662566582959 0.0079379896621990798 0 -0.0013742295403803718 0.0075004824315860188 0 -0.00064612942218558549 0.0076624957013596614 0 -0.0010226956440655066 0.0081266176043798578 0 -0.0021447254381528609 0.011158742797508546 0 -0.0022283366638554641 0.011221631813052333 0 -0.0021718698282110257 0.01120341473104172 0 -0.0021447254381528609 0.011158742797508546 0 -0.0021718698282110257 0.01120341473104172 0 -0.0021555358879001645 0.011231660343919559 0 -0.0022283366638554641 0.011221631813052333 0 -0.002185963957906292 0.011221358358007432 0 -0.0021718698282110257 0.01120341473104172 0 -0.0015394662566582959 0.0079379896621990798 0 -0.0015564863180177913 0.0079765913329427306 0 -0.002185963957906292 0.011221358358007432 0 -0.0021718698282110257 0.01120341473104172 0 -0.0021555358879001645 0.011231660343919559 0 -0.0015394662566582959 0.0079379896621990798 0 -0.0016821579056058595 0.0088248157260396205 0 -0.0012446452399770427 0.0078205864852171989 0 -0.00095413991363552087 0.0078857617798435888 0 -0.0013437628826084486 0.0079427638056746904 0 -0.0011289665215993264 0.0083238253687113947 0 -0.00095413991363552087 0.0078857617798435888 0 -0.0013437628826084486 0.0079427638056746904 0 -0.0022243947903863182 0.011215809913862094 0 -0.002185963957906292 0.011221358358007432 0 -0.0021555358879001645 0.011231660343919559 0 -0.0015394662566582959 0.0079379896621990798 0 -0.0013434869102130053 0.0074982116799765935 0 -0.0013686230919585012 0.007369729078761213 0 -0.0013434869102130053 0.0074982116799765935 0 -0.0020911345875682138 0.011103990709209753 0 -0.002234679893790034 0.011492152316900419 0 -0.0021169143157033677 0.011310023069570784 0 -0.0019894266725910366 0.0097581363233346513 0 -0.0016821579056058595 0.0088248157260396205 0 -0.0020092162994261686 0.011387465831009124 0 -0.0020556265085717334 0.01145443655997219 0 -0.0018864399763400897 0.011455680782405428 0 -0.0020092162994261686 0.011387465831009124 0 -0.0020556265085717334 0.01145443655997219 0 -0.0020795238315024964 0.011402964243648096 0 -0.0020092162994261686 0.011387465831009124 0 -0.0020747807668547412 0.01135131089432804 0 -0.0020795238315024964 0.011402964243648096 0 -0.0020092162994261686 0.011387465831009124 0 -0.0018864399763400897 0.011455680782405428 0 -0.0018956372816488736 0.011303825899114413 0 -0.0020092162994261686 0.011387465831009124 0 -0.002031621796075936 0.011306074419639933 0 -0.0018956372816488736 0.011303825899114413 0 -0.0020092162994261686 0.011387465831009124 0 -0.002031621796075936 0.011306074419639933 0 -0.0020747807668547412 0.01135131089432804 0 -0.0021169143157033677 0.011310023069570784 0 -0.0021160431344435771 0.011376949495781975 0 -0.0021714613812648365 0.01143929059662732 0 -0.002234679893790034 0.011492152316900419 0 -0.0021169143157033677 0.011310023069570784 0 -0.0021714613812648365 0.01143929059662732 0 -0.002031621796075936 0.011306074419639933 0 -0.0021169143157033677 0.011310023069570784 0 -0.0020747807668547412 0.01135131089432804 0 -0.0021169143157033677 0.011310023069570784 0 -0.0021160431344435771 0.011376949495781975 0 -0.0020747807668547412 0.01135131089432804 0 -0.0021160431344435771 0.011376949495781975 0 -0.0020747807668547412 0.01135131089432804 0 -0.0020795238315024964 0.011402964243648096 0 -0.0021160431344435771 0.011376949495781975 0 -0.0020795238315024964 0.011402964243648096 0 -0.0021194528121581163 0.011413466224846586 0 -0.0021160431344435771 0.011376949495781975 0 -0.0021714613812648365 0.01143929059662732 0 -0.0021194528121581163 0.011413466224846586 0 -0.0021714613812648365 0.01143929059662732 0 -0.0021194528121581163 0.011413466224846586 0 -0.0021156058568238805 0.011464662501351771 0 -0.0020556265085717334 0.01145443655997219 0 -0.0021194528121581163 0.011413466224846586 0 -0.0021156058568238805 0.011464662501351771 0 -0.0020556265085717334 0.01145443655997219 0 -0.0020795238315024964 0.011402964243648096 0 -0.0021194528121581163 0.011413466224846586 0 -0.0012829397842332258 0.0085955838545222242 0 -0.0012819864941558618 0.008608435036783808 0 -0.0012898782840436132 0.0086069159831230029 0 -0.0020556265085717334 0.01145443655997219 0 -0.0021156058568238805 0.011464662501351771 0 -0.0021005232913704364 0.011520117822261056 0 -0.0021714613812648365 0.01143929059662732 0 -0.0021156058568238805 0.011464662501351771 0 -0.0021005232913704364 0.011520117822261056 0 -0.0016821579056058595 0.0088248157260396205 0 -0.0017878121450737446 0.0091887538659735785 0 -0.002234679893790034 0.011492152316900419 0 -0.0021714613812648365 0.01143929059662732 0 -0.0021005232913704364 0.011520117822261056 0 -0.0017878121450737446 0.0091887538659735785 0 -0.001733027849157374 0.0093536646611051717 0 -0.0018144814644290204 0.011703781779444989 0 -0.0020154451962494544 0.011527412482106694 0 -0.0018266506949729275 0.011566052435226397 0 -0.0021005232913704364 0.011520117822261056 0 -0.0018266506949729275 0.011566052435226397 0 -0.0018864399763400897 0.011455680782405428 0 -0.0020556265085717334 0.01145443655997219 0 -0.0021005232913704364 0.011520117822261056 0 -0.0018864399763400897 0.011455680782405428 0 -0.0018266506949729275 0.011566052435226397 0 -0.0018864399763400897 0.011455680782405428 0 -0.001558283462220504 0.011283815256511356 0 -0.0017560784649987516 0.011345270826154715 0 -0.0017251817491983981 0.011366036555162402 0 -0.0015279690887324753 0.011862797395976453 0 -0.0017368685353952693 0.011839909972384051 0 -0.001558283462220504 0.011283815256511356 0 -0.0018144814644290204 0.011703781779444989 0 -0.0018266506949729275 0.011566052435226397 0 -0.001558283462220504 0.011283815256511356 0 -0.0018864399763400897 0.011455680782405428 0 -0.0018956372816488736 0.011303825899114413 0 -0.001558283462220504 0.011283815256511356 0 -0.0018456597204191598 0.011160451863800581 0 -0.001558283462220504 0.011283815256511356 0 -0.0018154805018482292 0.011016512328400719 0 -0.0018956372816488736 0.011303825899114413 0 -0.0018456597204191598 0.011160451863800581 0 -0.001558283462220504 0.011283815256511356 0 -0.001558283462220504 0.011283815256511356 0 -0.0018154805018482292 0.011016512328400719 0 -0.0013834713743528313 0.010909506077848848 0 -0.001558283462220504 0.011283815256511356 0 -0.00098544987576647388 0.011363541608768119 0 -0.0013834713743528313 0.010909506077848848 0 -0.001558283462220504 0.011283815256511356 0 -0.0012500710014884211 0.011606966258532974 0 -0.00098544987576647388 0.011363541608768119 0 -0.0015279690887324753 0.011862797395976453 0 -0.001558283462220504 0.011283815256511356 0 -0.0012500710014884211 0.011606966258532974 0 -0.00093268063471520224 0.01190191341850612 0 -0.0012500710014884211 0.011606966258532974 0 -0.00098544987576647388 0.011363541608768119 0 -0.00093268063471520224 0.01190191341850612 0 -0.00051144211386306413 0.011502042556817265 0 -0.00098544987576647388 0.011363541608768119 0 -0.00051144211386306413 0.011502042556817265 0 -0.00057451588244080299 0.011123493443802177 0 -0.00098544987576647388 0.011363541608768119 0 -0.00057451588244080299 0.011123493443802177 0 -0.00098544987576647388 0.011363541608768119 0 -0.00088849683720381735 0.010793653381634148 0 -0.00098544987576647388 0.011363541608768119 0 -0.00088849683720381735 0.010793653381634148 0 -0.0013834713743528313 0.010909506077848848 0 -0.00057451588244080299 0.011123493443802177 0 -0.00088849683720381735 0.010793653381634148 0 -0.00043324630092943874 0.010697786214365576 0 -0.00088849683720381735 0.010793653381634148 0 -0.00043324630092943874 0.010697786214365576 0 -0.00090063824569694135 0.010167189695603575 0 -0.00043324630092943874 0.010697786214365576 0 -0.00024627833157472449 0.01008393249920882 0 -0.00090063824569694135 0.010167189695603575 0 -0.00088849683720381735 0.010793653381634148 0 -0.0013183109948679671 0.010521126052996486 0 -0.00090063824569694135 0.010167189695603575 0 -0.0013183109948679671 0.010521126052996486 0 -0.0015349924125406657 0.010082199672729088 0 -0.00090063824569694135 0.010167189695603575 0 -0.0013183109948679671 0.010521126052996486 0 -0.0018423033481737457 0.010614263236105943 0 -0.0015349924125406657 0.010082199672729088 0 -0.0021703708229400564 0.010225037989682889 0 -0.0019903433385780544 0.010129609542454784 0 -0.0020206369547283889 0.010587339477167803 0 -0.0020172682287988809 0.0097793295178005904 0 -0.0015349924125406657 0.010082199672729088 0 -0.0018154805018482292 0.011016512328400719 0 -0.0018423033481737457 0.010614263236105943 0 -0.0013834713743528313 0.010909506077848848 0 -0.0013183109948679671 0.010521126052996486 0 -0.0018423033481737457 0.010614263236105943 0 -0.0013834713743528313 0.010909506077848848 0 -0.00088849683720381735 0.010793653381634148 0 -0.0013183109948679671 0.010521126052996486 0 -0.0013834713743528313 0.010909506077848848 0 0.00080517546890229263 0.011420213681279037 0 0.00063697142379128544 0.011833878088903941 0 0.00040648107256299808 0.011584239335243463 0 0.00088748964546745378 0.011877962777239761 0 0.00080517546890229263 0.011420213681279037 0 0.00063697142379128544 0.011833878088903941 0 0.00070070669884786884 0.012042618365494593 0 0.00088748964546745378 0.011877962777239761 0 0.00063697142379128544 0.011833878088903941 0 0.00049054821263843024 0.011950891152502814 0 0.00059231294081182873 0.011992512316648118 0 0.00063697142379128544 0.011833878088903941 0 0.00049054821263843024 0.011950891152502814 0 0.00063697142379128544 0.011833878088903941 0 0.00040648107256299808 0.011584239335243463 0 0.00049054821263843024 0.011950891152502814 0 0.00040648107256299808 0.011584239335243463 0 0.00020872197826753288 0.011829512468628097 0 0.00080517546890229263 0.011420213681279037 0 0.00040648107256299808 0.011584239335243463 0 0.0003634836201965965 0.011156515371161678 0 0.00040648107256299808 0.011584239335243463 0 0.0003634836201965965 0.011156515371161678 0 -0.00014791956946424273 0.011267325344505258 0 0.00040648107256299808 0.011584239335243463 0 0.00020872197826753288 0.011829512468628097 0 -0.00014791956946424273 0.011267325344505258 0 0.00022581845905200436 0.011627684141439309 0 -0.0001008903354546962 0.011620778973343427 0 -0.00014791956946424273 0.011267325344505258 0 0.00029060115820129433 0.011782544403378364 0 0.00010806300984091472 0.011573195490896899 0 -0.00031003989921841589 0.011914028484533093 0 -0.00051144211386306413 0.011502042556817265 0 -0.0001008903354546962 0.011620778973343427 0 -0.00051144211386306413 0.011502042556817265 0 -0.0001008903354546962 0.011620778973343427 0 -0.00014791956946424273 0.011267325344505258 0 -0.00051144211386306413 0.011502042556817265 0 -0.00057451588244080299 0.011123493443802177 0 -0.00014791956946424273 0.011267325344505258 0 -0.00043324630092943874 0.010697786214365576 0 -0.00014791956946424273 0.011267325344505258 0 7.9533171716465563e-05 0.010680746858444808 0 -0.00057451588244080299 0.011123493443802177 0 -0.00043324630092943874 0.010697786214365576 0 -0.00014791956946424273 0.011267325344505258 0 -0.00043324630092943874 0.010697786214365576 0 7.9533171716465563e-05 0.010680746858444808 0 -0.00024627833157472449 0.01008393249920882 0 7.9533171716465563e-05 0.010680746858444808 0 0.00032754035079763581 0.010126586728269833 0 -0.00024627833157472449 0.01008393249920882 0 0.0003634836201965965 0.011156515371161678 0 -0.00014791956946424273 0.011267325344505258 0 7.9533171716465563e-05 0.010680746858444808 0 0.0003634836201965965 0.011156515371161678 0 7.9533171716465563e-05 0.010680746858444808 0 0.00064027386475116088 0.010820290532047 0 0.00080517546890229263 0.011420213681279037 0 0.0003634836201965965 0.011156515371161678 0 0.00064027386475116088 0.010820290532047 0 7.9533171716465563e-05 0.010680746858444808 0 0.00064027386475116088 0.010820290532047 0 0.00032754035079763581 0.010126586728269833 0 0.0011421932793951352 0.01092975752516945 0 0.00064027386475116088 0.010820290532047 0 0.0009753554475106606 0.010172193704198406 0 0.0011421932793951352 0.01092975752516945 0 0.00080517546890229263 0.011420213681279037 0 0.00064027386475116088 0.010820290532047 0 0.0009753554475106606 0.010172193704198406 0 0.00059149260395694836 0.0096084369797744852 0 0.0010122787477752798 0.0092202723375647867 0 0.0009753554475106606 0.010172193704198406 0 0.00059149260395694836 0.0096084369797744852 0 0.00032754035079763581 0.010126586728269833 0 0.00064027386475116088 0.010820290532047 0 0.0009753554475106606 0.010172193704198406 0 0.00032754035079763581 0.010126586728269833 0 0.00059149260395694836 0.0096084369797744852 0 0.00032754035079763581 0.010126586728269833 0 3.2735393450216042e-05 0.0093843876188497051 0 0.00032754035079763581 0.010126586728269833 0 -0.00024627833157472449 0.01008393249920882 0 3.2735393450216042e-05 0.0093843876188497051 0 -0.00024627833157472449 0.01008393249920882 0 3.2735393450216042e-05 0.0093843876188497051 0 -0.00061574599091700883 0.0095423442266576591 0 3.2735393450216042e-05 0.0093843876188497051 0 -0.00061574599091700883 0.0095423442266576591 0 -0.00037067414985843429 0.0088732007847744689 0 3.2735393450216042e-05 0.0093843876188497051 0 0.00013234314454888536 0.0083818955563804334 0 -0.00037067414985843429 0.0088732007847744689 0 0.00013234314454888536 0.0083818955563804334 0 0.00043366876408251461 0.0089841320570572883 0 0.00068220136465341349 0.0085743418249684313 0 3.2735393450216042e-05 0.0093843876188497051 0 0.00013234314454888536 0.0083818955563804334 0 0.00043366876408251461 0.0089841320570572883 0 0.00059149260395694836 0.0096084369797744852 0 3.2735393450216042e-05 0.0093843876188497051 0 0.00043366876408251461 0.0089841320570572883 0 0.00059149260395694836 0.0096084369797744852 0 0.00043366876408251461 0.0089841320570572883 0 0.0010122787477752798 0.0092202723375647867 0 0.00043366876408251461 0.0089841320570572883 0 0.00068220136465341349 0.0085743418249684313 0 0.0010122787477752798 0.0092202723375647867 0 0.0015432445413608657 0.0084703224549273343 0 0.00068220136465341349 0.0085743418249684313 0 0.0010122787477752798 0.0092202723375647867 0 -0.0013222887203964129 0.0094422415128780843 0 -0.0020172682287988809 0.0097793295178005904 0 -0.0020274399542927414 0.0087853202493683689 0 -0.0013222887203964129 0.0094422415128780843 0 -0.0015349924125406657 0.010082199672729088 0 -0.00090063824569694135 0.010167189695603575 0 -0.0013222887203964129 0.0094422415128780843 0 -0.0020172682287988809 0.0097793295178005904 0 -0.0015349924125406657 0.010082199672729088 0 -0.0013222887203964129 0.0094422415128780843 0 -0.00090063824569694135 0.010167189695603575 0 -0.00061574599091700883 0.0095423442266576591 0 -0.00024627833157472449 0.01008393249920882 0 -0.00090063824569694135 0.010167189695603575 0 -0.00061574599091700883 0.0095423442266576591 0 -0.0013222887203964129 0.0094422415128780843 0 -0.00061574599091700883 0.0095423442266576591 0 -0.00091336338714105363 0.0089876703605440474 0 -0.00091336338714105363 0.0089876703605440474 0 -0.00037067414985843429 0.0088732007847744689 0 -0.00057477698597748297 0.0081282212882887676 0 -0.00061574599091700883 0.0095423442266576591 0 -0.00091336338714105363 0.0089876703605440474 0 -0.00037067414985843429 0.0088732007847744689 0 0.00013234314454888536 0.0083818955563804334 0 -0.00037067414985843429 0.0088732007847744689 0 -0.00057477698597748297 0.0081282212882887676 0 -0.00057477698597748297 0.0081282212882887676 0 -0.0013340456438246235 0.0084742059311973244 0 -0.00096549050595142588 0.0076607464857471972 0 -0.00091336338714105363 0.0089876703605440474 0 -0.00057477698597748297 0.0081282212882887676 0 -0.0013340456438246235 0.0084742059311973244 0 -0.0013340456438246235 0.0084742059311973244 0 -0.001914529481983597 0.0082305737554377173 0 -0.0015674066212977393 0.0077511678665478194 0 -0.0013222887203964129 0.0094422415128780843 0 -0.0013340456438246235 0.0084742059311973244 0 -0.0020274399542927414 0.0087853202493683689 0 -0.0013222887203964129 0.0094422415128780843 0 -0.00091336338714105363 0.0089876703605440474 0 -0.0013340456438246235 0.0084742059311973244 0 -0.0024242892647583017 0.0083279099121334101 0 -0.0020274399542927414 0.0087853202493683689 0 -0.001914529481983597 0.0082305737554377173 0 -0.0013340456438246235 0.0084742059311973244 0 -0.0020274399542927414 0.0087853202493683689 0 -0.001914529481983597 0.0082305737554377173 0 -0.0018846983473817457 0.0072799911393004691 0 -0.0015674066212977393 0.0077511678665478194 0 -0.0022291414362633558 0.0077919650773439174 0 -0.001914529481983597 0.0082305737554377173 0 -0.0015674066212977393 0.0077511678665478194 0 -0.0022291414362633558 0.0077919650773439174 0 -0.0018846983473817457 0.0072799911393004691 0 -0.0018329614166103807 0.0064963044495990191 0 -0.0026102614136562755 0.0072964383337772512 0 -0.0018846983473817457 0.0072799911393004691 0 -0.0010867385072479705 0.0069952936147596135 0 -0.0018329614166103807 0.0064963044495990191 0 -0.0018846983473817457 0.0072799911393004691 0 -0.0010867385072479705 0.0069952936147596135 0 -0.0015674066212977393 0.0077511678665478194 0 -0.0013340456438246235 0.0084742059311973244 0 -0.0015674066212977393 0.0077511678665478194 0 -0.00096549050595142588 0.0076607464857471972 0 -0.0010867385072479705 0.0069952936147596135 0 -0.0015674066212977393 0.0077511678665478194 0 -0.00096549050595142588 0.0076607464857471972 0 -0.00057477698597748297 0.0081282212882887676 0 -0.00096549050595142588 0.0076607464857471972 0 -0.00029280471835583003 0.0070314636933875947 0 -0.00057477698597748297 0.0081282212882887676 0 -0.00029280471835583003 0.0070314636933875947 0 8.8420446893929682e-05 0.0074030439223799855 0 -0.0010867385072479705 0.0069952936147596135 0 -0.00029280471835583003 0.0070314636933875947 0 -0.0004389380331268204 0.0064101289972749841 0 -0.0010867385072479705 0.0069952936147596135 0 -0.00096549050595142588 0.0076607464857471972 0 -0.00029280471835583003 0.0070314636933875947 0 -0.0010867385072479705 0.0069952936147596135 0 -0.0004389380331268204 0.0064101289972749841 0 -0.00050268969114774609 0.0055792172991950993 0 -0.00029280471835583003 0.0070314636933875947 0 -0.0004389380331268204 0.0064101289972749841 0 -1.5976192177702687e-05 0.006133726737481679 0 -1.5976192177702687e-05 0.006133726737481679 0 -0.00050268969114774609 0.0055792172991950993 0 -1.1210653736533358e-05 0.0055050238305302587 0 -0.0004389380331268204 0.0064101289972749841 0 -1.5976192177702687e-05 0.006133726737481679 0 -0.00050268969114774609 0.0055792172991950993 0 -0.00050268969114774609 0.0055792172991950993 0 -0.00021142106265715184 0.0050883649098358878 0 -0.0002503452464888903 0.0051122651252451584 0 -0.00050268969114774609 0.0055792172991950993 0 -0.00021142106265715184 0.0050883649098358878 0 -0.00027876363537162994 0.0050673676242707581 0 -0.00021142106265715184 0.0050883649098358878 0 -0.00027876363537162994 0.0050673676242707581 0 -0.00024873862973260783 0.0050660696770122686 0 -0.0010867385072479705 0.0069952936147596135 0 -0.00050268969114774609 0.0055792172991950993 0 -0.0018329614166103807 0.0064963044495990191 0 -0.00090941917821425701 0.0055760264781928694 0 -0.0011208706435462507 0.0056809972076467584 0 0.0013808165733316987 0.0077142248761524765 0 0.000879945651890771 0.007934169875920315 0 0.00099037064707952101 0.0073502773441752279 0 0.0015432445413608657 0.0084703224549273343 0 0.00068220136465341349 0.0085743418249684313 0 0.000879945651890771 0.007934169875920315 0 0.00068220136465341349 0.0085743418249684313 0 0.000879945651890771 0.007934169875920315 0 0.00030808145708551644 0.0079608695435448122 0 0.00040617613244118205 0.0075550155158758013 0 0.00064731050761537628 0.0070141229663326955 0 0.000879945651890771 0.007934169875920315 0 0.00030808145708551644 0.0079608695435448122 0 0.00056520720475213969 0.0072463576778357295 0 0.00068795481203322696 0.0071854408452840524 0 8.8420446893929682e-05 0.0074030439223799855 0 0.00036135278133662892 0.0065573690136852911 0 0.00022431596109330072 0.0079180989750859271 0 0.00040617613244118205 0.0075550155158758013 0 0.00013234314454888536 0.0083818955563804334 0 0.00068795481203322696 0.0071854408452840524 0 8.8420446893929682e-05 0.0074030439223799855 0 0.00013234314454888536 0.0083818955563804334 0 0.00068220136465341349 0.0085743418249684313 0 0.00030808145708551644 0.0079608695435448122 0 0.00013234314454888536 0.0083818955563804334 0 -0.00057477698597748297 0.0081282212882887676 0 8.8420446893929682e-05 0.0074030439223799855 0 -0.00029280471835583003 0.0070314636933875947 0 8.8420446893929682e-05 0.0074030439223799855 0 0.00036135278133662892 0.0065573690136852911 0 -0.00029280471835583003 0.0070314636933875947 0 -1.5976192177702687e-05 0.006133726737481679 0 0.00036135278133662892 0.0065573690136852911 0 -1.5976192177702687e-05 0.006133726737481679 0 0.00027092048387145735 0.0061209820841986173 0 9.443370944401678e-05 0.0058895311916605164 0 -1.5976192177702687e-05 0.006133726737481679 0 0.00036135278133662892 0.0065573690136852911 0 0.00027092048387145735 0.0061209820841986173 0 0.00036135278133662892 0.0065573690136852911 0 0.00048427522792796149 0.0063203656425923774 0 0.00027092048387145735 0.0061209820841986173 0 0.00068795481203322696 0.0071854408452840524 0 0.00036135278133662892 0.0065573690136852911 0 0.00067022839580476432 0.0065712711008251963 0 0.00036135278133662892 0.0065573690136852911 0 0.00067022839580476432 0.0065712711008251963 0 0.00048427522792796149 0.0063203656425923774 0 0.0011168028914402448 0.006894957995521536 0 0.00056520720475213969 0.0072463576778357295 0 0.00074475620568842447 0.0064375516513781195 0 0.00064731050761537628 0.0070141229663326955 0 0.00077728197870654029 0.0067270104357454209 0 0.00067022839580476432 0.0065712711008251963 0 0.00074475620568842447 0.0064375516513781195 0 0.00048427522792796149 0.0063203656425923774 0 0.000879945651890771 0.007934169875920315 0 0.00056520720475213969 0.0072463576778357295 0 0.00099037064707952101 0.0073502773441752279 0 0.0011168028914402448 0.006894957995521536 0 0.00056520720475213969 0.0072463576778357295 0 0.00099037064707952101 0.0073502773441752279 0 -0.00021812174814513937 0.0061163834440162018 0 0.00035964027464848504 0.0062200776369570809 0 -3.6123522225059047e-05 0.0072947354978300386 0 0.00025683191066191194 0.0090344437303260354 0 0.00019651090248910079 0.008796892377532204 0 0.00074475620568842447 0.0064375516513781195 0 0.00048628100965381353 0.0063024357237696409 0 0.00048427522792796149 0.0063203656425923774 0 0.00076987344888531913 0.006129067765960363 0 0.00074475620568842447 0.0064375516513781195 0 0.00048628100965381353 0.0063024357237696409 0 0.00076987344888531913 0.006129067765960363 0 0.00035964027464848504 0.0062200776369570809 0 0.00048628100965381353 0.0063024357237696409 0 0.00035964027464848504 0.0062200776369570809 0 0.00048628100965381353 0.0063024357237696409 0 0.00034172988615350456 0.0061914143038466971 0 0.00048628100965381353 0.0063024357237696409 0 0.00048427522792796149 0.0063203656425923774 0 0.00034172988615350456 0.0061914143038466971 0 0.00035964027464848504 0.0062200776369570809 0 0.00034172988615350456 0.0061914143038466971 0 0.00023138419733674713 0.0065984979106480024 0 0.00034172988615350456 0.0061914143038466971 0 0.00011752649551388147 0.0059248535997944527 0 0.0001845915626194062 0.0062212808059428247 0 0.00034172988615350456 0.0061914143038466971 0 0.00027092048387145735 0.0061209820841986173 0 0.00011752649551388147 0.0059248535997944527 0 0.00048427522792796149 0.0063203656425923774 0 0.00034172988615350456 0.0061914143038466971 0 0.00027092048387145735 0.0061209820841986173 0 0.00027092048387145735 0.0061209820841986173 0 0.00011752649551388147 0.0059248535997944527 0 9.443370944401678e-05 0.0058895311916605164 0 0.00011752649551388147 0.0059248535997944527 0 0.00010624641510399275 0.005873498790144099 0 0.0001845915626194062 0.0062212808059428247 0 0.00010624641510399275 0.005873498790144099 0 4.82483092223341e-07 0.0059390928478232526 0 0.0001845915626194062 0.0062212808059428247 0 4.82483092223341e-07 0.0059390928478232526 0 0.0001845915626194062 0.0062212808059428247 0 2.3645182521535909e-07 0.0068380338496711211 0 0.0001845915626194062 0.0062212808059428247 0 0.00023138419733674713 0.0065984979106480024 0 2.3645182521535909e-07 0.0068380338496711211 0 0.00034172988615350456 0.0061914143038466971 0 0.0001845915626194062 0.0062212808059428247 0 0.00023138419733674713 0.0065984979106480024 0 1.804602089328871e-08 0.0077364820352773022 0 2.3645182521535909e-07 0.0068380338496711211 0 -3.6123522225059047e-05 0.0072947354978300386 0 0.00023138419733674713 0.0065984979106480024 0 2.3645182521535909e-07 0.0068380338496711211 0 -3.6123522225059047e-05 0.0072947354978300386 0 0.00035964027464848504 0.0062200776369570809 0 0.00023138419733674713 0.0065984979106480024 0 -3.6123522225059047e-05 0.0072947354978300386 0 -9.058921207167425e-05 0.0049229773782188324 0 -0.0002503452464888903 0.0051122651252451584 0 -1.1210653736533358e-05 0.0055050238305302587 0 -9.058921207167425e-05 0.0049229773782188324 0 -0.00011000558699342589 0.00470817562655071 0 5.5733927422716469e-06 0.0045241059149702485 0 -9.058921207167425e-05 0.0049229773782188324 0 -0.00011000558699342589 0.00470817562655071 0 -0.0002503452464888903 0.0051122651252451584 0 -0.00011000558699342589 0.00470817562655071 0 -1.9094170707517523e-05 0.0042022515370508358 0 -0.00014068708493917352 0.0046953402674970507 0 -0.00011000558699342589 0.00470817562655071 0 -0.0002503452464888903 0.0051122651252451584 0 -0.00014068708493917352 0.0046953402674970507 0 -0.00021142106265715184 0.0050883649098358878 0 -0.0002503452464888903 0.0051122651252451584 0 -0.00014068708493917352 0.0046953402674970507 0 -0.00050268969114774609 0.0055792172991950993 0 -0.0002503452464888903 0.0051122651252451584 0 -1.1210653736533358e-05 0.0055050238305302587 0 -1.5976192177702687e-05 0.006133726737481679 0 -1.1210653736533358e-05 0.0055050238305302587 0 9.443370944401678e-05 0.0058895311916605164 0 0.00011752649551388147 0.0059248535997944527 0 -1.1210653736533358e-05 0.0055050238305302587 0 9.443370944401678e-05 0.0058895311916605164 0 0.00011752649551388147 0.0059248535997944527 0 -1.1210653736533358e-05 0.0055050238305302587 0 -4.4088765639404614e-05 0.0058035424421038016 0 -9.058921207167425e-05 0.0049229773782188324 0 -1.1210653736533358e-05 0.0055050238305302587 0 5.1072064734240939e-05 0.0046770282906523483 0 5.7103938176821075e-07 0.0053194928343725202 0 8.8725721116393472e-07 0.0052221637325099209 0 -9.058921207167425e-05 0.0049229773782188324 0 5.1072064734240939e-05 0.0046770282906523483 0 5.5733927422716469e-06 0.0045241059149702485 0 0.00011752649551388147 0.0059248535997944527 0 0.00010624641510399275 0.005873498790144099 0 -4.4088765639404614e-05 0.0058035424421038016 0 0.00010624641510399275 0.005873498790144099 0 -4.4088765639404614e-05 0.0058035424421038016 0 -4.8624651271281619e-07 0.0050422362280870756 0 0.00010624641510399275 0.005873498790144099 0 4.82483092223341e-07 0.0059390928478232526 0 -4.8624651271281619e-07 0.0050422362280870756 0 8.8725721116393472e-07 0.0052221637325099209 0 -1.0424129396613231e-09 0.0050409306643708985 0 5.1072064734240939e-05 0.0046770282906523483 0 1.7525212834486366e-08 0.0050392741931060457 0 5.5733927422716469e-06 0.0045241059149702485 0 1.7525212834486366e-08 0.0050392741931060457 0 1.3920286392612127e-07 0.0043219638862627202 0 5.5733927422716469e-06 0.0045241059149702485 0 -0.00011000558699342589 0.00470817562655071 0 5.5733927422716469e-06 0.0045241059149702485 0 -1.9094170707517523e-05 0.0042022515370508358 0 1.3920286392612127e-07 0.0043219638862627202 0 -1.9094170707517523e-05 0.0042022515370508358 0 -1.1160939192819486e-07 0.003602778153801263 0 1.3920286392612127e-07 0.0043219638862627202 0 5.5733927422716469e-06 0.0045241059149702485 0 -1.9094170707517523e-05 0.0042022515370508358 0 -1.9094170707517523e-05 0.0042022515370508358 0 -1.1160939192819486e-07 0.003602778153801263 0 -2.8664625004410065e-05 0.003704167187922072 0 -2.8664625004410065e-05 0.003704167187922072 0 4.0221311050818605e-07 0.0028833543693391624 0 -0.00017530886247517618 0.0035997689893682524 0 -1.1160939192819486e-07 0.003602778153801263 0 -2.8664625004410065e-05 0.003704167187922072 0 4.0221311050818605e-07 0.0028833543693391624 0 -2.8664625004410065e-05 0.003704167187922072 0 -0.00017530886247517618 0.0035997689893682524 0 -0.00012862165980028411 0.0042511535824833503 0 -1.9094170707517523e-05 0.0042022515370508358 0 -2.8664625004410065e-05 0.003704167187922072 0 -0.00012862165980028411 0.0042511535824833503 0 -4.9466543080176281e-07 0.0021644395772488544 0 -0.00025985196245869078 0.002423875047457667 0 4.0221311050818605e-07 0.0028833543693391624 0 -2.0078924179926313e-06 0.0021659779382774982 0 -0.00017530886247517618 0.0035997689893682524 0 -2.0078924179926313e-06 0.0021659779382774982 0 -0.00017530886247517618 0.0035997689893682524 0 -0.00083191341339932041 0.0037785068592079154 0 -0.00025985196245869078 0.002423875047457667 0 -0.0003821456003770749 0.0026018678886706873 0 -0.00083191341339932041 0.0037785068592079154 0 -0.00040923000941255468 0.0045356931762747122 0 -0.00091033705493494624 0.0045963021829442743 0 -0.00017530886247517618 0.0035997689893682524 0 -0.00083191341339932041 0.0037785068592079154 0 -0.00040923000941255468 0.0045356931762747122 0 -0.00040923000941255468 0.0045356931762747122 0 -0.00091033705493494624 0.0045963021829442743 0 -0.00059915914145068432 0.0049232465691438666 0 -0.00014068708493917352 0.0046953402674970507 0 -0.00012862165980028411 0.0042511535824833503 0 -0.00022380355361189061 0.0047138361789426011 0 -1.9094170707517523e-05 0.0042022515370508358 0 -0.00014068708493917352 0.0046953402674970507 0 -0.00012862165980028411 0.0042511535824833503 0 -0.00040923000941255468 0.0045356931762747122 0 -0.00012862165980028411 0.0042511535824833503 0 -0.00022380355361189061 0.0047138361789426011 0 -0.00017530886247517618 0.0035997689893682524 0 -0.00040923000941255468 0.0045356931762747122 0 -0.00012862165980028411 0.0042511535824833503 0 -0.00040923000941255468 0.0045356931762747122 0 -0.00022380355361189061 0.0047138361789426011 0 -0.00032628143848239811 0.0049242969258027937 0 -0.00021142106265715184 0.0050883649098358878 0 -0.00014068708493917352 0.0046953402674970507 0 -0.00022380355361189061 0.0047138361789426011 0 -0.00021142106265715184 0.0050883649098358878 0 -0.00022380355361189061 0.0047138361789426011 0 -0.00032628143848239811 0.0049242969258027937 0 -0.00021142106265715184 0.0050883649098358878 0 -0.00029891883093672596 0.0050618317285404087 0 -0.00032628143848239811 0.0049242969258027937 0 -0.00021142106265715184 0.0050883649098358878 0 -0.00024700878435852507 0.0051004865168137736 0 -0.00029891883093672596 0.0050618317285404087 0 -0.0007504616497801584 0.0050649477916399248 0 -0.00087790093647097795 0.0051581676409664691 0 -0.00024700878435852507 0.0051004865168137736 0 -0.00029891883093672596 0.0050618317285404087 0 -0.00030329269948630361 0.0051494061950713675 0 -0.00027876363537162994 0.0050673676242707581 0 -0.00025140634423322604 0.0050662655141811754 0 -0.00024873862973260783 0.0050660696770122686 0 -0.00029891883093672596 0.0050618317285404087 0 -0.00032628143848239811 0.0049242969258027937 0 -0.00046752550078984877 0.0051136329986106802 0 -0.00029891883093672596 0.0050618317285404087 0 -0.00046752550078984877 0.0051136329986106802 0 -0.00036474796231691085 0.0051691123993706182 0 -0.00029891883093672596 0.0050618317285404087 0 -0.00030329269948630361 0.0051494061950713675 0 -0.00036474796231691085 0.0051691123993706182 0 -0.00040923000941255468 0.0045356931762747122 0 -0.00032628143848239811 0.0049242969258027937 0 -0.00059915914145068432 0.0049232465691438666 0 -0.00032628143848239811 0.0049242969258027937 0 -0.00059915914145068432 0.0049232465691438666 0 -0.00046752550078984877 0.0051136329986106802 0 -0.00091033705493494624 0.0045963021829442743 0 -0.00059915914145068432 0.0049232465691438666 0 -0.00084416325084107284 0.0050326163339009531 0 -0.0003821456003770749 0.0026018678886706873 0 -0.0004103477412403982 0.0027439609059100368 0 -0.00059915914145068432 0.0049232465691438666 0 -0.00067364861908630164 0.0051382412663279814 0 -0.00084416325084107284 0.0050326163339009531 0 -0.00059915914145068432 0.0049232465691438666 0 -0.00067364861908630164 0.0051382412663279814 0 -0.00046752550078984877 0.0051136329986106802 0 -0.00046752550078984877 0.0051136329986106802 0 -0.00061496542601473367 0.005274498779665902 0 -0.0004610225173550703 0.0052813400174194051 0 -0.00067364861908630164 0.0051382412663279814 0 -0.00046752550078984877 0.0051136329986106802 0 -0.00061496542601473367 0.005274498779665902 0 -0.00067364861908630164 0.0051382412663279814 0 -0.0008058516033035509 0.0052942776904128901 0 -0.00084416325084107284 0.0050326163339009531 0 -0.00067364861908630164 0.0051382412663279814 0 -0.00061496542601473367 0.005274498779665902 0 -0.0008058516033035509 0.0052942776904128901 0 -0.00061496542601473367 0.005274498779665902 0 -0.00067639156831938313 0.0054110970335776512 0 -0.0008058516033035509 0.0052942776904128901 0 -0.00050723763943035525 0.0054343912071778844 0 -0.00061496542601473367 0.005274498779665902 0 -0.0004610225173550703 0.0052813400174194051 0 -0.00050723763943035525 0.0054343912071778844 0 -0.00061496542601473367 0.005274498779665902 0 -0.00067639156831938313 0.0054110970335776512 0 -0.00050723763943035525 0.0054343912071778844 0 -0.00029597738201719419 0.0052765603589147812 0 -0.0004610225173550703 0.0052813400174194051 0 -0.0011268128564543493 0.0049908955004810702 0 -0.0013455229964704528 0.005602674645246072 0 -0.0016995139773910502 0.0047003968142254396 0 -0.0023585160828268176 0.0049270853607841511 0 -0.0025493882306657184 0.0054628473337383849 0 -0.0017349274191135646 0.0061736926199465443 0 -0.0013455229964704528 0.005602674645246072 0 -0.0028085259681802765 0.0078698662568898667 0 -0.0022291414362633558 0.0077919650773439174 0 -0.0026102614136562755 0.0072964383337772512 0 -0.0024242892647583017 0.0083279099121334101 0 -0.0028085259681802765 0.0078698662568898667 0 -0.0022291414362633558 0.0077919650773439174 0 -0.0018846983473817457 0.0072799911393004691 0 -0.0022291414362633558 0.0077919650773439174 0 -0.0026102614136562755 0.0072964383337772512 0 -0.0017349274191135646 0.0061736926199465443 0 -0.0013855061642193611 0.0056977942276315524 0 -0.0016287358859549319 0.0061264479652378941 0 -0.0014676868276243375 0.0056717104662284048 0 -0.0013831669815945039 0.0055955475800798732 0 -0.00024700878435852507 0.0051004865168137736 0 -0.00029597738201719419 0.0052765603589147812 0 -0.00030329269948630361 0.0051494061950713675 0 -0.00024873862973260783 0.0050660696770122686 0 -0.00027020798581396199 0.005080370495100163 0 -0.00026595227404337113 0.0050787691825417459 0 -0.00087790093647097795 0.0051581676409664691 0 -0.0013455229964704528 0.005602674645246072 0 -0.00027876363537162994 0.0050673676242707581 0 -0.00025140634423322604 0.0050662655141811754 0 -0.00024167627001405836 0.0050463696746492273 0 -0.0011208706435462507 0.0056809972076467584 0 -0.0013855061642193611 0.0056977942276315524 0 -0.00025140634423322604 0.0050662655141811754 0 -0.00024873862973260783 0.0050660696770122686 0 -0.00026595227404337113 0.0050787691825417459 0 -0.0013455229964704528 0.005602674645246072 0 -0.0013855061642193611 0.0056977942276315524 0 -0.0012002115634930591 0.0054379921816204522 0 -0.0013855061642193611 0.0056977942276315524 0 -0.00029597738201719419 0.0052765603589147812 0 -0.00036474796231691085 0.0051691123993706182 0 -0.0004610225173550703 0.0052813400174194051 0 -0.00029597738201719419 0.0052765603589147812 0 -0.00030329269948630361 0.0051494061950713675 0 -0.00036474796231691085 0.0051691123993706182 0 -0.00046752550078984877 0.0051136329986106802 0 -0.00036474796231691085 0.0051691123993706182 0 -0.0004610225173550703 0.0052813400174194051 0 0.00020522218981059971 0.00040324600267022998 0 0.00013970169934517237 0.00031813296430079345 0 0.00016192182516402856 0.00019548839353417314 0 0.00020522218981059971 0.00040324600267022998 0 0.00013970169934517237 0.00031813296430079345 0 0.00011284456703846271 0.00041320893219648811 0 2.8011152629914817e-05 -0.00033072007760287655 0 4.0389256764085412e-05 -0.00024882812654783648 0 -0.00010084150546620185 -0.00095862439029407596 0 -0.00021204340295055926 -0.00087859896118482961 0 -0.00015617115115947776 -0.0008139397402355473 0 -0.00010084150546620185 -0.00095862439029407596 0 -0.00021204340295055926 -0.00087859896118482961 0 -0.00026919775634804614 -0.00097001991477107846 0 -0.00021204340295055926 -0.00087859896118482961 0 -0.0002418460417533673 -0.00080243142417635066 0 -0.00015617115115947776 -0.0008139397402355473 0 -0.0002418460417533673 -0.00080243142417635066 0 -0.00019258629182755948 -0.00073332860783484235 0 -0.0002619137241568313 -0.00075192863802692677 0 -0.0002418460417533673 -0.00080243142417635066 0 -0.00019258629182755948 -0.00073332860783484235 0 -0.00015617115115947776 -0.0008139397402355473 0 -0.0001589816064196191 -0.00073257082146584325 0 -0.00015617115115947776 -0.0008139397402355473 0 -0.0001068409594456152 -0.00072500827158427012 0 -0.00010084150546620185 -0.00095862439029407596 0 -0.00015617115115947776 -0.0008139397402355473 0 -0.0001068409594456152 -0.00072500827158427012 0 -0.00019258629182755948 -0.00073332860783484235 0 -0.0001589816064196191 -0.00073257082146584325 0 -0.00015014192799219148 -0.00067431101835489467 0 -0.00019258629182755948 -0.00073332860783484235 0 -0.0001589816064196191 -0.00073257082146584325 0 -0.00015617115115947776 -0.0008139397402355473 0 0.00013970169934517237 0.00031813296430079345 0 0.00016192182516402856 0.00019548839353417314 0 0.00013096471535992897 0.00023686776665495543 0 -0.0001589816064196191 -0.00073257082146584325 0 -0.0001068409594456152 -0.00072500827158427012 0 -0.00015014192799219148 -0.00067431101835489467 0 0.00011150501371355161 0.00013826498985897382 0 0.00016192182516402856 0.00019548839353417314 0 0.00012264587390915904 0.0001785277927805417 0 0.00016192182516402856 0.00019548839353417314 0 0.00013243151403295546 0.0002006593472333875 0 0.00012264587390915904 0.0001785277927805417 0 0.00016192182516402856 0.00019548839353417314 0 0.00013243151403295546 0.0002006593472333875 0 0.00013096471535992897 0.00023686776665495543 0 0.00013243151403295546 0.0002006593472333875 0 0.00011196839135504 0.00020813218720170561 0 0.00013096471535992897 0.00023686776665495543 0 0.00013243151403295546 0.0002006593472333875 0 0.00011196839135504 0.00020813218720170561 0 0.00012264587390915904 0.0001785277927805417 0 0.00011196839135504 0.00020813218720170561 0 0.00012264587390915904 0.0001785277927805417 0 9.7034750402966659e-05 0.00017915671700302984 0 9.7034750402966659e-05 0.00017915671700302984 0 7.4710217967179795e-05 0.00022169751773610442 0 7.2251318744193728e-05 0.0001657315980019969 0 0.00011196839135504 0.00020813218720170561 0 9.7034750402966659e-05 0.00017915671700302984 0 7.4710217967179795e-05 0.00022169751773610442 0 0.00011196839135504 0.00020813218720170561 0 7.4710217967179795e-05 0.00022169751773610442 0 0.00010525555348312846 0.00026871219133218284 0 7.4710217967179795e-05 0.00022169751773610442 0 0.00010525555348312846 0.00026871219133218284 0 6.4943650739894592e-05 0.00028631366849784422 0 0.00013970169934517237 0.00031813296430079345 0 0.00010525555348312846 0.00026871219133218284 0 0.00013096471535992897 0.00023686776665495543 0 0.00011196839135504 0.00020813218720170561 0 0.00010525555348312846 0.00026871219133218284 0 0.00013096471535992897 0.00023686776665495543 0 -0.00060543932902062622 0.0047791415196292908 0 -0.00040009629749631525 0.0028382850953331696 0 8.5149857206142149e-05 7.3568556077944689e-05 0 7.2251318744193728e-05 0.0001657315980019969 0 -4.1129249319786542e-05 0.00028187859890094766 0 -0.00078964559239495607 0.0054666958667510656 0 -0.00067639156831938313 0.0054110970335776512 0 -0.0008058516033035509 0.0052942776904128901 0 -0.0003016050528008192 0.0027973173822354496 0 -0.00040009629749631525 0.0028382850953331696 0 7.4710217967179795e-05 0.00022169751773610442 0 7.2251318744193728e-05 0.0001657315980019969 0 -4.1129249319786542e-05 0.00028187859890094766 0 7.4710217967179795e-05 0.00022169751773610442 0 -4.1129249319786542e-05 0.00028187859890094766 0 6.4943650739894592e-05 0.00028631366849784422 0 -4.1129249319786542e-05 0.00028187859890094766 0 1.7984206336924068e-05 0.00034819545311969518 0 -6.0222293547958538e-05 0.00041528974836754778 0 -0.00040009629749631525 0.0028382850953331696 0 -0.00026660282068728154 0.0013825947587146465 0 -3.1789228297002637e-05 0.00046671419305853982 0 -6.5396302633799431e-05 0.00051010165911880912 0 -5.0695323116234969e-05 0.0004936538002886454 0 -0.00040009629749631525 0.0028382850953331696 0 -0.0004103477412403982 0.0027439609059100368 0 -4.1129249319786542e-05 0.00028187859890094766 0 1.7984206336924068e-05 0.00034819545311969518 0 6.4943650739894592e-05 0.00028631366849784422 0 1.7984206336924068e-05 0.00034819545311969518 0 3.8170621590583573e-05 0.00041400312788090338 0 -6.0222293547958538e-05 0.00041528974836754778 0 0.00013970169934517237 0.00031813296430079345 0 0.00010525555348312846 0.00026871219133218284 0 8.3501228055175587e-05 0.00033989523043874957 0 1.7984206336924068e-05 0.00034819545311969518 0 8.3501228055175587e-05 0.00033989523043874957 0 6.4943650739894592e-05 0.00028631366849784422 0 0.00010525555348312846 0.00026871219133218284 0 8.3501228055175587e-05 0.00033989523043874957 0 6.4943650739894592e-05 0.00028631366849784422 0 1.7984206336924068e-05 0.00034819545311969518 0 8.3501228055175587e-05 0.00033989523043874957 0 3.8170621590583573e-05 0.00041400312788090338 0 0.00013970169934517237 0.00031813296430079345 0 8.3501228055175587e-05 0.00033989523043874957 0 0.00011284456703846271 0.00041320893219648811 0 8.3501228055175587e-05 0.00033989523043874957 0 0.00011284456703846271 0.00041320893219648811 0 3.8170621590583573e-05 0.00041400312788090338 0 0.00011284456703846271 0.00041320893219648811 0 3.8170621590583573e-05 0.00041400312788090338 0 5.7786809551264619e-05 0.00049207828484955341 0 3.8170621590583573e-05 0.00041400312788090338 0 5.7786809551264619e-05 0.00049207828484955341 0 -8.2321611883693944e-06 0.00047657523775613273 0 0.00011284456703846271 0.00041320893219648811 0 5.7786809551264619e-05 0.00049207828484955341 0 0.00013210950746248167 0.00049535530224042871 0 -6.0222293547958538e-05 0.00041528974836754778 0 -8.2321611883693944e-06 0.00047657523775613273 0 -7.0606781754940033e-05 0.00053626116476742855 0 -0.00026660282068728154 0.0013825947587146465 0 -0.00023200619572450771 0.0010513137920607461 0 -6.5396302633799431e-05 0.00051010165911880912 0 -5.0695323116234969e-05 0.0004936538002886454 0 -7.0606781754940033e-05 0.00053626116476742855 0 3.8170621590583573e-05 0.00041400312788090338 0 -6.0222293547958538e-05 0.00041528974836754778 0 -8.2321611883693944e-06 0.00047657523775613273 0 5.7786809551264619e-05 0.00049207828484955341 0 -8.2321611883693944e-06 0.00047657523775613273 0 -1.1337049578369261e-05 0.00053173592513855602 0 -0.0001383786357927333 0.0006242036969721222 0 -7.0606781754940033e-05 0.00053626116476742855 0 -3.311087009608737e-05 0.00057969678298415092 0 -0.0001383786357927333 0.0006242036969721222 0 -6.5396302633799431e-05 0.00051010165911880912 0 -7.0606781754940033e-05 0.00053626116476742855 0 -7.0606781754940033e-05 0.00053626116476742855 0 -1.1337049578369261e-05 0.00053173592513855602 0 -3.311087009608737e-05 0.00057969678298415092 0 -8.2321611883693944e-06 0.00047657523775613273 0 -7.0606781754940033e-05 0.00053626116476742855 0 -1.1337049578369261e-05 0.00053173592513855602 0 -1.1337049578369261e-05 0.00053173592513855602 0 -3.311087009608737e-05 0.00057969678298415092 0 3.4232783792735861e-05 0.00057143998417655425 0 5.7786809551264619e-05 0.00049207828484955341 0 9.375597435043009e-05 0.00055039876431859757 0 0.00013210950746248167 0.00049535530224042871 0 5.7786809551264619e-05 0.00049207828484955341 0 3.4232783792735861e-05 0.00057143998417655425 0 9.375597435043009e-05 0.00055039876431859757 0 5.7786809551264619e-05 0.00049207828484955341 0 -1.1337049578369261e-05 0.00053173592513855602 0 3.4232783792735861e-05 0.00057143998417655425 0 3.4232783792735861e-05 0.00057143998417655425 0 9.375597435043009e-05 0.00055039876431859757 0 0.00010455175721377098 0.00062353607064617115 0 9.375597435043009e-05 0.00055039876431859757 0 0.0001436425013158674 0.00056361257027989482 0 0.00010455175721377098 0.00062353607064617115 0 0.0001436425013158674 0.00056361257027989482 0 0.00016491482830838542 0.00052418371565367988 0 0.0001620628789936029 0.00056679823234416537 0 0.0001436425013158674 0.00056361257027989482 0 0.00016491482830838542 0.00052418371565367988 0 0.00013210950746248167 0.00049535530224042871 0 9.375597435043009e-05 0.00055039876431859757 0 0.0001436425013158674 0.00056361257027989482 0 0.00013210950746248167 0.00049535530224042871 0 0.00020522218981059971 0.00040324600267022998 0 0.00016491482830838542 0.00052418371565367988 0 0.00013210950746248167 0.00049535530224042871 0 0.00020522218981059971 0.00040324600267022998 0 0.00011284456703846271 0.00041320893219648811 0 0.00013210950746248167 0.00049535530224042871 0 -0.00010084150546620185 -0.00095862439029407596 0 -0.00022607371752823399 -0.001073732928871602 0 -0.00026919775634804614 -0.00097001991477107846 0 2.8011152629914817e-05 -0.00033072007760287655 0 2.2468291016813348e-05 -0.00040658288977314633 0 -0.00010084150546620185 -0.00095862439029407596 0 -0.00012277097153417054 -0.0011861758520396934 0 -0.00022607371752823399 -0.001073732928871602 0 0.00020522218981059971 0.00040324600267022998 0 0.00016491482830838542 0.00052418371565367988 0 0.00017603531041976897 0.00057254243536616661 0 -0.00010084150546620185 -0.00095862439029407596 0 -0.00012277097153417054 -0.0011861758520396934 0 -0.00010496995399847615 -0.0012721256612428387 0 0.00017603531041976897 0.00057254243536616661 0 0.0001620628789936029 0.00056679823234416537 0 0.0001552829797354125 0.000589307875959889 0 0.00016491482830838542 0.00052418371565367988 0 0.00017603531041976897 0.00057254243536616661 0 0.0001620628789936029 0.00056679823234416537 0 0.0001436425013158674 0.00056361257027989482 0 0.0001620628789936029 0.00056679823234416537 0 0.0001552829797354125 0.000589307875959889 0 0.00017603531041976897 0.00057254243536616661 0 0.0001552829797354125 0.000589307875959889 0 4.0140552655316183e-05 0.00054931318623304619 0 0.0001436425013158674 0.00056361257027989482 0 0.0001552829797354125 0.000589307875959889 0 0.00010455175721377098 0.00062353607064617115 0 0.0001552829797354125 0.000589307875959889 0 0.00010455175721377098 0.00062353607064617115 0 0.0001353746665473138 0.00068853660070193688 0 0.0001552829797354125 0.000589307875959889 0 0.00011427640041575505 0.00039101727701924631 0 0.0001353746665473138 0.00068853660070193688 0 0.0001552829797354125 0.000589307875959889 0 0.00011427640041575505 0.00039101727701924631 0 4.0140552655316183e-05 0.00054931318623304619 0 -0.0001383786357927333 0.0006242036969721222 0 1.5259777685357959e-05 0.00064146122278709093 0 3.3322931670536459e-05 0.00077529799858422701 0 -0.0001383786357927333 0.0006242036969721222 0 -3.311087009608737e-05 0.00057969678298415092 0 1.5259777685357959e-05 0.00064146122278709093 0 -3.311087009608737e-05 0.00057969678298415092 0 3.4232783792735861e-05 0.00057143998417655425 0 1.5259777685357959e-05 0.00064146122278709093 0 1.5259777685357959e-05 0.00064146122278709093 0 0.00010455175721377098 0.00062353607064617115 0 3.3322931670536459e-05 0.00077529799858422701 0 3.4232783792735861e-05 0.00057143998417655425 0 1.5259777685357959e-05 0.00064146122278709093 0 0.00010455175721377098 0.00062353607064617115 0 0.00010455175721377098 0.00062353607064617115 0 3.3322931670536459e-05 0.00077529799858422701 0 0.0001353746665473138 0.00068853660070193688 0 -0.00023375402170385665 0.0010205096906865181 0 -0.0001383786357927333 0.0006242036969721222 0 3.3322931670536459e-05 0.00077529799858422701 0 -0.00023375402170385665 0.0010205096906865181 0 3.3322931670536459e-05 0.00077529799858422701 0 0.00010034965536010037 0.0010162558395930088 0 3.3322931670536459e-05 0.00077529799858422701 0 0.00010034965536010037 0.0010162558395930088 0 0.0001353746665473138 0.00068853660070193688 0 0.00010034965536010037 0.0010162558395930088 0 3.9373892021781635e-07 0.0013636247891256361 0 2.2031358863426021e-07 0.00056286121734449765 0 -9.7494655441521245e-07 0.0021625666971462646 0 -0.00023375402170385665 0.0010205096906865181 0 0.00010034965536010037 0.0010162558395930088 0 -9.7494655441521245e-07 0.0021625666971462646 0 0.00010034965536010037 0.0010162558395930088 0 3.9373892021781635e-07 0.0013636247891256361 0 0.00010034965536010037 0.0010162558395930088 0 0.0001353746665473138 0.00068853660070193688 0 2.2031358863426021e-07 0.00056286121734449765 0 0.00011427640041575505 0.00039101727701924631 0 0.0001353746665473138 0.00068853660070193688 0 2.2031358863426021e-07 0.00056286121734449765 0 0.00011427640041575505 0.00039101727701924631 0 2.2031358863426021e-07 0.00056286121734449765 0 3.4938573581272173e-07 -0.00023776703064006731 0 0.00011427640041575505 0.00039101727701924631 0 3.4938573581272173e-07 -0.00023776703064006731 0 -0.00013148214547097041 0.00011630609884588536 0 2.5911161449420849e-05 -0.0006774206817879581 0 -3.5067097610028927e-08 -0.0010378568640533824 0 3.4938573581272173e-07 -0.00023776703064006731 0 -0.00013148214547097041 0.00011630609884588536 0 -8.6707890704712146e-07 -0.0010370006423943558 0 -9.2320683127009032e-05 -0.0014202494728616324 0 -3.5146237258352272e-07 -0.0010395103186810759 0 4.2866696112072918e-05 -0.001407812024371568 0 -3.5146237258352272e-07 -0.0010395103186810759 0 4.1528542589805465e-07 -0.0015687064960685185 0 4.2866696112072918e-05 -0.001407812024371568 0 4.1528542589805465e-07 -0.0015687064960685185 0 2.7094450571135823e-05 -0.0015928913633031128 0 -5.6726712395256448e-07 -0.0020980171086777168 0 4.1528542589805465e-07 -0.0015687064960685185 0 2.7094450571135823e-05 -0.0015928913633031128 0 4.2866696112072918e-05 -0.001407812024371568 0 2.7094450571135823e-05 -0.0015928913633031128 0 1.1364756691232551e-05 -0.0014469008328825534 0 4.2866696112072918e-05 -0.001407812024371568 0 2.7094450571135823e-05 -0.0015928913633031128 0 1.1364756691232551e-05 -0.0014469008328825534 0 -8.1262293717967071e-05 -0.0014125920295799887 0 -9.2320683127009032e-05 -0.0014202494728616324 0 4.2866696112072918e-05 -0.001407812024371568 0 -4.8707207240297256e-05 -0.0014212810577021832 0 1.1364756691232551e-05 -0.0014469008328825534 0 4.2866696112072918e-05 -0.001407812024371568 0 -4.8707207240297256e-05 -0.0014212810577021832 0 -4.8707207240297256e-05 -0.0014212810577021832 0 -4.0909127353898515e-05 -0.0014062573455222542 0 -5.7499510676713827e-05 -0.0013808990051749073 0 1.1364756691232551e-05 -0.0014469008328825534 0 -4.8707207240297256e-05 -0.0014212810577021832 0 -4.0909127353898515e-05 -0.0014062573455222542 0 -4.0909127353898515e-05 -0.0014062573455222542 0 -8.1598219678391269e-05 -0.0013815143569094893 0 -8.1262293717967071e-05 -0.0014125920295799887 0 1.1364756691232551e-05 -0.0014469008328825534 0 -4.0909127353898515e-05 -0.0014062573455222542 0 -8.1262293717967071e-05 -0.0014125920295799887 0 -4.0909127353898515e-05 -0.0014062573455222542 0 -8.1598219678391269e-05 -0.0013815143569094893 0 -5.7499510676713827e-05 -0.0013808990051749073 0 -8.1598219678391269e-05 -0.0013815143569094893 0 -5.7499510676713827e-05 -0.0013808990051749073 0 -7.1775445243326267e-05 -0.0013602509316329419 0 -4.8707207240297256e-05 -0.0014212810577021832 0 -5.7499510676713827e-05 -0.0013808990051749073 0 -6.7009611075582369e-05 -0.0013647122796052245 0 -5.7499510676713827e-05 -0.0013808990051749073 0 -6.7009611075582369e-05 -0.0013647122796052245 0 -6.5642004758145747e-05 -0.0013604448219469358 0 -4.8707207240297256e-05 -0.0014212810577021832 0 -6.7009611075582369e-05 -0.0013647122796052245 0 -6.2595722485664224e-05 -0.0013780186064763602 0 2.2468291016813348e-05 -0.00040658288977314633 0 2.1181443652150437e-05 -0.0005025312728536847 0 -6.7009611075582369e-05 -0.0013647122796052245 0 -6.2595722485664224e-05 -0.0013780186064763602 0 -8.463876329872998e-05 -0.0013307436035009154 0 -0.00010496995399847615 -0.0012721256612428387 0 -6.2595722485664224e-05 -0.0013780186064763602 0 -8.463876329872998e-05 -0.0013307436035009154 0 0.00011427640041575505 0.00039101727701924631 0 -0.00013148214547097041 0.00011630609884588536 0 4.0140552655316183e-05 0.00054931318623304619 0 2.5911161449420849e-05 -0.0006774206817879581 0 2.1181443652150437e-05 -0.0005025312728536847 0 -9.2320683127009032e-05 -0.0014202494728616324 0 -4.8707207240297256e-05 -0.0014212810577021832 0 -6.2595722485664224e-05 -0.0013780186064763602 0 6.4350645131295762e-05 -0.0031890734896513912 0 -5.4449960889303706e-05 -0.0030935078019813426 0 -0.00012532631322120075 -0.0031977365211173382 0 1.7491946320851343e-07 -0.0034280256375500747 0 6.4350645131295762e-05 -0.0031890734896513912 0 -0.00012532631322120075 -0.0031977365211173382 0 -7.8445652476343632e-07 -0.0034310270026320856 0 -0.00042635719448140324 -0.0040131071849430367 0 -6.8370485923583929e-08 -0.0030027899192786927 0 -3.7095712484681235e-05 -0.0029346608599453527 0 1.852368317300408e-08 -0.0030010313499966783 0 -4.4842752585754448e-06 -0.0025652617211155289 0 6.577658245660213e-05 -0.0025865489117828165 0 1.7491946320851343e-07 -0.0034280256375500747 0 -1.8042850856931196e-07 -0.0030051949420525381 0 6.4350645131295762e-05 -0.0031890734896513912 0 -4.4842752585754448e-06 -0.0025652617211155289 0 6.577658245660213e-05 -0.0025865489117828165 0 2.361291775274709e-06 -0.0026341710068639324 0 -4.4842752585754448e-06 -0.0025652617211155289 0 2.361291775274709e-06 -0.0026341710068639324 0 -6.6430269952159718e-06 -0.0026009654695273018 0 1.852368317300408e-08 -0.0030010313499966783 0 6.577658245660213e-05 -0.0025865489117828165 0 -1.9586673586080314e-08 -0.0021009775807606448 0 -1.8543924619657622e-07 -0.0020991737676263225 0 -9.9867453758575728e-05 -0.0021308334425061749 0 6.577658245660213e-05 -0.0025865489117828165 0 -1.9586673586080314e-08 -0.0021009775807606448 0 2.361291775274709e-06 -0.0026341710068639324 0 2.7094450571135823e-05 -0.0015928913633031128 0 -5.6726712395256448e-07 -0.0020980171086777168 0 -0.00018444035557431361 -0.0014883568415125937 0 2.7094450571135823e-05 -0.0015928913633031128 0 -0.00018444035557431361 -0.0014883568415125937 0 -8.1262293717967071e-05 -0.0014125920295799887 0 -0.00018444035557431361 -0.0014883568415125937 0 -8.1262293717967071e-05 -0.0014125920295799887 0 -0.00013623665926969935 -0.0013778765362734034 0 -8.1598219678391269e-05 -0.0013815143569094893 0 -8.1262293717967071e-05 -0.0014125920295799887 0 -0.00013623665926969935 -0.0013778765362734034 0 -8.1598219678391269e-05 -0.0013815143569094893 0 -0.00013623665926969935 -0.0013778765362734034 0 -0.00012001531607672647 -0.0013745109352442393 0 -4.7459598245421925e-06 -0.0025998395194542991 0 2.0622762910206369e-06 -0.0026061945505627352 0 3.0565704121159494e-06 -0.0026204497868334946 0 -0.00019052270878161705 -0.0022923229305176992 0 -0.00018012469816054851 -0.0032109658086077347 0 -9.9867453758575728e-05 -0.0021308334425061749 0 -0.00019052270878161705 -0.0022923229305176992 0 2.361291775274709e-06 -0.0026341710068639324 0 -4.7459598245421925e-06 -0.0025998395194542991 0 -6.6430269952159718e-06 -0.0026009654695273018 0 -4.7459598245421925e-06 -0.0025998395194542991 0 -6.6430269952159718e-06 -0.0026009654695273018 0 2.0622762910206369e-06 -0.0026061945505627352 0 6.4350645131295762e-05 -0.0031890734896513912 0 5.58769382167585e-05 -0.0030588115002722865 0 -5.4449960889303706e-05 -0.0030935078019813426 0 -3.7095712484681235e-05 -0.0029346608599453527 0 -0.00010813195518674824 -0.0030076764209279482 0 -4.4842752585754448e-06 -0.0025652617211155289 0 -6.6430269952159718e-06 -0.0026009654695273018 0 2.0622762910206369e-06 -0.0026061945505627352 0 -0.00010813195518674824 -0.0030076764209279482 0 -0.00025814896712798125 -0.0035430293523213228 0 5.58769382167585e-05 -0.0030588115002722865 0 -6.873587826779482e-05 -0.0029814973171829661 0 5.8223093143651485e-05 -0.0029229831032060952 0 5.58769382167585e-05 -0.0030588115002722865 0 -6.873587826779482e-05 -0.0029814973171829661 0 -5.4449960889303706e-05 -0.0030935078019813426 0 -0.00017055198992852092 -0.0057578681598693775 0 -0.00016950526580317935 -0.0057779644091032582 0 -0.00014661611570684983 -0.0057714557183023672 0 -0.00017055198992852092 -0.0057578681598693775 0 -0.00019592548417991264 -0.0057734532684028013 0 -0.00016950526580317935 -0.0057779644091032582 0 -0.00016815049426481269 -0.0057338566396955238 0 -0.00017055198992852092 -0.0057578681598693775 0 -0.00014808199812932005 -0.0057469227719772163 0 -0.00016815049426481269 -0.0057338566396955238 0 -0.00017055198992852092 -0.0057578681598693775 0 -0.00019555785646962963 -0.0057438607864820496 0 -0.0002886830479402719 -0.0044477361107938245 0 -0.00025814896712798125 -0.0035430293523213228 0 -0.00025814896712798125 -0.0035430293523213228 0 -0.00018012469816054851 -0.0032109658086077347 0 -0.00011049448608853961 -0.0032454406421990908 0 -0.00011806402256031649 -0.0035087640795705196 0 -0.00018493663247028322 -0.0032808686777800154 0 -0.00017055198992852092 -0.0057578681598693775 0 -0.00019555785646962963 -0.0057438607864820496 0 -0.00019592548417991264 -0.0057734532684028013 0 -0.00025814896712798125 -0.0035430293523213228 0 -0.00021703103273876389 -0.0035247824941753042 0 -0.00021703103273876389 -0.0035247824941753042 0 -0.00018012469816054851 -0.0032109658086077347 0 -3.0872463671371845e-05 -0.0015041376469808287 0 -9.1339071620293735e-05 -0.001434450015864493 0 -7.5277605885525878e-05 -0.0013918718802650104 0 -3.0872463671371845e-05 -0.0015041376469808287 0 -0.00010963386375545336 -0.0014812912624568766 0 -9.1339071620293735e-05 -0.001434450015864493 0 -0.00010963386375545336 -0.0014812912624568766 0 -0.00012711621774110665 -0.0014253626245035007 0 -0.00015641877903494486 -0.0014782624018642367 0 -0.00010963386375545336 -0.0014812912624568766 0 -0.00015641877903494486 -0.0014782624018642367 0 -0.00013381687488089433 -0.0015084476210302242 0 -0.00010963386375545336 -0.0014812912624568766 0 -0.00012711621774110665 -0.0014253626245035007 0 -9.1339071620293735e-05 -0.001434450015864493 0 -0.00012711621774110665 -0.0014253626245035007 0 -9.1339071620293735e-05 -0.001434450015864493 0 -0.00010637427003863033 -0.0014102303963640817 0 -9.1339071620293735e-05 -0.001434450015864493 0 -9.080941809324834e-05 -0.0013966932941756618 0 -0.00010637427003863033 -0.0014102303963640817 0 -8.8567881001745983e-05 -0.0013911354920239174 0 -9.080941809324834e-05 -0.0013966932941756618 0 -0.00012001531607672647 -0.0013745109352442393 0 -0.00013623665926969935 -0.0013778765362734034 0 -8.8567881001745983e-05 -0.0013911354920239174 0 -0.00012001531607672647 -0.0013745109352442393 0 -4.7459598245421925e-06 -0.0025998395194542991 0 3.0565704121159494e-06 -0.0026204497868334946 0 -1.8946104597268495e-06 -0.00262306178885801 0 -0.00018012469816054851 -0.0032109658086077347 0 -0.00017441561574695248 -0.0032039594591106854 0 -9.1339071620293735e-05 -0.001434450015864493 0 -7.5277605885525878e-05 -0.0013918718802650104 0 -9.080941809324834e-05 -0.0013966932941756618 0 -0.00012711621774110665 -0.0014253626245035007 0 -0.00012001531607672647 -0.0013745109352442393 0 -0.00010637427003863033 -0.0014102303963640817 0 -9.080941809324834e-05 -0.0013966932941756618 0 -0.00012001531607672647 -0.0013745109352442393 0 -0.00010637427003863033 -0.0014102303963640817 0 -0.00012001531607672647 -0.0013745109352442393 0 -0.00020427091959949597 -0.0014246778216379086 0 -0.00016026956407036585 -0.001433190453909999 0 -0.00012001531607672647 -0.0013745109352442393 0 -0.00020427091959949597 -0.0014246778216379086 0 -0.00027688874851688192 -0.0013844376851816183 0 -8.1598219678391269e-05 -0.0013815143569094893 0 -0.00012001531607672647 -0.0013745109352442393 0 -7.1775445243326267e-05 -0.0013602509316329419 0 -0.00015887012071408787 -0.0013653391456208139 0 -0.0001938315039591814 -0.0013660566661032321 0 -0.00012711621774110665 -0.0014253626245035007 0 -0.00012001531607672647 -0.0013745109352442393 0 -0.00016026956407036585 -0.001433190453909999 0 -0.00020427091959949597 -0.0014246778216379086 0 -0.00016026956407036585 -0.001433190453909999 0 -0.00018593818268956963 -0.0014705632166125207 0 -0.00016026956407036585 -0.001433190453909999 0 -0.00015641877903494486 -0.0014782624018642367 0 -0.00018593818268956963 -0.0014705632166125207 0 -0.00012711621774110665 -0.0014253626245035007 0 -0.00016026956407036585 -0.001433190453909999 0 -0.00015641877903494486 -0.0014782624018642367 0 -0.00015641877903494486 -0.0014782624018642367 0 -0.00018593818268956963 -0.0014705632166125207 0 -0.00018353122243681958 -0.0015112195182596674 0 -0.00020427091959949597 -0.0014246778216379086 0 -0.00018593818268956963 -0.0014705632166125207 0 -0.00022495245069426595 -0.0015055012105116992 0 -0.00018593818268956963 -0.0014705632166125207 0 -0.00018353122243681958 -0.0015112195182596674 0 -0.00022495245069426595 -0.0015055012105116992 0 -0.00018353122243681958 -0.0015112195182596674 0 -0.00017569422244420339 -0.0015918814830547209 0 -0.00022495245069426595 -0.0015055012105116992 0 -0.00015641877903494486 -0.0014782624018642367 0 -0.00015765267713127872 -0.0015351748705872015 0 -0.00013381687488089433 -0.0015084476210302242 0 -0.00018353122243681958 -0.0015112195182596674 0 -0.00015765267713127872 -0.0015351748705872015 0 -0.00017569422244420339 -0.0015918814830547209 0 -0.00015641877903494486 -0.0014782624018642367 0 -0.00018353122243681958 -0.0015112195182596674 0 -0.00015765267713127872 -0.0015351748705872015 0 -0.00015765267713127872 -0.0015351748705872015 0 -0.00017569422244420339 -0.0015918814830547209 0 -0.00014192719865576718 -0.0015626352835492678 0 -0.00017569422244420339 -0.0015918814830547209 0 -0.00014192719865576718 -0.0015626352835492678 0 -0.00012361859644884448 -0.0015834808994132123 0 -0.00057716398054629651 -0.00090315287734511491 0 -0.00058208723040581803 -0.00086569665448162948 0 -0.00054031889032259963 -0.00086390120983994298 0 -0.00058208723040581803 -0.00086569665448162948 0 -0.00057991536134683122 -0.00083708510238009702 0 -0.00054031889032259963 -0.00086390120983994298 0 -0.00057991536134683122 -0.00083708510238009702 0 -0.00063011641523345277 -0.00085816925538181974 0 -0.00060789437329428274 -0.00081683647935886048 0 -0.00058208723040581803 -0.00086569665448162948 0 -0.00057991536134683122 -0.00083708510238009702 0 -0.00063011641523345277 -0.00085816925538181974 0 -0.00089321680739041717 -0.001807942063937745 0 -0.0008498029967441722 -0.0019573522783990563 0 -0.00057716398054629651 -0.00090315287734511491 0 -0.00058208723040581803 -0.00086569665448162948 0 -0.00063011641523345277 -0.00085816925538181974 0 -0.00059344916949460392 -0.00090002792303560679 0 -0.00057716398054629651 -0.00090315287734511491 0 -0.00061995395765141815 -0.00088935082660278146 0 -9.8116538313284594e-05 -0.0016229364056439572 0 -7.5574341667126833e-05 -0.0015829481995353356 0 -0.00012361859644884448 -0.0015834808994132123 0 -0.00017569422244420339 -0.0015918814830547209 0 -9.8116538313284594e-05 -0.0016229364056439572 0 -0.00012361859644884448 -0.0015834808994132123 0 -0.00060264493664171303 -0.001703568331160395 0 -0.00060391802299639629 -0.0025071080659451752 0 -0.00017569422244420339 -0.0015918814830547209 0 -9.8116538313284594e-05 -0.0016229364056439572 0 -4.8683401773376336e-05 -0.0016941638585955617 0 -0.00059344916949460392 -0.00090002792303560679 0 -0.00061995395765141815 -0.00088935082660278146 0 -0.00065923687436533166 -0.00088011248071924908 0 -0.0008498029967441722 -0.0019573522783990563 0 -0.00060391802299639629 -0.0025071080659451752 0 -9.8116538313284594e-05 -0.0016229364056439572 0 -5.8401824104789637e-05 -0.0016448592219258551 0 -4.8683401773376336e-05 -0.0016941638585955617 0 -5.8401824104789637e-05 -0.0016448592219258551 0 -7.5574341667126833e-05 -0.0015829481995353356 0 -3.1708227673159014e-05 -0.0016030604274209926 0 -9.8116538313284594e-05 -0.0016229364056439572 0 -5.8401824104789637e-05 -0.0016448592219258551 0 -7.5574341667126833e-05 -0.0015829481995353356 0 -7.5574341667126833e-05 -0.0015829481995353356 0 -0.00012361859644884448 -0.0015834808994132123 0 -0.00011095128864672397 -0.0015401384569875812 0 -0.00014192719865576718 -0.0015626352835492678 0 -0.00012361859644884448 -0.0015834808994132123 0 -0.00011095128864672397 -0.0015401384569875812 0 -0.00015765267713127872 -0.0015351748705872015 0 -0.00013381687488089433 -0.0015084476210302242 0 -0.00011095128864672397 -0.0015401384569875812 0 -0.00015765267713127872 -0.0015351748705872015 0 -0.00014192719865576718 -0.0015626352835492678 0 -0.00011095128864672397 -0.0015401384569875812 0 -0.00010963386375545336 -0.0014812912624568766 0 -0.00013381687488089433 -0.0015084476210302242 0 -0.00011095128864672397 -0.0015401384569875812 0 -3.0872463671371845e-05 -0.0015041376469808287 0 -7.5574341667126833e-05 -0.0015829481995353356 0 -0.00011095128864672397 -0.0015401384569875812 0 -3.0872463671371845e-05 -0.0015041376469808287 0 -0.00010963386375545336 -0.0014812912624568766 0 -0.00011095128864672397 -0.0015401384569875812 0 -0.00028684035874729669 -0.0035109777468616066 0 -0.00028307497268495577 -0.0035096565631148411 0 -0.00028376591228971182 -0.0035096508065069619 0 -0.00021703103273876389 -0.0035247824941753042 0 -1.9067454397472204e-05 -0.0042608028911630602 0 -3.0872463671371845e-05 -0.0015041376469808287 0 -7.5574341667126833e-05 -0.0015829481995353356 0 -3.1708227673159014e-05 -0.0016030604274209926 0 -0.00021703103273876389 -0.0035247824941753042 0 -0.00033028615207630576 -0.0029468071674907028 0 -0.00019592548417991264 -0.0057734532684028013 0 -0.00018625894584609152 -0.0058038004111555571 0 -0.00017295468599741527 -0.0057938993835939282 0 -0.00033028615207630576 -0.0029468071674907028 0 -0.00049812521960695391 -0.0028019994851896778 0 -0.00028307497268495577 -0.0035096565631148411 0 -0.00028376591228971182 -0.0035096508065069619 0 -0.00028198470435808915 -0.0035089075752272733 0 -5.8401824104789637e-05 -0.0016448592219258551 0 -3.1708227673159014e-05 -0.0016030604274209926 0 -3.5395226769287527e-05 -0.0017043158125210529 0 -5.8401824104789637e-05 -0.0016448592219258551 0 -4.8683401773376336e-05 -0.0016941638585955617 0 -3.5395226769287527e-05 -0.0017043158125210529 0 -0.00016407262034929019 -0.0058146313065694545 0 -0.00017295468599741527 -0.0057938993835939282 0 -0.00014964759902187942 -0.0057991934373332896 0 -0.00018625894584609152 -0.0058038004111555571 0 -0.00016407262034929019 -0.0058146313065694545 0 -0.00017658289835740287 -0.0058325218583427573 0 -0.00018625894584609152 -0.0058038004111555571 0 -0.00016407262034929019 -0.0058146313065694545 0 -0.00017295468599741527 -0.0057938993835939282 0 -0.00019592548417991264 -0.0057734532684028013 0 -0.00017295468599741527 -0.0057938993835939282 0 -0.00016950526580317935 -0.0057779644091032582 0 -0.00017295468599741527 -0.0057938993835939282 0 -0.00016950526580317935 -0.0057779644091032582 0 -0.00014964759902187942 -0.0057991934373332896 0 -0.0003579908184496141 -0.0010762959045266191 0 -0.00030297381052260335 -0.0011372414910239129 0 -0.00040285725284865511 -0.0011148657558655677 0 -0.0003579908184496141 -0.0010762959045266191 0 -0.00041697232083066281 -0.0010299446856462517 0 -0.00040285725284865511 -0.0011148657558655677 0 -0.00041697232083066281 -0.0010299446856462517 0 -0.00036008685541888169 -0.0010099031027418135 0 -0.00043141759031422341 -0.00094756682542525164 0 -0.0003579908184496141 -0.0010762959045266191 0 -0.00041697232083066281 -0.0010299446856462517 0 -0.00036008685541888169 -0.0010099031027418135 0 -0.0003579908184496141 -0.0010762959045266191 0 -0.00036008685541888169 -0.0010099031027418135 0 -0.00031043132287871536 -0.0010622807281856037 0 -0.00036008685541888169 -0.0010099031027418135 0 -0.00031043132287871536 -0.0010622807281856037 0 -0.00026919775634804614 -0.00097001991477107846 0 -0.00012277097153417054 -0.0011861758520396934 0 -0.00022607371752823399 -0.001073732928871602 0 -0.00030297381052260335 -0.0011372414910239129 0 -0.00022607371752823399 -0.001073732928871602 0 -0.00031043132287871536 -0.0010622807281856037 0 -0.00026919775634804614 -0.00097001991477107846 0 -0.00022607371752823399 -0.001073732928871602 0 -0.00031043132287871536 -0.0010622807281856037 0 -0.00030297381052260335 -0.0011372414910239129 0 -0.0003579908184496141 -0.0010762959045266191 0 -0.00031043132287871536 -0.0010622807281856037 0 -0.00030297381052260335 -0.0011372414910239129 0 -0.0001007533191648613 -0.0013096049305731548 0 -8.463876329872998e-05 -0.0013307436035009154 0 -7.779786369861671e-05 -0.0013408857554962244 0 -0.00015078314448026717 -0.0013073605183149125 0 -0.00019157595030919921 -0.0013234465852555951 0 -0.00012277097153417054 -0.0011861758520396934 0 -0.00010496995399847615 -0.0012721256612428387 0 -0.0001007533191648613 -0.0013096049305731548 0 -0.00010496995399847615 -0.0012721256612428387 0 -0.0001007533191648613 -0.0013096049305731548 0 -8.463876329872998e-05 -0.0013307436035009154 0 -0.00019157595030919921 -0.0013234465852555951 0 -0.0002878653973109747 -0.0013679598565492714 0 -0.0001007533191648613 -0.0013096049305731548 0 -7.779786369861671e-05 -0.0013408857554962244 0 -7.2049063650771205e-05 -0.0013501661858631657 0 -6.7009611075582369e-05 -0.0013647122796052245 0 -8.463876329872998e-05 -0.0013307436035009154 0 -7.779786369861671e-05 -0.0013408857554962244 0 -7.779786369861671e-05 -0.0013408857554962244 0 -6.9051708733536187e-05 -0.0013508452857528539 0 -6.5642004758145747e-05 -0.0013604448219469358 0 -0.00028210219391244031 -0.0013704376500003478 0 -0.0002878653973109747 -0.0013679598565492714 0 -6.7009611075582369e-05 -0.0013647122796052245 0 -7.779786369861671e-05 -0.0013408857554962244 0 -6.5642004758145747e-05 -0.0013604448219469358 0 -6.9051708733536187e-05 -0.0013508452857528539 0 -6.5642004758145747e-05 -0.0013604448219469358 0 -7.1775445243326267e-05 -0.0013602509316329419 0 -0.0002878653973109747 -0.0013679598565492714 0 -0.0001938315039591814 -0.0013660566661032321 0 -5.7499510676713827e-05 -0.0013808990051749073 0 -6.5642004758145747e-05 -0.0013604448219469358 0 -7.1775445243326267e-05 -0.0013602509316329419 0 -0.00020427091959949597 -0.0014246778216379086 0 -0.00027688874851688192 -0.0013844376851816183 0 -0.00029787926768173488 -0.0014970378728672725 0 -0.00020427091959949597 -0.0014246778216379086 0 -0.00029787926768173488 -0.0014970378728672725 0 -0.00022495245069426595 -0.0015055012105116992 0 -0.00042443013159680447 -0.0014016898642624355 0 -0.00027688874851688192 -0.0013844376851816183 0 -0.00029787926768173488 -0.0014970378728672725 0 -0.0002878653973109747 -0.0013679598565492714 0 -0.00047874238278133635 -0.0014265976756526019 0 -0.00041697232083066281 -0.0010299446856462517 0 -0.00040285725284865511 -0.0011148657558655677 0 -0.0005134324904252066 -0.00098489438873473651 0 -0.00041697232083066281 -0.0010299446856462517 0 -0.0005134324904252066 -0.00098489438873473651 0 -0.00043141759031422341 -0.00094756682542525164 0 -0.0005134324904252066 -0.00098489438873473651 0 -0.00043141759031422341 -0.00094756682542525164 0 -0.00049738581055273445 -0.0008987022044165678 0 -0.00043141759031422341 -0.00094756682542525164 0 -0.00049738581055273445 -0.0008987022044165678 0 -0.00042115751658907921 -0.00086127150415076935 0 -0.00017569422244420339 -0.0015918814830547209 0 -0.00029787926768173488 -0.0014970378728672725 0 -0.00022495245069426595 -0.0015055012105116992 0 -0.00059344916949460392 -0.00090002792303560679 0 -0.00057716398054629651 -0.00090315287734511491 0 -0.0005134324904252066 -0.00098489438873473651 0 -0.00057716398054629651 -0.00090315287734511491 0 -0.0005134324904252066 -0.00098489438873473651 0 -0.00049738581055273445 -0.0008987022044165678 0 -0.00060264493664171303 -0.001703568331160395 0 -0.00047874238278133635 -0.0014265976756526019 0 -0.00049738581055273445 -0.0008987022044165678 0 -0.00054031889032259963 -0.00086390120983994298 0 -0.00048191592376741735 -0.00081618018818344833 0 -0.00057716398054629651 -0.00090315287734511491 0 -0.00049738581055273445 -0.0008987022044165678 0 -0.00054031889032259963 -0.00086390120983994298 0 -0.00054031889032259963 -0.00086390120983994298 0 -0.00048191592376741735 -0.00081618018818344833 0 -0.00053925157011858931 -0.00080593265534944288 0 -0.00057991536134683122 -0.00083708510238009702 0 -0.00054031889032259963 -0.00086390120983994298 0 -0.00053925157011858931 -0.00080593265534944288 0 -0.00049738581055273445 -0.0008987022044165678 0 -0.00042115751658907921 -0.00086127150415076935 0 -0.00048191592376741735 -0.00081618018818344833 0 -0.00042115751658907921 -0.00086127150415076935 0 -0.00048191592376741735 -0.00081618018818344833 0 -0.00040363326403872169 -0.00077588064435399925 0 -0.00042115751658907921 -0.00086127150415076935 0 -0.00033214906940861629 -0.00081205487521249296 0 -0.00040363326403872169 -0.00077588064435399925 0 -0.00042115751658907921 -0.00086127150415076935 0 -0.00033214906940861629 -0.00081205487521249296 0 -0.00035807528074976742 -0.00091272795050702021 0 -0.00043141759031422341 -0.00094756682542525164 0 -0.00042115751658907921 -0.00086127150415076935 0 -0.00035807528074976742 -0.00091272795050702021 0 -0.00036008685541888169 -0.0010099031027418135 0 -0.00043141759031422341 -0.00094756682542525164 0 -0.00035807528074976742 -0.00091272795050702021 0 -0.00036008685541888169 -0.0010099031027418135 0 -0.00035807528074976742 -0.00091272795050702021 0 -0.00026919775634804614 -0.00097001991477107846 0 -0.00035807528074976742 -0.00091272795050702021 0 -0.00026919775634804614 -0.00097001991477107846 0 -0.00028439946998790814 -0.00087765968883226253 0 -0.00021204340295055926 -0.00087859896118482961 0 -0.00026919775634804614 -0.00097001991477107846 0 -0.00028439946998790814 -0.00087765968883226253 0 -0.0002418460417533673 -0.00080243142417635066 0 -0.00033214906940861629 -0.00081205487521249296 0 -0.00028439946998790814 -0.00087765968883226253 0 -0.0002418460417533673 -0.00080243142417635066 0 -0.00033214906940861629 -0.00081205487521249296 0 -0.0002619137241568313 -0.00075192863802692677 0 -0.00033214906940861629 -0.00081205487521249296 0 -0.00035807528074976742 -0.00091272795050702021 0 -0.00028439946998790814 -0.00087765968883226253 0 -0.00021204340295055926 -0.00087859896118482961 0 -0.0002418460417533673 -0.00080243142417635066 0 -0.00028439946998790814 -0.00087765968883226253 0 -0.00021536219262579729 -0.00070616215536555829 0 -0.0002619137241568313 -0.00075192863802692677 0 -0.0003200054432730385 -0.00071423241354482282 0 -0.00033214906940861629 -0.00081205487521249296 0 -0.0002619137241568313 -0.00075192863802692677 0 -0.0003200054432730385 -0.00071423241354482282 0 -0.00040363326403872169 -0.00077588064435399925 0 -0.0003200054432730385 -0.00071423241354482282 0 -0.00041036620970075807 -0.00070565154423509542 0 -0.00033214906940861629 -0.00081205487521249296 0 -0.00040363326403872169 -0.00077588064435399925 0 -0.0003200054432730385 -0.00071423241354482282 0 -0.0003200054432730385 -0.00071423241354482282 0 -0.0003694317324145295 -0.00064813665398278405 0 -0.00041036620970075807 -0.00070565154423509542 0 -0.0003200054432730385 -0.00071423241354482282 0 -0.00030231110227155948 -0.00063219185296195502 0 -0.0003694317324145295 -0.00064813665398278405 0 -0.00021536219262579729 -0.00070616215536555829 0 -0.0003200054432730385 -0.00071423241354482282 0 -0.00030231110227155948 -0.00063219185296195502 0 -0.00030231110227155948 -0.00063219185296195502 0 -0.0003694317324145295 -0.00064813665398278405 0 -0.00038368324381318292 -0.00055941265482591692 0 -0.0003694317324145295 -0.00064813665398278405 0 -0.00038368324381318292 -0.00055941265482591692 0 -0.00043201369911511917 -0.00063293065228494912 0 -0.0003694317324145295 -0.00064813665398278405 0 -0.00043201369911511917 -0.00063293065228494912 0 -0.00041036620970075807 -0.00070565154423509542 0 -0.00063203649196428636 0.00094439033732034822 0 -0.00089893783005754477 0.00046308205716204026 0 -0.00090713875182299127 0.00085273280910541215 0 -0.00089893783005754477 0.00046308205716204026 0 -0.0011474631071528311 0.00087299886746871876 0 -0.00090713875182299127 0.00085273280910541215 0 -0.00068405112139963283 -0.00022402089798577541 0 -0.00091895420555803385 -0.00018722952254312004 0 -0.00050441146853727492 -0.00059160417717869134 0 -0.00058636215214947021 -0.00059634772911112174 0 -0.00051434747655516183 -0.00053550273570249565 0 -0.00050441146853727492 -0.00059160417717869134 0 -0.00045528882376507041 -0.00055349908404592305 0 -0.00051434747655516183 -0.00053550273570249565 0 -0.00038368324381318292 -0.00055941265482591692 0 -0.00043201369911511917 -0.00063293065228494912 0 -0.00045528882376507041 -0.00055349908404592305 0 -0.00050441146853727492 -0.00059160417717869134 0 -0.00043201369911511917 -0.00063293065228494912 0 -0.00045528882376507041 -0.00055349908404592305 0 -0.00043201369911511917 -0.00063293065228494912 0 -0.00049596656812830138 -0.00065029350680331549 0 -0.00048770441061915992 -0.00070944361054753628 0 -0.00050441146853727492 -0.00059160417717869134 0 -0.00043201369911511917 -0.00063293065228494912 0 -0.00049596656812830138 -0.00065029350680331549 0 -0.00050441146853727492 -0.00059160417717869134 0 -0.00049596656812830138 -0.00065029350680331549 0 -0.00055444309524357491 -0.00064525058088817089 0 -0.00049596656812830138 -0.00065029350680331549 0 -0.00055344992203720019 -0.00070214354299733786 0 -0.00055444309524357491 -0.00064525058088817089 0 -0.00049596656812830138 -0.00065029350680331549 0 -0.00048770441061915992 -0.00070944361054753628 0 -0.00055344992203720019 -0.00070214354299733786 0 -0.00048770441061915992 -0.00070944361054753628 0 -0.00054093006200203037 -0.00074885617753302019 0 -0.00050366001236628385 -0.00076647124417344786 0 -0.00048770441061915992 -0.00070944361054753628 0 -0.00045823109627780216 -0.00075457264739426722 0 -0.00050366001236628385 -0.00076647124417344786 0 -0.00048770441061915992 -0.00070944361054753628 0 -0.00054093006200203037 -0.00074885617753302019 0 -0.00055344992203720019 -0.00070214354299733786 0 -0.00048770441061915992 -0.00070944361054753628 0 -0.00041036620970075807 -0.00070565154423509542 0 -0.00045823109627780216 -0.00075457264739426722 0 -0.00043201369911511917 -0.00063293065228494912 0 -0.00048770441061915992 -0.00070944361054753628 0 -0.00041036620970075807 -0.00070565154423509542 0 -0.00048191592376741735 -0.00081618018818344833 0 -0.00040363326403872169 -0.00077588064435399925 0 -0.00045823109627780216 -0.00075457264739426722 0 -0.00040363326403872169 -0.00077588064435399925 0 -0.00041036620970075807 -0.00070565154423509542 0 -0.00045823109627780216 -0.00075457264739426722 0 -0.00048191592376741735 -0.00081618018818344833 0 -0.00045823109627780216 -0.00075457264739426722 0 -0.00050366001236628385 -0.00076647124417344786 0 -0.00054093006200203037 -0.00074885617753302019 0 -0.00050366001236628385 -0.00076647124417344786 0 -0.00053925157011858931 -0.00080593265534944288 0 -0.00048191592376741735 -0.00081618018818344833 0 -0.00050366001236628385 -0.00076647124417344786 0 -0.00053925157011858931 -0.00080593265534944288 0 -0.00057991536134683122 -0.00083708510238009702 0 -0.00053925157011858931 -0.00080593265534944288 0 -0.00058322981903418541 -0.00079138278025864077 0 -0.00054093006200203037 -0.00074885617753302019 0 -0.00053925157011858931 -0.00080593265534944288 0 -0.00058322981903418541 -0.00079138278025864077 0 -0.00054093006200203037 -0.00074885617753302019 0 -0.00058322981903418541 -0.00079138278025864077 0 -0.00058971791394385269 -0.00074930021255525784 0 -0.00058322981903418541 -0.00079138278025864077 0 -0.00063753896735721223 -0.00078045347260671089 0 -0.00058971791394385269 -0.00074930021255525784 0 -0.00058322981903418541 -0.00079138278025864077 0 -0.00060789437329428274 -0.00081683647935886048 0 -0.00063753896735721223 -0.00078045347260671089 0 -0.00057991536134683122 -0.00083708510238009702 0 -0.00058322981903418541 -0.00079138278025864077 0 -0.00060789437329428274 -0.00081683647935886048 0 -0.00063011641523345277 -0.00085816925538181974 0 -0.00060789437329428274 -0.00081683647935886048 0 -0.00063753896735721223 -0.00078045347260671089 0 -0.00063753896735721223 -0.00078045347260671089 0 -0.00069304483394968847 -0.00081419382071010193 0 -0.00068124004829976615 -0.00068725599757198271 0 -0.00063011641523345277 -0.00085816925538181974 0 -0.00063753896735721223 -0.00078045347260671089 0 -0.0006836938708459807 -0.00082120662792933017 0 -0.00063753896735721223 -0.00078045347260671089 0 -0.0006836938708459807 -0.00082120662792933017 0 -0.00069304483394968847 -0.00081419382071010193 0 -0.00063753896735721223 -0.00078045347260671089 0 -0.00060683204982852463 -0.00069343487142247979 0 -0.00068124004829976615 -0.00068725599757198271 0 -0.00063753896735721223 -0.00078045347260671089 0 -0.00060683204982852463 -0.00069343487142247979 0 -0.00058971791394385269 -0.00074930021255525784 0 -0.00060683204982852463 -0.00069343487142247979 0 -0.00055344992203720019 -0.00070214354299733786 0 -0.00058971791394385269 -0.00074930021255525784 0 -0.00054093006200203037 -0.00074885617753302019 0 -0.00055344992203720019 -0.00070214354299733786 0 -0.00058971791394385269 -0.00074930021255525784 0 -0.00017658289835740287 -0.0058325218583427573 0 -0.0001463875231134843 -0.0058431978294519009 0 -0.00015245207656130609 -0.0058292219328411254 0 -0.00016407262034929019 -0.0058146313065694545 0 -0.00017658289835740287 -0.0058325218583427573 0 -0.00015245207656130609 -0.0058292219328411254 0 -0.00036775731437302644 -0.0056548605366006401 0 -0.00053497789289974618 -0.0055438218928074044 0 -0.00054466382560574829 -0.0059121873517275648 0 -0.00028307497268495577 -0.0035096565631148411 0 -0.00027997329693368926 -0.003509734885363892 0 -0.00028198470435808915 -0.0035089075752272733 0 -1.9067454397472204e-05 -0.0042608028911630602 0 0.00011405353564094783 -0.0042886638835874912 0 0.00011405353564094783 -0.0042886638835874912 0 -0.00049812521960695391 -0.0028019994851896778 0 -0.00060391802299639629 -0.0025071080659451752 0 -0.00049812521960695391 -0.0028019994851896778 0 -0.00036775731437302644 -0.0056548605366006401 0 -0.00045300553276293363 -0.0059018723873352523 0 -0.00054466382560574829 -0.0059121873517275648 0 -0.00036775731437302644 -0.0056548605366006401 0 -0.00033833460789882452 -0.0058208611268634131 0 -0.00045300553276293363 -0.0059018723873352523 0 -0.00049812521960695391 -0.0028019994851896778 0 -0.00043053069075901811 -0.0032848227529259106 0 -0.00033833460789882452 -0.0058208611268634131 0 -0.00028196995097522199 -0.005921871263743066 0 -0.00045300553276293363 -0.0059018723873352523 0 -0.00034056108154005164 -0.0056763833309506507 0 -0.00024738264847465064 -0.0057865799509009752 0 -0.00014092018557489828 -0.0058555944550133738 0 -0.00017658289835740287 -0.0058325218583427573 0 -0.0001463875231134843 -0.0058431978294519009 0 -0.00014092018557489828 -0.0058555944550133738 0 0.00011405353564094783 -0.0042886638835874912 0 0.00024366874700966533 -0.0048499751829247373 0 -0.00036775731437302644 -0.0056548605366006401 0 -0.00033833460789882452 -0.0058208611268634131 0 -0.00024738264847465064 -0.0057865799509009752 0 0.00011405353564094783 -0.0042886638835874912 0 0.00018536422685658108 -0.0045116342558988824 0 -0.00033833460789882452 -0.0058208611268634131 0 -0.00024738264847465064 -0.0057865799509009752 0 -0.00028196995097522199 -0.005921871263743066 0 -0.00024738264847465064 -0.0057865799509009752 0 -0.00028196995097522199 -0.005921871263743066 0 -0.00018531364557085265 -0.0058855426401919504 0 -0.00018596042589870765 -0.0061054055960687633 0 -0.00017544440712508519 -0.0063119555273950705 0 7.6281835169173833e-05 -0.0060042750587468684 0 -0.00018463311636419957 -0.0059512592168281843 0 -0.00033726304697469581 -0.0060567364050551162 0 -0.00045300553276293363 -0.0059018723873352523 0 -0.00018596042589870765 -0.0061054055960687633 0 -0.00018463311636419957 -0.0059512592168281843 0 7.6281835169173833e-05 -0.0060042750587468684 0 -0.00029853241255947547 -0.0071266725091224158 0 -0.00037690568937759979 -0.0069962762610206375 0 -0.00018596042589870765 -0.0061054055960687633 0 -0.00033726304697469581 -0.0060567364050551162 0 -0.00030681719910015382 -0.0062018168924126826 0 -0.00018596042589870765 -0.0061054055960687633 0 -0.00018463311636419957 -0.0059512592168281843 0 -0.00033726304697469581 -0.0060567364050551162 0 -0.00033726304697469581 -0.0060567364050551162 0 -0.00046170354011662617 -0.00615912079763238 0 -0.00030681719910015382 -0.0062018168924126826 0 -0.00033726304697469581 -0.0060567364050551162 0 -0.00045038840120833421 -0.0060066601785115107 0 -0.00046170354011662617 -0.00615912079763238 0 -0.00033726304697469581 -0.0060567364050551162 0 -0.00045300553276293363 -0.0059018723873352523 0 -0.00045038840120833421 -0.0060066601785115107 0 -0.00045300553276293363 -0.0059018723873352523 0 -0.00045038840120833421 -0.0060066601785115107 0 -0.00054466382560574829 -0.0059121873517275648 0 -0.00045038840120833421 -0.0060066601785115107 0 -0.00054466382560574829 -0.0059121873517275648 0 -0.00046170354011662617 -0.00615912079763238 0 -0.00043053069075901811 -0.0032848227529259106 0 -0.00020863255061894014 -0.003588854435816326 0 -0.00054466382560574829 -0.0059121873517275648 0 -0.00046170354011662617 -0.00615912079763238 0 -0.0005644615958292897 -0.0063972457750040776 0 -0.00046170354011662617 -0.00615912079763238 0 -0.00037888542959870912 -0.0063260115556080044 0 -0.0005644615958292897 -0.0063972457750040776 0 -0.00046170354011662617 -0.00615912079763238 0 -0.00037888542959870912 -0.0063260115556080044 0 -0.00030681719910015382 -0.0062018168924126826 0 -0.00018596042589870765 -0.0061054055960687633 0 -0.00030681719910015382 -0.0062018168924126826 0 -0.00017544440712508519 -0.0063119555273950705 0 -0.00037888542959870912 -0.0063260115556080044 0 -0.00030681719910015382 -0.0062018168924126826 0 -0.00017544440712508519 -0.0063119555273950705 0 -0.00037888542959870912 -0.0063260115556080044 0 -0.00017544440712508519 -0.0063119555273950705 0 -0.00034511055772024096 -0.0065177930298926743 0 -0.00060683204982852463 -0.00069343487142247979 0 -0.00055444309524357491 -0.00064525058088817089 0 -0.00058636215214947021 -0.00059634772911112174 0 -0.00060683204982852463 -0.00069343487142247979 0 -0.00055344992203720019 -0.00070214354299733786 0 -0.00055444309524357491 -0.00064525058088817089 0 -0.00060683204982852463 -0.00069343487142247979 0 -0.00068124004829976615 -0.00068725599757198271 0 -0.00058636215214947021 -0.00059634772911112174 0 -0.00068124004829976615 -0.00068725599757198271 0 -0.00058636215214947021 -0.00059634772911112174 0 -0.00066744489712951131 -0.00056990921074604058 0 -0.00050441146853727492 -0.00059160417717869134 0 -0.00055444309524357491 -0.00064525058088817089 0 -0.00058636215214947021 -0.00059634772911112174 0 -0.00058636215214947021 -0.00059634772911112174 0 -0.00056035597909138892 -0.00047340778215519203 0 -0.00066744489712951131 -0.00056990921074604058 0 -0.00058636215214947021 -0.00059634772911112174 0 -0.00056035597909138892 -0.00047340778215519203 0 -0.00051434747655516183 -0.00053550273570249565 0 -0.00065864485846904759 -0.00046235174244763381 0 -0.00056035597909138892 -0.00047340778215519203 0 -0.00066744489712951131 -0.00056990921074604058 0 0.00033278174668118702 -0.0043909324217119216 0 -0.00044736143136463581 -0.0021846020706839959 0 0.00089653599072162069 -0.0019968298107444844 0 -0.00011024688810831366 -0.0017761493257255384 0 0.00021564160991592165 -0.0021343126134155481 0 -0.00034511055772024096 -0.0065177930298926743 0 -0.00011861966487280832 -0.0067449951722309337 0 0.00014780714044867519 -0.0065574776368419775 0 -0.00017544440712508519 -0.0063119555273950705 0 -0.00034511055772024096 -0.0065177930298926743 0 8.762253014307024e-05 -0.0065501994445499121 0 -8.9216359188927768e-05 -0.0079134009743647045 0 0.00034710959466204548 -0.0084495732332113271 0 -0.00034511055772024096 -0.0065177930298926743 0 -0.0005644615958292897 -0.0063972457750040776 0 -0.00036003448835642075 -0.0067534712406020795 0 0.00033278174668118702 -0.0043909324217119216 0 -0.00020863255061894014 -0.003588854435816326 0 -0.00037888542959870912 -0.0063260115556080044 0 -0.00034511055772024096 -0.0065177930298926743 0 -0.0005644615958292897 -0.0063972457750040776 0 -0.00057749766822126798 -0.0069002186226026748 0 -0.0005644615958292897 -0.0063972457750040776 0 -0.00036003448835642075 -0.0067534712406020795 0 -0.00057749766822126798 -0.0069002186226026748 0 -0.00036003448835642075 -0.0067534712406020795 0 -0.00021855322601930095 -0.0069856988086711971 0 -0.00034511055772024096 -0.0065177930298926743 0 -0.00036003448835642075 -0.0067534712406020795 0 -0.00011861966487280832 -0.0067449951722309337 0 -0.00036003448835642075 -0.0067534712406020795 0 -0.00011861966487280832 -0.0067449951722309337 0 -0.00021855322601930095 -0.0069856988086711971 0 0.0014377012892501353 -0.0068100429201077908 0 0.0014727870894555961 -0.006989699110497829 0 0.0016383918186356908 -0.0068587736558032835 0 -0.00011861966487280832 -0.0067449951722309337 0 -0.00021855322601930095 -0.0069856988086711971 0 0.00014656211432755129 -0.0070697244788426082 0 0.0012353226127246346 -0.0067612329103472193 0 0.0014377012892501353 -0.0068100429201077908 0 0.0012306376103372271 -0.0070084425435273257 0 0.00033278174668118702 -0.0043909324217119216 0 0.00072603185160030788 -0.0067453227216787487 0 0.0014727870894555961 -0.006989699110497829 0 0.0012306376103372271 -0.0070084425435273257 0 0.0014467846477754915 -0.0071855385687656708 0 0.0014377012892501353 -0.0068100429201077908 0 0.0014727870894555961 -0.006989699110497829 0 0.0012306376103372271 -0.0070084425435273257 0 -0.00011024688810831366 -0.0017761493257255384 0 2.7937286934256879e-05 -0.0022695385626602398 0 -0.0006122885669408273 -0.0021648829319867928 0 1.9801230888627874e-05 -0.0024988148836113076 0 2.7937286934256879e-05 -0.0022695385626602398 0 -0.0006122885669408273 -0.0021648829319867928 0 1.9801230888627874e-05 -0.0024988148836113076 0 -0.00012149004304028019 -0.0027671814918142339 0 -0.0006122885669408273 -0.0021648829319867928 0 0.00026085909962433369 -0.0024495740826345675 0 1.679985510827415e-05 -0.0025145155041527106 0 0.00034670988269710514 -0.0028057577471019344 0 0.00026085909962433369 -0.0024495740826345675 0 1.679985510827415e-05 -0.0025145155041527106 0 0.00021564160991592165 -0.0021343126134155481 0 -0.00024069891369156161 -0.0015376800728522956 0 -0.0002379231268826053 -0.0015844169325852863 0 -0.00011024688810831366 -0.0017761493257255384 0 0.00021564160991592165 -0.0021343126134155481 0 2.7937286934256879e-05 -0.0022695385626602398 0 -0.00024069891369156161 -0.0015376800728522956 0 -0.00024860677728117108 -0.0016226439944629432 0 1.8039349038273424e-05 -0.0024975851856705884 0 0.00021564160991592165 -0.0021343126134155481 0 2.7937286934256879e-05 -0.0022695385626602398 0 0.00033278174668118702 -0.0043909324217119216 0 0.0008130721345398637 -0.00481946931978909 0 0.00089653599072162069 -0.0019968298107444844 0 0.00050603182151897426 -0.0024566283780961947 0 0.00087149700700796088 -0.002991894846309968 0 0.00089653599072162069 -0.0019968298107444844 0 0.00021564160991592165 -0.0021343126134155481 0 0.00050603182151897426 -0.0024566283780961947 0 0.00026085909962433369 -0.0024495740826345675 0 0.00050603182151897426 -0.0024566283780961947 0 0.00034670988269710514 -0.0028057577471019344 0 0.00026085909962433369 -0.0024495740826345675 0 0.00021564160991592165 -0.0021343126134155481 0 0.00050603182151897426 -0.0024566283780961947 0 0.00034670988269710514 -0.0028057577471019344 0 0.00087149700700796088 -0.002991894846309968 0 0.00042291664171100753 -0.0034715139545317035 0 0.00050603182151897426 -0.0024566283780961947 0 0.00034670988269710514 -0.0028057577471019344 0 0.00087149700700796088 -0.002991894846309968 0 -6.8440601466612669e-05 -0.0012299170292464133 0 -0.00011510733244110715 -0.0011718615615320313 0 8.4504665246537723e-05 -0.0009409810615844987 0 0.00034670988269710514 -0.0028057577471019344 0 2.2883100932360611e-06 -0.0029516751483678249 0 0.00042291664171100753 -0.0034715139545317035 0 -4.578063009594402e-05 -0.0016726240017219424 0 0.00053910813906321196 -0.0031517005886488579 0 1.679985510827415e-05 -0.0025145155041527106 0 0.00034670988269710514 -0.0028057577471019344 0 2.2883100932360611e-06 -0.0029516751483678249 0 -0.00022330319507288764 -0.0014939776116298274 0 -1.016461363545041e-05 -0.0010889939070418682 0 -0.00019945572775141576 -0.00085469388554753928 0 -0.00024069891369156161 -0.0015376800728522956 0 -4.578063009594402e-05 -0.0016726240017219424 0 -0.00024069891369156161 -0.0015376800728522956 0 -0.00029098192168966746 -0.0010925942214743477 0 -0.00029098192168966746 -0.0010925942214743477 0 -4.578063009594402e-05 -0.0016726240017219424 0 -0.0016709715128827081 0.0016509245304213943 0 -0.0014353965835885586 0.0016750548242211358 0 -0.0015239998367211737 0.00192770116538901 0 -0.00029098192168966746 -0.0010925942214743477 0 -0.00022409036866820545 -2.3153821690322669e-05 0 -0.0016709715128827081 0.0016509245304213943 0 -0.0014353965835885586 0.0016750548242211358 0 -0.0015055042215010128 0.0014396758092318741 0 -0.00029098192168966746 -0.0010925942214743477 0 -0.00083064304932535451 -0.00065747705381482267 0 -0.0014353965835885586 0.0016750548242211358 0 -0.0015055042215010128 0.0014396758092318741 0 -0.0012397757696551472 0.0015459614536319378 0 -0.0015055042215010128 0.0014396758092318741 0 -0.0012397757696551472 0.0015459614536319378 0 -0.0012487475437203133 0.0013528738467217802 0 -0.0014353965835885586 0.0016750548242211358 0 -0.0012397757696551472 0.0015459614536319378 0 -0.0012364203698408773 0.0018126287592830582 0 -0.0014353965835885586 0.0016750548242211358 0 -0.0012364203698408773 0.0018126287592830582 0 -0.0015239998367211737 0.00192770116538901 0 -0.0012364203698408773 0.0018126287592830582 0 -0.0010478331656102583 0.0016503282788701049 0 -0.00094093289945588435 0.0018709052139262202 0 -0.0012397757696551472 0.0015459614536319378 0 -0.0012364203698408773 0.0018126287592830582 0 -0.0010478331656102583 0.0016503282788701049 0 -0.00073859581981332398 0.0017851701253716664 0 -0.00082681145858736101 0.0015942407317735437 0 -0.00094093289945588435 0.0018709052139262202 0 -0.0010478331656102583 0.0016503282788701049 0 -0.00082681145858736101 0.0015942407317735437 0 -0.00094093289945588435 0.0018709052139262202 0 -0.0010478331656102583 0.0016503282788701049 0 -0.00082681145858736101 0.0015942407317735437 0 -0.0010352873088500475 0.0013914010749154666 0 -0.00074007927777893108 0.0013085464419644852 0 -0.00082681145858736101 0.0015942407317735437 0 -0.0010352873088500475 0.0013914010749154666 0 -0.0012397757696551472 0.0015459614536319378 0 -0.0010478331656102583 0.0016503282788701049 0 -0.0010352873088500475 0.0013914010749154666 0 -0.0012397757696551472 0.0015459614536319378 0 -0.0010352873088500475 0.0013914010749154666 0 -0.0012487475437203133 0.0013528738467217802 0 -0.0010352873088500475 0.0013914010749154666 0 -0.0012281275064615609 0.0011848982355511606 0 -0.0012487475437203133 0.0013528738467217802 0 -0.0010352873088500475 0.0013914010749154666 0 -0.0012281275064615609 0.0011848982355511606 0 -0.00095602004563986886 0.0011020052353149577 0 -0.00074007927777893108 0.0013085464419644852 0 -0.0010352873088500475 0.0013914010749154666 0 -0.00095602004563986886 0.0011020052353149577 0 -0.00063203649196428636 0.00094439033732034822 0 -0.00074007927777893108 0.0013085464419644852 0 -0.00095602004563986886 0.0011020052353149577 0 -0.00063203649196428636 0.00094439033732034822 0 -0.00090713875182299127 0.00085273280910541215 0 -0.00095602004563986886 0.0011020052353149577 0 -0.0011474631071528311 0.00087299886746871876 0 -0.00090713875182299127 0.00085273280910541215 0 -0.00095602004563986886 0.0011020052353149577 0 -0.0011474631071528311 0.00087299886746871876 0 -0.0012281275064615609 0.0011848982355511606 0 -0.00095602004563986886 0.0011020052353149577 0 -0.00038368324381318292 -0.00055941265482591692 0 -0.00045528882376507041 -0.00055349908404592305 0 -0.00045676361776879652 -0.00048629760388909765 0 -0.0011474631071528311 0.00087299886746871876 0 -0.0012281275064615609 0.0011848982355511606 0 -0.0013752170066980416 0.0012203428662158249 0 -0.00091895420555803385 -0.00018722952254312004 0 -0.00096158499877030445 -0.00073158807695464689 0 -0.00045528882376507041 -0.00055349908404592305 0 -0.00051434747655516183 -0.00053550273570249565 0 -0.00045676361776879652 -0.00048629760388909765 0 -0.00011024688810831366 -0.0017761493257255384 0 -0.0006122885669408273 -0.0021648829319867928 0 -0.0011021878402624873 -0.0015594019506145181 0 -0.00044736143136463581 -0.0021846020706839959 0 -0.00096158499877030445 -0.00073158807695464689 0 -0.00083064304932535451 -0.00065747705381482267 0 -0.00096158499877030445 -0.00073158807695464689 0 -0.00056035597909138892 -0.00047340778215519203 0 -0.00051434747655516183 -0.00053550273570249565 0 -0.00045676361776879652 -0.00048629760388909765 0 -0.0015055042215010128 0.0014396758092318741 0 -0.0012487475437203133 0.0013528738467217802 0 -0.0013464584235642581 0.0012220485960367168 0 -0.0012281275064615609 0.0011848982355511606 0 -0.0012487475437203133 0.0013528738467217802 0 -0.0013464584235642581 0.0012220485960367168 0 -0.0010477509722273061 -0.00063917999873206919 0 -0.00096158499877030445 -0.00073158807695464689 0 0.0011802174223164601 -0.010473392432134673 0 0.001112806772345028 -0.010430871891622886 0 0.0011053389215065943 -0.010534175556810108 0 0.0011802174223164601 -0.010473392432134673 0 0.0012506885825128505 -0.01051129571275935 0 0.0011053389215065943 -0.010534175556810108 0 0.0011802174223164601 -0.010473392432134673 0 0.001112806772345028 -0.010430871891622886 0 0.0012564390685835798 -0.010409267824066922 0 0.0010598991622494786 -0.010473385140603735 0 0.001112806772345028 -0.010430871891622886 0 0.0010255906208547589 -0.010442098391619718 0 0.0010598991622494786 -0.010473385140603735 0 0.0011053389215065943 -0.010534175556810108 0 0.0010096136976625548 -0.010484553851041982 0 0.0010598991622494786 -0.010473385140603735 0 0.001112806772345028 -0.010430871891622886 0 0.0011053389215065943 -0.010534175556810108 0 0.00066081043952504381 -0.010180438402074783 0 0.00087607583005928306 -0.010393029309008227 0 0.00041988720094524653 -0.010350134459310059 0 0.00097779467208181851 -0.010074642761395287 0 0.00076664459690167536 -0.0098492190794705926 0 0.00066081043952504381 -0.010180438402074783 0 0.00093801989340471935 -0.010200954510368081 0 0.00087607583005928306 -0.010393029309008227 0 0.00097779467208181851 -0.010074642761395287 0 0.0010922347678846527 -0.010142408246320608 0 0.0011123060366882965 -0.010298916082318055 0 0.0012551883883628865 -0.010206398489465626 0 0.0010122932477825797 -0.010113050150473321 0 0.00087607583005928306 -0.010393029309008227 0 0.0011123060366882965 -0.010298916082318055 0 0.0012564390685835798 -0.010409267824066922 0 0.00093801989340471935 -0.010200954510368081 0 0.00087607583005928306 -0.010393029309008227 0 0.0011123060366882965 -0.010298916082318055 0 0.00093801989340471935 -0.010200954510368081 0 0.0011123060366882965 -0.010298916082318055 0 0.00097646343673863626 -0.0099888318126061682 0 0.00037382301000142516 -0.010706379674113186 0 0.00031259580818746523 -0.010812418567084859 0 0.0012551883883628865 -0.010206398489465626 0 0.0014586614343285917 -0.010308650858714713 0 0.0012564390685835798 -0.010409267824066922 0 0.0011123060366882965 -0.010298916082318055 0 0.0012551883883628865 -0.010206398489465626 0 0.0012564390685835798 -0.010409267824066922 0 0.00011249850258653639 -0.011506706363664436 0 -0.00011655229944675411 -0.012258195130828861 0 0.0014586614343285917 -0.010308650858714713 0 0.0014114013951885085 -0.010485787440534407 0 0.0012564390685835798 -0.010409267824066922 0 0.0014114013951885085 -0.010485787440534407 0 0.0012564390685835798 -0.010409267824066922 0 0.0012506885825128505 -0.01051129571275935 0 0.0014114013951885085 -0.010485787440534407 0 0.0012506885825128505 -0.01051129571275935 0 0.0013046173719832102 -0.010611176926281485 0 0.0011802174223164601 -0.010473392432134673 0 0.0012564390685835798 -0.010409267824066922 0 0.0012506885825128505 -0.01051129571275935 0 0.0012506885825128505 -0.01051129571275935 0 0.0013046173719832102 -0.010611176926281485 0 0.0011053389215065943 -0.010534175556810108 0 0.0024017998693420372 -0.015099278993843243 0 0.0021996171957656681 -0.014850557071562982 0 0.0019288731176812612 -0.015021520972999422 0 0.0014114013951885085 -0.010485787440534407 0 0.0013046173719832102 -0.010611176926281485 0 0.0015750462281875466 -0.010675809976663066 0 0.0017569207729865866 -0.013053869969559736 0 0.0011798765187519735 -0.013511738078365488 0 0.0024017998693420372 -0.015099278993843243 0 0.0021996171957656681 -0.014850557071562982 0 0.0024376841311882966 -0.014695535543373777 0 0.0024017998693420372 -0.015099278993843243 0 0.0027490280759335938 -0.014837600162382159 0 0.0024376841311882966 -0.014695535543373777 0 0.0017569207729865866 -0.013053869969559736 0 0.0019930621512573923 -0.012697429368089557 0 0.0024017998693420372 -0.015099278993843243 0 0.0027490280759335938 -0.014837600162382159 0 0.0028796856588699008 -0.015154619328237669 0 0.0028796856588699008 -0.015154619328237669 0 0.0030523763516816411 -0.014878296333353377 0 0.0032139846380853797 -0.015051381115935052 0 0.0027490280759335938 -0.014837600162382159 0 0.0028796856588699008 -0.015154619328237669 0 0.0030523763516816411 -0.014878296333353377 0 0.0019930621512573923 -0.012697429368089557 0 0.0021015207004225411 -0.012209487157259455 0 0.0027490280759335938 -0.014837600162382159 0 0.0030523763516816411 -0.014878296333353377 0 0.0029868085537216125 -0.014640656340393155 0 0.0030523763516816411 -0.014878296333353377 0 0.0032102371471768231 -0.014697149305902936 0 0.0029868085537216125 -0.014640656340393155 0 0.003216719377509317 -0.014844580159374029 0 0.0033459872978343999 -0.014769198333793955 0 0.0032139846380853797 -0.015051381115935052 0 0.0030523763516816411 -0.014878296333353377 0 0.0032102371471768231 -0.014697149305902936 0 0.003216719377509317 -0.014844580159374029 0 0.0032102371471768231 -0.014697149305902936 0 0.003216719377509317 -0.014844580159374029 0 0.0033459872978343999 -0.014769198333793955 0 0.0033459872978343999 -0.014769198333793955 0 0.00358311980235182 -0.014736958894779179 0 0.0032139846380853797 -0.015051381115935052 0 0.0030523763516816411 -0.014878296333353377 0 0.003216719377509317 -0.014844580159374029 0 0.0032139846380853797 -0.015051381115935052 0 0.0035461115220717806 -0.014674520756600948 0 0.0034333312961195113 -0.015014488752427661 0 0.0035648641719548666 -0.014949749989402296 0 0.0035461115220717806 -0.014674520756600948 0 0.0035648641719548666 -0.014949749989402296 0 0.0036677845223269142 -0.014845757340963979 0 0.0027545575085494512 -0.01359927583841908 0 0.0027678363291235566 -0.014122581816269113 0 0.0034333312961195113 -0.015014488752427661 0 0.0036568658961673721 -0.015113924539768675 0 0.0033198671632186372 -0.015197607722667015 0 0.0035461115220717806 -0.014674520756600948 0 0.0034333312961195113 -0.015014488752427661 0 0.0032139846380853797 -0.015051381115935052 0 0.0034333312961195113 -0.015014488752427661 0 0.0035648641719548666 -0.014949749989402296 0 0.0036568658961673721 -0.015113924539768675 0 0.0034333312961195113 -0.015014488752427661 0 0.0032139846380853797 -0.015051381115935052 0 0.0033198671632186372 -0.015197607722667015 0 0.0028796856588699008 -0.015154619328237669 0 0.0032139846380853797 -0.015051381115935052 0 0.0033198671632186372 -0.015197607722667015 0 0.0014727870894555961 -0.006989699110497829 0 0.0016379207107095662 -0.007067196673003014 0 0.0016383918186356908 -0.0068587736558032835 0 0.0019063861378749781 -0.0093374558010856541 0 0.0012919767804114182 -0.0090660494623135638 0 0.0020422955595061488 -0.010555638260493345 0 0.0021788369006989655 -0.01053999623534731 0 0.0020411273678977186 -0.010084182737510506 0 0.0037724899492938154 -0.014888051987047063 0 0.0038796242328996869 -0.014650021773841599 0 0.0038194759924348319 -0.014988155950991528 0 0.0022491115697137035 -0.011660898265222932 0 0.0017974738082893534 -0.010321728762539201 0 0.0035461115220717806 -0.014674520756600948 0 0.0038796242328996869 -0.014650021773841599 0 0.0036677845223269142 -0.014845757340963979 0 0.0037724899492938154 -0.014888051987047063 0 0.0038796242328996869 -0.014650021773841599 0 0.0036677845223269142 -0.014845757340963979 0 0.0036568658961673721 -0.015113924539768675 0 0.0038194759924348319 -0.014988155950991528 0 0.0037691024425856685 -0.015262437315172964 0 0.0021788369006989655 -0.01053999623534731 0 0.002235077906883091 -0.010126737496153077 0 0.0020411273678977186 -0.010084182737510506 0 0.0017974738082893534 -0.010321728762539201 0 0.0014618381070305017 -0.011128291807771251 0 0.00099154040435452812 -0.010400867471984692 0 0.0010046157417633564 -0.010403770988228065 0 0.0009919802751464158 -0.010427306863890519 0 0.0035648641719548666 -0.014949749989402296 0 0.0036859557471583849 -0.014967540348498282 0 0.0036568658961673721 -0.015113924539768675 0 0.0037724899492938154 -0.014888051987047063 0 0.0036859557471583849 -0.014967540348498282 0 0.0038194759924348319 -0.014988155950991528 0 0.0035648641719548666 -0.014949749989402296 0 0.0036677845223269142 -0.014845757340963979 0 0.0036859557471583849 -0.014967540348498282 0 0.0037724899492938154 -0.014888051987047063 0 0.0036677845223269142 -0.014845757340963979 0 0.0036859557471583849 -0.014967540348498282 0 0.0036859557471583849 -0.014967540348498282 0 0.0036568658961673721 -0.015113924539768675 0 0.0038194759924348319 -0.014988155950991528 0 0.00072603185160030788 -0.0067453227216787487 0 0.0012919767804114182 -0.0090660494623135638 0 0.0017974738082893534 -0.010321728762539201 0 0.0012919767804114182 -0.0090660494623135638 0 0.0012919767804114182 -0.0090660494623135638 0 0.00034710959466204548 -0.0084495732332113271 0 -0.00011861966487280832 -0.0067449951722309337 0 0.00014656211432755129 -0.0070697244788426082 0 0.00014780714044867519 -0.0065574776368419775 0 0.0010046157417633564 -0.010403770988228065 0 0.0009919802751464158 -0.010427306863890519 0 0.0009932617234942819 -0.010443869068644075 0 0.00099154040435452812 -0.010400867471984692 0 0.0009919802751464158 -0.010427306863890519 0 0.00098550021946239817 -0.010426093322226397 0 0.0014618381070305017 -0.011128291807771251 0 0.0014486972539331938 -0.011009923606332347 0 0.0009919802751464158 -0.010427306863890519 0 0.0009852199907168205 -0.010426733170168932 0 0.00098538590574306548 -0.010445004541683152 0 0.0014371907412346094 -0.011116832653239601 0 0.0014618381070305017 -0.011128291807771251 0 0.00097546154841951418 -0.010459113038203552 0 0.00098538590574306548 -0.010445004541683152 0 0.0009884968210160485 -0.010456513855446646 0 0.00034710959466204548 -0.0084495732332113271 0 0.00055335391355935287 -0.009375820964251531 0 0.00098538590574306548 -0.010445004541683152 0 0.0009932617234942819 -0.010443869068644075 0 0.00098290861024103522 -0.010447298123124903 0 -0.00045392387868417307 -0.010263712604209212 0 -2.0661077355250014e-05 -0.010303208522271753 0 -0.00022935153410328504 -0.010088160401587793 0 0.00098538590574306548 -0.010445004541683152 0 0.0009884968210160485 -0.010456513855446646 0 0.00098290861024103522 -0.010447298123124903 0 -2.0661077355250014e-05 -0.010303208522271753 0 -1.4580562173725429e-05 -0.010032737710117985 0 -0.00022935153410328504 -0.010088160401587793 0 0.0009919802751464158 -0.010427306863890519 0 0.00098538590574306548 -0.010445004541683152 0 0.0009932617234942819 -0.010443869068644075 0 -0.00045392387868417307 -0.010263712604209212 0 -0.00045337445938850308 -0.0099447977064043794 0 -0.00022935153410328504 -0.010088160401587793 0 0.00034710959466204548 -0.0084495732332113271 0 7.980639516772126e-05 -0.0080832485541853846 0 0.0010598991622494786 -0.010473385140603735 0 0.0010096136976625548 -0.010484553851041982 0 0.0010255906208547589 -0.010442098391619718 0 0.0010096136976625548 -0.010484553851041982 0 0.001002265176692479 -0.010456381498374736 0 0.0010255906208547589 -0.010442098391619718 0 0.0036568658961673721 -0.015113924539768675 0 0.0037691024425856685 -0.015262437315172964 0 0.0033198671632186372 -0.015197607722667015 0 0.0014618381070305017 -0.011128291807771251 0 0.0021015207004225411 -0.012209487157259455 0 0.00097546154841951418 -0.010459113038203552 0 0.0010096136976625548 -0.010484553851041982 0 0.0009884968210160485 -0.010456513855446646 0 0.0009884968210160485 -0.010456513855446646 0 0.001002265176692479 -0.010456381498374736 0 0.00098290861024103522 -0.010447298123124903 0 0.0010096136976625548 -0.010484553851041982 0 0.0009884968210160485 -0.010456513855446646 0 0.001002265176692479 -0.010456381498374736 0 0.00055335391355935287 -0.009375820964251531 0 0.00076664459690167536 -0.0098492190794705926 0 -2.0661077355250014e-05 -0.010303208522271753 0 0.00015666007435319852 -0.010179394030663943 0 0.00041988720094524653 -0.010350134459310059 0 0.001002265176692479 -0.010456381498374736 0 0.00098290861024103522 -0.010447298123124903 0 0.0010255906208547589 -0.010442098391619718 0 -2.0661077355250014e-05 -0.010303208522271753 0 0.00015666007435319852 -0.010179394030663943 0 -1.4580562173725429e-05 -0.010032737710117985 0 0.00041988720094524653 -0.010350134459310059 0 0.00048268168799423038 -0.010051591133378498 0 0.00024458279893413187 -0.010033694784490132 0 0.00015666007435319852 -0.010179394030663943 0 0.00041988720094524653 -0.010350134459310059 0 0.00024458279893413187 -0.010033694784490132 0 0.00066081043952504381 -0.010180438402074783 0 0.00041988720094524653 -0.010350134459310059 0 0.00048268168799423038 -0.010051591133378498 0 0.00046915569869432209 -0.0098076061133135529 0 0.00024458279893413187 -0.010033694784490132 0 7.9587341569863609e-06 -0.0097165334924063616 0 0.00048268168799423038 -0.010051591133378498 0 0.00046915569869432209 -0.0098076061133135529 0 0.00024458279893413187 -0.010033694784490132 0 0.00024458279893413187 -0.010033694784490132 0 -1.4580562173725429e-05 -0.010032737710117985 0 7.9587341569863609e-06 -0.0097165334924063616 0 0.00015666007435319852 -0.010179394030663943 0 0.00024458279893413187 -0.010033694784490132 0 -1.4580562173725429e-05 -0.010032737710117985 0 0.00046915569869432209 -0.0098076061133135529 0 0.00030833728983356302 -0.0094246704428653811 0 0.00074395022536503789 -0.0095153858668352749 0 0.00046915569869432209 -0.0098076061133135529 0 -2.9123966792546894e-05 -0.0097022391998978514 0 0.00030833728983356302 -0.0094246704428653811 0 0.00032366524707433414 -0.0088570437738856537 0 0.00014019450551539778 -0.0085788958021768367 0 -0.00017544440712508519 -0.0063119555273950705 0 8.762253014307024e-05 -0.0065501994445499121 0 8.4544803742383692e-05 -0.0062971467640309713 0 -0.00045337445938850308 -0.0099447977064043794 0 -0.00022837172429840578 -0.0098810579157759242 0 -0.00045201111856157141 -0.0096227846217309173 0 -0.00017544440712508519 -0.0063119555273950705 0 8.4544803742383692e-05 -0.0062971467640309713 0 4.8172740296826701e-05 -0.0060495105904440002 0 0.00013464566379446161 -0.006974441554502663 0 -0.00010868180969773029 -0.0075344861376955199 0 -1.4580562173725429e-05 -0.010032737710117985 0 7.9587341569863609e-06 -0.0097165334924063616 0 -0.00022837172429840578 -0.0098810579157759242 0 -0.00045337445938850308 -0.0099447977064043794 0 -0.00022837172429840578 -0.0098810579157759242 0 -0.00022935153410328504 -0.010088160401587793 0 -1.4580562173725429e-05 -0.010032737710117985 0 -0.00022837172429840578 -0.0098810579157759242 0 -0.00022935153410328504 -0.010088160401587793 0 -2.9123966792546894e-05 -0.0097022391998978514 0 -0.00051871376975293931 -0.0095286371631996304 0 -0.00051899991400154385 -0.009600856010505204 0 7.9587341569863609e-06 -0.0097165334924063616 0 -0.00022837172429840578 -0.0098810579157759242 0 -0.00045201111856157141 -0.0096227846217309173 0 0.00014019450551539778 -0.0085788958021768367 0 -0.00012560481618908263 -0.0076739753640296341 0 7.980639516772126e-05 -0.0080832485541853846 0 -0.00012560481618908263 -0.0076739753640296341 0 8.4544803742383692e-05 -0.0062971467640309713 0 8.3803330496241902e-05 -0.0060568095081073737 0 4.8172740296826701e-05 -0.0060495105904440002 0 -0.00028196995097522199 -0.005921871263743066 0 -0.00014262410728050324 -0.0059415849159384594 0 -0.00018531364557085265 -0.0058855426401919504 0 -0.00029853241255947547 -0.0071266725091224158 0 -0.00010868180969773029 -0.0075344861376955199 0 -0.00041459692729381838 -0.0076014374527743405 0 -0.00041357620669541688 -0.0074243478375259006 0 -0.00029010346722147331 -0.0074483834487339105 0 -0.00014242377680679172 -0.0075750652349214197 0 -0.00010868180969773029 -0.0075344861376955199 0 -0.00014242377680679172 -0.0075750652349214197 0 -0.00012560481618908263 -0.0076739753640296341 0 -0.00012560481618908263 -0.0076739753640296341 0 -0.00010868180969773029 -0.0075344861376955199 0 -0.00012312658849797766 -0.0059138612063627275 0 -0.00014262410728050324 -0.0059415849159384594 0 -0.00018531364557085265 -0.0058855426401919504 0 -2.9123966792546894e-05 -0.0097022391998978514 0 -0.00051871376975293931 -0.0095286371631996304 0 -0.00013506452087215667 -0.0090563519697962405 0 -0.00024738264847465064 -0.0057865799509009752 0 -0.00018531364557085265 -0.0058855426401919504 0 -0.00014092018557489828 -0.0058555944550133738 0 -0.00014242377680679172 -0.0075750652349214197 0 -0.00014141629808078038 -0.0073893049143815984 0 -0.0001463875231134843 -0.0058431978294519009 0 -0.00014092018557489828 -0.0058555944550133738 0 -0.00013530095821205688 -0.0058523626632009437 0 -0.00012312658849797766 -0.0059138612063627275 0 -0.00014092018557489828 -0.0058555944550133738 0 -0.00013530095821205688 -0.0058523626632009437 0 -0.00012312658849797766 -0.0059138612063627275 0 -0.00018531364557085265 -0.0058855426401919504 0 -0.00014092018557489828 -0.0058555944550133738 0 -0.0001463875231134843 -0.0058431978294519009 0 -0.00013530095821205688 -0.0058523626632009437 0 -0.00013783620034439354 -0.0058357065942891001 0 -0.00013530095821205688 -0.0058523626632009437 0 -0.00012048582540414591 -0.0058385359698104348 0 -0.00013783620034439354 -0.0058357065942891001 0 -0.00014242377680679172 -0.0075750652349214197 0 -0.00015201108204362918 -0.0076475795255171791 0 -0.00013479601502699729 -0.0058618542088483281 0 -0.00013530095821205688 -0.0058523626632009437 0 -0.00012048582540414591 -0.0058385359698104348 0 -0.00012048582540414591 -0.0058385359698104348 0 -0.00013783620034439354 -0.0058357065942891001 0 -0.00013934120820921218 -0.005820510762615738 0 -0.00016407262034929019 -0.0058146313065694545 0 -0.00015245207656130609 -0.0058292219328411254 0 -0.00013934120820921218 -0.005820510762615738 0 -0.00013783620034439354 -0.0058357065942891001 0 -0.00015245207656130609 -0.0058292219328411254 0 -0.00013934120820921218 -0.005820510762615738 0 -0.0001463875231134843 -0.0058431978294519009 0 -0.00013783620034439354 -0.0058357065942891001 0 -0.00015245207656130609 -0.0058292219328411254 0 -2.9123966792546894e-05 -0.0097022391998978514 0 -0.00013506452087215667 -0.0090563519697962405 0 0.00030833728983356302 -0.0094246704428653811 0 0.00030833728983356302 -0.0094246704428653811 0 0.00049596532944317241 -0.0090460992350652938 0 0.00074395022536503789 -0.0095153858668352749 0 -0.00013506452087215667 -0.0090563519697962405 0 0.00030833728983356302 -0.0094246704428653811 0 0.00049596532944317241 -0.0090460992350652938 0 -0.00013506452087215667 -0.0090563519697962405 0 0.00049596532944317241 -0.0090460992350652938 0 0.00024894606181750912 -0.0085811275892362284 0 -0.0016710240452284828 -0.011484912681513955 0 -0.0014850178617062579 -0.01133877358558495 0 -0.0016538994005934325 -0.011210962868833508 0 -0.0016710240452284828 -0.011484912681513955 0 -0.0014850178617062579 -0.01133877358558495 0 -0.0014035150145018003 -0.011625188125167114 0 -0.0014850178617062579 -0.01133877358558495 0 -0.0011038550554206693 -0.011649217261142982 0 -0.0014035150145018003 -0.011625188125167114 0 -0.0012588705055176703 -0.011537682636694808 0 -0.0010815477897439122 -0.01168629484116048 0 -0.0012520429417107765 -0.011334058030876419 0 -0.001136289386221803 -0.011651039800282252 0 -0.0010128796637558584 -0.011328541706818114 0 -0.0014850178617062579 -0.01133877358558495 0 -0.0012520429417107765 -0.011334058030876419 0 -0.001136289386221803 -0.011651039800282252 0 -0.0012729264413130438 -0.011770613159322098 0 -0.0014443215383978197 -0.011911234367808835 0 -0.001147170634688608 -0.011915149752587192 0 -0.0011038550554206693 -0.011649217261142982 0 -0.0012729264413130438 -0.011770613159322098 0 -0.0014035150145018003 -0.011625188125167114 0 -0.0011038550554206693 -0.011649217261142982 0 -0.0012729264413130438 -0.011770613159322098 0 -0.001147170634688608 -0.011915149752587192 0 -0.0016710240452284828 -0.011484912681513955 0 -0.0014035150145018003 -0.011625188125167114 0 -0.0014443215383978197 -0.011911234367808835 0 -0.00031348308252647977 -0.0098732121713961396 0 -4.9127383624225755e-05 -0.010482055159941255 0 -0.0012729264413130438 -0.011770613159322098 0 -0.0014035150145018003 -0.011625188125167114 0 -0.0014443215383978197 -0.011911234367808835 0 0.00046915569869432209 -0.0098076061133135529 0 0.00074395022536503789 -0.0095153858668352749 0 0.0007597184946211337 -0.0099003431542581139 0 -4.9127383624225755e-05 -0.010482055159941255 0 0.00031259580818746523 -0.010812418567084859 0 -0.0014443215383978197 -0.011911234367808835 0 -0.001147170634688608 -0.011915149752587192 0 -0.001218562886123833 -0.012327722166005263 0 -0.001147170634688608 -0.011915149752587192 0 -0.001218562886123833 -0.012327722166005263 0 -0.00083746911603560026 -0.012245378724110426 0 0.00031259580818746523 -0.010812418567084859 0 0.00036455418939839666 -0.01077357824896804 0 0.00093801989340471935 -0.010200954510368081 0 0.00097646343673863626 -0.0099888318126061682 0 0.0007597184946211337 -0.0099003431542581139 0 0.00066081043952504381 -0.010180438402074783 0 0.00093801989340471935 -0.010200954510368081 0 0.0007597184946211337 -0.0099003431542581139 0 0.00074395022536503789 -0.0095153858668352749 0 0.00098690131528382649 -0.0099854717960364391 0 0.0007597184946211337 -0.0099003431542581139 0 0.00066081043952504381 -0.010180438402074783 0 0.00048268168799423038 -0.010051591133378498 0 0.0007597184946211337 -0.0099003431542581139 0 0.00048268168799423038 -0.010051591133378498 0 0.00046915569869432209 -0.0098076061133135529 0 0.0007597184946211337 -0.0099003431542581139 0 -0.00011655229944675411 -0.012258195130828861 0 -0.00056527482398493231 -0.012100219168495453 0 -0.00053858082320072209 -0.012595899352409854 0 -0.00084054713768957825 -0.012262673033718838 0 -0.00037074526633065546 -0.012285140649617924 0 -0.00087408628875016434 -0.012453266605414565 0 -0.0005283687915003288 -0.012578511715350488 0 -0.00083746911603560026 -0.012245378724110426 0 0.00011249850258653639 -0.011506706363664436 0 0.00031259580818746523 -0.010812418567084859 0 -0.00087408628875016434 -0.012453266605414565 0 -0.001218562886123833 -0.012327722166005263 0 -0.00083746911603560026 -0.012245378724110426 0 -0.00076037433384705956 -0.01198117294289669 0 -0.00056527482398493231 -0.012100219168495453 0 -0.001147170634688608 -0.011915149752587192 0 -0.00084054713768957825 -0.012262673033718838 0 -0.00073248683695515489 -0.011967454068785811 0 -0.00078182875723618818 -0.011937724503361421 0 -0.00060333530506362831 -0.012086538458070483 0 -0.00084054713768957825 -0.012262673033718838 0 -0.00073248683695515489 -0.011967454068785811 0 -0.00037074526633065546 -0.012285140649617924 0 -0.00076056449790694921 -0.011980634418395121 0 -0.00054291976663156725 -0.011774960086772021 0 -0.00040332759793051959 -0.012023700682001807 0 -0.00076056449790694921 -0.011980634418395121 0 -0.00037074526633065546 -0.012285140649617924 0 -0.00040332759793051959 -0.012023700682001807 0 -0.00076056449790694921 -0.011980634418395121 0 -0.00054291976663156725 -0.011774960086772021 0 -0.00084278683025355817 -0.011675029439656535 0 -0.00054291976663156725 -0.011774960086772021 0 -0.00084278683025355817 -0.011675029439656535 0 -0.0006299119351268872 -0.011531200574894318 0 -0.00054291976663156725 -0.011774960086772021 0 -0.0006299119351268872 -0.011531200574894318 0 -0.00033490560250952044 -0.011559974089322116 0 -0.0010815477897439122 -0.01168629484116048 0 -0.00078182875723618818 -0.011937724503361421 0 -0.001136289386221803 -0.011651039800282252 0 -0.00076056449790694921 -0.011980634418395121 0 -0.00084278683025355817 -0.011675029439656535 0 -0.0011038550554206693 -0.011649217261142982 0 -0.001147170634688608 -0.011915149752587192 0 -0.00073248683695515489 -0.011967454068785811 0 -0.00084278683025355817 -0.011675029439656535 0 -0.0010128796637558584 -0.011328541706818114 0 -0.0006299119351268872 -0.011531200574894318 0 -0.001136289386221803 -0.011651039800282252 0 -0.00084278683025355817 -0.011675029439656535 0 -0.0010128796637558584 -0.011328541706818114 0 -0.00088012533213521196 -0.010632792955047574 0 -0.00071221967219098944 -0.010870313866091313 0 -0.0011999964385243595 -0.011220523575213151 0 -0.0006299119351268872 -0.011531200574894318 0 -0.00081893866205103168 -0.010995974471925391 0 -0.0006299119351268872 -0.011531200574894318 0 -0.00081893866205103168 -0.010995974471925391 0 -0.00043612921412334947 -0.011213358165214748 0 -0.00081893866205103168 -0.010995974471925391 0 -0.00046552383080450432 -0.010718523625359022 0 -0.00043612921412334947 -0.011213358165214748 0 -0.00046552383080450432 -0.010718523625359022 0 -0.0010881654768462319 -0.010393254300384408 0 -0.00054985148600557136 -0.0098839277170468861 0 -0.00046552383080450432 -0.010718523625359022 0 -0.00054985148600557136 -0.0098839277170468861 0 -0.00019150943131723196 -0.010198980535415514 0 -0.00081893866205103168 -0.010995974471925391 0 -0.00046552383080450432 -0.010718523625359022 0 -0.0010881654768462319 -0.010393254300384408 0 -0.0010881654768462319 -0.010393254300384408 0 -0.0013953979835422854 -0.010459936103351225 0 -0.0014325251090245778 -0.010037196262421092 0 -0.0010881654768462319 -0.010393254300384408 0 -0.0011912693780244952 -0.010821439514738452 0 -0.0013953979835422854 -0.010459936103351225 0 -0.00081893866205103168 -0.010995974471925391 0 -0.0010881654768462319 -0.010393254300384408 0 -0.0011912693780244952 -0.010821439514738452 0 -0.0011999964385243595 -0.011220523575213151 0 -0.00081893866205103168 -0.010995974471925391 0 -0.0011912693780244952 -0.010821439514738452 0 -0.00088012533213521196 -0.010632792955047574 0 -0.0011134786781666168 -0.0099906968115925001 0 -0.0012520429417107765 -0.011334058030876419 0 -0.0010128796637558584 -0.011328541706818114 0 -0.001386101254451679 -0.011123772609473956 0 -0.0011999964385243595 -0.011220523575213151 0 -0.0015741311874036996 -0.010807199886774447 0 -0.0018068663126335086 -0.010879649569035367 0 -0.0011999964385243595 -0.011220523575213151 0 -0.0011912693780244952 -0.010821439514738452 0 -0.0015741311874036996 -0.010807199886774447 0 -0.0015741311874036996 -0.010807199886774447 0 -0.0018068663126335086 -0.010879649569035367 0 -0.0017650927513611224 -0.01058863406776472 0 -0.001386101254451679 -0.011123772609473956 0 -0.0016237821652956062 -0.011126451923364835 0 -0.0017667008128026099 -0.010914995493774886 0 -0.0011134786781666168 -0.0099906968115925001 0 -0.0011625583534629858 -0.0088267364548854192 0 -0.0015058937469563469 -0.011196844272855602 0 -0.0016237821652956062 -0.011126451923364835 0 -0.0016538994005934325 -0.011210962868833508 0 -0.0015058937469563469 -0.011196844272855602 0 -0.001386101254451679 -0.011123772609473956 0 -0.0016237821652956062 -0.011126451923364835 0 -0.0014850178617062579 -0.01133877358558495 0 -0.0015058937469563469 -0.011196844272855602 0 -0.0016538994005934325 -0.011210962868833508 0 -0.0014850178617062579 -0.01133877358558495 0 -0.0012520429417107765 -0.011334058030876419 0 -0.001386101254451679 -0.011123772609473956 0 -0.0014850178617062579 -0.01133877358558495 0 -0.0015058937469563469 -0.011196844272855602 0 -0.001386101254451679 -0.011123772609473956 0 -0.0018068663126335086 -0.010879649569035367 0 -0.0022359569602760209 -0.010435863091773391 0 -0.0025130720316719466 -0.010493866104458901 0 -0.0022359569602760209 -0.010435863091773391 0 -0.0019562262474302821 -0.01044267754701665 0 -0.0021194730761671171 -0.010298015122287112 0 -0.0018068663126335086 -0.010879649569035367 0 -0.0022359569602760209 -0.010435863091773391 0 -0.0019562262474302821 -0.01044267754701665 0 -0.0018068663126335086 -0.010879649569035367 0 -0.0019562262474302821 -0.01044267754701665 0 -0.0017650927513611224 -0.01058863406776472 0 -0.0019562262474302821 -0.01044267754701665 0 -0.0018425543340420179 -0.010316564577961778 0 -0.0017650927513611224 -0.01058863406776472 0 -0.0019562262474302821 -0.01044267754701665 0 -0.0020019540063875123 -0.010127143278170592 0 -0.0018425543340420179 -0.010316564577961778 0 -0.0020019540063875123 -0.010127143278170592 0 -0.0018425543340420179 -0.010316564577961778 0 -0.0016472480253475949 -0.010105855198297119 0 -0.0019562262474302821 -0.01044267754701665 0 -0.0020019540063875123 -0.010127143278170592 0 -0.0021194730761671171 -0.010298015122287112 0 -0.0020019540063875123 -0.010127143278170592 0 -0.0021194730761671171 -0.010298015122287112 0 -0.0022832941674730983 -0.010185415454132747 0 -0.0022359569602760209 -0.010435863091773391 0 -0.0021194730761671171 -0.010298015122287112 0 -0.0022832941674730983 -0.010185415454132747 0 -0.0011786657889339273 -0.010071609515759665 0 -0.0011537877125414422 -0.0097059689101433259 0 -0.0015741311874036996 -0.010807199886774447 0 -0.0013953979835422854 -0.010459936103351225 0 -0.0016797192264157957 -0.010246283876794427 0 -0.0015741311874036996 -0.010807199886774447 0 -0.0017650927513611224 -0.01058863406776472 0 -0.0016472480253475949 -0.010105855198297119 0 -0.0011912693780244952 -0.010821439514738452 0 -0.0015741311874036996 -0.010807199886774447 0 -0.0013953979835422854 -0.010459936103351225 0 -0.0018425543340420179 -0.010316564577961778 0 -0.0017650927513611224 -0.01058863406776472 0 -0.0016472480253475949 -0.010105855198297119 0 -0.0014325251090245778 -0.010037196262421092 0 -0.0016797192264157957 -0.010246283876794427 0 -0.0017787999275837485 -0.009675106494327481 0 -0.0011537877125414422 -0.0097059689101433259 0 -0.0010351414200157952 -0.0087062647741425851 0 -0.0013953979835422854 -0.010459936103351225 0 -0.0014325251090245778 -0.010037196262421092 0 -0.0016797192264157957 -0.010246283876794427 0 -0.00097758817837395725 -0.0092348010943631275 0 -0.0010351414200157952 -0.0087062647741425851 0 -0.0016472480253475949 -0.010105855198297119 0 -0.0019919547990962573 -0.0097644835110388926 0 -0.0017621499722973678 -0.0094121644745942951 0 -0.0020019540063875123 -0.010127143278170592 0 -0.0019919547990962573 -0.0097644835110388926 0 -0.0023191822268670607 -0.0098270375945106788 0 -0.0020019540063875123 -0.010127143278170592 0 -0.0022832941674730983 -0.010185415454132747 0 -0.0023191822268670607 -0.0098270375945106788 0 -0.0020019540063875123 -0.010127143278170592 0 -0.0016472480253475949 -0.010105855198297119 0 -0.0019919547990962573 -0.0097644835110388926 0 -0.0019919547990962573 -0.0097644835110388926 0 -0.0022471369517776925 -0.00943700422323673 0 -0.0023191822268670607 -0.0098270375945106788 0 -0.0010351414200157952 -0.0087062647741425851 0 -0.0012074695778617826 -0.0074977255162651914 0 -0.0022471369517776925 -0.00943700422323673 0 -0.0017621499722973678 -0.0094121644745942951 0 -0.0023474462164397329 -0.0087995805763241321 0 -0.0019919547990962573 -0.0097644835110388926 0 -0.0022471369517776925 -0.00943700422323673 0 -0.0017621499722973678 -0.0094121644745942951 0 -0.0019942926956721539 -0.0094367562234789881 0 -0.001353103390408401 -0.0092199808273050743 0 -0.0021447946734871907 -0.0085609091820737313 0 -0.0015413249303372022 -0.0099121915852980868 0 -0.0019942926956721539 -0.0094367562234789881 0 -0.001353103390408401 -0.0092199808273050743 0 -0.00065905226936680472 -0.0090476352025828394 0 -0.00042307847064658905 -0.0092293169840729303 0 -0.00054985148600557136 -0.0098839277170468861 0 -0.00055599809318072207 -0.0085675680012913518 0 -0.00034239942844346973 -0.0090449187162295122 0 -0.00042307847064658905 -0.0092293169840729303 0 -0.00054985148600557136 -0.0098839277170468861 0 -6.4571785179115318e-05 -0.0095272520330793985 0 -0.00042307847064658905 -0.0092293169840729303 0 -0.00018803622748247479 -0.0089321090128231268 0 -6.4571785179115318e-05 -0.0095272520330793985 0 -0.001353103390408401 -0.0092199808273050743 0 -0.00054985148600557136 -0.0098839277170468861 0 -0.0011334353647478189 -0.0098517100311518776 0 -0.0015413249303372022 -0.0099121915852980868 0 -0.001353103390408401 -0.0092199808273050743 0 -0.0011334353647478189 -0.0098517100311518776 0 -0.0010881654768462319 -0.010393254300384408 0 -0.00054985148600557136 -0.0098839277170468861 0 -0.0011334353647478189 -0.0098517100311518776 0 -0.00090395904605349508 -0.0094551533753929815 0 -0.00097758817837395725 -0.0092348010943631275 0 -0.0010881654768462319 -0.010393254300384408 0 -0.0015413249303372022 -0.0099121915852980868 0 -0.0011334353647478189 -0.0098517100311518776 0 -0.00014964759902187942 -0.0057991934373332896 0 -0.00013470341379723274 -0.0057921579678268395 0 -0.00014661611570684983 -0.0057714557183023672 0 -0.00016950526580317935 -0.0057779644091032582 0 -0.00014964759902187942 -0.0057991934373332896 0 -0.00014661611570684983 -0.0057714557183023672 0 -0.00014964759902187942 -0.0057991934373332896 0 -0.00013934120820921218 -0.005820510762615738 0 -0.00012671624101025187 -0.005811128895112005 0 -0.00016407262034929019 -0.0058146313065694545 0 -0.00014964759902187942 -0.0057991934373332896 0 -0.00013934120820921218 -0.005820510762615738 0 -0.00012048582540414591 -0.0058385359698104348 0 -0.00013934120820921218 -0.005820510762615738 0 -0.00012671624101025187 -0.005811128895112005 0 -0.00014964759902187942 -0.0057991934373332896 0 -0.00012671624101025187 -0.005811128895112005 0 -0.00013470341379723274 -0.0057921579678268395 0 -0.00012671624101025187 -0.005811128895112005 0 -0.00013470341379723274 -0.0057921579678268395 0 -0.00011928661289895812 -0.005798925559728425 0 -0.00013470341379723274 -0.0057921579678268395 0 -0.00011928661289895812 -0.005798925559728425 0 -0.00011971214528152453 -0.0057853930509738881 0 -0.00010909973095128185 -0.0057936529740177925 0 -0.00011928661289895812 -0.005798925559728425 0 -9.9746691617579738e-05 -0.0058150578099697191 0 -0.00097315252405426593 -0.0080177617353533511 0 -0.00069506316194876754 -0.0085160449634317497 0 -0.00010909973095128185 -0.0057936529740177925 0 -0.00011928661289895812 -0.005798925559728425 0 -0.00011971214528152453 -0.0057853930509738881 0 -0.00097315252405426593 -0.0080177617353533511 0 -0.00096388038902003371 -0.0079116475566814257 0 -0.00012671624101025187 -0.005811128895112005 0 -0.00011928661289895812 -0.005798925559728425 0 -9.9746691617579738e-05 -0.0058150578099697191 0 -0.00015201108204362918 -0.0076475795255171791 0 -0.00069506316194876754 -0.0085160449634317497 0 -0.00012048582540414591 -0.0058385359698104348 0 -0.00012671624101025187 -0.005811128895112005 0 -9.9746691617579738e-05 -0.0058150578099697191 0 -0.0016710240452284828 -0.011484912681513955 0 -0.0018886952326102649 -0.011064321675471488 0 -0.0016538994005934325 -0.011210962868833508 0 -0.00031348308252647977 -0.0098732121713961396 0 -0.00069506316194876754 -0.0085160449634317497 0 -0.0018886952326102649 -0.011064321675471488 0 -0.0017501636341040777 -0.011054609804291902 0 -0.0017667008128026099 -0.010914995493774886 0 -0.0016237821652956062 -0.011126451923364835 0 -0.0017501636341040777 -0.011054609804291902 0 -0.0017667008128026099 -0.010914995493774886 0 -0.0018886952326102649 -0.011064321675471488 0 -0.0016538994005934325 -0.011210962868833508 0 -0.0017501636341040777 -0.011054609804291902 0 -0.0016237821652956062 -0.011126451923364835 0 -0.0016538994005934325 -0.011210962868833508 0 -0.0017501636341040777 -0.011054609804291902 0 -0.00087700226017619004 -0.0082740012190897043 0 -0.00065031261310851589 -0.008703848435536057 0 -0.00047243472564725673 -0.0084847161171357176 0 -0.0022359569602760209 -0.010435863091773391 0 -0.0023819457162119074 -0.010442978982235193 0 -0.0025130720316719466 -0.010493866104458901 0 -0.0022359569602760209 -0.010435863091773391 0 -0.0023819457162119074 -0.010442978982235193 0 -0.0024051923834004585 -0.010320498024083677 0 -0.0023819457162119074 -0.010442978982235193 0 -0.0025130720316719466 -0.010493866104458901 0 -0.0024051923834004585 -0.010320498024083677 0 -0.00069506316194876754 -0.0085160449634317497 0 -0.0011625583534629858 -0.0088267364548854192 0 -0.0030241690523566964 -0.01021979036245107 0 -0.0025130720316719466 -0.010493866104458901 0 -0.0026206123006756784 -0.01013592568493355 0 -0.00097315252405426593 -0.0080177617353533511 0 -0.0011625583534629858 -0.0088267364548854192 0 -0.0026206123006756784 -0.01013592568493355 0 -0.0022832941674730983 -0.010185415454132747 0 -0.0024051923834004585 -0.010320498024083677 0 -0.0025130720316719466 -0.010493866104458901 0 -0.0026206123006756784 -0.01013592568493355 0 -0.0024051923834004585 -0.010320498024083677 0 -0.0022359569602760209 -0.010435863091773391 0 -0.0022832941674730983 -0.010185415454132747 0 -0.0024051923834004585 -0.010320498024083677 0 -0.0022471369517776925 -0.00943700422323673 0 -0.0023191822268670607 -0.0098270375945106788 0 -0.0028531385161574899 -0.0095525414240988545 0 -0.0026206123006756784 -0.01013592568493355 0 -0.0023191822268670607 -0.0098270375945106788 0 -0.0028531385161574899 -0.0095525414240988545 0 -0.0026206123006756784 -0.01013592568493355 0 -0.0022832941674730983 -0.010185415454132747 0 -0.0023191822268670607 -0.0098270375945106788 0 -0.0028531385161574899 -0.0095525414240988545 0 -0.0030387518277965168 -0.0089003390763341145 0 -0.0023474462164397329 -0.0087995805763241321 0 -0.0022471369517776925 -0.00943700422323673 0 -0.0028531385161574899 -0.0095525414240988545 0 -0.0023474462164397329 -0.0087995805763241321 0 -0.0028531385161574899 -0.0095525414240988545 0 -0.0034348960592532306 -0.0094196140859946417 0 -0.0030387518277965168 -0.0089003390763341145 0 -0.0001069175604883663 -0.0057950641797356846 0 -0.00011971214528152453 -0.0057853930509738881 0 -0.00012392947519077881 -0.005756321688535143 0 -0.00097315252405426593 -0.0080177617353533511 0 -0.0010300482065710257 -0.0070793315922329314 0 -0.0030241690523566964 -0.01021979036245107 0 -0.0028531385161574899 -0.0095525414240988545 0 -0.0034348960592532306 -0.0094196140859946417 0 -0.0030241690523566964 -0.01021979036245107 0 -0.0026206123006756784 -0.01013592568493355 0 -0.0028531385161574899 -0.0095525414240988545 0 -0.00013136049892255354 -0.0057767206923014887 0 -0.00012392947519077881 -0.005756321688535143 0 -0.00014661611570684983 -0.0057714557183023672 0 -0.00011971214528152453 -0.0057853930509738881 0 -0.00013136049892255354 -0.0057767206923014887 0 -0.00012392947519077881 -0.005756321688535143 0 -0.00013470341379723274 -0.0057921579678268395 0 -0.00011971214528152453 -0.0057853930509738881 0 -0.00013136049892255354 -0.0057767206923014887 0 -0.00013470341379723274 -0.0057921579678268395 0 -0.00013136049892255354 -0.0057767206923014887 0 -0.00014661611570684983 -0.0057714557183023672 0 -0.00012392947519077881 -0.005756321688535143 0 -0.00014808199812932005 -0.0057469227719772163 0 -0.00014147902174477961 -0.005721977416495206 0 -0.00012392947519077881 -0.005756321688535143 0 -0.00014808199812932005 -0.0057469227719772163 0 -0.00014661611570684983 -0.0057714557183023672 0 -0.00017055198992852092 -0.0057578681598693775 0 -0.00014808199812932005 -0.0057469227719772163 0 -0.00014661611570684983 -0.0057714557183023672 0 -5.4449960889303706e-05 -0.0030935078019813426 0 -0.00020298662581478749 -0.0030445611904023327 0 -0.00012532631322120075 -0.0031977365211173382 0 -0.00077256559231871644 -0.0055728115500144511 0 -0.00042635719448140324 -0.0040131071849430367 0 6.9210617773101863e-07 -0.0040604215128335914 0 3.9676710235992527e-06 -0.0040275183986629663 0 -3.3289199920273721e-05 -0.0040281205139565358 0 -0.00016815049426481269 -0.0057338566396955238 0 -0.00014808199812932005 -0.0057469227719772163 0 -0.00014147902174477961 -0.005721977416495206 0 -6.873587826779482e-05 -0.0029814973171829661 0 -5.4449960889303706e-05 -0.0030935078019813426 0 -0.00020298662581478749 -0.0030445611904023327 0 -0.0002886830479402719 -0.0044477361107938245 0 -0.00077256559231871644 -0.0055728115500144511 0 -0.0034348960592532306 -0.0094196140859946417 0 -0.0038436952426958225 -0.0086233561820177589 0 -0.0030387518277965168 -0.0089003390763341145 0 -0.0010300482065710257 -0.0070793315922329314 0 -0.00077256559231871644 -0.0055728115500144511 0 -0.00077256559231871644 -0.0055728115500144511 0 -0.0012156893032351814 -0.0058892232290152849 0 6.9210617773101863e-07 -0.0040604215128335914 0 2.4007448545062691e-05 -0.004039179360159773 0 3.9676710235992527e-06 -0.0040275183986629663 0 -0.0038436952426958225 -0.0086233561820177589 0 -0.0029294348206744753 -0.0081894329765399738 0 -0.0030387518277965168 -0.0089003390763341145 0 -0.0029294348206744753 -0.0081894329765399738 0 -0.0030387518277965168 -0.0089003390763341145 0 -0.0023474462164397329 -0.0087995805763241321 0 -0.0012156893032351814 -0.0058892232290152849 0 -0.0012074695778617826 -0.0074977255162651914 0 5.211446479330715e-05 -0.005397451015849891 0 -0.0001527746493287419 -0.0054948241470433989 0 -0.00053276406975020444 -0.0049068520150246323 0 -0.0010525352091506827 -0.0073183769105834694 0 -0.0012156904399672429 -0.0068123366613906285 0 -0.00075902378755566418 -0.0071919193354539682 0 -0.001437174791211436 -0.0069173308164614637 0 -0.0010525352091506827 -0.0073183769105834694 0 -0.0012156904399672429 -0.0068123366613906285 0 -0.0012156893032351814 -0.0058892232290152849 0 -0.00077736625623452777 -0.0056253623228636907 0 -0.00077736625623452777 -0.0056253623228636907 0 -0.00072351037630112125 -0.0056040509341439681 0 -3.9043648438710427e-05 -0.0055100956730758958 0 -2.6954438602680613e-05 -0.0054871881830855203 0 -9.8346729244342006e-05 -0.0056670802884922194 0 -3.9043648438710427e-05 -0.0055100956730758958 0 -0.0001527746493287419 -0.0054948241470433989 0 -9.8346729244342006e-05 -0.0056670802884922194 0 -2.6954438602680613e-05 -0.0054871881830855203 0 -9.8346729244342006e-05 -0.0056670802884922194 0 -6.45626103840837e-05 -0.0056508944655560339 0 -6.45626103840837e-05 -0.0056508944655560339 0 2.3840438660353355e-07 -0.0049479250213967782 0 -7.2099939614868222e-07 -0.0057680676824374971 0 -2.6954438602680613e-05 -0.0054871881830855203 0 -6.45626103840837e-05 -0.0056508944655560339 0 2.3840438660353355e-07 -0.0049479250213967782 0 -9.8346729244342006e-05 -0.0056670802884922194 0 -6.45626103840837e-05 -0.0056508944655560339 0 -0.00036882646879306377 -0.0060754463461390783 0 -2.6954438602680613e-05 -0.0054871881830855203 0 2.3840438660353355e-07 -0.0049479250213967782 0 -6.6263892841111278e-05 -0.0052443313043589769 0 -3.9043648438710427e-05 -0.0055100956730758958 0 -2.6954438602680613e-05 -0.0054871881830855203 0 -6.6263892841111278e-05 -0.0052443313043589769 0 -2.4622057620987841e-05 -0.0039976231364169347 0 -3.7627174424237156e-05 -0.0040045740020118632 0 -9.7809517616115441e-06 -0.0040205864026133563 0 -2.4622057620987841e-05 -0.0039976231364169347 0 -9.7809517616115441e-06 -0.0040205864026133563 0 5.013627025895013e-06 -0.0040144528863924256 0 -0.00077736625623452777 -0.0056253623228636907 0 -0.00021390169110270985 -0.0048820909606184931 0 -0.0012156893032351814 -0.0058892232290152849 0 -0.0011336609699560463 -0.0054788814909661953 0 2.4007448545062691e-05 -0.004039179360159773 0 3.9676710235992527e-06 -0.0040275183986629663 0 5.013627025895013e-06 -0.0040144528863924256 0 -9.7809517616115441e-06 -0.0040205864026133563 0 5.013627025895013e-06 -0.0040144528863924256 0 3.3881879621808561e-05 -0.0040073231371366286 0 3.9676710235992527e-06 -0.0040275183986629663 0 5.013627025895013e-06 -0.0040144528863924256 0 3.3881879621808561e-05 -0.0040073231371366286 0 -9.7809517616115441e-06 -0.0040205864026133563 0 3.2723249250425944e-08 -0.0041257669814976231 0 3.3881879621808561e-05 -0.0040073231371366286 0 2.3840438660353355e-07 -0.0049479250213967782 0 -6.6263892841111278e-05 -0.0052443313043589769 0 -5.4466078938573945e-07 -0.0041285667244305956 0 -0.00021390169110270985 -0.0048820909606184931 0 -4.2297580452223813e-07 -0.0041291205425395437 0 -4.3238220781510142e-08 -0.0034323133772084097 0 3.2723249250425944e-08 -0.0041257669814976231 0 3.3881879621808561e-05 -0.0040073231371366286 0 -4.3238220781510142e-08 -0.0034323133772084097 0 3.3881879621808561e-05 -0.0040073231371366286 0 -3.3289199920273721e-05 -0.0040281205139565358 0 3.9676710235992527e-06 -0.0040275183986629663 0 3.3881879621808561e-05 -0.0040073231371366286 0 -3.3289199920273721e-05 -0.0040281205139565358 0 -0.00024331483077180777 -0.0078308724963268798 0 -0.00039674410773269514 -0.0084981041461100887 0 -0.00050739608441511955 -0.0077081384762676466 0 -0.00024331483077180777 -0.0078308724963268798 0 -9.5810972787503185e-05 -0.0083254879017191936 0 -0.00039674410773269514 -0.0084981041461100887 0 -9.5810972787503185e-05 -0.0083254879017191936 0 -0.00018803622748247479 -0.0089321090128231268 0 -0.00039674410773269514 -0.0084981041461100887 0 -0.00042307847064658905 -0.0092293169840729303 0 -0.00018803622748247479 -0.0089321090128231268 0 -0.00039674410773269514 -0.0084981041461100887 0 -9.5810972787503185e-05 -0.0083254879017191936 0 -0.00018803622748247479 -0.0089321090128231268 0 4.975414293278043e-05 -0.0088628894515522024 0 -0.00065905226936680472 -0.0090476352025828394 0 -0.00042307847064658905 -0.0092293169840729303 0 -0.00039674410773269514 -0.0084981041461100887 0 -0.00065905226936680472 -0.0090476352025828394 0 -0.00039674410773269514 -0.0084981041461100887 0 -0.00097295486074271066 -0.0083067237780672168 0 -0.00055599809318072207 -0.0085675680012913518 0 -0.00080581425765301076 -0.0074074896425751491 0 -0.00066660252870091397 -0.007721491106355405 0 -0.0010525352091506827 -0.0073183769105834694 0 -0.00075902378755566418 -0.0071919193354539682 0 -0.0010351414200157952 -0.0087062647741425851 0 -0.00080581425765301076 -0.0074074896425751491 0 -0.00077736625623452777 -0.0056253623228636907 0 -0.00080581425765301076 -0.0074074896425751491 0 -0.00080581425765301076 -0.0074074896425751491 0 -0.00078196202996918857 -0.0069071184433067883 0 -0.0001527746493287419 -0.0054948241470433989 0 -0.00053276406975020444 -0.0049068520150246323 0 -0.00044087862416571989 -0.0054098946407395709 0 -0.00097295486074271066 -0.0083067237780672168 0 -0.00093709185037713311 -0.0075018452203312862 0 -0.00050739608441511955 -0.0077081384762676466 0 -0.00039674410773269514 -0.0084981041461100887 0 -0.00097295486074271066 -0.0083067237780672168 0 -0.00050739608441511955 -0.0077081384762676466 0 -0.00024331483077180777 -0.0078308724963268798 0 -0.00050739608441511955 -0.0077081384762676466 0 -0.00020162788210913176 -0.0070872062759619672 0 -0.00050739608441511955 -0.0077081384762676466 0 -0.00039605310965319359 -0.0069032379865545529 0 -0.00020162788210913176 -0.0070872062759619672 0 -0.00039605310965319359 -0.0069032379865545529 0 -0.00020162788210913176 -0.0070872062759619672 0 -0.0001973006179615293 -0.0064418676510414408 0 -0.00093709185037713311 -0.0075018452203312862 0 -0.00039605310965319359 -0.0069032379865545529 0 -0.00036882646879306377 -0.0060754463461390783 0 -9.8346729244342006e-05 -0.0056670802884922194 0 -0.00044087862416571989 -0.0054098946407395709 0 -0.00036882646879306377 -0.0060754463461390783 0 -0.00078196202996918857 -0.0069071184433067883 0 -0.00075509568640837123 -0.0067665441986437102 0 -0.0001527746493287419 -0.0054948241470433989 0 -9.8346729244342006e-05 -0.0056670802884922194 0 -0.00044087862416571989 -0.0054098946407395709 0 -0.00093709185037713311 -0.0075018452203312862 0 -0.00050739608441511955 -0.0077081384762676466 0 -0.00039605310965319359 -0.0069032379865545529 0 -0.00039605310965319359 -0.0069032379865545529 0 -0.00036882646879306377 -0.0060754463461390783 0 -0.0001973006179615293 -0.0064418676510414408 0 -6.45626103840837e-05 -0.0056508944655560339 0 -0.00036882646879306377 -0.0060754463461390783 0 -7.2099939614868222e-07 -0.0057680676824374971 0 -0.00036882646879306377 -0.0060754463461390783 0 -7.2099939614868222e-07 -0.0057680676824374971 0 -0.0001973006179615293 -0.0064418676510414408 0 -7.2099939614868222e-07 -0.0057680676824374971 0 -0.0001973006179615293 -0.0064418676510414408 0 -1.8316462427086396e-07 -0.0065878335184023874 0 -0.00020162788210913176 -0.0070872062759619672 0 -0.0001973006179615293 -0.0064418676510414408 0 -1.8316462427086396e-07 -0.0065878335184023874 0 -1.8316462427086396e-07 -0.0065878335184023874 0 -5.8283208065918835e-05 -0.0075635823333234098 0 -8.17758781110018e-08 -0.0074082175784385756 0 -0.00020162788210913176 -0.0070872062759619672 0 -1.8316462427086396e-07 -0.0065878335184023874 0 -5.8283208065918835e-05 -0.0075635823333234098 0 -0.00024331483077180777 -0.0078308724963268798 0 -9.5810972787503185e-05 -0.0083254879017191936 0 -5.8283208065918835e-05 -0.0075635823333234098 0 -0.00024331483077180777 -0.0078308724963268798 0 -0.00020162788210913176 -0.0070872062759619672 0 -5.8283208065918835e-05 -0.0075635823333234098 0 -9.5810972787503185e-05 -0.0083254879017191936 0 -5.8283208065918835e-05 -0.0075635823333234098 0 8.6071334075310082e-05 -0.0082275880584109246 0 -5.8283208065918835e-05 -0.0075635823333234098 0 -8.17758781110018e-08 -0.0074082175784385756 0 8.6071334075310082e-05 -0.0082275880584109246 0 -8.17758781110018e-08 -0.0074082175784385756 0 7.8940165861805315e-07 -0.0082263128389683787 0 8.6071334075310082e-05 -0.0082275880584109246 0 7.8940165861805315e-07 -0.0082263128389683787 0 0.00021831181464965286 -0.0085763275499837997 0 8.6071334075310082e-05 -0.0082275880584109246 0 0.00021831181464965286 -0.0085763275499837997 0 8.6071334075310082e-05 -0.0082275880584109246 0 0.0002531887711219688 -0.0089209945830396511 0 -9.5810972787503185e-05 -0.0083254879017191936 0 8.6071334075310082e-05 -0.0082275880584109246 0 4.975414293278043e-05 -0.0088628894515522024 0 8.6071334075310082e-05 -0.0082275880584109246 0 0.0002531887711219688 -0.0089209945830396511 0 4.975414293278043e-05 -0.0088628894515522024 0 0.0002531887711219688 -0.0089209945830396511 0 0.00023173481612433721 -0.0092866999325730282 0 4.975414293278043e-05 -0.0088628894515522024 0 -0.00018803622748247479 -0.0089321090128231268 0 4.975414293278043e-05 -0.0088628894515522024 0 -6.4571785179115318e-05 -0.0095272520330793985 0 0.00023173481612433721 -0.0092866999325730282 0 4.975414293278043e-05 -0.0088628894515522024 0 -6.4571785179115318e-05 -0.0095272520330793985 0 0.0004508742510098953 -0.0094003258010353103 0 0.00071575912100522499 -0.0097351780817984488 0 0.00060057410593215138 -0.0097474670978319519 0 0.00071575912100522499 -0.0097351780817984488 0 0.00074312307556891554 -0.0098988361946827381 0 0.00060057410593215138 -0.0097474670978319519 0 0.0002531887711219688 -0.0089209945830396511 0 0.00023173481612433721 -0.0092866999325730282 0 0.0004508742510098953 -0.0094003258010353103 0 0.00023173481612433721 -0.0092866999325730282 0 0.0004508742510098953 -0.0094003258010353103 0 0.00036036490847704794 -0.0098369055072339406 0 0.00021831181464965286 -0.0085763275499837997 0 0.0002531887711219688 -0.0089209945830396511 0 0.00048558401551763547 -0.0090998326266008341 0 0.0002531887711219688 -0.0089209945830396511 0 0.0004508742510098953 -0.0094003258010353103 0 0.00048558401551763547 -0.0090998326266008341 0 0.0004508742510098953 -0.0094003258010353103 0 0.00048558401551763547 -0.0090998326266008341 0 0.00071575912100522499 -0.0097351780817984488 0 0.00048558401551763547 -0.0090998326266008341 0 0.00080096598315496168 -0.0092775139708546166 0 0.00071575912100522499 -0.0097351780817984488 0 0.00029810947464753228 -0.0088527586007024206 0 0.00042184367030283676 -0.0092872292280978489 0 -5.1920738836728635e-07 -0.0082282203075136982 0 -8.8822562815650582e-05 -0.0092869023997579746 0 1.6655538638968248e-07 -0.0092149196269039474 0 0.00048558401551763547 -0.0090998326266008341 0 0.00046023236327408836 -0.0085321205983868945 0 0.00080096598315496168 -0.0092775139708546166 0 0.00021831181464965286 -0.0085763275499837997 0 0.00048558401551763547 -0.0090998326266008341 0 0.00046023236327408836 -0.0085321205983868945 0 7.8940165861805315e-07 -0.0082263128389683787 0 0.00021831181464965286 -0.0085763275499837997 0 0.00046023236327408836 -0.0085321205983868945 0 2.6760453896573142e-07 -0.008228557319220094 0 0.00029810947464753228 -0.0088527586007024206 0 -8.8822562815650582e-05 -0.0092869023997579746 0 1.6655538638968248e-07 -0.0092149196269039474 0 9.2529529874400956e-05 -0.010040808443592647 0 1.6655538638968248e-07 -0.0092149196269039474 0 0.00028017179051824435 -0.010286190908880498 0 6.4072735687377154e-07 -0.010571333199678366 0 1.6655538638968248e-07 -0.0092149196269039474 0 0.00028017179051824435 -0.010286190908880498 0 9.2529529874400956e-05 -0.010040808443592647 0 0.00028017179051824435 -0.010286190908880498 0 6.4072735687377154e-07 -0.010571333199678366 0 9.48197787136553e-05 -0.010826794031532562 0 6.4072735687377154e-07 -0.010571333199678366 0 9.48197787136553e-05 -0.010826794031532562 0 -1.7909447814003857e-05 -0.011563013014217124 0 0.00029948829163800226 -0.011194245297246965 0 8.716250569019068e-05 -0.010738521768848054 0 -0.00017354094437160408 -0.011283300343766289 0 0.00029948829163800226 -0.011194245297246965 0 0.00045234027409180456 -0.010557362723897254 0 0.00048642378744339786 -0.01029069466037626 0 0.00028017179051824435 -0.010286190908880498 0 9.48197787136553e-05 -0.010826794031532562 0 0.00048642378744339786 -0.01029069466037626 0 0.00012223480555008446 -0.011251556325807915 0 0.00028501212403905535 -0.011065429961023377 0 0.00045234027409180456 -0.010557362723897254 0 8.716250569019068e-05 -0.010738521768848054 0 0.00045775607550006581 -0.010299568997577961 0 0.00053809926973402331 -0.010337853748492717 0 0.00045234027409180456 -0.010557362723897254 0 0.00052255354155113893 -0.010318141875098245 0 0.00045234027409180456 -0.010557362723897254 0 0.00048642378744339786 -0.01029069466037626 0 0.00052255354155113893 -0.010318141875098245 0 0.00053809926973402331 -0.010337853748492717 0 0.00045234027409180456 -0.010557362723897254 0 0.00045775607550006581 -0.010299568997577961 0 0.00053809926973402331 -0.010337853748492717 0 0.00064413919001310232 -0.010162184117682617 0 0.00045775607550006581 -0.010299568997577961 0 0.00029948829163800226 -0.011194245297246965 0 0.00045234027409180456 -0.010557362723897254 0 8.716250569019068e-05 -0.010738521768848054 0 0.00080096598315496168 -0.0092775139708546166 0 0.00070244949781445921 -0.0098187164248243492 0 0.00071575912100522499 -0.0097351780817984488 0 0.00080096598315496168 -0.0092775139708546166 0 0.00070244949781445921 -0.0098187164248243492 0 0.00050455989937357433 -0.01025581929637967 0 0.00042184367030283676 -0.0092872292280978489 0 0.00046160525399152873 -0.009471176771466451 0 0.00070244949781445921 -0.0098187164248243492 0 0.00062661023199918114 -0.010058092233165231 0 0.00072042969251463252 -0.009932440288984096 0 0.00028017179051824435 -0.010286190908880498 0 0.00048642378744339786 -0.01029069466037626 0 0.00050455989937357433 -0.01025581929637967 0 0.00028017179051824435 -0.010286190908880498 0 9.2529529874400956e-05 -0.010040808443592647 0 0.00050455989937357433 -0.01025581929637967 0 0.00048642378744339786 -0.01029069466037626 0 0.00054459313913119084 -0.01020694494821481 0 0.00052255354155113893 -0.010318141875098245 0 0.00048642378744339786 -0.01029069466037626 0 0.00050455989937357433 -0.01025581929637967 0 0.00054459313913119084 -0.01020694494821481 0 0.00070244949781445921 -0.0098187164248243492 0 0.00050455989937357433 -0.01025581929637967 0 0.00062661023199918114 -0.010058092233165231 0 0.00054459313913119084 -0.01020694494821481 0 0.00062661023199918114 -0.010058092233165231 0 0.00058550965640870116 -0.010167315134101721 0 0.00050455989937357433 -0.01025581929637967 0 0.00054459313913119084 -0.01020694494821481 0 0.00062661023199918114 -0.010058092233165231 0 0.00062661023199918114 -0.010058092233165231 0 0.00065170400455157637 -0.01009582906283585 0 0.00072042969251463252 -0.009932440288984096 0 0.00062661023199918114 -0.010058092233165231 0 0.00065170400455157637 -0.01009582906283585 0 0.00058550965640870116 -0.010167315134101721 0 0.00054459313913119084 -0.01020694494821481 0 0.00052255354155113893 -0.010318141875098245 0 0.00058550965640870116 -0.010167315134101721 0 0.00052255354155113893 -0.010318141875098245 0 0.00058550965640870116 -0.010167315134101721 0 0.00059238740914625224 -0.010208293404852563 0 0.00065170400455157637 -0.01009582906283585 0 0.00058550965640870116 -0.010167315134101721 0 0.00059238740914625224 -0.010208293404852563 0 0.00053809926973402331 -0.010337853748492717 0 0.00052255354155113893 -0.010318141875098245 0 0.00059238740914625224 -0.010208293404852563 0 0.00053809926973402331 -0.010337853748492717 0 0.00059238740914625224 -0.010208293404852563 0 0.00064413919001310232 -0.010162184117682617 0 0.00065170400455157637 -0.01009582906283585 0 0.00059238740914625224 -0.010208293404852563 0 0.00064413919001310232 -0.010162184117682617 0 0.00065170400455157637 -0.01009582906283585 0 0.00064413919001310232 -0.010162184117682617 0 0.00073740478582885152 -0.010018887481844043 0 0.00065170400455157637 -0.01009582906283585 0 0.00073740478582885152 -0.010018887481844043 0 0.00072042969251463252 -0.009932440288984096 0 0.00073740478582885152 -0.010018887481844043 0 0.00072042969251463252 -0.009932440288984096 0 0.00074312307556891554 -0.0098988361946827381 0 0.00070244949781445921 -0.0098187164248243492 0 0.00072042969251463252 -0.009932440288984096 0 0.00071575912100522499 -0.0097351780817984488 0 0.00072042969251463252 -0.009932440288984096 0 0.00071575912100522499 -0.0097351780817984488 0 0.00074312307556891554 -0.0098988361946827381 0 0.00073740478582885152 -0.010018887481844043 0 0.00071573737659410598 -0.010063408710196885 0 0.00086065073697407055 -0.010088904147760709 0 0.00073740478582885152 -0.010018887481844043 0 0.00074312307556891554 -0.0098988361946827381 0 0.00086065073697407055 -0.010088904147760709 0 0.00064413919001310232 -0.010162184117682617 0 0.00073740478582885152 -0.010018887481844043 0 0.00071573737659410598 -0.010063408710196885 0 0.00064413919001310232 -0.010162184117682617 0 0.00071573737659410598 -0.010063408710196885 0 0.00045775607550006581 -0.010299568997577961 0 0.0014525324177506976 -0.010247321156473666 0 0.00086065073697407055 -0.010088904147760709 0 0.0013348175593586324 -0.010636783158382736 0 0.00044908792284685734 -0.011702723751303797 0 0.00054203741337304357 -0.011421054114148017 0 0.00071573737659410598 -0.010063408710196885 0 0.00066653484570464421 -0.0099181050412805172 0 0.00086065073697407055 -0.010088904147760709 0 0.00071573737659410598 -0.010063408710196885 0 0.00066653484570464421 -0.0099181050412805172 0 0.00045405611276102712 -0.010026086622645293 0 0.00045775607550006581 -0.010299568997577961 0 0.00045405611276102712 -0.010026086622645293 0 -4.3723637694112808e-05 -0.010161784443948088 0 8.716250569019068e-05 -0.010738521768848054 0 0.00045775607550006581 -0.010299568997577961 0 -4.3723637694112808e-05 -0.010161784443948088 0 0.00071573737659410598 -0.010063408710196885 0 0.00045775607550006581 -0.010299568997577961 0 0.00045405611276102712 -0.010026086622645293 0 0.00066653484570464421 -0.0099181050412805172 0 0.00045405611276102712 -0.010026086622645293 0 0.00028944558730575469 -0.0097783523195432414 0 0.00044908792284685734 -0.011702723751303797 0 -0.00017118358339665584 -0.012607617453476992 0 -0.0019971413168724948 -0.014719637783647554 0 -0.0016270047305262738 -0.014226670940914163 0 -0.0013975382648070201 -0.014865199991270514 0 -0.00017118358339665584 -0.012607617453476992 0 -0.00047482543414514535 -0.01244062240499224 0 0.00045405611276102712 -0.010026086622645293 0 0.00028944558730575469 -0.0097783523195432414 0 -4.3723637694112808e-05 -0.010161784443948088 0 -0.0013191151237094518 -0.014834583158006292 0 -0.0012863282931910905 -0.014981508300664938 0 -0.0010755858461768597 -0.014895156700384934 0 -0.00017118358339665584 -0.012607617453476992 0 -0.00071479031272903416 -0.013436886479367428 0 -0.0012863282931910905 -0.014981508300664938 0 -0.0012538879378819377 -0.01513647298917572 0 -0.0010755858461768597 -0.014895156700384934 0 0.002022438094590193 -0.01039549473409193 0 0.001605536240343859 -0.010930178644610209 0 0.0013348175593586324 -0.010636783158382736 0 -0.0013191151237094518 -0.014834583158006292 0 -0.0012863282931910905 -0.014981508300664938 0 -0.001492686690479585 -0.015058277770355752 0 -0.00017118358339665584 -0.012607617453476992 0 0.00047878777108824457 -0.012622944585417722 0 0.0014525324177506976 -0.010247321156473666 0 0.002022438094590193 -0.01039549473409193 0 0.0013348175593586324 -0.010636783158382736 0 0.00047878777108824457 -0.012622944585417722 0 -0.00010279685228654074 -0.013139664990830536 0 0.00042712184954419625 -0.012054525843165768 0 0.00047956846031823534 -0.011907087932982639 0 0.00043082797572269806 -0.012034963290355038 0 -0.0012863282931910905 -0.014981508300664938 0 -0.001492686690479585 -0.015058277770355752 0 -0.0012538879378819377 -0.01513647298917572 0 0.00046255130073458481 -0.011936908923224361 0 0.00042712184954419625 -0.012054525843165768 0 0.00038895732423997894 -0.012185065506648008 0 0.00047878777108824457 -0.012622944585417722 0 0.00048238547099785606 -0.01261582900778974 0 0.00046255130073458481 -0.011936908923224361 0 0.00042712184954419625 -0.012054525843165768 0 0.00047956846031823534 -0.011907087932982639 0 0.00086065073697407055 -0.010088904147760709 0 0.0009507704898020149 -0.010744647725875999 0 0.0013348175593586324 -0.010636783158382736 0 0.001605536240343859 -0.010930178644610209 0 0.0009507704898020149 -0.010744647725875999 0 0.0013348175593586324 -0.010636783158382736 0 0.00047878777108824457 -0.012622944585417722 0 0.00039264865022421312 -0.011843118529586158 0 0.00047956846031823534 -0.011907087932982639 0 0.00048819301572245653 -0.011747110934822655 0 0.00043082797572269806 -0.012034963290355038 0 0.00048335791093889139 -0.011909312389899618 0 0.00053511671402913582 -0.011421143804670793 0 0.00047956846031823534 -0.011907087932982639 0 0.00053511671402913582 -0.011421143804670793 0 0.00047956846031823534 -0.011907087932982639 0 0.00048819301572245653 -0.011747110934822655 0 0.00053511671402913582 -0.011421143804670793 0 0.00048819301572245653 -0.011747110934822655 0 0.00042703004761630311 -0.0114987652378961 0 0.00086065073697407055 -0.010088904147760709 0 0.0009507704898020149 -0.010744647725875999 0 0.00042196376811281193 -0.010675994103888364 0 0.00053511671402913582 -0.011421143804670793 0 0.00042703004761630311 -0.0114987652378961 0 0.00042196376811281193 -0.010675994103888364 0 0.00039264865022421312 -0.011843118529586158 0 0.00025575530160707935 -0.011561165818538615 0 0.00042196376811281193 -0.010675994103888364 0 0.00021770285969996094 -0.011124637445554806 0 2.1093518292666969e-05 -0.010677643606978666 0 0.00021770285969996094 -0.011124637445554806 0 -9.10055998643554e-05 -0.011211372792974832 0 0.00018838014962616753 -0.011527938774228388 0 0.00042703004761630311 -0.0114987652378961 0 0.00042196376811281193 -0.010675994103888364 0 0.00021770285969996094 -0.011124637445554806 0 0.00042703004761630311 -0.0114987652378961 0 0.00021770285969996094 -0.011124637445554806 0 0.00018838014962616753 -0.011527938774228388 0 0.00021770285969996094 -0.011124637445554806 0 -9.10055998643554e-05 -0.011211372792974832 0 2.1093518292666969e-05 -0.010677643606978666 0 -0.00046552383080450432 -0.010718523625359022 0 -9.10055998643554e-05 -0.011211372792974832 0 2.1093518292666969e-05 -0.010677643606978666 0 -0.00046552383080450432 -0.010718523625359022 0 -9.10055998643554e-05 -0.011211372792974832 0 -0.00043612921412334947 -0.011213358165214748 0 -0.00046552383080450432 -0.010718523625359022 0 2.1093518292666969e-05 -0.010677643606978666 0 -0.00019150943131723196 -0.010198980535415514 0 0.00042196376811281193 -0.010675994103888364 0 2.1093518292666969e-05 -0.010677643606978666 0 0.00010689389661353763 -0.010136674747028004 0 2.1093518292666969e-05 -0.010677643606978666 0 0.00010689389661353763 -0.010136674747028004 0 -0.00019150943131723196 -0.010198980535415514 0 -0.00054985148600557136 -0.0098839277170468861 0 -0.00019150943131723196 -0.010198980535415514 0 -6.4571785179115318e-05 -0.0095272520330793985 0 0.00010689389661353763 -0.010136674747028004 0 -0.00019150943131723196 -0.010198980535415514 0 -6.4571785179115318e-05 -0.0095272520330793985 0 0.00010689389661353763 -0.010136674747028004 0 -6.4571785179115318e-05 -0.0095272520330793985 0 0.00036036490847704794 -0.0098369055072339406 0 0.00023173481612433721 -0.0092866999325730282 0 -6.4571785179115318e-05 -0.0095272520330793985 0 0.00036036490847704794 -0.0098369055072339406 0 0.0004508742510098953 -0.0094003258010353103 0 0.00036036490847704794 -0.0098369055072339406 0 0.00060057410593215138 -0.0097474670978319519 0 0.00074312307556891554 -0.0098988361946827381 0 0.00086065073697407055 -0.010088904147760709 0 0.00060874686767893712 -0.01002102686895227 0 0.00036036490847704794 -0.0098369055072339406 0 0.00060057410593215138 -0.0097474670978319519 0 0.00060874686767893712 -0.01002102686895227 0 0.00074312307556891554 -0.0098988361946827381 0 0.00060057410593215138 -0.0097474670978319519 0 0.00060874686767893712 -0.01002102686895227 0 0.00086065073697407055 -0.010088904147760709 0 0.00042196376811281193 -0.010675994103888364 0 0.00060874686767893712 -0.01002102686895227 0 0.00042196376811281193 -0.010675994103888364 0 0.00010689389661353763 -0.010136674747028004 0 0.00036036490847704794 -0.0098369055072339406 0 0.00042196376811281193 -0.010675994103888364 0 0.00036036490847704794 -0.0098369055072339406 0 0.00060874686767893712 -0.01002102686895227 0 9.3653649383960733e-08 -0.014998524346328559 0 5.7343062885352128e-05 -0.013689552121644206 0 -3.6688299911702463e-07 -0.012436461961034848 0 9.3653649383960733e-08 -0.014998524346328559 0 -1.1099489377031495e-06 -0.014880863634962561 0 1.3817746553151627e-07 -0.014999676152603171 0 3.3431539908679538e-05 -0.014733712539129333 0 -1.1099489377031495e-06 -0.014880863634962561 0 1.3817746553151627e-07 -0.014999676152603171 0 3.3431539908679538e-05 -0.014733712539129333 0 3.5187928478633225e-05 -0.014776292019357765 0 -1.1099489377031495e-06 -0.014880863634962561 0 9.3653649383960733e-08 -0.014998524346328559 0 -1.1099489377031495e-06 -0.014880863634962561 0 5.7343062885352128e-05 -0.013689552121644206 0 1.7790162220678873e-05 -0.01376880334131223 0 -1.1099489377031495e-06 -0.014880863634962561 0 5.7343062885352128e-05 -0.013689552121644206 0 0.00010558025620171978 -0.014214706841428665 0 9.5238089880839979e-05 -0.014316589138419154 0 5.7343062885352128e-05 -0.013689552121644206 0 0.00023681192948619295 -0.013290831081092077 0 3.8233555799730212e-05 -0.012914438641298846 0 0.00010558025620171978 -0.014214706841428665 0 3.5291391727889172e-05 -0.01411520075869393 0 1.7790162220678873e-05 -0.01376880334131223 0 5.7343062885352128e-05 -0.013689552121644206 0 0.00023681192948619295 -0.013290831081092077 0 3.3431539908679538e-05 -0.014733712539129333 0 3.5187928478633225e-05 -0.014776292019357765 0 8.4186548436119296e-05 -0.014519492278326558 0 3.3431539908679538e-05 -0.014733712539129333 0 8.4186548436119296e-05 -0.014519492278326558 0 8.40920674059436e-05 -0.014481374355876849 0 8.4186548436119296e-05 -0.014519492278326558 0 1.9818024184476686e-05 -0.014245204851929536 0 8.40920674059436e-05 -0.014481374355876849 0 3.5291391727889172e-05 -0.01411520075869393 0 -7.652364947735952e-05 -0.014113176911883601 0 8.4186548436119296e-05 -0.014519492278326558 0 -7.240888342122154e-05 -0.013853298895496731 0 1.9818024184476686e-05 -0.014245204851929536 0 0.00023681192948619295 -0.013290831081092077 0 -7.240888342122154e-05 -0.013853298895496731 0 -6.8760579445229143e-05 -0.013045769724899164 0 -7.240888342122154e-05 -0.013853298895496731 0 -0.00047016900489721462 -0.013231728614661304 0 -6.8760579445229143e-05 -0.013045769724899164 0 -7.240888342122154e-05 -0.013853298895496731 0 -0.00047016900489721462 -0.013231728614661304 0 -0.00067715042403935621 -0.01376283271235094 0 -7.240888342122154e-05 -0.013853298895496731 0 -0.00067715042403935621 -0.01376283271235094 0 -0.00025701282857563089 -0.014180201808161189 0 -0.00047016900489721462 -0.013231728614661304 0 -6.8760579445229143e-05 -0.013045769724899164 0 -0.00061202564275785951 -0.012448109525004433 0 -6.8760579445229143e-05 -0.013045769724899164 0 -0.00019345896498582858 -0.01245421644104836 0 -0.00061202564275785951 -0.012448109525004433 0 -6.8760579445229143e-05 -0.013045769724899164 0 3.8233555799730212e-05 -0.012914438641298846 0 -0.00019345896498582858 -0.01245421644104836 0 0.00023681192948619295 -0.013290831081092077 0 -6.8760579445229143e-05 -0.013045769724899164 0 3.8233555799730212e-05 -0.012914438641298846 0 -3.6688299911702463e-07 -0.012436461961034848 0 -0.00019345896498582858 -0.01245421644104836 0 -1.7909447814003857e-05 -0.011563013014217124 0 5.7343062885352128e-05 -0.013689552121644206 0 3.8233555799730212e-05 -0.012914438641298846 0 -3.6688299911702463e-07 -0.012436461961034848 0 3.8233555799730212e-05 -0.012914438641298846 0 -3.6688299911702463e-07 -0.012436461961034848 0 -0.00019345896498582858 -0.01245421644104836 0 6.4072735687377154e-07 -0.010571333199678366 0 -3.6688299911702463e-07 -0.012436461961034848 0 -1.7909447814003857e-05 -0.011563013014217124 0 -0.00017539181015603788 -0.011739712296456487 0 -0.00012426622112905468 -0.011580569682407007 0 0.00029948829163800226 -0.011194245297246965 0 -0.00017354094437160408 -0.011283300343766289 0 -0.00056380596227014737 -0.012140430829488465 0 -0.00017354094437160408 -0.011283300343766289 0 -0.00056380596227014737 -0.012140430829488465 0 -0.00055536959299230446 -0.010975002274350418 0 0.00012223480555008446 -0.011251556325807915 0 -0.00012426622112905468 -0.011580569682407007 0 -0.00019345896498582858 -0.01245421644104836 0 -0.00056380596227014737 -0.012140430829488465 0 -0.00061202564275785951 -0.012448109525004433 0 -0.00056380596227014737 -0.012140430829488465 0 -0.00061202564275785951 -0.012448109525004433 0 -0.00055536959299230446 -0.010975002274350418 0 -0.00052865154764817268 -0.012265252125623393 0 -0.00055765314083060084 -0.012327756465538988 0 -0.00047016900489721462 -0.013231728614661304 0 -0.00067715042403935621 -0.01376283271235094 0 -0.0013126292748459789 -0.013648776029119498 0 -0.00047016900489721462 -0.013231728614661304 0 -0.00061202564275785951 -0.012448109525004433 0 -0.0013126292748459789 -0.013648776029119498 0 8.716250569019068e-05 -0.010738521768848054 0 -0.00055536959299230446 -0.010975002274350418 0 -4.3723637694112808e-05 -0.010161784443948088 0 8.716250569019068e-05 -0.010738521768848054 0 -0.00017354094437160408 -0.011283300343766289 0 -0.00055536959299230446 -0.010975002274350418 0 -0.0013126292748459789 -0.013648776029119498 0 -0.0016270047305262738 -0.014226670940914163 0 -0.0010849286079924931 -0.014224807943546115 0 -0.00055765314083060084 -0.012327756465538988 0 -0.00047482543414514535 -0.01244062240499224 0 -0.00067715042403935621 -0.01376283271235094 0 -0.0013126292748459789 -0.013648776029119498 0 -0.0010849286079924931 -0.014224807943546115 0 -0.00067715042403935621 -0.01376283271235094 0 -0.0010849286079924931 -0.014224807943546115 0 -0.00070911553774778225 -0.014580537053744751 0 -0.0011157470074790376 -0.014581108621722266 0 -0.00080719115004537637 -0.014945083338365736 0 -0.00070911553774778225 -0.014580537053744751 0 -0.0010849286079924931 -0.014224807943546115 0 -0.0011157470074790376 -0.014581108621722266 0 -0.00070911553774778225 -0.014580537053744751 0 -0.0016270047305262738 -0.014226670940914163 0 -0.0011157470074790376 -0.014581108621722266 0 -0.0013975382648070201 -0.014865199991270514 0 -0.0016270047305262738 -0.014226670940914163 0 -0.0010849286079924931 -0.014224807943546115 0 -0.0011157470074790376 -0.014581108621722266 0 0.00038895732423997894 -0.012185065506648008 0 0.00040265361308284398 -0.012344291358411778 0 0.00040048520734272736 -0.012337750733950522 0 -0.0012538879378819377 -0.01513647298917572 0 -0.00097645727503513206 -0.015052183052351139 0 -0.001003595929408009 -0.015226750738313324 0 -0.00010279685228654074 -0.013139664990830536 0 -0.00012335778187509621 -0.013544324916127433 0 -0.0012538879378819377 -0.01513647298917572 0 -0.0010755858461768597 -0.014895156700384934 0 -0.00097645727503513206 -0.015052183052351139 0 -9.7760633799081671e-05 -0.014131412177820509 0 -0.00012335778187509621 -0.013544324916127433 0 -0.00097645727503513206 -0.015052183052351139 0 -0.00080719115004537637 -0.014945083338365736 0 -0.00069095661703992583 -0.015133098396609448 0 0.00011649716336613706 -0.013575449061591567 0 0.00013180354749382897 -0.013704000900539852 0 -4.4440033950599156e-05 -0.013654115588582469 0 -0.00097645727503513206 -0.015052183052351139 0 -0.00069095661703992583 -0.015133098396609448 0 -0.001003595929408009 -0.015226750738313324 0 -0.0010755858461768597 -0.014895156700384934 0 -0.00097645727503513206 -0.015052183052351139 0 -0.00080719115004537637 -0.014945083338365736 0 -0.0011157470074790376 -0.014581108621722266 0 -0.0013975382648070201 -0.014865199991270514 0 -0.00080719115004537637 -0.014945083338365736 0 -0.00071479031272903416 -0.013436886479367428 0 -0.00072266014005739219 -0.013712056763614816 0 -9.7760633799081671e-05 -0.014131412177820509 0 -0.00033739640956140894 -0.014361199876369453 0 -0.00080719115004537637 -0.014945083338365736 0 -0.00069095661703992583 -0.015133098396609448 0 -0.00070911553774778225 -0.014580537053744751 0 -0.00024998915922173296 -0.014789252240825482 0 -0.00037509947267557115 -0.015030681429898435 0 -0.00047306662776729985 -0.014615382784285074 0 -9.7760633799081671e-05 -0.014131412177820509 0 0.00019305764992923321 -0.013634311250013713 0 0.0012188911635037714 -0.014245650119525352 0 0.00075736601262467657 -0.01405789477017714 0 0.001176862549140303 -0.013774293072970525 0 0.0012188911635037714 -0.014245650119525352 0 0.00075736601262467657 -0.01405789477017714 0 0.00062478284242266141 -0.014506937815101156 0 0.00075736601262467657 -0.01405789477017714 0 0.00062478284242266141 -0.014506937815101156 0 0.00046016452146798326 -0.014229599525366789 0 -9.7760633799081671e-05 -0.014131412177820509 0 9.9802191779017855e-05 -0.014339818203134931 0 -0.00024998915922173296 -0.014789252240825482 0 -0.00037509947267557115 -0.015030681429898435 0 -2.5265216446709263e-05 -0.014821560209736486 0 -0.00024998915922173296 -0.014789252240825482 0 -2.5265216446709263e-05 -0.014821560209736486 0 -0.00010446171553634888 -0.014653285469509668 0 -2.5265216446709263e-05 -0.014821560209736486 0 -0.00010446171553634888 -0.014653285469509668 0 4.3858890918931239e-05 -0.014604818397914094 0 -0.00010446171553634888 -0.014653285469509668 0 -7.6201182813931471e-05 -0.014425839032030043 0 4.3858890918931239e-05 -0.014604818397914094 0 -0.00024998915922173296 -0.014789252240825482 0 -0.00010446171553634888 -0.014653285469509668 0 -0.00047306662776729985 -0.014615382784285074 0 -0.00010446171553634888 -0.014653285469509668 0 -0.00047306662776729985 -0.014615382784285074 0 -7.6201182813931471e-05 -0.014425839032030043 0 -0.00067715042403935621 -0.01376283271235094 0 -0.00047306662776729985 -0.014615382784285074 0 -0.00025701282857563089 -0.014180201808161189 0 -0.00043948113441942408 -0.014094409701884105 0 -0.00033739640956140894 -0.014361199876369453 0 -0.00047306662776729985 -0.014615382784285074 0 -0.00025701282857563089 -0.014180201808161189 0 -7.6201182813931471e-05 -0.014425839032030043 0 1.9818024184476686e-05 -0.014245204851929536 0 -7.6201182813931471e-05 -0.014425839032030043 0 8.40920674059436e-05 -0.014481374355876849 0 -7.240888342122154e-05 -0.013853298895496731 0 -0.00025701282857563089 -0.014180201808161189 0 1.9818024184476686e-05 -0.014245204851929536 0 -0.00025701282857563089 -0.014180201808161189 0 1.9818024184476686e-05 -0.014245204851929536 0 -7.6201182813931471e-05 -0.014425839032030043 0 -7.6201182813931471e-05 -0.014425839032030043 0 8.40920674059436e-05 -0.014481374355876849 0 4.3858890918931239e-05 -0.014604818397914094 0 3.3431539908679538e-05 -0.014733712539129333 0 6.9176338183481019e-05 -0.014655729385166818 0 2.9416956403786989e-05 -0.014755433222799538 0 3.3431539908679538e-05 -0.014733712539129333 0 8.40920674059436e-05 -0.014481374355876849 0 6.9176338183481019e-05 -0.014655729385166818 0 8.40920674059436e-05 -0.014481374355876849 0 6.9176338183481019e-05 -0.014655729385166818 0 0.00010351836680438757 -0.014632328147654252 0 0.00010351836680438757 -0.014632328147654252 0 2.9416956403786989e-05 -0.014755433222799538 0 0.00015298689342150198 -0.014637018412643959 0 6.9176338183481019e-05 -0.014655729385166818 0 0.00010351836680438757 -0.014632328147654252 0 2.9416956403786989e-05 -0.014755433222799538 0 2.9416956403786989e-05 -0.014755433222799538 0 0.00015298689342150198 -0.014637018412643959 0 7.3938635470601334e-05 -0.014381180880334275 0 8.40920674059436e-05 -0.014481374355876849 0 0.00010351836680438757 -0.014632328147654252 0 4.3858890918931239e-05 -0.014604818397914094 0 0.00010351836680438757 -0.014632328147654252 0 0.00015298689342150198 -0.014637018412643959 0 4.3858890918931239e-05 -0.014604818397914094 0 -2.5265216446709263e-05 -0.014821560209736486 0 0.00015298689342150198 -0.014637018412643959 0 4.3858890918931239e-05 -0.014604818397914094 0 0.00062478284242266141 -0.014506937815101156 0 0.00028097349606001415 -0.014399139004774315 0 0.00046016452146798326 -0.014229599525366789 0 0.00062478284242266141 -0.014506937815101156 0 0.00015298689342150198 -0.014637018412643959 0 0.00028097349606001415 -0.014399139004774315 0 9.9802191779017855e-05 -0.014339818203134931 0 0.00010739107794360937 -0.01441351064410757 0 0.00028097349606001415 -0.014399139004774315 0 0.00046016452146798326 -0.014229599525366789 0 0.00019640081779935507 -0.014218280272043133 0 0.00046016452146798326 -0.014229599525366789 0 0.00019640081779935507 -0.014218280272043133 0 0.00047264581414162114 -0.013894823143435108 0 0.00075736601262467657 -0.01405789477017714 0 0.00046016452146798326 -0.014229599525366789 0 0.00047264581414162114 -0.013894823143435108 0 0.00019640081779935507 -0.014218280272043133 0 7.3938635470601334e-05 -0.014381180880334275 0 0.00027000716431292552 -0.014327085703895804 0 0.00028097349606001415 -0.014399139004774315 0 0.00019640081779935507 -0.014218280272043133 0 7.3938635470601334e-05 -0.014381180880334275 0 8.8475065948857834e-05 -0.014721420595615707 0 0.00011545176546656961 -0.014729772004108877 0 0.00015298689342150198 -0.014637018412643959 0 0.00028097349606001415 -0.014399139004774315 0 7.3938635470601334e-05 -0.014381180880334275 0 7.8019791574722409e-05 -0.014735303674292552 0 8.8475065948857834e-05 -0.014721420595615707 0 2.9416956403786989e-05 -0.014755433222799538 0 -6.6289770663605624e-06 -0.014943647038510506 0 1.3817746553151627e-07 -0.014999676152603171 0 -6.6289770663605624e-06 -0.014943647038510506 0 1.3817746553151627e-07 -0.014999676152603171 0 2.1694107118929089e-05 -0.014991094124064474 0 3.3431539908679538e-05 -0.014733712539129333 0 2.9416956403786989e-05 -0.014755433222799538 0 1.3817746553151627e-07 -0.014999676152603171 0 1.3817746553151627e-07 -0.014999676152603171 0 -9.6810371705585354e-09 -0.014999912791534741 0 3.7321688997676489e-05 -0.014999888378641935 0 -9.6810371705585354e-09 -0.014999912791534741 0 3.7321688997676489e-05 -0.014999888378641935 0 7.4676701194502162e-05 -0.014874193675040384 0 3.7321688997676489e-05 -0.014999888378641935 0 0.00014890559243155595 -0.014905089229451652 0 7.4676701194502162e-05 -0.014874193675040384 0 3.7321688997676489e-05 -0.014999888378641935 0 6.5886956459236233e-05 -0.014996001296864911 0 0.00014890559243155595 -0.014905089229451652 0 1.3817746553151627e-07 -0.014999676152603171 0 3.7321688997676489e-05 -0.014999888378641935 0 2.1694107118929089e-05 -0.014991094124064474 0 3.7321688997676489e-05 -0.014999888378641935 0 6.5886956459236233e-05 -0.014996001296864911 0 2.1694107118929089e-05 -0.014991094124064474 0 0.00029179443939727313 -0.014704405170109078 0 0.00027000716431292552 -0.014327085703895804 0 7.5984332119327709e-05 -0.014633793470566033 0 0.00029179443939727313 -0.014704405170109078 0 7.5984332119327709e-05 -0.014633793470566033 0 0.00019231078378823137 -0.014814293509296899 0 0.00019640081779935507 -0.014218280272043133 0 0.00027000716431292552 -0.014327085703895804 0 7.5984332119327709e-05 -0.014633793470566033 0 0.0001349079925583964 -0.014780975907958613 0 0.00011545176546656961 -0.014729772004108877 0 0.00055728666322585178 -0.013564303583915643 0 0.00047264581414162114 -0.013894823143435108 0 0.00041413526399009128 -0.013402389179695962 0 0.00029141958368984928 -0.014182241464007976 0 0.00032718827916689675 -0.014132125873006662 0 0.00075736601262467657 -0.01405789477017714 0 0.00055728666322585178 -0.013564303583915643 0 0.00047264581414162114 -0.013894823143435108 0 0.00019640081779935507 -0.014218280272043133 0 0.00047264581414162114 -0.013894823143435108 0 0.00041413526399009128 -0.013402389179695962 0 0.00055728666322585178 -0.013564303583915643 0 0.00041413526399009128 -0.013402389179695962 0 0.00059129187194950172 -0.013334443989985881 0 0.00074816277624311668 -0.013403686146082946 0 0.00059651931086553568 -0.013387540074338846 0 0.00059129187194950172 -0.013334443989985881 0 7.5984332119327709e-05 -0.014633793470566033 0 0.00019231078378823137 -0.014814293509296899 0 0.00024113791613605153 -0.014922117432873314 0 0.00041413526399009128 -0.013402389179695962 0 0.00074816277624311668 -0.013403686146082946 0 0.00059129187194950172 -0.013334443989985881 0 0.00032718827916689675 -0.014132125873006662 0 0.00039626689065598195 -0.014150436406774302 0 0.0001349079925583964 -0.014780975907958613 0 0.00013932543500557948 -0.014804295976371265 0 0.00029179443939727313 -0.014704405170109078 0 0.00019231078378823137 -0.014814293509296899 0 0.00014890559243155595 -0.014905089229451652 0 0.00019231078378823137 -0.014814293509296899 0 0.00014890559243155595 -0.014905089229451652 0 0.00024113791613605153 -0.014922117432873314 0 0.00014890559243155595 -0.014905089229451652 0 0.00019625506684044463 -0.014747223776612131 0 7.4676701194502162e-05 -0.014874193675040384 0 0.00014890559243155595 -0.014905089229451652 0 0.00024113791613605153 -0.014922117432873314 0 0.00019625506684044463 -0.014747223776612131 0 0.00074816277624311668 -0.013403686146082946 0 0.00056895550480556205 -0.013601913518947623 0 0.00050207828957810118 -0.013921019786645842 0 0.00074816277624311668 -0.013403686146082946 0 0.00059651931086553568 -0.013387540074338846 0 0.00056895550480556205 -0.013601913518947623 0 0.00059651931086553568 -0.013387540074338846 0 0.00052299236752140763 -0.013397580195006592 0 0.00049660005319927488 -0.013697647484136837 0 0.00059651931086553568 -0.013387540074338846 0 0.00056895550480556205 -0.013601913518947623 0 0.00049660005319927488 -0.013697647484136837 0 0.00056895550480556205 -0.013601913518947623 0 0.00049660005319927488 -0.013697647484136837 0 0.00050207828957810118 -0.013921019786645842 0 0.00052299236752140763 -0.013397580195006592 0 0.00043646295283776212 -0.013628448184376741 0 0.00049660005319927488 -0.013697647484136837 0 0.00052299236752140763 -0.013397580195006592 0 0.00039076132839160232 -0.013362235086122031 0 0.00043646295283776212 -0.013628448184376741 0 0.00039076132839160232 -0.013362235086122031 0 0.00034048865689627122 -0.013587866833779915 0 0.00043646295283776212 -0.013628448184376741 0 0.00052299236752140763 -0.013397580195006592 0 0.00050594586279406985 -0.01316459132075516 0 0.00039076132839160232 -0.013362235086122031 0 0.00059651931086553568 -0.013387540074338846 0 0.00052299236752140763 -0.013397580195006592 0 0.00066886803387576968 -0.013185504003975734 0 0.00052299236752140763 -0.013397580195006592 0 0.00050594586279406985 -0.01316459132075516 0 0.00066886803387576968 -0.013185504003975734 0 0.00050594586279406985 -0.01316459132075516 0 0.00066886803387576968 -0.013185504003975734 0 0.00051868135615211139 -0.01288210006201879 0 0.00059651931086553568 -0.013387540074338846 0 0.00066886803387576968 -0.013185504003975734 0 0.00059129187194950172 -0.013334443989985881 0 0.00066886803387576968 -0.013185504003975734 0 0.00059129187194950172 -0.013334443989985881 0 0.00065303441849764142 -0.01341574767780316 0 0.00055728666322585178 -0.013564303583915643 0 0.00059129187194950172 -0.013334443989985881 0 0.00065303441849764142 -0.01341574767780316 0 0.00075736601262467657 -0.01405789477017714 0 0.00055728666322585178 -0.013564303583915643 0 0.001176862549140303 -0.013774293072970525 0 0.00055728666322585178 -0.013564303583915643 0 0.00065303441849764142 -0.01341574767780316 0 0.00080623726300973434 -0.013603422326433435 0 0.00048024236216524742 -0.013676872571764713 0 0.00019305764992923321 -0.013634311250013713 0 0.00066886803387576968 -0.013185504003975734 0 0.00065303441849764142 -0.01341574767780316 0 0.00080623726300973434 -0.013603422326433435 0 0.00066886803387576968 -0.013185504003975734 0 0.00073735349031065097 -0.012432810556293555 0 0.00051868135615211139 -0.01288210006201879 0 0.0003156761429027423 -0.013284941583524331 0 0.00019305764992923321 -0.013634311250013713 0 0.00073735349031065097 -0.012432810556293555 0 0.00051868135615211139 -0.01288210006201879 0 0.00046334543300430233 -0.012633400576320168 0 0.00051868135615211139 -0.01288210006201879 0 0.00043771252508917503 -0.012786569495259118 0 0.00046334543300430233 -0.012633400576320168 0 0.00043771252508917503 -0.012786569495259118 0 0.00037180960178043637 -0.012672511354386117 0 0.00040788182272634405 -0.012957868159618175 0 0.00043771252508917503 -0.012786569495259118 0 0.00046334543300430233 -0.012633400576320168 0 0.00037180960178043637 -0.012672511354386117 0 0.00073735349031065097 -0.012432810556293555 0 0.00046334543300430233 -0.012633400576320168 0 0.00043088421922758821 -0.012425638216786987 0 0.00019305764992923321 -0.013634311250013713 0 -0.00012335778187509621 -0.013544324916127433 0 0.00073735349031065097 -0.012432810556293555 0 0.00043088421922758821 -0.012425638216786987 0 0.00040712160707332551 -0.012328771100760002 0 0.00046334543300430233 -0.012633400576320168 0 0.00043088421922758821 -0.012425638216786987 0 0.00038663931379715762 -0.012494470788164586 0 0.00038895732423997894 -0.012185065506648008 0 0.00037428465487850555 -0.012316197190025182 0 0.00040048520734272736 -0.012337750733950522 0 0.00037428465487850555 -0.012316197190025182 0 0.00040048520734272736 -0.012337750733950522 0 0.00038827082881114902 -0.012395421479560183 0 0.00043088421922758821 -0.012425638216786987 0 0.00040048520734272736 -0.012337750733950522 0 0.00038827082881114902 -0.012395421479560183 0 0.00043088421922758821 -0.012425638216786987 0 0.00040712160707332551 -0.012328771100760002 0 0.00040048520734272736 -0.012337750733950522 0 -0.00012335778187509621 -0.013544324916127433 0 -0.00011747148818003729 -0.013539746322711385 0 0.00043088421922758821 -0.012425638216786987 0 0.00038827082881114902 -0.012395421479560183 0 0.00038663931379715762 -0.012494470788164586 0 0.00038827082881114902 -0.012395421479560183 0 0.00037139297297394058 -0.012416291015452557 0 0.00038663931379715762 -0.012494470788164586 0 0.00037428465487850555 -0.012316197190025182 0 0.00038827082881114902 -0.012395421479560183 0 0.00037139297297394058 -0.012416291015452557 0 0.00037428465487850555 -0.012316197190025182 0 0.00037139297297394058 -0.012416291015452557 0 0.00034646992988023853 -0.012457223257697077 0 0.00037139297297394058 -0.012416291015452557 0 0.00038663931379715762 -0.012494470788164586 0 0.00034646992988023853 -0.012457223257697077 0 0.00038663931379715762 -0.012494470788164586 0 0.00037180960178043637 -0.012672511354386117 0 0.00034646992988023853 -0.012457223257697077 0 0.00046334543300430233 -0.012633400576320168 0 0.00038663931379715762 -0.012494470788164586 0 0.00037180960178043637 -0.012672511354386117 0 0.00037180960178043637 -0.012672511354386117 0 0.00032339746697060726 -0.012582379470617445 0 0.00034646992988023853 -0.012457223257697077 0 0.00037180960178043637 -0.012672511354386117 0 0.00028829666988409547 -0.012802593474351471 0 0.00032339746697060726 -0.012582379470617445 0 0.00037180960178043637 -0.012672511354386117 0 0.00028829666988409547 -0.012802593474351471 0 0.00040788182272634405 -0.012957868159618175 0 0.00028829666988409547 -0.012802593474351471 0 0.00040788182272634405 -0.012957868159618175 0 0.00039076132839160232 -0.013362235086122031 0 0.00050594586279406985 -0.01316459132075516 0 0.00040788182272634405 -0.012957868159618175 0 0.00039076132839160232 -0.013362235086122031 0 0.00050594586279406985 -0.01316459132075516 0 0.00051868135615211139 -0.01288210006201879 0 0.00040788182272634405 -0.012957868159618175 0 0.00051868135615211139 -0.01288210006201879 0 0.00043771252508917503 -0.012786569495259118 0 0.00040788182272634405 -0.012957868159618175 0 0.0002913897046331896 -0.012765819868478231 0 0.00039076132839160232 -0.013362235086122031 0 0.0002609287477396121 -0.013381687826214147 0 0.00039076132839160232 -0.013362235086122031 0 0.0002609287477396121 -0.013381687826214147 0 0.00034048865689627122 -0.013587866833779915 0 0.00036912384278422762 -0.012711516996382979 0 0.00043936998292725099 -0.01287693403839997 0 0.0002609287477396121 -0.013381687826214147 0 -4.6221182327387187e-05 -0.01362658556684514 0 -0.00021608048009335735 -0.013444936927709296 0 0.0002913897046331896 -0.012765819868478231 0 0.0002609287477396121 -0.013381687826214147 0 0.00029184731623924239 -0.012726839404815163 0 0.00032743842841894717 -0.013154237728962341 0 0.00019292457758200655 -0.013071242397627525 0 -4.6221182327387187e-05 -0.01362658556684514 0 0.00021602700889544857 -0.013771076535857204 0 3.2664460142431629e-05 -0.013915475357264971 0 0.0002609287477396121 -0.013381687826214147 0 -4.6221182327387187e-05 -0.01362658556684514 0 0.00021602700889544857 -0.013771076535857204 0 0.0002609287477396121 -0.013381687826214147 0 0.00034048865689627122 -0.013587866833779915 0 0.00021602700889544857 -0.013771076535857204 0 0.00034048865689627122 -0.013587866833779915 0 0.00021602700889544857 -0.013771076535857204 0 0.0003696114388781163 -0.01384621243086312 0 4.1569599107966834e-06 -0.013952058873412849 0 0.00024354971062707771 -0.014089028213774895 0 0.00021602700889544857 -0.013771076535857204 0 0.00038314047493799987 -0.014150724015533024 0 0.0003696114388781163 -0.01384621243086312 0 0.00021602700889544857 -0.013771076535857204 0 3.2664460142431629e-05 -0.013915475357264971 0 0.00038314047493799987 -0.014150724015533024 0 1.1773058721967236e-05 -0.013982795106833028 0 -9.447390018848458e-06 -0.014207888347725399 0 0.00014144059049315107 -0.014251828324496807 0 1.1773058721967236e-05 -0.013982795106833028 0 -9.447390018848458e-06 -0.014207888347725399 0 -0.00017456149867956753 -0.01408835838082303 0 -9.447390018848458e-06 -0.014207888347725399 0 -0.00015996418237289314 -0.0143420849390025 0 0.00010986776977016455 -0.014373225980883579 0 -9.447390018848458e-06 -0.014207888347725399 0 0.00014144059049315107 -0.014251828324496807 0 0.00010986776977016455 -0.014373225980883579 0 1.1773058721967236e-05 -0.013982795106833028 0 0.00014144059049315107 -0.014251828324496807 0 0.00020153415410708068 -0.014128878132551542 0 0.00014144059049315107 -0.014251828324496807 0 0.00024072933193306984 -0.014279014638746481 0 0.00016584521611814773 -0.014385129776230167 0 0.00014144059049315107 -0.014251828324496807 0 0.00020153415410708068 -0.014128878132551542 0 0.00024072933193306984 -0.014279014638746481 0 0.00024072933193306984 -0.014279014638746481 0 0.00036250592224947454 -0.014228556061812088 0 0.00030141270426543886 -0.014283719147415793 0 0.00038314047493799987 -0.014150724015533024 0 0.00036250592224947454 -0.014228556061812088 0 0.00041125746265554202 -0.014194286877959565 0 0.00024354971062707771 -0.014089028213774895 0 0.00032944129867782854 -0.01414333978059043 0 0.00020153415410708068 -0.014128878132551542 0 0.00024072933193306984 -0.014279014638746481 0 0.00036250592224947454 -0.014228556061812088 0 0.00036250592224947454 -0.014228556061812088 0 0.00041125746265554202 -0.014194286877959565 0 0.0003920348386310841 -0.014251485272482706 0 0.00041125746265554202 -0.014194286877959565 0 0.0004356173751353945 -0.014213477079268242 0 0.0003920348386310841 -0.014251485272482706 0 0.0004356173751353945 -0.014213477079268242 0 0.00038533667628688572 -0.014350462062776436 0 0.0003920348386310841 -0.014251485272482706 0 0.0004356173751353945 -0.014213477079268242 0 0.00044779033731220648 -0.014222376713063024 0 0.00044933071694037535 -0.014045614746107195 0 0.0004356173751353945 -0.014213477079268242 0 0.00044779033731220648 -0.014222376713063024 0 0.00038533667628688572 -0.014350462062776436 0 0.0004356173751353945 -0.014213477079268242 0 0.00042522627493458173 -0.01406935824824759 0 0.00044933071694037535 -0.014045614746107195 0 0.00041125746265554202 -0.014194286877959565 0 0.0004356173751353945 -0.014213477079268242 0 0.00042522627493458173 -0.01406935824824759 0 0.00038314047493799987 -0.014150724015533024 0 0.00041125746265554202 -0.014194286877959565 0 0.00042522627493458173 -0.01406935824824759 0 0.00038314047493799987 -0.014150724015533024 0 0.00042522627493458173 -0.01406935824824759 0 0.0003696114388781163 -0.01384621243086312 0 0.00042522627493458173 -0.01406935824824759 0 0.00044300146686844342 -0.013847177354397456 0 0.0003696114388781163 -0.01384621243086312 0 0.00044300146686844342 -0.013847177354397456 0 0.0003696114388781163 -0.01384621243086312 0 0.00043646295283776212 -0.013628448184376741 0 0.00034048865689627122 -0.013587866833779915 0 0.0003696114388781163 -0.01384621243086312 0 0.00043646295283776212 -0.013628448184376741 0 0.00044300146686844342 -0.013847177354397456 0 0.00043646295283776212 -0.013628448184376741 0 0.00049660005319927488 -0.013697647484136837 0 0.00044300146686844342 -0.013847177354397456 0 0.00049660005319927488 -0.013697647484136837 0 0.00044933071694037535 -0.014045614746107195 0 0.00049660005319927488 -0.013697647484136837 0 0.00050207828957810118 -0.013921019786645842 0 0.00044933071694037535 -0.014045614746107195 0 0.00044779033731220648 -0.014222376713063024 0 0.00050207828957810118 -0.013921019786645842 0 0.00044933071694037535 -0.014045614746107195 0 0.00042522627493458173 -0.01406935824824759 0 0.00044300146686844342 -0.013847177354397456 0 0.00044933071694037535 -0.014045614746107195 0 0.00024113791613605153 -0.014922117432873314 0 0.00019625506684044463 -0.014747223776612131 0 0.00048261870984659408 -0.014362852503210493 0 0.00039626689065598195 -0.014150436406774302 0 0.00042010989279893135 -0.014195752980901973 0 0.00074816277624311668 -0.013403686146082946 0 0.00050207828957810118 -0.013921019786645842 0 0.00048261870984659408 -0.014362852503210493 0 0.00019625506684044463 -0.014747223776612131 0 0.00026983798980298544 -0.014585356985761667 0 0.00048261870984659408 -0.014362852503210493 0 0.00044779033731220648 -0.014222376713063024 0 0.00050207828957810118 -0.013921019786645842 0 0.00048261870984659408 -0.014362852503210493 0 0.00019625506684044463 -0.014747223776612131 0 0.00016980042836499225 -0.014709782968979882 0 7.4676701194502162e-05 -0.014874193675040384 0 0.00019625506684044463 -0.014747223776612131 0 0.00016980042836499225 -0.014709782968979882 0 0.00026983798980298544 -0.014585356985761667 0 0.00029053487437156312 -0.014529648999576974 0 0.00023815118196179156 -0.014636142169967057 0 0.00015074597998013646 -0.014773929818147808 0 0.00016980042836499225 -0.014709782968979882 0 0.00029053487437156312 -0.014529648999576974 0 0.00015074597998013646 -0.014773929818147808 0 0.00016980042836499225 -0.014709782968979882 0 0.00026983798980298544 -0.014585356985761667 0 0.00029053487437156312 -0.014529648999576974 0 0.00029053487437156312 -0.014529648999576974 0 0.00038533667628688572 -0.014350462062776436 0 0.00023815118196179156 -0.014636142169967057 0 0.00026983798980298544 -0.014585356985761667 0 0.00029053487437156312 -0.014529648999576974 0 0.00048261870984659408 -0.014362852503210493 0 0.00029053487437156312 -0.014529648999576974 0 0.00048261870984659408 -0.014362852503210493 0 0.00038533667628688572 -0.014350462062776436 0 0.00044779033731220648 -0.014222376713063024 0 0.00048261870984659408 -0.014362852503210493 0 0.00038533667628688572 -0.014350462062776436 0 0.00028598152190037577 -0.014506210263517914 0 0.00026706185681995924 -0.014541311358155624 0 0.00036250592224947454 -0.014228556061812088 0 0.0003920348386310841 -0.014251485272482706 0 0.00034701291987342071 -0.014221031539392083 0 0.00038533667628688572 -0.014350462062776436 0 0.00011985161611373174 -0.01480907221285528 0 0.00023815118196179156 -0.014636142169967057 0 0.00038533667628688572 -0.014350462062776436 0 0.0003920348386310841 -0.014251485272482706 0 0.00034701291987342071 -0.014221031539392083 0 0.00036250592224947454 -0.014228556061812088 0 0.00034701291987342071 -0.014221031539392083 0 0.00030141270426543886 -0.014283719147415793 0 0.00011985161611373174 -0.01480907221285528 0 0.00016484078324530753 -0.014815963430912335 0 0.00016761675500711552 -0.014910900284759847 0 0.00011985161611373174 -0.01480907221285528 0 0.00016484078324530753 -0.014815963430912335 0 0.00023815118196179156 -0.014636142169967057 0 0.00016484078324530753 -0.014815963430912335 0 0.00023815118196179156 -0.014636142169967057 0 0.00015074597998013646 -0.014773929818147808 0 0.00015074597998013646 -0.014773929818147808 0 0.00012069993403296614 -0.0148992573441092 0 2.5011342771133546e-07 -0.014999616223440792 0 0.00016484078324530753 -0.014815963430912335 0 0.00015074597998013646 -0.014773929818147808 0 0.00012069993403296614 -0.0148992573441092 0 -9.6810371705585354e-09 -0.014999912791534741 0 2.5011342771133546e-07 -0.014999616223440792 0 7.4676701194502162e-05 -0.014874193675040384 0 0.00015074597998013646 -0.014773929818147808 0 2.5011342771133546e-07 -0.014999616223440792 0 7.4676701194502162e-05 -0.014874193675040384 0 0.00016980042836499225 -0.014709782968979882 0 0.00015074597998013646 -0.014773929818147808 0 7.4676701194502162e-05 -0.014874193675040384 0 0.00011189390130816088 -0.01200461623928142 0 2.3929352392447001e-05 -0.011992674066929507 0 4.2529344910184566e-05 -0.011873663391791708 0 -0.00042151657380410659 -0.012649315284808439 0 -0.00039735001085049778 -0.012641363801538671 0 -0.00042151657380410659 -0.012649315284808439 0 -0.00021277314237075392 -0.012790799737166248 0 0.00010274324898666512 -0.012057849953307245 0 0.00034457015973584693 -0.012193083659423841 0 0.00026891175347101018 -0.012013929636559909 0 -0.0011243114789327643 -0.013294088599000482 0 -0.00078947353947843248 -0.013369229359351085 0 -0.00099315398934424919 -0.013466392754321606 0 -0.00078947353947843248 -0.013369229359351085 0 -0.00099315398934424919 -0.013466392754321606 0 -0.0008878644657880141 -0.013639950352079941 0 -0.0010298921647940674 -0.013598526763742251 0 -0.00099315398934424919 -0.013466392754321606 0 -0.0008878644657880141 -0.013639950352079941 0 -0.0010298921647940674 -0.013598526763742251 0 -0.00099315398934424919 -0.013466392754321606 0 -0.0011729741483529369 -0.013564489922258054 0 -0.0011243114789327643 -0.013294088599000482 0 -0.00099315398934424919 -0.013466392754321606 0 -0.0011729741483529369 -0.013564489922258054 0 -0.00042151657380410659 -0.012649315284808439 0 -0.00040426818495876288 -0.012979939482940963 0 0.00014119653525805311 -0.012018180637233042 0 7.742401927408608e-05 -0.012408245359613294 0 8.7334895595260772e-06 -0.012177658968362409 0 7.742401927408608e-05 -0.012408245359613294 0 -0.00010106977610606607 -0.012461193533377442 0 -5.8709152931760181e-05 -0.012318776698614142 0 -0.00010106977610606607 -0.012461193533377442 0 -0.00018628037410685448 -0.012330538011605652 0 -0.00028376251913184793 -0.012500063823183648 0 -0.00010106977610606607 -0.012461193533377442 0 -0.00018628037410685448 -0.012330538011605652 0 -5.8709152931760181e-05 -0.012318776698614142 0 -0.00018628037410685448 -0.012330538011605652 0 -9.2125996978922287e-05 -0.012217340325827173 0 -5.8709152931760181e-05 -0.012318776698614142 0 -0.00018628037410685448 -0.012330538011605652 0 -9.2125996978922287e-05 -0.012217340325827173 0 -0.00023053538076017697 -0.012176613294294166 0 -9.2125996978922287e-05 -0.012217340325827173 0 -5.8709152931760181e-05 -0.012318776698614142 0 8.7334895595260772e-06 -0.012177658968362409 0 7.742401927408608e-05 -0.012408245359613294 0 -5.8709152931760181e-05 -0.012318776698614142 0 8.7334895595260772e-06 -0.012177658968362409 0 -0.00053858082320072209 -0.012595899352409854 0 -0.00037074526633065546 -0.012285140649617924 0 -0.00028376251913184793 -0.012500063823183648 0 -0.00018628037410685448 -0.012330538011605652 0 -0.00037074526633065546 -0.012285140649617924 0 -0.00028376251913184793 -0.012500063823183648 0 -0.00018628037410685448 -0.012330538011605652 0 -0.00037074526633065546 -0.012285140649617924 0 -0.00023053538076017697 -0.012176613294294166 0 -0.00037074526633065546 -0.012285140649617924 0 -0.00023053538076017697 -0.012176613294294166 0 -0.00040332759793051959 -0.012023700682001807 0 -0.00023053538076017697 -0.012176613294294166 0 -0.00040332759793051959 -0.012023700682001807 0 -0.00019848951341504211 -0.012025297782650754 0 -0.00040332759793051959 -0.012023700682001807 0 -0.00019848951341504211 -0.012025297782650754 0 -0.00027355388265813403 -0.011861283181067673 0 8.7334895595260772e-06 -0.012177658968362409 0 -7.9133029700412719e-05 -0.012083805123951605 0 2.3929352392447001e-05 -0.011992674066929507 0 0.00014119653525805311 -0.012018180637233042 0 8.7334895595260772e-06 -0.012177658968362409 0 2.3929352392447001e-05 -0.011992674066929507 0 -9.2125996978922287e-05 -0.012217340325827173 0 8.7334895595260772e-06 -0.012177658968362409 0 -7.9133029700412719e-05 -0.012083805123951605 0 -9.2125996978922287e-05 -0.012217340325827173 0 -0.00023053538076017697 -0.012176613294294166 0 -7.9133029700412719e-05 -0.012083805123951605 0 -0.00023053538076017697 -0.012176613294294166 0 -7.9133029700412719e-05 -0.012083805123951605 0 -0.00019848951341504211 -0.012025297782650754 0 -8.5330436310032603e-05 -0.01191840820227635 0 -0.00019848951341504211 -0.012025297782650754 0 -0.00027355388265813403 -0.011861283181067673 0 -7.9133029700412719e-05 -0.012083805123951605 0 -8.5330436310032603e-05 -0.01191840820227635 0 -0.00019848951341504211 -0.012025297782650754 0 -7.9133029700412719e-05 -0.012083805123951605 0 -8.5330436310032603e-05 -0.01191840820227635 0 2.3929352392447001e-05 -0.011992674066929507 0 -8.5330436310032603e-05 -0.01191840820227635 0 2.3929352392447001e-05 -0.011992674066929507 0 4.2529344910184566e-05 -0.011873663391791708 0 -8.5330436310032603e-05 -0.01191840820227635 0 4.2529344910184566e-05 -0.011873663391791708 0 -5.3684300149717339e-05 -0.011685507316562297 0 -8.5330436310032603e-05 -0.01191840820227635 0 -5.3684300149717339e-05 -0.011685507316562297 0 -0.00027355388265813403 -0.011861283181067673 0 4.2529344910184566e-05 -0.011873663391791708 0 -5.3684300149717339e-05 -0.011685507316562297 0 0.00015004671274324055 -0.011810258137778794 0 -0.00054291976663156725 -0.011774960086772021 0 -0.00040332759793051959 -0.012023700682001807 0 -0.00027355388265813403 -0.011861283181067673 0 -5.3684300149717339e-05 -0.011685507316562297 0 -0.00027355388265813403 -0.011861283181067673 0 -0.00033490560250952044 -0.011559974089322116 0 -0.00054291976663156725 -0.011774960086772021 0 -0.00027355388265813403 -0.011861283181067673 0 -0.00033490560250952044 -0.011559974089322116 0 -9.10055998643554e-05 -0.011211372792974832 0 -0.00043612921412334947 -0.011213358165214748 0 -0.00033490560250952044 -0.011559974089322116 0 -0.0006299119351268872 -0.011531200574894318 0 -0.00043612921412334947 -0.011213358165214748 0 -0.00033490560250952044 -0.011559974089322116 0 -9.10055998643554e-05 -0.011211372792974832 0 -5.3684300149717339e-05 -0.011685507316562297 0 -0.00033490560250952044 -0.011559974089322116 0 -9.10055998643554e-05 -0.011211372792974832 0 -5.3684300149717339e-05 -0.011685507316562297 0 0.00018838014962616753 -0.011527938774228388 0 0.00018838014962616753 -0.011527938774228388 0 0.00015004671274324055 -0.011810258137778794 0 0.00031478411144274514 -0.01177149975258727 0 -5.3684300149717339e-05 -0.011685507316562297 0 0.00018838014962616753 -0.011527938774228388 0 0.00015004671274324055 -0.011810258137778794 0 -0.00042151657380410659 -0.012649315284808439 0 -0.00033176853012494402 -0.012377058930878928 0 0.00011189390130816088 -0.01200461623928142 0 4.2529344910184566e-05 -0.011873663391791708 0 0.00015004671274324055 -0.011810258137778794 0 0.00010274324898666512 -0.012057849953307245 0 0.00026891175347101018 -0.012013929636559909 0 0.00015004671274324055 -0.011810258137778794 0 0.00026891175347101018 -0.012013929636559909 0 0.00031478411144274514 -0.01177149975258727 0 0.00044197527399896446 -0.011965675763597855 0 0.00026891175347101018 -0.012013929636559909 0 0.00015004671274324055 -0.011810258137778794 0 0.00031478411144274514 -0.01177149975258727 0 0.00042703004761630311 -0.0114987652378961 0 0.00018838014962616753 -0.011527938774228388 0 0.00031478411144274514 -0.01177149975258727 0 0.00042703004761630311 -0.0114987652378961 0 0.00031478411144274514 -0.01177149975258727 0 0.00044197527399896446 -0.011965675763597855 0 0.00048819301572245653 -0.011747110934822655 0 0.00042703004761630311 -0.0114987652378961 0 0.00044197527399896446 -0.011965675763597855 0 0.00048819301572245653 -0.011747110934822655 0 0.00044197527399896446 -0.011965675763597855 0 0.00043082797572269806 -0.012034963290355038 0 0.00031650477233782282 -0.012345152285614901 0 0.00033031682661075043 -0.012469782117888822 0 0.00044197527399896446 -0.011965675763597855 0 0.00041361294903981711 -0.012367948384622501 0 0.00041709792855214116 -0.012238213701598074 0 0.00044197527399896446 -0.011965675763597855 0 0.00043082797572269806 -0.012034963290355038 0 0.00032872016810735894 -0.012320411975386391 0 0.00034457015973584693 -0.012193083659423841 0 0.00026891175347101018 -0.012013929636559909 0 0.00044197527399896446 -0.011965675763597855 0 0.00034457015973584693 -0.012193083659423841 0 0.00044197527399896446 -0.011965675763597855 0 0.00041709792855214116 -0.012238213701598074 0 0.00042712184954419625 -0.012054525843165768 0 0.00038895732423997894 -0.012185065506648008 0 0.00037801015207496988 -0.012217337044034621 0 0.00037428465487850555 -0.012316197190025182 0 0.00037801015207496988 -0.012217337044034621 0 0.00034646992988023853 -0.012457223257697077 0 0.00038895732423997894 -0.012185065506648008 0 0.00037428465487850555 -0.012316197190025182 0 0.00037801015207496988 -0.012217337044034621 0 0.00043082797572269806 -0.012034963290355038 0 0.00037801015207496988 -0.012217337044034621 0 0.00032872016810735894 -0.012320411975386391 0 0.00042712184954419625 -0.012054525843165768 0 0.00043082797572269806 -0.012034963290355038 0 0.00037801015207496988 -0.012217337044034621 0 0.00037801015207496988 -0.012217337044034621 0 0.00032872016810735894 -0.012320411975386391 0 0.00034646992988023853 -0.012457223257697077 0 0.00032872016810735894 -0.012320411975386391 0 0.00032339746697060726 -0.012582379470617445 0 0.00034646992988023853 -0.012457223257697077 0 0.0002913897046331896 -0.012765819868478231 0 0.00036309533730214956 -0.012514322300775264 0 0.00029184731623924239 -0.012726839404815163 0 0.00036912384278422762 -0.012711516996382979 0 0.00033031682661075043 -0.012469782117888822 0 0.00028829666988409547 -0.012802593474351471 0 0.00032872016810735894 -0.012320411975386391 0 0.00032339746697060726 -0.012582379470617445 0 0.0002913897046331896 -0.012765819868478231 0 0.00041361294903981711 -0.012367948384622501 0 0.00036309533730214956 -0.012514322300775264 0 0.00041361294903981711 -0.012367948384622501 0 0.00036309533730214956 -0.012514322300775264 0 0.00041709792855214116 -0.012238213701598074 0 0.00036309533730214956 -0.012514322300775264 0 0.00029184731623924239 -0.012726839404815163 0 0.0003993214689418856 -0.012382041708025085 0 0.00019292457758200655 -0.013071242397627525 0 -7.100525177825116e-07 -0.012932626639093439 0 -0.00037569301193450907 -0.01353545348529309 0 -0.00021608048009335735 -0.013444936927709296 0 -0.00048735723545658181 -0.013440744478877076 0 -0.00021277314237075392 -0.012790799737166248 0 -7.100525177825116e-07 -0.012932626639093439 0 0.00034457015973584693 -0.012193083659423841 0 0.00041709792855214116 -0.012238213701598074 0 0.0003993214689418856 -0.012382041708025085 0 0.00036309533730214956 -0.012514322300775264 0 0.00041709792855214116 -0.012238213701598074 0 0.0003993214689418856 -0.012382041708025085 0 -0.00037569301193450907 -0.01353545348529309 0 -0.00048735723545658181 -0.013440744478877076 0 -0.00059699943859166588 -0.013619029166076295 0 -0.00078947353947843248 -0.013369229359351085 0 -0.00048735723545658181 -0.013440744478877076 0 -0.00059699943859166588 -0.013619029166076295 0 -0.00078947353947843248 -0.013369229359351085 0 -0.00059699943859166588 -0.013619029166076295 0 -0.0008878644657880141 -0.013639950352079941 0 -0.00059699943859166588 -0.013619029166076295 0 -0.00075179031890973446 -0.013816082043330844 0 -0.0008878644657880141 -0.013639950352079941 0 -0.00059699943859166588 -0.013619029166076295 0 -0.00053602907998260261 -0.013886243695825052 0 -0.00075179031890973446 -0.013816082043330844 0 -0.00059699943859166588 -0.013619029166076295 0 -0.00053602907998260261 -0.013886243695825052 0 -0.00024775283648208359 -0.013813353273416212 0 -0.0004526058796642907 -0.01371953436832193 0 -0.00028434322304309864 -0.013800604428063358 0 -0.00053602907998260261 -0.013886243695825052 0 -0.00034701483552977783 -0.01401148625768979 0 -0.00046723145399296532 -0.014124716736913265 0 -0.00053602907998260261 -0.013886243695825052 0 -0.00075179031890973446 -0.013816082043330844 0 -0.00073887235487892866 -0.014028875828709689 0 -0.00053602907998260261 -0.013886243695825052 0 -0.00073887235487892866 -0.014028875828709689 0 -0.00046723145399296532 -0.014124716736913265 0 -4.6221182327387187e-05 -0.01362658556684514 0 3.2664460142431629e-05 -0.013915475357264971 0 -0.00034330348108212156 -0.013707446065927411 0 -4.6221182327387187e-05 -0.01362658556684514 0 -0.00021608048009335735 -0.013444936927709296 0 -0.00034330348108212156 -0.013707446065927411 0 -0.00037569301193450907 -0.01353545348529309 0 -0.00021608048009335735 -0.013444936927709296 0 -0.00034330348108212156 -0.013707446065927411 0 -0.00037569301193450907 -0.01353545348529309 0 -0.00059699943859166588 -0.013619029166076295 0 -0.00034330348108212156 -0.013707446065927411 0 -0.00024775283648208359 -0.013813353273416212 0 -0.00034701483552977783 -0.01401148625768979 0 -0.00017456149867956753 -0.01408835838082303 0 -0.00053602907998260261 -0.013886243695825052 0 -0.00024775283648208359 -0.013813353273416212 0 -0.00034701483552977783 -0.01401148625768979 0 1.1773058721967236e-05 -0.013982795106833028 0 -0.00024775283648208359 -0.013813353273416212 0 -0.00017456149867956753 -0.01408835838082303 0 4.1569599107966834e-06 -0.013952058873412849 0 -0.00028434322304309864 -0.013800604428063358 0 -0.00034701483552977783 -0.01401148625768979 0 -0.00017456149867956753 -0.01408835838082303 0 -0.00031771596973535049 -0.01416984628755347 0 -0.00034701483552977783 -0.01401148625768979 0 -0.00031771596973535049 -0.01416984628755347 0 -0.00046723145399296532 -0.014124716736913265 0 -0.00031771596973535049 -0.01416984628755347 0 -0.00042730290122639999 -0.014269457165561336 0 -0.00015996418237289314 -0.0143420849390025 0 0.0001724510041749436 -0.014334955667184283 0 0.0001291821538890863 -0.014370077452872361 0 -9.447390018848458e-06 -0.014207888347725399 0 -0.00017456149867956753 -0.01408835838082303 0 -0.00015996418237289314 -0.0143420849390025 0 -0.00017456149867956753 -0.01408835838082303 0 -0.00031771596973535049 -0.01416984628755347 0 -0.00015996418237289314 -0.0143420849390025 0 -0.0005251503084059175 -0.013743437205495175 0 -0.00048827713940670868 -0.013811716075322033 0 -0.00055458034163772001 -0.014105271674555133 0 -0.00046723145399296532 -0.014124716736913265 0 -0.00057497718038523676 -0.014192867399120812 0 -0.00031771596973535049 -0.01416984628755347 0 -0.00046723145399296532 -0.014124716736913265 0 -0.00042730290122639999 -0.014269457165561336 0 -0.00046723145399296532 -0.014124716736913265 0 -0.00042730290122639999 -0.014269457165561336 0 -0.00057497718038523676 -0.014192867399120812 0 0.0006233546067596124 -0.014624136519759584 0 0.00096266315727201138 -0.014738802893657936 0 0.00078497201037142962 -0.01447141221638616 0 0.0001724510041749436 -0.014334955667184283 0 0.00029534528523757507 -0.014236922545573197 0 -0.00057497718038523676 -0.014192867399120812 0 -0.00063838290586559375 -0.014151787290824289 0 -0.00061451618818268044 -0.014129356124036209 0 0.00096266315727201138 -0.014738802893657936 0 0.0013509315835322825 -0.014847997301287615 0 0.0012166347307232669 -0.014605289004591907 0 0.00029534528523757507 -0.014236922545573197 0 0.00054739421413755739 -0.014006186450941796 0 0.0013509315835322825 -0.014847997301287615 0 0.0014950059456122679 -0.01461809809741047 0 0.0012166347307232669 -0.014605289004591907 0 -0.00063838290586559375 -0.014151787290824289 0 -0.00064479109161278141 -0.014127344522706434 0 -0.00066531725827447517 -0.014124050165030072 0 -0.00063838290586559375 -0.014151787290824289 0 -0.00064479109161278141 -0.014127344522706434 0 -0.00061451618818268044 -0.014129356124036209 0 -0.0006381497864167392 -0.01410773676732993 0 -0.00061451618818268044 -0.014129356124036209 0 -0.00061374694113693247 -0.014090966782946112 0 -0.00064479109161278141 -0.014127344522706434 0 -0.0006381497864167392 -0.01410773676732993 0 -0.00061451618818268044 -0.014129356124036209 0 -0.00064479109161278141 -0.014127344522706434 0 -0.0006381497864167392 -0.01410773676732993 0 -0.00065190552273297489 -0.014108603373719771 0 -0.00055458034163772001 -0.014105271674555133 0 -0.00057497718038523676 -0.014192867399120812 0 -0.00061451618818268044 -0.014129356124036209 0 -0.00055458034163772001 -0.014105271674555133 0 -0.00061451618818268044 -0.014129356124036209 0 -0.00061374694113693247 -0.014090966782946112 0 -0.0005251503084059175 -0.013743437205495175 0 -0.00052842528578950177 -0.013557071524318166 0 -0.00075179031890973446 -0.013816082043330844 0 -0.00073887235487892866 -0.014028875828709689 0 -0.00098404645838418166 -0.013928687175547563 0 -0.00098404645838418166 -0.013928687175547563 0 -0.0010660325833592584 -0.013723857897958566 0 -0.0012215536931770357 -0.013836358928395047 0 -0.0006381497864167392 -0.01410773676732993 0 -0.00061374694113693247 -0.014090966782946112 0 -0.00065855498627852987 -0.014076715767783467 0 -0.00052842528578950177 -0.013557071524318166 0 -0.00031760206172875248 -0.013252818299123904 0 -0.0006381497864167392 -0.01410773676732993 0 -0.00065855498627852987 -0.014076715767783467 0 -0.00065190552273297489 -0.014108603373719771 0 -0.0011729741483529369 -0.013564489922258054 0 -0.0010660325833592584 -0.013723857897958566 0 -0.0012215536931770357 -0.013836358928395047 0 -0.0010298921647940674 -0.013598526763742251 0 -0.0011729741483529369 -0.013564489922258054 0 -0.0010660325833592584 -0.013723857897958566 0 -0.0010298921647940674 -0.013598526763742251 0 -0.0010660325833592584 -0.013723857897958566 0 -0.0008878644657880141 -0.013639950352079941 0 -0.00098404645838418166 -0.013928687175547563 0 -0.0010660325833592584 -0.013723857897958566 0 -0.0008878644657880141 -0.013639950352079941 0 -0.00075179031890973446 -0.013816082043330844 0 -0.00098404645838418166 -0.013928687175547563 0 -0.0008878644657880141 -0.013639950352079941 0 -0.00053858082320072209 -0.012595899352409854 0 -0.00028376251913184793 -0.012500063823183648 0 -0.00017042879762860715 -0.012730348490102277 0 -0.00011655229944675411 -0.012258195130828861 0 -0.00013088354856917792 -0.012923155912993142 0 -0.00010106977610606607 -0.012461193533377442 0 -0.00017375941994599513 -0.012737463392012992 0 9.6490159526547706e-06 -0.01280465762360734 0 -0.00011052854991890969 -0.012813188064830266 0 -0.00013088354856917792 -0.012923155912993142 0 -0.00010106977610606607 -0.012461193533377442 0 -0.00028376251913184793 -0.012500063823183648 0 -0.00017042879762860715 -0.012730348490102277 0 -0.00040426818495876288 -0.012979939482940963 0 -0.00031760206172875248 -0.013252818299123904 0 7.742401927408608e-05 -0.012408245359613294 0 -0.00010106977610606607 -0.012461193533377442 0 9.6490159526547706e-06 -0.01280465762360734 0 -0.00013088354856917792 -0.012923155912993142 0 0.00022968767333308887 -0.012815211386171298 0 -0.00013088354856917792 -0.012923155912993142 0 -0.00031760206172875248 -0.013252818299123904 0 -0.00065855498627852987 -0.014076715767783467 0 -0.00065190552273297489 -0.014108603373719771 0 -0.00066531725827447517 -0.014124050165030072 0 -0.00064008641931258259 -0.014003846371032731 0 -0.00071533658459418785 -0.014047797620975687 0 -0.00066783725783977677 -0.014102286554022484 0 -0.00069768186983536998 -0.013980950523492236 0 -0.00064008641931258259 -0.014003846371032731 0 -0.00071533658459418785 -0.014047797620975687 0 -0.00031760206172875248 -0.013252818299123904 0 -0.00042663030866366147 -0.013689969163519736 0 0.00022968767333308887 -0.012815211386171298 0 0.00020782946227626946 -0.012933316749836757 0 -0.00011655229944675411 -0.012258195130828861 0 0.00022968767333308887 -0.012815211386171298 0 -3.7023090087867478e-05 -0.01243096341872901 0 0.00027820759291649741 -0.012547126793030439 0 0.00023211749231070715 -0.012725076122365741 0 0.0014586614343285917 -0.010308650858714713 0 0.0014114013951885085 -0.010485787440534407 0 0.001621775642271689 -0.010505709668583199 0 0.00022968767333308887 -0.012815211386171298 0 0.0011798765187519735 -0.013511738078365488 0 0.0014114013951885085 -0.010485787440534407 0 0.001621775642271689 -0.010505709668583199 0 0.0015750462281875466 -0.010675809976663066 0 -0.00063838290586559375 -0.014151787290824289 0 -0.00070052509517833756 -0.01412949222656322 0 -0.00066531725827447517 -0.014124050165030072 0 -0.00068967319148240873 -0.014075002678962297 0 -0.00070052509517833756 -0.01412949222656322 0 -0.00066783725783977677 -0.014102286554022484 0 0.00054739421413755739 -0.014006186450941796 0 0.0011798765187519735 -0.013511738078365488 0 -0.00064008641931258259 -0.014003846371032731 0 -0.00066783725783977677 -0.014102286554022484 0 -0.00066531725827447517 -0.014124050165030072 0 -0.00064479109161278141 -0.014127344522706434 0 -0.00065190552273297489 -0.014108603373719771 0 -0.00066531725827447517 -0.014124050165030072 0 -0.00070052509517833756 -0.01412949222656322 0 -0.00066783725783977677 -0.014102286554022484 0 -0.00066531725827447517 -0.014124050165030072 0 0.0013509315835322825 -0.014847997301287615 0 0.0017555587762706252 -0.014932134771822377 0 0.0014950059456122679 -0.01461809809741047 0 0.0011798765187519735 -0.013511738078365488 0 0.0015096835629383387 -0.014249706746471422 0 0.0017555587762706252 -0.014932134771822377 0 0.001880600409453142 -0.014537329578712821 0 0.0014950059456122679 -0.01461809809741047 0 0.0021996171957656681 -0.014850557071562982 0 0.0019288731176812612 -0.015021520972999422 0 0.002032514200294946 -0.014581464352947458 0 0.001880600409453142 -0.014537329578712821 0 0.0014950059456122679 -0.01461809809741047 0 0.0015017857887983425 -0.014372625515181056 0 0.0015017857887983425 -0.014372625515181056 0 0.0016516105544709136 -0.01416215768420442 0 0.0013281061962437922 -0.014143119876768062 0 0.001880600409453142 -0.014537329578712821 0 0.0015017857887983425 -0.014372625515181056 0 0.0016516105544709136 -0.01416215768420442 0 0.001880600409453142 -0.014537329578712821 0 0.0016516105544709136 -0.01416215768420442 0 0.0020834745154412995 -0.014128910436121434 0 0.0016516105544709136 -0.01416215768420442 0 0.0016976981021715458 -0.013790038975811483 0 0.0020834745154412995 -0.014128910436121434 0 0.0016516105544709136 -0.01416215768420442 0 0.0014525889275537262 -0.013929431837495348 0 0.0016976981021715458 -0.013790038975811483 0 0.0016516105544709136 -0.01416215768420442 0 0.0014525889275537262 -0.013929431837495348 0 0.0013281061962437922 -0.014143119876768062 0 0.0014525889275537262 -0.013929431837495348 0 0.0016976981021715458 -0.013790038975811483 0 0.0013229449065363746 -0.013637243101364696 0 0.0016976981021715458 -0.013790038975811483 0 0.0020834745154412995 -0.014128910436121434 0 0.0021177721935470178 -0.013832520057775679 0 0.0016976981021715458 -0.013790038975811483 0 0.0021177721935470178 -0.013832520057775679 0 0.0019848748640551501 -0.013464167732200032 0 0.0010657374016488183 -0.013774444531785199 0 0.0012416921736569725 -0.013911867619728721 0 0.0010761877188767786 -0.014126353585277751 0 0.0014525889275537262 -0.013929431837495348 0 0.0012416921736569725 -0.013911867619728721 0 0.0013229449065363746 -0.013637243101364696 0 0.0010657374016488183 -0.013774444531785199 0 0.0012416921736569725 -0.013911867619728721 0 0.0013229449065363746 -0.013637243101364696 0 0.0012416921736569725 -0.013911867619728721 0 0.0013281061962437922 -0.014143119876768062 0 0.0010761877188767786 -0.014126353585277751 0 0.0014525889275537262 -0.013929431837495348 0 0.0012416921736569725 -0.013911867619728721 0 0.0013281061962437922 -0.014143119876768062 0 0.0010657374016488183 -0.013774444531785199 0 0.0010761877188767786 -0.014126353585277751 0 0.00083635429702298605 -0.013989575087984639 0 0.0010761877188767786 -0.014126353585277751 0 0.001275665411236421 -0.014390506086645764 0 0.0010162526212278006 -0.014433306224199806 0 0.0010761877188767786 -0.014126353585277751 0 0.0010162526212278006 -0.014433306224199806 0 0.00082103233052624469 -0.014241313803968796 0 0.0013281061962437922 -0.014143119876768062 0 0.0010761877188767786 -0.014126353585277751 0 0.001275665411236421 -0.014390506086645764 0 0.0015017857887983425 -0.014372625515181056 0 0.0013281061962437922 -0.014143119876768062 0 0.001275665411236421 -0.014390506086645764 0 0.0014950059456122679 -0.01461809809741047 0 0.001275665411236421 -0.014390506086645764 0 0.0012166347307232669 -0.014605289004591907 0 0.0014950059456122679 -0.01461809809741047 0 0.0015017857887983425 -0.014372625515181056 0 0.001275665411236421 -0.014390506086645764 0 0.001275665411236421 -0.014390506086645764 0 0.0012166347307232669 -0.014605289004591907 0 0.0010162526212278006 -0.014433306224199806 0 0.00096266315727201138 -0.014738802893657936 0 0.0012166347307232669 -0.014605289004591907 0 0.0010162526212278006 -0.014433306224199806 0 0.00096266315727201138 -0.014738802893657936 0 0.0010162526212278006 -0.014433306224199806 0 0.00078497201037142962 -0.01447141221638616 0 0.0006233546067596124 -0.014624136519759584 0 0.00078497201037142962 -0.01447141221638616 0 0.00053178030824486424 -0.014335536380131124 0 0.00078497201037142962 -0.01447141221638616 0 0.00082103233052624469 -0.014241313803968796 0 0.00053178030824486424 -0.014335536380131124 0 0.00082103233052624469 -0.014241313803968796 0 0.00053178030824486424 -0.014335536380131124 0 0.00064777995967527416 -0.014124632221477754 0 0.0010162526212278006 -0.014433306224199806 0 0.00078497201037142962 -0.01447141221638616 0 0.00082103233052624469 -0.014241313803968796 0 0.00032942972135805787 -0.014512297074234175 0 0.00053178030824486424 -0.014335536380131124 0 0.00028489476585230226 -0.01431528537424368 0 0.0006233546067596124 -0.014624136519759584 0 0.00032942972135805787 -0.014512297074234175 0 0.00053178030824486424 -0.014335536380131124 0 0.00028489476585230226 -0.01431528537424368 0 0.0003317408284873664 -0.014092444148052588 0 0.00014056786570581625 -0.014276489759103863 0 0.00053178030824486424 -0.014335536380131124 0 0.00028489476585230226 -0.01431528537424368 0 0.0003317408284873664 -0.014092444148052588 0 0.00053178030824486424 -0.014335536380131124 0 0.0003317408284873664 -0.014092444148052588 0 0.00064777995967527416 -0.014124632221477754 0 0.0003317408284873664 -0.014092444148052588 0 0.00064777995967527416 -0.014124632221477754 0 0.00059859067149485405 -0.013935601885423067 0 0.00036702964604461429 -0.014244030455477306 0 0.00059859067149485405 -0.013935601885423067 0 0.00040194616498821236 -0.013895494605628646 0 0.00034979827261095656 -0.014178333808962587 0 0.00045026036804910212 -0.014104735794018929 0 0.00036702964604461429 -0.014244030455477306 0 0.00029610299264451522 -0.014126232683169327 0 0.00040194616498821236 -0.013895494605628646 0 0.00082103233052624469 -0.014241313803968796 0 0.00083635429702298605 -0.013989575087984639 0 0.00064777995967527416 -0.014124632221477754 0 0.0010761877188767786 -0.014126353585277751 0 0.00082103233052624469 -0.014241313803968796 0 0.00083635429702298605 -0.013989575087984639 0 0.00083635429702298605 -0.013989575087984639 0 0.00064777995967527416 -0.014124632221477754 0 0.00059859067149485405 -0.013935601885423067 0 0.00083635429702298605 -0.013989575087984639 0 0.00059859067149485405 -0.013935601885423067 0 0.00084967147491556703 -0.013710617216972384 0 0.0010657374016488183 -0.013774444531785199 0 0.00083635429702298605 -0.013989575087984639 0 0.00084967147491556703 -0.013710617216972384 0 0.00084967147491556703 -0.013710617216972384 0 0.00067079702128274065 -0.013648104541469617 0 0.00077808596315410451 -0.013344211659719513 0 0.00059859067149485405 -0.013935601885423067 0 0.00084967147491556703 -0.013710617216972384 0 0.00067079702128274065 -0.013648104541469617 0 0.0009459443593822439 -0.013313460263274787 0 0.0007750092822232437 -0.013404609155367786 0 0.00067079702128274065 -0.013648104541469617 0 0.00077808596315410451 -0.013344211659719513 0 0.00051826469100637478 -0.013523119017239883 0 0.00084967147491556703 -0.013710617216972384 0 0.00077808596315410451 -0.013344211659719513 0 0.0010932521008786818 -0.013478644274353153 0 0.00048916191239016472 -0.013597522681311182 0 0.00046265675974178542 -0.013580899626470931 0 0.00046726285785418902 -0.013578190156256385 0 0.00048916191239016472 -0.013597522681311182 0 0.00051826469100637478 -0.013523119017239883 0 0.00046726285785418902 -0.013578190156256385 0 0.00053172383569919214 -0.013842592866024326 0 0.00041773772990110196 -0.013945022323323567 0 0.00029610299264451522 -0.014126232683169327 0 0.00040194616498821236 -0.013895494605628646 0 0.0002188862492410673 -0.014131227678264399 0 0.00067079702128274065 -0.013648104541469617 0 0.00048916191239016472 -0.013597522681311182 0 0.00051826469100637478 -0.013523119017239883 0 0.00061948187961124697 -0.013798713918561439 0 0.00053172383569919214 -0.013842592866024326 0 0.00059859067149485405 -0.013935601885423067 0 0.00067079702128274065 -0.013648104541469617 0 0.00040194616498821236 -0.013895494605628646 0 0.001018614864471488 -0.013331123270148007 0 0.00085041063186817672 -0.013299867753723401 0 0.00094148656485233695 -0.01319270785401242 0 0.0007750092822232437 -0.013404609155367786 0 0.00061978228629622873 -0.013482698424478181 0 0.001018614864471488 -0.013331123270148007 0 0.00085041063186817672 -0.013299867753723401 0 0.00075232430004466236 -0.013470895507386822 0 0.00085041063186817672 -0.013299867753723401 0 0.00079393326077878662 -0.013162169171779613 0 0.00094148656485233695 -0.01319270785401242 0 0.001018614864471488 -0.013331123270148007 0 0.00094148656485233695 -0.01319270785401242 0 0.0010835177361168432 -0.013153287053422884 0 0.00094148656485233695 -0.01319270785401242 0 0.0010835177361168432 -0.013153287053422884 0 0.0008968806671844112 -0.012912471860094348 0 0.00090182933723272562 -0.013239236305556228 0 0.00084664334860117907 -0.013279771722645772 0 0.0010835177361168432 -0.013153287053422884 0 0.001105507087266089 -0.0131269830892825 0 0.0011346741841360105 -0.013115127444277747 0 0.00071879958585431027 -0.013012396257362122 0 0.00072205653181279996 -0.012885121253071419 0 0.0008968806671844112 -0.012912471860094348 0 0.00079393326077878662 -0.013162169171779613 0 0.00094148656485233695 -0.01319270785401242 0 0.0008968806671844112 -0.012912471860094348 0 0.00079393326077878662 -0.013162169171779613 0 0.00071879958585431027 -0.013012396257362122 0 0.0008968806671844112 -0.012912471860094348 0 0.0011459804289188742 -0.013201424475037814 0 0.0011323768390791361 -0.013146337370150054 0 0.0011429540839903603 -0.013166182983444947 0 0.0009459443593822439 -0.013313460263274787 0 0.0010409919532890347 -0.013265456212002844 0 0.0011459804289188742 -0.013201424475037814 0 0.0010835177361168432 -0.013153287053422884 0 0.0011323768390791361 -0.013146337370150054 0 0.0011459804289188742 -0.013201424475037814 0 0.001018614864471488 -0.013331123270148007 0 0.0010835177361168432 -0.013153287053422884 0 0.0011323768390791361 -0.013146337370150054 0 0.0011449878479676103 -0.01311503645143363 0 0.0011346741841360105 -0.013115127444277747 0 0.0010835177361168432 -0.013153287053422884 0 0.0011323768390791361 -0.013146337370150054 0 0.0011346741841360105 -0.013115127444277747 0 0.0011323768390791361 -0.013146337370150054 0 0.0011429540839903603 -0.013166182983444947 0 0.0011449878479676103 -0.01311503645143363 0 0.0011429540839903603 -0.013166182983444947 0 0.0012388361134608287 -0.013100992980225358 0 0.0011740374043164149 -0.013085347334714966 0 0.0011429540839903603 -0.013166182983444947 0 0.0011740374043164149 -0.013085347334714966 0 0.0011449878479676103 -0.01311503645143363 0 0.0011429540839903603 -0.013166182983444947 0 0.0013362067757466223 -0.013142358726511131 0 0.0013295543960901331 -0.013309778492398019 0 0.0011429540839903603 -0.013166182983444947 0 0.0012388361134608287 -0.013100992980225358 0 0.0013362067757466223 -0.013142358726511131 0 0.0012980238661810949 -0.013090554873541277 0 0.0012388361134608287 -0.013100992980225358 0 0.0013362067757466223 -0.013142358726511131 0 0.0012980238661810949 -0.013090554873541277 0 0.0012388361134608287 -0.013100992980225358 0 0.001227130010838687 -0.01306026392846662 0 0.00060179595054897527 -0.011639288402818998 0 0.00049760862660540436 -0.011738954941480965 0 -0.00037838905537132105 -0.010522436008957744 0 0.0012980238661810949 -0.013090554873541277 0 0.0013881864409458131 -0.013080269702278793 0 0.001227130010838687 -0.01306026392846662 0 0.00094844247856606912 -0.012344832898220009 0 0.00052919691846690876 -0.011774473263300698 0 0.0011873412806203687 -0.011064278798315674 0 0.0017136749300917528 -0.010589029508678245 0 0.00060179595054897527 -0.011639288402818998 0 0.0016879033353725918 -0.010738196438544062 0 0.0018005827038727279 -0.011866389679982723 0 0.00060179595054897527 -0.011639288402818998 0 0.0015951032729011137 -0.012995797836405634 0 0.0018005827038727279 -0.011866389679982723 0 0.00060179595054897527 -0.011639288402818998 0 0.00049760862660540436 -0.011738954941480965 0 0.0015951032729011137 -0.012995797836405634 0 0.00094844247856606912 -0.012344832898220009 0 0.0012060173960807591 -0.012668204254036116 0 0.0013881864409458131 -0.013080269702278793 0 0.0013362067757466223 -0.013142358726511131 0 0.0015951032729011137 -0.012995797836405634 0 0.0012980238661810949 -0.013090554873541277 0 0.0013881864409458131 -0.013080269702278793 0 0.0013362067757466223 -0.013142358726511131 0 0.0013362067757466223 -0.013142358726511131 0 0.0015951032729011137 -0.012995797836405634 0 0.0013295543960901331 -0.013309778492398019 0 0.0015951032729011137 -0.012995797836405634 0 0.001550713645030815 -0.013426924699550197 0 0.0013295543960901331 -0.013309778492398019 0 0.0015951032729011137 -0.012995797836405634 0 0.001550713645030815 -0.013426924699550197 0 0.0019848748640551501 -0.013464167732200032 0 0.0016976981021715458 -0.013790038975811483 0 0.001550713645030815 -0.013426924699550197 0 0.0019848748640551501 -0.013464167732200032 0 0.0016976981021715458 -0.013790038975811483 0 0.001550713645030815 -0.013426924699550197 0 0.0013229449065363746 -0.013637243101364696 0 0.001550713645030815 -0.013426924699550197 0 0.0013229449065363746 -0.013637243101364696 0 0.0013295543960901331 -0.013309778492398019 0 0.0013229449065363746 -0.013637243101364696 0 0.0010932521008786818 -0.013478644274353153 0 0.0013295543960901331 -0.013309778492398019 0 0.0010657374016488183 -0.013774444531785199 0 0.00084967147491556703 -0.013710617216972384 0 0.0010932521008786818 -0.013478644274353153 0 0.0010657374016488183 -0.013774444531785199 0 0.0013229449065363746 -0.013637243101364696 0 0.0010932521008786818 -0.013478644274353153 0 0.0011429540839903603 -0.013166182983444947 0 0.0010932521008786818 -0.013478644274353153 0 0.0013295543960901331 -0.013309778492398019 0 0.00077808596315410451 -0.013344211659719513 0 0.0011429540839903603 -0.013166182983444947 0 0.0010932521008786818 -0.013478644274353153 0 2.5011342771133546e-07 -0.014999616223440792 0 1.4215128890666411e-09 -0.014999431509756467 0 8.0874892956215344e-05 -0.014912852633685761 0 1.3438359006867086e-07 -0.014999620273762022 0 9.5505925028925326e-05 -0.014824057408407011 0 -2.3174818322021722e-09 -0.015000041864017427 0 2.5033540277680144e-05 -0.015029799492440462 0 7.9276574031815887e-06 -0.015006578524380577 0 0.00010515586577887781 -0.01477728764653209 0 8.0874892956215344e-05 -0.014912852633685761 0 0.00021768291350625829 -0.014688074999023379 0 1.4215128890666411e-09 -0.014999431509756467 0 0.00010515586577887781 -0.01477728764653209 0 8.0874892956215344e-05 -0.014912852633685761 0 0.00012069993403296614 -0.0148992573441092 0 2.5011342771133546e-07 -0.014999616223440792 0 8.0874892956215344e-05 -0.014912852633685761 0 0.00012069993403296614 -0.0148992573441092 0 8.0874892956215344e-05 -0.014912852633685761 0 0.00016761675500711552 -0.014910900284759847 0 8.0874892956215344e-05 -0.014912852633685761 0 0.00016761675500711552 -0.014910900284759847 0 0.00021768291350625829 -0.014688074999023379 0 0.00025031621969715667 -0.014588737667873445 0 0.00024279223652703361 -0.014606881414473262 0 0.00016484078324530753 -0.014815963430912335 0 0.00012069993403296614 -0.0148992573441092 0 0.00016761675500711552 -0.014910900284759847 0 0.00034701291987342071 -0.014221031539392083 0 0.00030141270426543886 -0.014283719147415793 0 0.00032602903067422898 -0.014393648631242295 0 0.00026706185681995924 -0.014541311358155624 0 0.00025031621969715667 -0.014588737667873445 0 0.00030141270426543886 -0.014283719147415793 0 0.00032602903067422898 -0.014393648631242295 0 0.00024344917515188656 -0.014343983499155619 0 0.00032602903067422898 -0.014393648631242295 0 0.00022460460522223983 -0.01453488310611516 0 0.00021148702745384478 -0.014421364682982133 0 0.00032602903067422898 -0.014393648631242295 0 0.00021148702745384478 -0.014421364682982133 0 0.00024344917515188656 -0.014343983499155619 0 0.00020917614040051765 -0.014516908389088983 0 0.00022460460522223983 -0.01453488310611516 0 0.00019902767399952674 -0.014471770689778878 0 0.00020917614040051765 -0.014516908389088983 0 0.00021717986782690185 -0.014558772952089662 0 0.00020040762243990075 -0.014500511534273315 0 0.00020917614040051765 -0.014516908389088983 0 0.00022460460522223983 -0.01453488310611516 0 0.00021717986782690185 -0.014558772952089662 0 0.00022460460522223983 -0.01453488310611516 0 0.00021717986782690185 -0.014558772952089662 0 0.00022439692729934281 -0.014608206258531601 0 0.00022460460522223983 -0.01453488310611516 0 0.00021768291350625829 -0.014688074999023379 0 0.00022439692729934281 -0.014608206258531601 0 0.00032602903067422898 -0.014393648631242295 0 0.00022460460522223983 -0.01453488310611516 0 0.00021768291350625829 -0.014688074999023379 0 0.00010515586577887781 -0.01477728764653209 0 0.00021768291350625829 -0.014688074999023379 0 0.00022484942287811257 -0.014610508066658357 0 9.5505925028925326e-05 -0.014824057408407011 0 0.00014242130116691139 -0.014622478368808228 0 2.5033540277680144e-05 -0.015029799492440462 0 7.1900479382498757e-05 -0.01503421610477421 0 8.3542704994686389e-05 -0.015043720310159867 0 0.00021768291350625829 -0.014688074999023379 0 0.00022484942287811257 -0.014610508066658357 0 0.00022439692729934281 -0.014608206258531601 0 7.1900479382498757e-05 -0.01503421610477421 0 8.3542704994686389e-05 -0.015043720310159867 0 8.3351300475081742e-05 -0.015031694072804877 0 8.3542704994686389e-05 -0.015043720310159867 0 8.3351300475081742e-05 -0.015031694072804877 0 0.00010225044941099134 -0.015034239748600072 0 0.00022484942287811257 -0.014610508066658357 0 0.00021526845997898043 -0.014556606445702319 0 0.00020032577621907147 -0.01450287620589061 0 0.00014242130116691139 -0.014622478368808228 0 0.00015044147604677401 -0.014341042362580008 0 8.3542704994686389e-05 -0.015043720310159867 0 0.00010225044941099134 -0.015034239748600072 0 0.00014166486174722911 -0.015042151272778309 0 0.00020456937927909908 -0.014518559289822548 0 0.00021526845997898043 -0.014556606445702319 0 0.00020073128390945522 -0.014506653630836201 0 0.00021526845997898043 -0.014556606445702319 0 0.00020073128390945522 -0.014506653630836201 0 0.00020032577621907147 -0.01450287620589061 0 0.00020456937927909908 -0.014518559289822548 0 0.00020904179710761836 -0.014531441049745583 0 0.00021526845997898043 -0.014556606445702319 0 0.00020904179710761836 -0.014531441049745583 0 0.00021717986782690185 -0.014558772952089662 0 0.00021526845997898043 -0.014556606445702319 0 0.00020904179710761836 -0.014531441049745583 0 0.00021717986782690185 -0.014558772952089662 0 0.00020040762243990075 -0.014500511534273315 0 0.00020456937927909908 -0.014518559289822548 0 0.00020904179710761836 -0.014531441049745583 0 0.00019807971338035355 -0.014498999440710173 0 0.00021717986782690185 -0.014558772952089662 0 0.00022439692729934281 -0.014608206258531601 0 0.00021526845997898043 -0.014556606445702319 0 0.00022484942287811257 -0.014610508066658357 0 0.00022439692729934281 -0.014608206258531601 0 0.00021526845997898043 -0.014556606445702319 0 0.00019400458510788579 -0.014497137084409063 0 0.00017750968432113072 -0.014426732324414287 0 0.00015947165089212509 -0.014334880461256045 0 0.00015044147604677401 -0.014341042362580008 0 0.00031682146400367474 -0.014099064705055508 0 0.00018255128379163709 -0.01444996072108766 0 0.00017750968432113072 -0.014426732324414287 0 0.00017320218798643692 -0.014414287962013212 0 0.00018255128379163709 -0.01444996072108766 0 0.00017320218798643692 -0.014414287962013212 0 0.0001838107073400559 -0.014454142662794895 0 0.00018255128379163709 -0.01444996072108766 0 0.00019077990688135007 -0.014476709107721097 0 0.0001838107073400559 -0.014454142662794895 0 0.00020040762243990075 -0.014500511534273315 0 0.00019077990688135007 -0.014476709107721097 0 0.0001838107073400559 -0.014454142662794895 0 0.00020904179710761836 -0.014531441049745583 0 0.00020040762243990075 -0.014500511534273315 0 0.00019807971338035355 -0.014498999440710173 0 0.00020040762243990075 -0.014500511534273315 0 0.00019807971338035355 -0.014498999440710173 0 0.00019077990688135007 -0.014476709107721097 0 0.00019807971338035355 -0.014498999440710173 0 0.00019077990688135007 -0.014476709107721097 0 0.00019036034506809171 -0.014479866489638152 0 0.00018255128379163709 -0.01444996072108766 0 0.00019077990688135007 -0.014476709107721097 0 0.00019036034506809171 -0.014479866489638152 0 0.00019036034506809171 -0.014479866489638152 0 0.00019400458510788579 -0.014497137084409063 0 0.00017750968432113072 -0.014426732324414287 0 0.00020456937927909908 -0.014518559289822548 0 0.00019807971338035355 -0.014498999440710173 0 0.0001974302242168357 -0.014499037660271443 0 0.00020456937927909908 -0.014518559289822548 0 0.0001974302242168357 -0.014499037660271443 0 0.00020073128390945522 -0.014506653630836201 0 0.00019807971338035355 -0.014498999440710173 0 0.00019036034506809171 -0.014479866489638152 0 0.0001974302242168357 -0.014499037660271443 0 0.00019036034506809171 -0.014479866489638152 0 0.00019511711430765546 -0.014495685685951543 0 0.00019400458510788579 -0.014497137084409063 0 0.0001974302242168357 -0.014499037660271443 0 0.00019511711430765546 -0.014495685685951543 0 0.00020073128390945522 -0.014506653630836201 0 0.00019036034506809171 -0.014479866489638152 0 0.0001974302242168357 -0.014499037660271443 0 0.00019511711430765546 -0.014495685685951543 0 0.00015030632414290979 -0.014341696061124643 0 0.00015044147604677401 -0.014341042362580008 0 0.00019511711430765546 -0.014495685685951543 0 0.00020073128390945522 -0.014506653630836201 0 0.00019400458510788579 -0.014497137084409063 0 0.00018255128379163709 -0.01444996072108766 0 0.00019036034506809171 -0.014479866489638152 0 0.00017750968432113072 -0.014426732324414287 0 0.00017750968432113072 -0.014426732324414287 0 0.00016859311014592995 -0.014383489140791862 0 0.00015947165089212509 -0.014334880461256045 0 0.00017750968432113072 -0.014426732324414287 0 0.00016859311014592995 -0.014383489140791862 0 0.00017320218798643692 -0.014414287962013212 0 0.00016641937964190023 -0.014362050130737169 0 0.00017100001020456512 -0.014319284237072358 0 0.00015947165089212509 -0.014334880461256045 0 0.00016859311014592995 -0.014383489140791862 0 0.00016641937964190023 -0.014362050130737169 0 0.00015947165089212509 -0.014334880461256045 0 0.00016641937964190023 -0.014362050130737169 0 0.00016824738312548029 -0.014395349950398581 0 0.0001749881289240444 -0.014341562422798611 0 0.00017320218798643692 -0.014414287962013212 0 0.00016824738312548029 -0.014395349950398581 0 0.0001838107073400559 -0.014454142662794895 0 0.00016859311014592995 -0.014383489140791862 0 0.00016641937964190023 -0.014362050130737169 0 0.00017320218798643692 -0.014414287962013212 0 0.00016641937964190023 -0.014362050130737169 0 0.00017320218798643692 -0.014414287962013212 0 0.00016824738312548029 -0.014395349950398581 0 0.00016824738312548029 -0.014395349950398581 0 0.00016578243322692279 -0.014406404391488117 0 0.0001838107073400559 -0.014454142662794895 0 0.00016824738312548029 -0.014395349950398581 0 0.00016578243322692279 -0.014406404391488117 0 0.0001749881289240444 -0.014341562422798611 0 0.00016578243322692279 -0.014406404391488117 0 0.0001838107073400559 -0.014454142662794895 0 0.00019902767399952674 -0.014471770689778878 0 0.00016578243322692279 -0.014406404391488117 0 0.00019902767399952674 -0.014471770689778878 0 0.00021148702745384478 -0.014421364682982133 0 0.00020917614040051765 -0.014516908389088983 0 0.00020040762243990075 -0.014500511534273315 0 0.00019902767399952674 -0.014471770689778878 0 0.00020040762243990075 -0.014500511534273315 0 0.0001838107073400559 -0.014454142662794895 0 0.00019902767399952674 -0.014471770689778878 0 0.00022460460522223983 -0.01453488310611516 0 0.00019902767399952674 -0.014471770689778878 0 0.00021148702745384478 -0.014421364682982133 0 0.00021148702745384478 -0.014421364682982133 0 0.00024344917515188656 -0.014343983499155619 0 0.00016584521611814773 -0.014385129776230167 0 0.00024072933193306984 -0.014279014638746481 0 0.00030141270426543886 -0.014283719147415793 0 0.00024344917515188656 -0.014343983499155619 0 0.00024072933193306984 -0.014279014638746481 0 0.00024344917515188656 -0.014343983499155619 0 0.00016584521611814773 -0.014385129776230167 0 0.00016578243322692279 -0.014406404391488117 0 0.00021148702745384478 -0.014421364682982133 0 0.00016584521611814773 -0.014385129776230167 0 0.00016584521611814773 -0.014385129776230167 0 0.00010986776977016455 -0.014373225980883579 0 0.00014056786570581625 -0.014276489759103863 0 0.00016578243322692279 -0.014406404391488117 0 0.00016584521611814773 -0.014385129776230167 0 0.00020353094715534815 -0.01437831502346722 0 0.00019565963530251122 -0.014306025117250215 0 0.00023089431321630824 -0.014272291259279939 0 0.00014144059049315107 -0.014251828324496807 0 0.00016584521611814773 -0.014385129776230167 0 0.00010986776977016455 -0.014373225980883579 0 0.0001291821538890863 -0.014370077452872361 0 0.00012528178413602668 -0.014375621762100957 0 0.00032942972135805787 -0.014512297074234175 0 0.00028489476585230226 -0.01431528537424368 0 0.00010986776977016455 -0.014373225980883579 0 0.00028489476585230226 -0.01431528537424368 0 0.00010986776977016455 -0.014373225980883579 0 0.00014056786570581625 -0.014276489759103863 0 0.00036702964604461429 -0.014244030455477306 0 0.00020353094715534815 -0.01437831502346722 0 0.00022787465365619678 -0.014240438495151646 0 0.00034979827261095656 -0.014178333808962587 0 0.00023089431321630824 -0.014272291259279939 0 0.00016578243322692279 -0.014406404391488117 0 0.00020353094715534815 -0.01437831502346722 0 0.0001749881289240444 -0.014341562422798611 0 0.00020353094715534815 -0.01437831502346722 0 0.0001749881289240444 -0.014341562422798611 0 0.00022787465365619678 -0.014240438495151646 0 0.0001749881289240444 -0.014341562422798611 0 0.00018730559233662725 -0.014259098680570402 0 0.00022787465365619678 -0.014240438495151646 0 0.00016641937964190023 -0.014362050130737169 0 0.0001749881289240444 -0.014341562422798611 0 0.00017100001020456512 -0.014319284237072358 0 0.0001749881289240444 -0.014341562422798611 0 0.00017100001020456512 -0.014319284237072358 0 0.00018730559233662725 -0.014259098680570402 0 0.00017100001020456512 -0.014319284237072358 0 0.00018730559233662725 -0.014259098680570402 0 0.00015947165089212509 -0.014334880461256045 0 0.00036702964604461429 -0.014244030455477306 0 0.00029610299264451522 -0.014126232683169327 0 0.00022787465365619678 -0.014240438495151646 0 0.00029610299264451522 -0.014126232683169327 0 0.00022787465365619678 -0.014240438495151646 0 0.0002188862492410673 -0.014131227678264399 0 0.00018730559233662725 -0.014259098680570402 0 0.00022787465365619678 -0.014240438495151646 0 0.0002188862492410673 -0.014131227678264399 0 0.00061978228629622873 -0.013482698424478181 0 0.00053665272538995013 -0.013518383157801532 0 0.00046265675974178542 -0.013580899626470931 0 0.00046726285785418902 -0.013578190156256385 0 0.00043562934504236652 -0.013570227986812521 0 0.00075232430004466236 -0.013470895507386822 0 0.00043562934504236652 -0.013570227986812521 0 0.00057136917551619051 -0.013421283936310927 0 0.00018730559233662725 -0.014259098680570402 0 0.0002188862492410673 -0.014131227678264399 0 0.00015947165089212509 -0.014334880461256045 0 0.00041773772990110196 -0.013945022323323567 0 0.00031682146400367474 -0.014099064705055508 0 0.00046265675974178542 -0.013580899626470931 0 0.00043562934504236652 -0.013570227986812521 0 0.00040584759311027593 -0.013578186666870959 0 0.00043562934504236652 -0.013570227986812521 0 0.00057136917551619051 -0.013421283936310927 0 0.00043827776579329493 -0.013440680525120848 0 0.00043562934504236652 -0.013570227986812521 0 0.00043827776579329493 -0.013440680525120848 0 0.00041062065908353248 -0.013547119718295045 0 0.00057136917551619051 -0.013421283936310927 0 0.00043827776579329493 -0.013440680525120848 0 0.00054127311333439481 -0.013312270389573848 0 0.00043827776579329493 -0.013440680525120848 0 0.00054127311333439481 -0.013312270389573848 0 0.00040302843648665942 -0.013165963847900917 0 0.00057136917551619051 -0.013421283936310927 0 0.00054127311333439481 -0.013312270389573848 0 0.00068605653159350456 -0.013301155142085495 0 0.00075232430004466236 -0.013470895507386822 0 0.00057136917551619051 -0.013421283936310927 0 0.00068605653159350456 -0.013301155142085495 0 0.00085041063186817672 -0.013299867753723401 0 0.00075232430004466236 -0.013470895507386822 0 0.00068605653159350456 -0.013301155142085495 0 0.00085041063186817672 -0.013299867753723401 0 0.00079393326077878662 -0.013162169171779613 0 0.00068605653159350456 -0.013301155142085495 0 0.00079393326077878662 -0.013162169171779613 0 0.00068605653159350456 -0.013301155142085495 0 0.00060899774318431217 -0.013155906058421993 0 0.00079393326077878662 -0.013162169171779613 0 0.00060899774318431217 -0.013155906058421993 0 0.00071879958585431027 -0.013012396257362122 0 0.00054127311333439481 -0.013312270389573848 0 0.00068605653159350456 -0.013301155142085495 0 0.00060899774318431217 -0.013155906058421993 0 0.00060899774318431217 -0.013155906058421993 0 0.00071879958585431027 -0.013012396257362122 0 0.00055850830310416653 -0.012919922758878304 0 0.00071879958585431027 -0.013012396257362122 0 0.00055850830310416653 -0.012919922758878304 0 0.00072205653181279996 -0.012885121253071419 0 0.00060899774318431217 -0.013155906058421993 0 0.00040302843648665942 -0.013165963847900917 0 0.00055850830310416653 -0.012919922758878304 0 0.00060529717905536578 -0.014988599413737633 0 0.00058445140662853829 -0.014711398453886165 0 0.00074448775441814726 -0.014765457335157056 0 0.00050716502326366352 -0.014084869646568991 0 0.00070320962528260943 -0.013893494686366073 0 0.00054127311333439481 -0.013312270389573848 0 0.00060899774318431217 -0.013155906058421993 0 0.00040302843648665942 -0.013165963847900917 0 0.00060529717905536578 -0.014988599413737633 0 0.00043897198434301841 -0.014823580658834786 0 0.00058445140662853829 -0.014711398453886165 0 0.00043897198434301841 -0.014823580658834786 0 0.00034226958097788583 -0.015045281677896679 0 0.00021295139148868773 -0.014886785488036715 0 0.00060529717905536578 -0.014988599413737633 0 0.00043897198434301841 -0.014823580658834786 0 0.00034226958097788583 -0.015045281677896679 0 0.00060529717905536578 -0.014988599413737633 0 0.00034226958097788583 -0.015045281677896679 0 0.00047070658885539222 -0.01520434158448011 0 0.00035432328905498256 -0.014683830682115769 0 0.00030162021871551597 -0.01429812290665592 0 0.00015045648566786688 -0.014953452924974492 0 0.00017528529064124616 -0.01499150484538064 0 0.00013537099712859402 -0.014986397975996896 0 0.00017528529064124616 -0.01499150484538064 0 0.00014009775437073016 -0.015010721737707492 0 0.00013537099712859402 -0.014986397975996896 0 0.00043827776579329493 -0.013440680525120848 0 0.00040302843648665942 -0.013165963847900917 0 0.00035758761020583804 -0.013425327360833208 0 0.00050716502326366352 -0.014084869646568991 0 0.00030162021871551597 -0.01429812290665592 0 0.00040302843648665942 -0.013165963847900917 0 0.00025993252712096313 -0.01341553090036271 0 0.00035758761020583804 -0.013425327360833208 0 0.00030162021871551597 -0.01429812290665592 0 0.00023335864714919374 -0.014148229713382532 0 0.00020010272366827674 -0.013610445184135513 0 0.00037051718590136581 -0.013527886273753922 0 0.00040584759311027593 -0.013578186666870959 0 0.00025993252712096313 -0.01341553090036271 0 0.00035758761020583804 -0.013425327360833208 0 0.00037051718590136581 -0.013527886273753922 0 0.00043827776579329493 -0.013440680525120848 0 0.00035758761020583804 -0.013425327360833208 0 0.00037051718590136581 -0.013527886273753922 0 0.00043827776579329493 -0.013440680525120848 0 0.00037051718590136581 -0.013527886273753922 0 0.00041062065908353248 -0.013547119718295045 0 0.00043562934504236652 -0.013570227986812521 0 0.00041062065908353248 -0.013547119718295045 0 0.00040584759311027593 -0.013578186666870959 0 0.00037051718590136581 -0.013527886273753922 0 0.00041062065908353248 -0.013547119718295045 0 0.00040584759311027593 -0.013578186666870959 0 0.00015044147604677401 -0.014341042362580008 0 0.00030162021871551597 -0.01429812290665592 0 0.00020010272366827674 -0.013610445184135513 0 0.00030197737425263576 -0.013443389323668986 0 0.00037051718590136581 -0.013527886273753922 0 0.00014166486174722911 -0.015042151272778309 0 0.00017528529064124616 -0.01499150484538064 0 0.00014009775437073016 -0.015010721737707492 0 0.00014166486174722911 -0.015042151272778309 0 0.00014009775437073016 -0.015010721737707492 0 0.00012861120169526148 -0.015023070895508975 0 0.00010103651347326251 -0.01501508564320771 0 0.00012036080094279015 -0.015010002418673226 0 0.00011335054431382877 -0.015026790911462149 0 0.00010103651347326251 -0.01501508564320771 0 8.5728642712319539e-05 -0.015013800868868513 0 0.0001021706048805047 -0.015000133959515554 0 0.00010103651347326251 -0.01501508564320771 0 0.00012036080094279015 -0.015010002418673226 0 0.0001021706048805047 -0.015000133959515554 0 0.00014009775437073016 -0.015010721737707492 0 0.00012036080094279015 -0.015010002418673226 0 0.00013537099712859402 -0.014986397975996896 0 0.00014009775437073016 -0.015010721737707492 0 0.00012036080094279015 -0.015010002418673226 0 0.00012861120169526148 -0.015023070895508975 0 0.00014166486174722911 -0.015042151272778309 0 0.00012861120169526148 -0.015023070895508975 0 0.00011335054431382877 -0.015026790911462149 0 0.00010225044941099134 -0.015034239748600072 0 0.00014166486174722911 -0.015042151272778309 0 0.00011335054431382877 -0.015026790911462149 0 0.00012036080094279015 -0.015010002418673226 0 0.00012861120169526148 -0.015023070895508975 0 0.00011335054431382877 -0.015026790911462149 0 0.00010225044941099134 -0.015034239748600072 0 0.00011335054431382877 -0.015026790911462149 0 9.0049471708632175e-05 -0.015025349962935201 0 0.00010103651347326251 -0.01501508564320771 0 0.00011335054431382877 -0.015026790911462149 0 9.0049471708632175e-05 -0.015025349962935201 0 7.1900479382498757e-05 -0.01503421610477421 0 8.3351300475081742e-05 -0.015031694072804877 0 7.0082747183187281e-05 -0.015019232519826257 0 8.3351300475081742e-05 -0.015031694072804877 0 0.00010225044941099134 -0.015034239748600072 0 9.0049471708632175e-05 -0.015025349962935201 0 7.1900479382498757e-05 -0.01503421610477421 0 7.0082747183187281e-05 -0.015019232519826257 0 2.8207889381233441e-05 -0.015007911455531183 0 8.3351300475081742e-05 -0.015031694072804877 0 9.0049471708632175e-05 -0.015025349962935201 0 7.0082747183187281e-05 -0.015019232519826257 0 9.0049471708632175e-05 -0.015025349962935201 0 7.0082747183187281e-05 -0.015019232519826257 0 8.5728642712319539e-05 -0.015013800868868513 0 0.00010103651347326251 -0.01501508564320771 0 9.0049471708632175e-05 -0.015025349962935201 0 8.5728642712319539e-05 -0.015013800868868513 0 7.0082747183187281e-05 -0.015019232519826257 0 8.5728642712319539e-05 -0.015013800868868513 0 6.5643332855650115e-05 -0.015003719239407588 0 8.5728642712319539e-05 -0.015013800868868513 0 6.5643332855650115e-05 -0.015003719239407588 0 0.0001021706048805047 -0.015000133959515554 0 6.5643332855650115e-05 -0.015003719239407588 0 0.00010776195531264365 -0.014970915751816362 0 6.5580012528592725e-05 -0.014954579261267083 0 6.5643332855650115e-05 -0.015003719239407588 0 0.00010776195531264365 -0.014970915751816362 0 0.0001021706048805047 -0.015000133959515554 0 0.00015045648566786688 -0.014953452924974492 0 0.00010776195531264365 -0.014970915751816362 0 0.00013537099712859402 -0.014986397975996896 0 0.00010776195531264365 -0.014970915751816362 0 0.0001021706048805047 -0.015000133959515554 0 0.00013537099712859402 -0.014986397975996896 0 0.00012036080094279015 -0.015010002418673226 0 0.0001021706048805047 -0.015000133959515554 0 0.00013537099712859402 -0.014986397975996896 0 0.00015045648566786688 -0.014953452924974492 0 0.00010776195531264365 -0.014970915751816362 0 0.00013784890036790844 -0.014902476614160798 0 0.00035432328905498256 -0.014683830682115769 0 0.00028684479233521542 -0.014749031710803107 0 0.00021295139148868773 -0.014886785488036715 0 8.9638302411434664e-05 -0.014762445056540572 0 0.00029363884836458256 -0.014754240796825514 0 0.00043897198434301841 -0.014823580658834786 0 0.00021295139148868773 -0.014886785488036715 0 0.00029363884836458256 -0.014754240796825514 0 0.00028684479233521542 -0.014749031710803107 0 0.0002419035443260433 -0.014735309927272899 0 0.00013784890036790844 -0.014902476614160798 0 7.0877253900301614e-05 -0.014895603629380774 0 8.9638302411434664e-05 -0.014762445056540572 0 0.00013784890036790844 -0.014902476614160798 0 7.0877253900301614e-05 -0.014895603629380774 0 6.5580012528592725e-05 -0.014954579261267083 0 0.00010776195531264365 -0.014970915751816362 0 0.00013784890036790844 -0.014902476614160798 0 6.5580012528592725e-05 -0.014954579261267083 0 6.5580012528592725e-05 -0.014954579261267083 0 1.7811011820679197e-05 -0.014981931411849281 0 1.4375758134592835e-05 -0.014940639525508427 0 7.0877253900301614e-05 -0.014895603629380774 0 6.5580012528592725e-05 -0.014954579261267083 0 1.4375758134592835e-05 -0.014940639525508427 0 7.0877253900301614e-05 -0.014895603629380774 0 1.4375758134592835e-05 -0.014940639525508427 0 -2.6044501662060718e-05 -0.014803609481134789 0 1.4375758134592835e-05 -0.014940639525508427 0 -1.5780483336024886e-07 -0.01499974490476199 0 -2.6044501662060718e-05 -0.014803609481134789 0 -1.529760602237808e-08 -0.01499979448127786 0 2.2291321131420894e-05 -0.014862719097484295 0 1.7811011820679197e-05 -0.014981931411849281 0 1.4375758134592835e-05 -0.014940639525508427 0 -1.5780483336024886e-07 -0.01499974490476199 0 1.7811011820679197e-05 -0.014981931411849281 0 -1.5780483336024886e-07 -0.01499974490476199 0 8.3922073067849565e-08 -0.015000080486071043 0 1.7811011820679197e-05 -0.014981931411849281 0 8.3922073067849565e-08 -0.015000080486071043 0 2.8207889381233441e-05 -0.015007911455531183 0 -1.7700561990634971e-09 -0.014999987948579461 0 1.6338346704942813e-05 -0.01499214375528562 0 8.5088352179342607e-09 -0.014999994918719815 0 2.5257017551135243e-08 -0.015000002851566547 0 2.1889153725853017e-05 -0.015010179271668055 0 6.5643332855650115e-05 -0.015003719239407588 0 1.7811011820679197e-05 -0.014981931411849281 0 2.8207889381233441e-05 -0.015007911455531183 0 6.5643332855650115e-05 -0.015003719239407588 0 6.5580012528592725e-05 -0.014954579261267083 0 1.7811011820679197e-05 -0.014981931411849281 0 3.9230973445291275e-05 -0.015021685516576292 0 2.1889153725853017e-05 -0.015010179271668055 0 7.0082747183187281e-05 -0.015019232519826257 0 6.5643332855650115e-05 -0.015003719239407588 0 2.8207889381233441e-05 -0.015007911455531183 0 2.5033540277680144e-05 -0.015029799492440462 0 7.1900479382498757e-05 -0.01503421610477421 0 1.6338346704942813e-05 -0.01499214375528562 0 2.5033540277680144e-05 -0.015029799492440462 0 1.6338346704942813e-05 -0.01499214375528562 0 7.9276574031815887e-06 -0.015006578524380577 0 -2.3174818322021722e-09 -0.015000041864017427 0 7.9276574031815887e-06 -0.015006578524380577 0 8.5088352179342607e-09 -0.014999994918719815 0 1.6338346704942813e-05 -0.01499214375528562 0 7.9276574031815887e-06 -0.015006578524380577 0 8.5088352179342607e-09 -0.014999994918719815 0 5.4872957839888741e-06 -0.014996611532089189 0 -8.7754664282239474e-09 -0.014999973595980369 0 7.3011329887460591e-06 -0.014974001558778219 0 -6.9191666124797316e-08 -0.014999825134230505 0 -2.6111387662826998e-05 -0.014906921075295645 0 5.4872957839888741e-06 -0.014996611532089189 0 1.5945232361527145e-05 -0.014967258653195434 0 7.3011329887460591e-06 -0.014974001558778219 0 4.8841105318421834e-06 -0.014983652414572477 0 1.684825077375616e-05 -0.014979029704380521 0 1.5945232361527145e-05 -0.014967258653195434 0 4.8841105318421834e-06 -0.014983652414572477 0 1.684825077375616e-05 -0.014979029704380521 0 1.2327203268503152e-05 -0.014988465866662852 0 6.1411433709053088e-06 -0.014990512945084937 0 1.003958973352019e-05 -0.014984635676357539 0 4.8841105318421834e-06 -0.014983652414572477 0 1.2327203268503152e-05 -0.014988465866662852 0 7.1071645002808811e-06 -0.014997413700892987 0 1.2327203268503152e-05 -0.014988465866662852 0 7.1071645002808811e-06 -0.014997413700892987 0 2.051788545903257e-05 -0.01500093920868747 0 4.8841105318421834e-06 -0.014983652414572477 0 -2.4280330550108146e-09 -0.014999977005025882 0 7.1071645002808811e-06 -0.014997413700892987 0 6.1411433709053088e-06 -0.014990512945084937 0 6.6736394789824201e-09 -0.014999986437314252 0 5.4872957839888741e-06 -0.014996611532089189 0 -8.7754664282239474e-09 -0.014999973595980369 0 5.3614983588087208e-09 -0.015000016048950619 0 3.9900704603820404e-09 -0.015000009602018433 0 5.7476244460215271e-06 -0.015002962944327531 0 7.1071645002808811e-06 -0.014997413700892987 0 -2.4280330550108146e-09 -0.014999977005025882 0 3.9900704603820404e-09 -0.015000009602018433 0 7.1071645002808811e-06 -0.014997413700892987 0 -1.0742535694072156e-09 -0.015000000281968649 0 3.9900704603820404e-09 -0.015000009602018433 0 5.7476244460215271e-06 -0.015002962944327531 0 5.7476244460215271e-06 -0.015002962944327531 0 7.1071645002808811e-06 -0.014997413700892987 0 2.051788545903257e-05 -0.01500093920868747 0 2.2291321131420894e-05 -0.014862719097484295 0 4.7717410648005669e-05 -0.01471366205863262 0 7.201330963234036e-05 -0.014540080411064204 0 8.9638302411434664e-05 -0.014762445056540572 0 0.0002381917090718253 -0.014600751044523731 0 -2.6044501662060718e-05 -0.014803609481134789 0 7.201330963234036e-05 -0.014540080411064204 0 8.9638302411434664e-05 -0.014762445056540572 0 7.0877253900301614e-05 -0.014895603629380774 0 -2.6044501662060718e-05 -0.014803609481134789 0 8.9638302411434664e-05 -0.014762445056540572 0 8.9638302411434664e-05 -0.014762445056540572 0 0.00029363884836458256 -0.014754240796825514 0 0.0002381917090718253 -0.014600751044523731 0 7.201330963234036e-05 -0.014540080411064204 0 0.0002381917090718253 -0.014600751044523731 0 0.00025094317495859319 -0.014281282975974649 0 4.7717410648005669e-05 -0.01471366205863262 0 7.6179425836284248e-05 -0.014524025520089145 0 1.2327203268503152e-05 -0.014988465866662852 0 2.051788545903257e-05 -0.01500093920868747 0 2.3423097286283263e-05 -0.014985368286858843 0 2.051788545903257e-05 -0.01500093920868747 0 4.4164339268936484e-05 -0.014988071824568091 0 2.3423097286283263e-05 -0.014985368286858843 0 1.684825077375616e-05 -0.014979029704380521 0 1.2327203268503152e-05 -0.014988465866662852 0 2.3423097286283263e-05 -0.014985368286858843 0 1.684825077375616e-05 -0.014979029704380521 0 2.3423097286283263e-05 -0.014985368286858843 0 3.1842956682380909e-05 -0.014969694085348446 0 1.684825077375616e-05 -0.014979029704380521 0 3.1842956682380909e-05 -0.014969694085348446 0 1.5945232361527145e-05 -0.014967258653195434 0 4.4164339268936484e-05 -0.014988071824568091 0 2.3423097286283263e-05 -0.014985368286858843 0 3.1842956682380909e-05 -0.014969694085348446 0 4.4164339268936484e-05 -0.014988071824568091 0 3.1842956682380909e-05 -0.014969694085348446 0 7.0903942018331811e-05 -0.014966046510780861 0 0.00025094317495859319 -0.014281282975974649 0 0.00042774947571280471 -0.014064245982886327 0 0.00049372045741352254 -0.01427340457300859 0 7.6179425836284248e-05 -0.014524025520089145 0 7.6050431115232183e-05 -0.014251319780851878 0 0.00042774947571280471 -0.014064245982886327 0 0.00049372045741352254 -0.01427340457300859 0 0.00057789597898248116 -0.014113262352667718 0 0.00025094317495859319 -0.014281282975974649 0 0.00049372045741352254 -0.01427340457300859 0 0.00042545412829197033 -0.014504447263552904 0 0.00035740835558978259 -0.01432920595061779 0 0.00044838517354041466 -0.014272152325902189 0 0.0002381917090718253 -0.014600751044523731 0 0.00025094317495859319 -0.014281282975974649 0 0.00042545412829197033 -0.014504447263552904 0 0.00029363884836458256 -0.014754240796825514 0 0.0002381917090718253 -0.014600751044523731 0 0.00045400301595732479 -0.014580560754544144 0 0.00043897198434301841 -0.014823580658834786 0 0.00029363884836458256 -0.014754240796825514 0 0.00045400301595732479 -0.014580560754544144 0 0.00043897198434301841 -0.014823580658834786 0 0.00045400301595732479 -0.014580560754544144 0 0.00058445140662853829 -0.014711398453886165 0 0.00044838517354041466 -0.014272152325902189 0 0.0006417369200756698 -0.014101652712783097 0 0.00045400301595732479 -0.014580560754544144 0 0.00058445140662853829 -0.014711398453886165 0 0.00066116506175617625 -0.014553764184025507 0 0.00049372045741352254 -0.01427340457300859 0 0.00042545412829197033 -0.014504447263552904 0 0.00059711868019443626 -0.014433991069918077 0 0.00066116506175617625 -0.014553764184025507 0 0.00077501869219006149 -0.014615144960867592 0 0.00088189351230256216 -0.014540055035688157 0 0.00059711868019443626 -0.014433991069918077 0 0.00082104972207395403 -0.014414701980473501 0 0.00066309881296518745 -0.014228670447411072 0 0.0006417369200756698 -0.014101652712783097 0 0.0009085493358981122 -0.013768327222671963 0 0.00058445140662853829 -0.014711398453886165 0 0.00066116506175617625 -0.014553764184025507 0 0.00077501869219006149 -0.014615144960867592 0 0.00058445140662853829 -0.014711398453886165 0 0.00077501869219006149 -0.014615144960867592 0 0.00074448775441814726 -0.014765457335157056 0 0.00055850830310416653 -0.012919922758878304 0 0.00072205653181279996 -0.012885121253071419 0 0.00070834048514237832 -0.012680854809794306 0 0.00077501869219006149 -0.014615144960867592 0 0.00074448775441814726 -0.014765457335157056 0 0.00088189351230256216 -0.014540055035688157 0 0.00070320962528260943 -0.013893494686366073 0 0.0009085493358981122 -0.013768327222671963 0 0.00072205653181279996 -0.012885121253071419 0 0.00070834048514237832 -0.012680854809794306 0 0.0008968806671844112 -0.012912471860094348 0 0.001090767805999638 -0.013103786276211176 0 0.0010916212043348924 -0.013101965975560313 0 0.0011051293529882916 -0.01311082400657745 0 0.00081211453122810476 -0.014478417019967731 0 0.00082992976401583668 -0.014457159664290731 0 0.00081219918248885638 -0.014339280302050015 0 0.0009085493358981122 -0.013768327222671963 0 0.00096071814748540719 -0.013708394881976454 0 0.00082992976401583668 -0.014457159664290731 0 0.00081219918248885638 -0.014339280302050015 0 0.0010964169590992939 -0.014098739989091575 0 0.0009085493358981122 -0.013768327222671963 0 0.00094184268782968961 -0.013941134466668181 0 0.00081211453122810476 -0.014478417019967731 0 0.00081219918248885638 -0.014339280302050015 0 0.00066309881296518745 -0.014228670447411072 0 0.00080823569356931984 -0.014194329121451537 0 0.00077358072012000882 -0.014075901310745216 0 0.0010964169590992939 -0.014098739989091575 0 0.00081219918248885638 -0.014339280302050015 0 0.00080823569356931984 -0.014194329121451537 0 0.0010964169590992939 -0.014098739989091575 0 0.00066309881296518745 -0.014228670447411072 0 0.00067714871600993909 -0.014105305231997706 0 0.00077358072012000882 -0.014075901310745216 0 0.00080823569356931984 -0.014194329121451537 0 0.00066309881296518745 -0.014228670447411072 0 0.00077358072012000882 -0.014075901310745216 0 0.00081219918248885638 -0.014339280302050015 0 0.00080823569356931984 -0.014194329121451537 0 0.00066309881296518745 -0.014228670447411072 0 0.00049372045741352254 -0.01427340457300859 0 0.00059711868019443626 -0.014433991069918077 0 0.00066309881296518745 -0.014228670447411072 0 0.00049372045741352254 -0.01427340457300859 0 0.00066309881296518745 -0.014228670447411072 0 0.00057789597898248116 -0.014113262352667718 0 0.00066309881296518745 -0.014228670447411072 0 0.00067714871600993909 -0.014105305231997706 0 0.00057789597898248116 -0.014113262352667718 0 0.00067714871600993909 -0.014105305231997706 0 0.00057789597898248116 -0.014113262352667718 0 0.00068667754652879077 -0.01402581523501926 0 0.00041075947168716878 -0.013976866306999305 0 0.00031199250477456593 -0.013891083095923098 0 0.00077358072012000882 -0.014075901310745216 0 0.00047182267384758678 -0.013654497201021418 0 0.00098527033902593504 -0.013649765622226593 0 0.00067714871600993909 -0.014105305231997706 0 0.00077358072012000882 -0.014075901310745216 0 0.00068667754652879077 -0.01402581523501926 0 0.00088008519925159153 -0.013389772279237945 0 0.00064336757936090533 -0.01325338877882235 0 0.0010677407383152149 -0.013204525942964273 0 0.00088008519925159153 -0.013389772279237945 0 0.00047182267384758678 -0.013654497201021418 0 0.00064336757936090533 -0.01325338877882235 0 0.00088008519925159153 -0.013389772279237945 0 0.00047182267384758678 -0.013654497201021418 0 0.00098527033902593504 -0.013649765622226593 0 0.00057789597898248116 -0.014113262352667718 0 0.00068667754652879077 -0.01402581523501926 0 0.00059894146868861838 -0.013900526244855839 0 0.00047182267384758678 -0.013654497201021418 0 0.0002108335357107553 -0.013279779225654717 0 0.00064336757936090533 -0.01325338877882235 0 0.00031199250477456593 -0.013891083095923098 0 7.1086710638670702e-05 -0.013722442057176033 0 7.1086710638670702e-05 -0.013722442057176033 0 5.5303229938806523e-05 -0.012322394399372657 0 -0.00027347152710413054 -0.013019886588237019 0 0.00010250065811208882 -0.012671403451906538 0 -0.00023439468361378092 -0.012670355534238948 0 0.00064336757936090533 -0.01325338877882235 0 0.00071076352794204902 -0.012815946580888487 0 0.0010677407383152149 -0.013204525942964273 0 0.0002108335357107553 -0.013279779225654717 0 0.00064336757936090533 -0.01325338877882235 0 0.00071076352794204902 -0.012815946580888487 0 0.00010250065811208882 -0.012671403451906538 0 0.00017854706528846787 -0.012367790807917641 0 -0.00012527390377186327 -0.012349863662197119 0 0.00031560351670089628 -0.012093645835132038 0 0.00017854706528846787 -0.012367790807917641 0 -0.00012527390377186327 -0.012349863662197119 0 -6.4306692233279206e-05 -0.011521253878045184 0 -0.00018796843044956979 -0.013045859140128574 0 4.9477586301775142e-05 -0.014948536451846703 0 4.6899332577366667e-05 -0.014953829270878674 0 4.6369255874505987e-05 -0.014957528802709572 0 4.4221582236526545e-05 -0.014957307102063062 0 4.6369255874505987e-05 -0.014957528802709572 0 4.198750283588826e-05 -0.014961878467449206 0 4.6899332577366667e-05 -0.014953829270878674 0 4.4221582236526545e-05 -0.014957307102063062 0 4.6369255874505987e-05 -0.014957528802709572 0 -0.00012527390377186327 -0.012349863662197119 0 -0.00023439468361378092 -0.012670355534238948 0 -0.00056389296452909621 -0.012604419567350611 0 0.00010250065811208882 -0.012671403451906538 0 -0.00012527390377186327 -0.012349863662197119 0 -0.00023439468361378092 -0.012670355534238948 0 -0.00018796843044956979 -0.013045859140128574 0 6.8051604203621017e-05 -0.013905942370018376 0 4.6369255874505987e-05 -0.014957528802709572 0 4.0819083860753184e-05 -0.014964751738840966 0 4.198750283588826e-05 -0.014961878467449206 0 4.0819083860753184e-05 -0.014964751738840966 0 4.198750283588826e-05 -0.014961878467449206 0 3.7309510429594938e-05 -0.014967109907012584 0 3.9049339610436397e-05 -0.014956237128198876 0 4.198750283588826e-05 -0.014961878467449206 0 3.7309510429594938e-05 -0.014967109907012584 0 6.8051604203621017e-05 -0.013905942370018376 0 -7.5573010279974127e-05 -0.014506972214250782 0 4.6441077872716411e-05 -0.014980130006516533 0 2.8023876356811042e-05 -0.014992222290933154 0 2.767005103006287e-05 -0.014979691202027091 0 4.6441077872716411e-05 -0.014980130006516533 0 3.7309510429594938e-05 -0.014967109907012584 0 2.767005103006287e-05 -0.014979691202027091 0 6.8051604203621017e-05 -0.013905942370018376 0 0.00018825810136505674 -0.014200703717021918 0 7.7521143641009669e-05 -0.014908698977953681 0 7.1163600467791425e-05 -0.014937521560151655 0 4.9439181794880431e-05 -0.014928332284422412 0 7.1163600467791425e-05 -0.014937521560151655 0 4.9538437030865861e-05 -0.014950144722868378 0 4.9439181794880431e-05 -0.014928332284422412 0 7.1086710638670702e-05 -0.013722442057176033 0 6.8051604203621017e-05 -0.013905942370018376 0 -0.00027347152710413054 -0.013019886588237019 0 -0.00023439468361378092 -0.012670355534238948 0 -0.00056389296452909621 -0.012604419567350611 0 9.9216151530179023e-05 -0.014939513099039689 0 7.7521143641009669e-05 -0.014908698977953681 0 7.1163600467791425e-05 -0.014937521560151655 0 0.00042774947571280471 -0.014064245982886327 0 0.00057789597898248116 -0.014113262352667718 0 0.00059894146868861838 -0.013900526244855839 0 7.6050431115232183e-05 -0.014251319780851878 0 7.1086710638670702e-05 -0.013722442057176033 0 7.0903942018331811e-05 -0.014966046510780861 0 9.9216151530179023e-05 -0.014939513099039689 0 7.1163600467791425e-05 -0.014937521560151655 0 7.0903942018331811e-05 -0.014966046510780861 0 7.1163600467791425e-05 -0.014937521560151655 0 4.9538437030865861e-05 -0.014950144722868378 0 3.1842956682380909e-05 -0.014969694085348446 0 7.0903942018331811e-05 -0.014966046510780861 0 4.9538437030865861e-05 -0.014950144722868378 0 3.1842956682380909e-05 -0.014969694085348446 0 4.9538437030865861e-05 -0.014950144722868378 0 2.4922244652944702e-05 -0.014949919491514779 0 3.1842956682380909e-05 -0.014969694085348446 0 2.4922244652944702e-05 -0.014949919491514779 0 1.5945232361527145e-05 -0.014967258653195434 0 1.2832725221164475e-05 -0.015000160520646812 0 1.570983837272004e-05 -0.014986087539388643 0 4.1759466667114736e-06 -0.014995215554189409 0 -5.8259020990715004e-05 -0.014770243471490372 0 -7.5573010279974127e-05 -0.014506972214250782 0 4.9538437030865861e-05 -0.014950144722868378 0 2.4922244652944702e-05 -0.014949919491514779 0 4.9439181794880431e-05 -0.014928332284422412 0 1.2832725221164475e-05 -0.015000160520646812 0 2.8023876356811042e-05 -0.014992222290933154 0 1.570983837272004e-05 -0.014986087539388643 0 2.8023876356811042e-05 -0.014992222290933154 0 2.767005103006287e-05 -0.014979691202027091 0 1.570983837272004e-05 -0.014986087539388643 0 2.1858078063033214e-05 -0.014965043927611785 0 3.7309510429594938e-05 -0.014967109907012584 0 2.767005103006287e-05 -0.014979691202027091 0 2.1858078063033214e-05 -0.014965043927611785 0 2.767005103006287e-05 -0.014979691202027091 0 1.570983837272004e-05 -0.014986087539388643 0 1.7302695058589593e-05 -0.014978272135136939 0 8.3315883227898233e-06 -0.014984934476283287 0 2.1858078063033214e-05 -0.014965043927611785 0 1.570983837272004e-05 -0.014986087539388643 0 5.9739077295716457e-06 -0.014981098878590475 0 1.570983837272004e-05 -0.014986087539388643 0 5.9739077295716457e-06 -0.014981098878590475 0 4.1759466667114736e-06 -0.014995215554189409 0 5.9739077295716457e-06 -0.014981098878590475 0 -2.4327636274521141e-07 -0.014999125277774123 0 4.1759466667114736e-06 -0.014995215554189409 0 -2.5433366902577776e-09 -0.014999992034781051 0 -1.0989739732719185e-07 -0.014998181874590686 0 -9.879458558450557e-10 -0.014999987147845489 0 1.3419467811673174e-06 -0.014997498078242707 0 -1.0989739732719185e-07 -0.014998181874590686 0 -2.4327636274521141e-07 -0.014999125277774123 0 8.3315883227898233e-06 -0.014984934476283287 0 4.8164110381751831e-06 -0.014988021137515534 0 -1.0989739732719185e-07 -0.014998181874590686 0 -2.4327636274521141e-07 -0.014999125277774123 0 -9.879458558450557e-10 -0.014999987147845489 0 -2.4327636274521141e-07 -0.014999125277774123 0 -9.879458558450557e-10 -0.014999987147845489 0 5.6578831556252977e-10 -0.014999997274610134 0 -2.4327636274521141e-07 -0.014999125277774123 0 5.6578831556252977e-10 -0.014999997274610134 0 4.1759466667114736e-06 -0.014995215554189409 0 5.6578831556252977e-10 -0.014999997274610134 0 4.1759466667114736e-06 -0.014995215554189409 0 3.3363260454931587e-06 -0.015002048163614539 0 1.2832725221164475e-05 -0.015000160520646812 0 4.1759466667114736e-06 -0.014995215554189409 0 3.3363260454931587e-06 -0.015002048163614539 0 2.4922244652944702e-05 -0.014949919491514779 0 1.5945232361527145e-05 -0.014967258653195434 0 7.3011329887460591e-06 -0.014974001558778219 0 -5.8259020990715004e-05 -0.014770243471490372 0 -2.6111387662826998e-05 -0.014906921075295645 0 1.7952192155613782e-09 -0.015000006362143275 0 5.6578831556252977e-10 -0.014999997274610134 0 3.3363260454931587e-06 -0.015002048163614539 0 -0.00037648831719167203 -0.0084943095199785049 0 -0.0011283999175481048 -0.0083405134256450096 0 -0.0011618020317418791 -0.0093779905296172486 0 -0.00037648831719167203 -0.0084943095199785049 0 0.00014177794412490697 -0.0093721710147595238 0 -0.0011618020317418791 -0.0093779905296172486 0 -0.0011283999175481048 -0.0083405134256450096 0 -0.0011618020317418791 -0.0093779905296172486 0 -0.0018989728694462252 -0.00829105552452555 0 0.00016051923556071641 -0.011176332609039394 0 -0.00010280477768318235 -0.010532732916219764 0 -0.0011283999175481048 -0.0083405134256450096 0 -0.0018989728694462252 -0.00829105552452555 0 -0.00149944439484756 -0.0075298218247139342 0 -0.0011283999175481048 -0.0083405134256450096 0 -0.00083385069798208274 -0.0080342855066993547 0 -0.00149944439484756 -0.0075298218247139342 0 -0.00083385069798208274 -0.0080342855066993547 0 -0.00032430959763162751 -0.0077816518635851926 0 -0.00149944439484756 -0.0075298218247139342 0 -0.00037648831719167203 -0.0084943095199785049 0 -0.0011283999175481048 -0.0083405134256450096 0 -0.00083385069798208274 -0.0080342855066993547 0 -0.00037648831719167203 -0.0084943095199785049 0 -0.00083385069798208274 -0.0080342855066993547 0 -0.00032430959763162751 -0.0077816518635851926 0 -0.00040292544335607011 -0.0082675787714880968 0 7.274433098734759e-05 -0.0082669753539489233 0 -0.00037648831719167203 -0.0084943095199785049 0 -0.00032430959763162751 -0.0077816518635851926 0 0.00087328182638216794 -0.0080250873976829527 0 0.00087328182638216794 -0.0080250873976829527 0 0.00014177794412490697 -0.0093721710147595238 0 0.0013441873687696933 -0.0094148096090657749 0 -0.00037648831719167203 -0.0084943095199785049 0 0.00087328182638216794 -0.0080250873976829527 0 0.00014177794412490697 -0.0093721710147595238 0 0.00014177794412490697 -0.0093721710147595238 0 0.00065220089763697161 -0.010374277844872397 0 -0.00037838905537132105 -0.010522436008957744 0 0.00014177794412490697 -0.0093721710147595238 0 0.0013441873687696933 -0.0094148096090657749 0 0.00065220089763697161 -0.010374277844872397 0 0.00060179595054897527 -0.011639288402818998 0 0.00065220089763697161 -0.010374277844872397 0 0.0015957506537713846 -0.010645220484544743 0 0.0013441873687696933 -0.0094148096090657749 0 0.00065220089763697161 -0.010374277844872397 0 0.0015957506537713846 -0.010645220484544743 0 0.00060179595054897527 -0.011639288402818998 0 0.00065220089763697161 -0.010374277844872397 0 -0.00037838905537132105 -0.010522436008957744 0 0.0012388361134608287 -0.013100992980225358 0 0.001227130010838687 -0.01306026392846662 0 0.0011740374043164149 -0.013085347334714966 0 0.001227130010838687 -0.01306026392846662 0 0.0011330725919212719 -0.01309529306952977 0 0.0011740374043164149 -0.013085347334714966 0 0.00052919691846690876 -0.011774473263300698 0 0.00016051923556071641 -0.011176332609039394 0 0.00014177794412490697 -0.0093721710147595238 0 -0.00037838905537132105 -0.010522436008957744 0 -0.0011618020317418791 -0.0093779905296172486 0 0.0011330725919212719 -0.01309529306952977 0 0.0011740374043164149 -0.013085347334714966 0 0.0011548390673212525 -0.013097397259103524 0 0.0011740374043164149 -0.013085347334714966 0 0.0011449878479676103 -0.01311503645143363 0 0.0011548390673212525 -0.013097397259103524 0 0.0011449878479676103 -0.01311503645143363 0 0.0011548390673212525 -0.013097397259103524 0 0.0011346741841360105 -0.013115127444277747 0 0.0011821653007117565 -0.013108503748074395 0 0.0011548390673212525 -0.013097397259103524 0 0.0011346741841360105 -0.013115127444277747 0 0.0011821653007117565 -0.013108503748074395 0 0.0011548390673212525 -0.013097397259103524 0 0.0011572414190420461 -0.013156163559240153 0 0.0011330725919212719 -0.01309529306952977 0 0.0011548390673212525 -0.013097397259103524 0 0.0011572414190420461 -0.013156163559240153 0 0.0009085493358981122 -0.013768327222671963 0 0.00084664334860117907 -0.013279771722645772 0 0.001090767805999638 -0.013103786276211176 0 0.001105507087266089 -0.0131269830892825 0 0.0011051293529882916 -0.01311082400657745 0 0.001105507087266089 -0.0131269830892825 0 0.0011346741841360105 -0.013115127444277747 0 0.0011051293529882916 -0.01311082400657745 0 0.0011346741841360105 -0.013115127444277747 0 0.0011210139637552225 -0.013098268434319304 0 0.0011051293529882916 -0.01311082400657745 0 0.0011821653007117565 -0.013108503748074395 0 0.0011346741841360105 -0.013115127444277747 0 0.0011210139637552225 -0.013098268434319304 0 0.0012160950425885932 -0.013393049441837794 0 0.0011958716011003052 -0.013458840692755341 0 0.00096071814748540719 -0.013708394881976454 0 0.0011958716011003052 -0.013458840692755341 0 0.0010916212043348924 -0.013101965975560313 0 0.0011210139637552225 -0.013098268434319304 0 0.0011051293529882916 -0.01311082400657745 0 0.0015910520161368511 -0.013047640176494416 0 0.0013935873533984689 -0.01307066774128251 0 0.0014809893601912016 -0.013234678667393978 0 0.00096071814748540719 -0.013708394881976454 0 0.0011420523734161441 -0.013608357355012693 0 0.0011821653007117565 -0.013108503748074395 0 0.0013935873533984689 -0.01307066774128251 0 0.0012903543340162511 -0.013186428413520966 0 0.0014809893601912016 -0.013234678667393978 0 0.0012903543340162511 -0.013186428413520966 0 0.0013548448793731596 -0.013295554382274937 0 0.0013935873533984689 -0.01307066774128251 0 0.0014809893601912016 -0.013234678667393978 0 0.0012903543340162511 -0.013186428413520966 0 0.0014809893601912016 -0.013234678667393978 0 0.0013548448793731596 -0.013295554382274937 0 0.0013552304406911819 -0.013456094103627079 0 0.0012903543340162511 -0.013186428413520966 0 0.0013548448793731596 -0.013295554382274937 0 0.0012458672646721565 -0.01327197735434069 0 0.0013193328423482707 -0.013368480811350288 0 0.0013548448793731596 -0.013295554382274937 0 0.0012458672646721565 -0.01327197735434069 0 0.0013193328423482707 -0.013368480811350288 0 0.0013548448793731596 -0.013295554382274937 0 0.0013552304406911819 -0.013456094103627079 0 0.0011420523734161441 -0.013608357355012693 0 0.0012070458464422823 -0.013550857169664293 0 0.00077358072012000882 -0.014075901310745216 0 0.0010964169590992939 -0.014098739989091575 0 0.00098527033902593504 -0.013649765622226593 0 0.0010964169590992939 -0.014098739989091575 0 0.00098527033902593504 -0.013649765622226593 0 0.0013552304406911819 -0.013456094103627079 0 0.0011330725919212719 -0.01309529306952977 0 0.0011572414190420461 -0.013156163559240153 0 0.0011084681166462496 -0.01322393838379762 0 0.0011821653007117565 -0.013108503748074395 0 0.0012903543340162511 -0.013186428413520966 0 0.0011572414190420461 -0.013156163559240153 0 0.0012903543340162511 -0.013186428413520966 0 0.0011572414190420461 -0.013156163559240153 0 0.0012458672646721565 -0.01327197735434069 0 0.0012458672646721565 -0.01327197735434069 0 0.0011084681166462496 -0.01322393838379762 0 0.0012162745324980778 -0.013424924336344981 0 0.0013193328423482707 -0.013368480811350288 0 0.0012458672646721565 -0.01327197735434069 0 0.0012852737476617216 -0.013374724128734862 0 -0.00010280477768318235 -0.010532732916219764 0 -0.00028211115076202817 -0.0096094819677642225 0 0.0011572414190420461 -0.013156163559240153 0 0.0012458672646721565 -0.01327197735434069 0 0.0011084681166462496 -0.01322393838379762 0 -0.00028211115076202817 -0.0096094819677642225 0 -0.00093880909143544372 -0.0085442034764941725 0 -0.0012718480646639958 -0.0074566887759753338 0 -0.0010363867228931427 -0.0073259914776909281 0 -0.00088964809597059241 -0.007552698984760629 0 -0.0018989728694462252 -0.00829105552452555 0 -0.0026235230251367243 -0.0072674257723302433 0 -0.00149944439484756 -0.0075298218247139342 0 -0.00028211115076202817 -0.0096094819677642225 0 0.00022766342760071649 -0.010000013996979083 0 0.0012458672646721565 -0.01327197735434069 0 0.0012852737476617216 -0.013374724128734862 0 0.0012162745324980778 -0.013424924336344981 0 0.0012852737476617216 -0.013374724128734862 0 0.0012162745324980778 -0.013424924336344981 0 0.0013384570245727489 -0.013419503246821779 0 -0.00027534898916505419 -0.0098348917075387829 0 -0.00025218387455673373 -0.009866469831518572 0 -0.00021983414367531074 -0.0098481132974976085 0 -0.0012718480646639958 -0.0074566887759753338 0 -0.0014118844493833851 -0.0072641906213631365 0 -0.0010363867228931427 -0.0073259914776909281 0 -0.00039965612720014226 -0.009581008591278941 0 -0.00043408110120838635 -0.0083882868830195568 0 -0.0012846063612067412 -0.0072295415788864795 0 -0.0010113931094162011 -0.0070631311142637021 0 -0.0012281675170347727 -0.0070081196093177188 0 -0.00028211115076202817 -0.0096094819677642225 0 -0.00039965612720014226 -0.009581008591278941 0 -0.0014118844493833851 -0.0072641906213631365 0 -0.0010363867228931427 -0.0073259914776909281 0 -0.0011136274813101784 -0.0070811578529562892 0 -0.0010363867228931427 -0.0073259914776909281 0 -0.0011136274813101784 -0.0070811578529562892 0 -0.00087092697744023178 -0.0071504005241239833 0 0.00098527033902593504 -0.013649765622226593 0 0.0011709712738158799 -0.013425303285416013 0 0.0013552304406911819 -0.013456094103627079 0 0.00088008519925159153 -0.013389772279237945 0 0.0011709712738158799 -0.013425303285416013 0 0.0010677407383152149 -0.013204525942964273 0 0.00088008519925159153 -0.013389772279237945 0 0.00098527033902593504 -0.013649765622226593 0 0.0011709712738158799 -0.013425303285416013 0 0.0011709712738158799 -0.013425303285416013 0 0.0013407088055292793 -0.01338032178718632 0 0.0010677407383152149 -0.013204525942964273 0 0.0012162745324980778 -0.013424924336344981 0 0.0013455046556610254 -0.01340691530454036 0 0.0013384570245727489 -0.013419503246821779 0 0.0011709712738158799 -0.013425303285416013 0 0.0012826391090191369 -0.013421395528982883 0 0.0013407088055292793 -0.01338032178718632 0 0.0012826391090191369 -0.013421395528982883 0 0.0013407088055292793 -0.01338032178718632 0 0.0013384570245727489 -0.013419503246821779 0 0.0013407088055292793 -0.01338032178718632 0 0.0013455046556610254 -0.01340691530454036 0 0.0013384570245727489 -0.013419503246821779 0 0.00022550581866848048 -0.010010283699463498 0 0.00022766342760071649 -0.010000013996979083 0 0.0011709712738158799 -0.013425303285416013 0 0.0012826391090191369 -0.013421395528982883 0 0.0013552304406911819 -0.013456094103627079 0 0.0012826391090191369 -0.013421395528982883 0 0.0013552304406911819 -0.013456094103627079 0 0.0013384570245727489 -0.013419503246821779 0 0.0013193328423482707 -0.013368480811350288 0 0.0013552304406911819 -0.013456094103627079 0 0.0013384570245727489 -0.013419503246821779 0 0.0013193328423482707 -0.013368480811350288 0 0.0012852737476617216 -0.013374724128734862 0 0.0013384570245727489 -0.013419503246821779 0 0.0013407088055292793 -0.01338032178718632 0 0.0013809834281939912 -0.013361578622555664 0 0.0010677407383152149 -0.013204525942964273 0 -0.00039965612720014226 -0.009581008591278941 0 0.00022766342760071649 -0.010000013996979083 0 0.0017488450730216954 -0.013112517465554439 0 0.0014639767132039732 -0.013282375352192215 0 0.0014901264125222488 -0.013094763998328176 0 0.0017488450730216954 -0.013112517465554439 0 0.0014901264125222488 -0.013094763998328176 0 0.0014186694191229434 -0.012903126147977112 0 0.0017488450730216954 -0.013112517465554439 0 0.0014186694191229434 -0.012903126147977112 0 0.0014822728349562324 -0.012739116804307209 0 -0.00039965612720014226 -0.009581008591278941 0 -0.00032820660427431992 -0.0096770109358411752 0 0.0014901264125222488 -0.013094763998328176 0 0.0014186694191229434 -0.012903126147977112 0 0.0013287695290799787 -0.013079359357359644 0 0.0014639767132039732 -0.013282375352192215 0 0.0014901264125222488 -0.013094763998328176 0 0.0013287695290799787 -0.013079359357359644 0 0.00071076352794204902 -0.012815946580888487 0 0.0011346011569139556 -0.012940142141290661 0 0.0010677407383152149 -0.013204525942964273 0 0.0014639767132039732 -0.013282375352192215 0 0.0013287695290799787 -0.013079359357359644 0 0.0010677407383152149 -0.013204525942964273 0 0.00022766342760071649 -0.010000013996979083 0 0.00071034592040769996 -0.010429476766235008 0 0.0013287695290799787 -0.013079359357359644 0 0.0011346011569139556 -0.012940142141290661 0 0.0010677407383152149 -0.013204525942964273 0 0.0014186694191229434 -0.012903126147977112 0 0.0013287695290799787 -0.013079359357359644 0 0.0011346011569139556 -0.012940142141290661 0 5.5303229938806523e-05 -0.012322394399372657 0 -0.0001310432856220403 -0.01058828543152242 0 0.00071076352794204902 -0.012815946580888487 0 0.0011410123864324241 -0.012696420219798813 0 0.0012078719563756773 -0.012350790405126575 0 0.00071076352794204902 -0.012815946580888487 0 0.0011346011569139556 -0.012940142141290661 0 0.0011410123864324241 -0.012696420219798813 0 0.00010250065811208882 -0.012671403451906538 0 0.00017854706528846787 -0.012367790807917641 0 0.00047997686690540848 -0.012320681128733035 0 0.0014186694191229434 -0.012903126147977112 0 0.0011346011569139556 -0.012940142141290661 0 0.0011410123864324241 -0.012696420219798813 0 0.0011410123864324241 -0.012696420219798813 0 0.0014850232015167358 -0.012736818594607884 0 0.0012078719563756773 -0.012350790405126575 0 -0.00032820660427431992 -0.0096770109358411752 0 -0.00040281253628910715 -0.0083239632946945537 0 -0.0014522323264102757 -0.0069968164775043931 0 -0.001343867593340043 -0.0067217799360998424 0 -0.0012281675170347727 -0.0070081196093177188 0 -0.00032820660427431992 -0.0096770109358411752 0 -0.0001310432856220403 -0.01058828543152242 0 0.0014186694191229434 -0.012903126147977112 0 0.0011410123864324241 -0.012696420219798813 0 0.0014850232015167358 -0.012736818594607884 0 -0.00034124912442799982 -0.0098621407006532057 0 -0.00032820660427431992 -0.0096770109358411752 0 -0.00033248043209380173 -0.007609961345937678 0 -0.0001310432856220403 -0.01058828543152242 0 -0.00018973458880380278 -0.0084969198203459044 0 -0.00030040278914625644 -0.0091367216404561972 0 -0.00097895372890920368 -0.0092263219681935713 0 -0.00056599513690285322 -0.0097989461370438392 0 -0.00030040278914625644 -0.0091367216404561972 0 -0.00097895372890920368 -0.0092263219681935713 0 0.00031560351670089628 -0.012093645835132038 0 0.00017854706528846787 -0.012367790807917641 0 0.00047997686690540848 -0.012320681128733035 0 -0.00054018597648994348 -0.0090580051732169851 0 -0.0010623025122721004 -0.0092579402035975946 0 -0.00070748803577273323 -0.009749307711491061 0 -6.4306692233279206e-05 -0.011521253878045184 0 -0.0001310432856220403 -0.01058828543152242 0 -0.00043408110120838635 -0.0083882868830195568 0 -0.00038513240198407726 -0.0077753399856901944 0 -0.0010113931094162011 -0.0070631311142637021 0 -0.00091897705043541308 -0.0068258577701244055 0 -0.00074154496245115362 -0.0068956761928879746 0 -0.0010113931094162011 -0.0070631311142637021 0 -0.0011178164265204086 -0.0068250775483425829 0 -0.00091897705043541308 -0.0068258577701244055 0 -0.0010113931094162011 -0.0070631311142637021 0 -0.0012281675170347727 -0.0070081196093177188 0 -0.0011178164265204086 -0.0068250775483425829 0 -0.001343867593340043 -0.0067217799360998424 0 -0.0012281675170347727 -0.0070081196093177188 0 -0.0011178164265204086 -0.0068250775483425829 0 -0.0012846063612067412 -0.0072295415788864795 0 -0.0014522323264102757 -0.0069968164775043931 0 -0.0012281675170347727 -0.0070081196093177188 0 -0.001343867593340043 -0.0067217799360998424 0 -0.0011178164265204086 -0.0068250775483425829 0 -0.0011793554477958763 -0.0066575330422572361 0 -0.0012354683402168577 -0.006450132546978125 0 -0.001343867593340043 -0.0067217799360998424 0 -0.0011793554477958763 -0.0066575330422572361 0 -0.0011178164265204086 -0.0068250775483425829 0 -0.0011793554477958763 -0.0066575330422572361 0 -0.0010074838733252988 -0.0066312284007270525 0 -0.0010074838733252988 -0.0066312284007270525 0 -0.00091897705043541308 -0.0068258577701244055 0 -0.0006818544185749545 -0.0066269517703442995 0 -0.0011178164265204086 -0.0068250775483425829 0 -0.0010074838733252988 -0.0066312284007270525 0 -0.00091897705043541308 -0.0068258577701244055 0 -0.0006818544185749545 -0.0066269517703442995 0 -0.00047721875402474706 -0.0067291963567026932 0 -0.00074154496245115362 -0.0068956761928879746 0 -0.00091897705043541308 -0.0068258577701244055 0 -0.0006818544185749545 -0.0066269517703442995 0 -0.00074154496245115362 -0.0068956761928879746 0 -0.00038399318586749306 -0.0065589554181645429 0 -0.0006818544185749545 -0.0066269517703442995 0 -0.00047721875402474706 -0.0067291963567026932 0 -0.0003246151172117537 -0.0075668584075480353 0 -0.00038513240198407726 -0.0077753399856901944 0 -0.00047721875402474706 -0.0067291963567026932 0 -0.00079322740163016248 -0.0068981638621783909 0 -0.00032809431004745258 -0.0071315901936423584 0 -0.0011136274813101784 -0.0070811578529562892 0 -0.00079322740163016248 -0.0068981638621783909 0 -0.00087092697744023178 -0.0071504005241239833 0 -0.00079322740163016248 -0.0068981638621783909 0 -0.00087092697744023178 -0.0071504005241239833 0 -0.00063251534024749961 -0.0072950605630864489 0 -0.0010363867228931427 -0.0073259914776909281 0 -0.00087092697744023178 -0.0071504005241239833 0 -0.00063251534024749961 -0.0072950605630864489 0 -0.00079322740163016248 -0.0068981638621783909 0 -0.00063251534024749961 -0.0072950605630864489 0 -0.00032809431004745258 -0.0071315901936423584 0 -0.00063251534024749961 -0.0072950605630864489 0 -0.00048649219713870991 -0.007625493087246144 0 -0.00032809431004745258 -0.0071315901936423584 0 -0.00040292544335607011 -0.0082675787714880968 0 -0.00093880909143544372 -0.0085442034764941725 0 -0.00030186499835097572 -0.0070810698973273328 0 -0.00010081919666420614 -0.0065493787569285986 0 -0.00040029916194097784 -0.0076744287417227055 0 -0.00048649219713870991 -0.007625493087246144 0 -0.00088964809597059241 -0.007552698984760629 0 -0.00063251534024749961 -0.0072950605630864489 0 -0.00048649219713870991 -0.007625493087246144 0 -0.00088964809597059241 -0.007552698984760629 0 -0.0010363867228931427 -0.0073259914776909281 0 -0.00063251534024749961 -0.0072950605630864489 0 -0.00088964809597059241 -0.007552698984760629 0 0.00087328182638216794 -0.0080250873976829527 0 0.00036942543359340943 -0.0070490654505040752 0 0.0014770187768898271 -0.0067694515476629941 0 -0.00040029916194097784 -0.0076744287417227055 0 0.00087328182638216794 -0.0080250873976829527 0 0.00036942543359340943 -0.0070490654505040752 0 -0.00048649219713870991 -0.007625493087246144 0 0.00036942543359340943 -0.0070490654505040752 0 -6.6767377229609752e-05 -0.006102728612487369 0 -0.00040029916194097784 -0.0076744287417227055 0 -0.00048649219713870991 -0.007625493087246144 0 0.00036942543359340943 -0.0070490654505040752 0 0.00036942543359340943 -0.0070490654505040752 0 -6.6767377229609752e-05 -0.006102728612487369 0 0.00085954965510135037 -0.0061128795683028968 0 0.00036942543359340943 -0.0070490654505040752 0 0.00085954965510135037 -0.0061128795683028968 0 0.0014770187768898271 -0.0067694515476629941 0 0.00085954965510135037 -0.0061128795683028968 0 0.0015612716611078244 -0.0054916899606921874 0 0.0014770187768898271 -0.0067694515476629941 0 0.00085954965510135037 -0.0061128795683028968 0 0.00045085278419301007 -0.0045389066464268848 0 0.0015612716611078244 -0.0054916899606921874 0 -0.00047721875402474706 -0.0067291963567026932 0 -0.00032809431004745258 -0.0071315901936423584 0 -0.00016521697371457315 -0.006676009696463538 0 -6.6767377229609752e-05 -0.006102728612487369 0 0.00085954965510135037 -0.0061128795683028968 0 0.00045085278419301007 -0.0045389066464268848 0 -0.00010081919666420614 -0.0065493787569285986 0 0.00029550324534312447 -0.0056297921005592196 0 -0.00038399318586749306 -0.0065589554181645429 0 -0.00047721875402474706 -0.0067291963567026932 0 -0.00016521697371457315 -0.006676009696463538 0 0.00045085278419301007 -0.0045389066464268848 0 0.0017192241623372219 -0.0045270447971485555 0 0.0015612716611078244 -0.0054916899606921874 0 0.0014585220720153473 -0.0037621284719690164 0 0.00045085278419301007 -0.0045389066464268848 0 0.0017192241623372219 -0.0045270447971485555 0 0.0017192241623372219 -0.0045270447971485555 0 0.002427611553602597 -0.0043988248983844744 0 0.002391450213007431 -0.0052857126322767315 0 0.0020682483946584088 -0.0037381335994374604 0 0.0017192241623372219 -0.0045270447971485555 0 0.002427611553602597 -0.0043988248983844744 0 0.0030226476267457424 -0.003802321280459142 0 0.002427611553602597 -0.0043988248983844744 0 0.0031408163243444136 -0.0048902311265563003 0 0.002427611553602597 -0.0043988248983844744 0 0.002391450213007431 -0.0052857126322767315 0 0.0031408163243444136 -0.0048902311265563003 0 0.002391450213007431 -0.0052857126322767315 0 0.0030124259157903923 -0.0057871425737182746 0 0.0031408163243444136 -0.0048902311265563003 0 0.002391450213007431 -0.0052857126322767315 0 0.0030124259157903923 -0.0057871425737182746 0 0.0024600498021275243 -0.0064768606923893916 0 0.0017192241623372219 -0.0045270447971485555 0 0.002391450213007431 -0.0052857126322767315 0 0.0015612716611078244 -0.0054916899606921874 0 0.002391450213007431 -0.0052857126322767315 0 0.0015612716611078244 -0.0054916899606921874 0 0.0024600498021275243 -0.0064768606923893916 0 0.0030226476267457424 -0.003802321280459142 0 0.0040782138015178849 -0.0044309062362655775 0 0.0031408163243444136 -0.0048902311265563003 0 0.0040782138015178849 -0.0044309062362655775 0 0.0031408163243444136 -0.0048902311265563003 0 0.0039046228502110083 -0.0056123717406811558 0 0.0030124259157903923 -0.0057871425737182746 0 0.0031408163243444136 -0.0048902311265563003 0 0.0039046228502110083 -0.0056123717406811558 0 0.0039046228502110083 -0.0056123717406811558 0 0.0047204529204767191 -0.0060384898066189159 0 0.0049907216918528546 -0.0052553787056829329 0 0.0040782138015178849 -0.0044309062362655775 0 0.0039046228502110083 -0.0056123717406811558 0 0.0049907216918528546 -0.0052553787056829329 0 0.0036869019424489542 -0.0068758124384360802 0 0.0050600119307902388 -0.0069356567702279024 0 0.0047204529204767191 -0.0060384898066189159 0 0.0039046228502110083 -0.0056123717406811558 0 0.0036869019424489542 -0.0068758124384360802 0 0.0047204529204767191 -0.0060384898066189159 0 0.0030124259157903923 -0.0057871425737182746 0 0.0039046228502110083 -0.0056123717406811558 0 0.0036869019424489542 -0.0068758124384360802 0 0.0030124259157903923 -0.0057871425737182746 0 0.0036869019424489542 -0.0068758124384360802 0 0.0024600498021275243 -0.0064768606923893916 0 0.0036869019424489542 -0.0068758124384360802 0 0.0025159712587338573 -0.0074720420508339524 0 0.0034214884629731632 -0.0078303367727688943 0 0.0036869019424489542 -0.0068758124384360802 0 0.0046692363054209171 -0.0078627987090709051 0 0.0050600119307902388 -0.0069356567702279024 0 0.0036869019424489542 -0.0068758124384360802 0 0.0034214884629731632 -0.0078303367727688943 0 0.0046692363054209171 -0.0078627987090709051 0 0.00087328182638216794 -0.0080250873976829527 0 0.0014770187768898271 -0.0067694515476629941 0 0.0025159712587338573 -0.0074720420508339524 0 0.0015612716611078244 -0.0054916899606921874 0 0.0014770187768898271 -0.0067694515476629941 0 0.0024600498021275243 -0.0064768606923893916 0 0.0036869019424489542 -0.0068758124384360802 0 0.0024600498021275243 -0.0064768606923893916 0 0.0025159712587338573 -0.0074720420508339524 0 0.0014770187768898271 -0.0067694515476629941 0 0.0024600498021275243 -0.0064768606923893916 0 0.0025159712587338573 -0.0074720420508339524 0 0.00087328182638216794 -0.0080250873976829527 0 0.0025159712587338573 -0.0074720420508339524 0 0.0022797898249786951 -0.0085934757780704151 0 0.00087328182638216794 -0.0080250873976829527 0 0.0013441873687696933 -0.0094148096090657749 0 0.0022797898249786951 -0.0085934757780704151 0 0.0013441873687696933 -0.0094148096090657749 0 0.0022797898249786951 -0.0085934757780704151 0 0.0026080574209995195 -0.0097117339657839929 0 0.0022797898249786951 -0.0085934757780704151 0 0.0036431826740941039 -0.0087798394281011927 0 0.0026080574209995195 -0.0097117339657839929 0 0.0025159712587338573 -0.0074720420508339524 0 0.0022797898249786951 -0.0085934757780704151 0 0.0034214884629731632 -0.0078303367727688943 0 0.0022797898249786951 -0.0085934757780704151 0 0.0034214884629731632 -0.0078303367727688943 0 0.0036431826740941039 -0.0087798394281011927 0 0.0035431540125791926 -0.0089200186293797532 0 0.0040637723351652586 -0.0084507559347488416 0 0.0034214884629731632 -0.0078303367727688943 0 0.0036431826740941039 -0.0087798394281011927 0 0.0046692363054209171 -0.0078627987090709051 0 0.0045425456897943105 -0.0092345015455257504 0 0.0035997638817345193 -0.0088467550914539863 0 0.0046692363054209171 -0.0078627987090709051 0 0.0035431540125791926 -0.0089200186293797532 0 0.0026290219462682392 -0.009753340183523012 0 0.0035997638817345193 -0.0088467550914539863 0 0.0037108269085445816 -0.0099508189716102282 0 0.0026171251717219705 -0.0098159788559086646 0 0.0045425456897943105 -0.0092345015455257504 0 0.0037108269085445816 -0.0099508189716102282 0 0.0050802078284612464 -0.010334873068502075 0 0.0045425456897943105 -0.0092345015455257504 0 0.0035997638817345193 -0.0088467550914539863 0 0.0037108269085445816 -0.0099508189716102282 0 0.0037108269085445816 -0.0099508189716102282 0 0.0050802078284612464 -0.010334873068502075 0 0.0039988303720503889 -0.010964333568319346 0 0.0037108269085445816 -0.0099508189716102282 0 0.0028286829402905979 -0.011157277241338064 0 0.0039988303720503889 -0.010964333568319346 0 0.0037108269085445816 -0.0099508189716102282 0 0.0026171251717219705 -0.0098159788559086646 0 0.0028286829402905979 -0.011157277241338064 0 0.0016879033353725918 -0.010738196438544062 0 0.0026171251717219705 -0.0098159788559086646 0 0.0028286829402905979 -0.011157277241338064 0 0.0017136749300917528 -0.010589029508678245 0 0.0026290219462682392 -0.009753340183523012 0 0.0013441873687696933 -0.0094148096090657749 0 0.0015957506537713846 -0.010645220484544743 0 0.0026080574209995195 -0.0097117339657839929 0 0.0064556739628755487 -0.0095827250765194907 0 0.0066125530610724606 -0.010421922303862931 0 0.0059921957956352865 -0.010137701755484242 0 0.0064556739628755487 -0.0095827250765194907 0 0.0073385530962994227 -0.0095621505760319758 0 0.0066125530610724606 -0.010421922303862931 0 0.0039534581852492187 -0.0063881930373829738 0 0.0041806349364579224 -0.0072762074295494887 0 0.007237206749213093 -0.0095838893587503905 0 0.0071237764645320769 -0.0098447137983381193 0 0.0066125530610724606 -0.010421922303862931 0 0.0026147179758026192 -0.0054989366524401759 0 0.0026911462636941656 -0.0053995064493527669 0 0.0028129163522405184 -0.005574024474434309 0 0.0039534581852492187 -0.0063881930373829738 0 0.0035460104849582758 -0.0049746135794055566 0 0.0032736688489306168 -0.0048309919431941996 0 0.0034123312082599325 -0.004652635889543422 0 0.003328122893906786 -0.0046371610517743043 0 0.0026147179758026192 -0.0054989366524401759 0 0.0026125844741194068 -0.0056511577571717615 0 0.0028129163522405184 -0.005574024474434309 0 0.007237206749213093 -0.0095838893587503905 0 0.0071237764645320769 -0.0098447137983381193 0 0.007237205662423714 -0.01004800196941355 0 0.0039534581852492187 -0.0063881930373829738 0 0.0041580522833757532 -0.0076010057563453215 0 0.0042294238753577424 -0.0077007305024240349 0 0.0041580522833757532 -0.0076010057563453215 0 0.0072426575394933679 -0.010053497110521337 0 0.0066125530610724606 -0.010421922303862931 0 0.007226534210907281 -0.011431330951332764 0 0.003798587445089101 -0.0081904967115454894 0 0.0040332479004896908 -0.0086171570329470221 0 0.0037906737065725943 -0.0088044437037344096 0 0.0071237764645320769 -0.0098447137983381193 0 0.0072426575394933679 -0.010053497110521337 0 0.0066125530610724606 -0.010421922303862931 0 0.0026125844741194068 -0.0056511577571717615 0 0.0028129163522405184 -0.005574024474434309 0 0.00278325708382936 -0.0059656484276151989 0 0.0041580522833757532 -0.0076010057563453215 0 0.0036981103009396435 -0.0074415630775251521 0 0.0041580522833757532 -0.0076010057563453215 0 0.0045906341021329884 -0.0098804319555688691 0 0.0066125530610724606 -0.010421922303862931 0 0.0059921957956352865 -0.010137701755484242 0 0.0061895207673321297 -0.011145493370505516 0 0.0059921957956352865 -0.010137701755484242 0 0.0050802078284612464 -0.010334873068502075 0 0.0061895207673321297 -0.011145493370505516 0 0.0045425456897943105 -0.0092345015455257504 0 0.0050802078284612464 -0.010334873068502075 0 0.0056475113510898473 -0.0091266934909125397 0 0.0059921957956352865 -0.010137701755484242 0 0.0050802078284612464 -0.010334873068502075 0 0.0056475113510898473 -0.0091266934909125397 0 0.0064556739628755487 -0.0095827250765194907 0 0.0059921957956352865 -0.010137701755484242 0 0.0056475113510898473 -0.0091266934909125397 0 0.0064556739628755487 -0.0095827250765194907 0 0.0056475113510898473 -0.0091266934909125397 0 0.0065384488321035671 -0.0085466001909017923 0 0.0056475113510898473 -0.0091266934909125397 0 0.005804430632183828 -0.0077576546023579475 0 0.0065384488321035671 -0.0085466001909017923 0 0.0045425456897943105 -0.0092345015455257504 0 0.0056475113510898473 -0.0091266934909125397 0 0.0046692363054209171 -0.0078627987090709051 0 0.0056475113510898473 -0.0091266934909125397 0 0.0046692363054209171 -0.0078627987090709051 0 0.005804430632183828 -0.0077576546023579475 0 0.005804430632183828 -0.0077576546023579475 0 0.0065384488321035671 -0.0085466001909017923 0 0.0065974702575427374 -0.0072672078606213966 0 0.0065384488321035671 -0.0085466001909017923 0 0.0073885554884205486 -0.0079724145052812063 0 0.0065974702575427374 -0.0072672078606213966 0 0.0064556739628755487 -0.0095827250765194907 0 0.0073385530962994227 -0.0095621505760319758 0 0.0065384488321035671 -0.0085466001909017923 0 0.0073385530962994227 -0.0095621505760319758 0 0.0065384488321035671 -0.0085466001909017923 0 0.0073885554884205486 -0.0079724145052812063 0 0.0032736688489306168 -0.0048309919431941996 0 0.003328122893906786 -0.0046371610517743043 0 0.003281059207905663 -0.0039496145396271387 0 0.0039534581852492187 -0.0063881930373829738 0 0.0041658325350973401 -0.0056545565996770682 0 0.003328122893906786 -0.0046371610517743043 0 0.003281059207905663 -0.0039496145396271387 0 0.0037346561688821429 -0.0042336252211302768 0 0.0034123033691608557 -0.0046523950072025694 0 0.003328122893906786 -0.0046371610517743043 0 0.0037346561688821429 -0.0042336252211302768 0 0.0035460104849582758 -0.0049746135794055566 0 0.0035428745174651442 -0.0049730149266300015 0 0.003281059207905663 -0.0039496145396271387 0 0.0036707855387128905 -0.0034472771489638034 0 0.0036850883004834341 -0.0038618513031531982 0 0.003281059207905663 -0.0039496145396271387 0 0.0032893824360576539 -0.0030760477591897425 0 0.0036707855387128905 -0.0034472771489638034 0 0.0073885554884205486 -0.0079724145052812063 0 0.0065974702575427374 -0.0072672078606213966 0 0.0074167227101397237 -0.0063763770524054445 0 0.0041658325350973401 -0.0056545565996770682 0 0.0034265462717539786 -0.0032720574804680543 0 0.0065974702575427374 -0.0072672078606213966 0 0.0063786103567386281 -0.0063412550760492629 0 0.0059387463935912108 -0.0067979269070504939 0 0.0065974702575427374 -0.0072672078606213966 0 0.0063786103567386281 -0.0063412550760492629 0 0.0074167227101397237 -0.0063763770524054445 0 0.0063786103567386281 -0.0063412550760492629 0 0.0074167227101397237 -0.0063763770524054445 0 0.0063348012680530695 -0.0052925898958411169 0 0.00058588897863844558 0.00080898832293425189 0 0.00056086752838335914 0.00078875771063414957 0 0.00061564360626214306 0.00091279058045241174 0 0.003402085580894736 -0.0031310676369091552 0 0.0034265462717539786 -0.0032720574804680543 0 0.00058588897863844558 0.00080898832293425189 0 0.00067822919708985336 0.00082230190854888229 0 0.00073465795021312747 0.00071462663938760493 0 0.00058588897863844558 0.00080898832293425189 0 0.00058137414960365461 0.00070923511091605803 0 0.00073465795021312747 0.00071462663938760493 0 0.0034265462717539786 -0.0032720574804680543 0 0.0024849469461255378 -0.0022794599981455729 0 0.00058137414960365461 0.00070923511091605803 0 0.0007632572658443688 0.00050207994410435351 0 0.00073465795021312747 0.00071462663938760493 0 0.0046692363054209171 -0.0078627987090709051 0 0.005804430632183828 -0.0077576546023579475 0 0.0050600119307902388 -0.0069356567702279024 0 0.005804430632183828 -0.0077576546023579475 0 0.0050600119307902388 -0.0069356567702279024 0 0.0059387463935912108 -0.0067979269070504939 0 0.005804430632183828 -0.0077576546023579475 0 0.0065974702575427374 -0.0072672078606213966 0 0.0059387463935912108 -0.0067979269070504939 0 0.0050600119307902388 -0.0069356567702279024 0 0.0059387463935912108 -0.0067979269070504939 0 0.0056064873001784744 -0.0059736279548435814 0 0.0063786103567386281 -0.0063412550760492629 0 0.0059387463935912108 -0.0067979269070504939 0 0.0056064873001784744 -0.0059736279548435814 0 0.0050600119307902388 -0.0069356567702279024 0 0.0056064873001784744 -0.0059736279548435814 0 0.0047204529204767191 -0.0060384898066189159 0 0.0056064873001784744 -0.0059736279548435814 0 0.0047204529204767191 -0.0060384898066189159 0 0.0049907216918528546 -0.0052553787056829329 0 0.0056064873001784744 -0.0059736279548435814 0 0.0049907216918528546 -0.0052553787056829329 0 0.0063348012680530695 -0.0052925898958411169 0 0.0063786103567386281 -0.0063412550760492629 0 0.0056064873001784744 -0.0059736279548435814 0 0.0063348012680530695 -0.0052925898958411169 0 0.0052699738946460984 -0.0041794153254778206 0 0.0049907216918528546 -0.0052553787056829329 0 0.0063348012680530695 -0.0052925898958411169 0 0.0033256828788699078 -0.0020995496742501197 0 0.0034104779137105949 -0.0025245974804970614 0 0.0016678965305253375 0.00033769856183954954 0 0.00075859268643662487 0.00099817197092060082 0 0.00083057306921222171 0.00054583147343324366 0 0.0052699738946460984 -0.0041794153254778206 0 0.0040782138015178849 -0.0044309062362655775 0 0.0049907216918528546 -0.0052553787056829329 0 0.00063561027319116879 0.0008882489430947476 0 0.00061564360626214306 0.00091279058045241174 0 0.00047362015985796444 0.00091539907371109106 0 0.00063561027319116879 0.0008882489430947476 0 0.00062301983240949327 0.00086334755087296973 0 0.00061564360626214306 0.00091279058045241174 0 0.00058588897863844558 0.00080898832293425189 0 0.00067822919708985336 0.00082230190854888229 0 0.00062301983240949327 0.00086334755087296973 0 0.00063561027319116879 0.0008882489430947476 0 0.00067822919708985336 0.00082230190854888229 0 0.00062301983240949327 0.00086334755087296973 0 0.00058588897863844558 0.00080898832293425189 0 0.00062301983240949327 0.00086334755087296973 0 0.00061564360626214306 0.00091279058045241174 0 0.0034265462717539786 -0.0032720574804680543 0 0.0034104779137105949 -0.0025245974804970614 0 0.00075859268643662487 0.00099817197092060082 0 0.00061564360626214306 0.00091279058045241174 0 0.00047362015985796444 0.00091539907371109106 0 0.00056086752838335914 0.00078875771063414957 0 0.00075859268643662487 0.00099817197092060082 0 0.00061564360626214306 0.00091279058045241174 0 0.00075859268643662487 0.00099817197092060082 0 0.00083057306921222171 0.00054583147343324366 0 0.00047362015985796444 0.00091539907371109106 0 0.00063561027319116879 0.0008882489430947476 0 0.00047362015985796444 0.00091539907371109106 0 0.00082828871504598894 0.0012179434458448135 0 0.00063561027319116879 0.0008882489430947476 0 0.00082828871504598894 0.0012179434458448135 0 0.00097284910230716385 0.0010130486771862991 0 0.00063561027319116879 0.0008882489430947476 0 0.00084990571878858982 0.0008114162833835623 0 0.00097284910230716385 0.0010130486771862991 0 0.00063561027319116879 0.0008882489430947476 0 0.00067822919708985336 0.00082230190854888229 0 0.00084990571878858982 0.0008114162833835623 0 0.00097284910230716385 0.0010130486771862991 0 0.0012445900242334981 0.00097463017362863695 0 0.0011174521635602304 0.0007119868204373814 0 0.00084990571878858982 0.0008114162833835623 0 0.00097284910230716385 0.0010130486771862991 0 0.0011174521635602304 0.0007119868204373814 0 0.0012445900242334981 0.00097463017362863695 0 0.0013317679559911998 0.00078164133612099423 0 0.0011174521635602304 0.0007119868204373814 0 0.00097284910230716385 0.0010130486771862991 0 0.0011586403444690256 0.001242998274703929 0 0.0012445900242334981 0.00097463017362863695 0 0.00082828871504598894 0.0012179434458448135 0 0.00097284910230716385 0.0010130486771862991 0 0.0011586403444690256 0.001242998274703929 0 0.0011586403444690256 0.001242998274703929 0 0.0014669210635826497 0.001167334129412253 0 0.0012445900242334981 0.00097463017362863695 0 0.0014669210635826497 0.001167334129412253 0 0.0016635422029882109 0.00094029376707862916 0 0.0014267231736716534 0.000965108526907498 0 0.0014669210635826497 0.001167334129412253 0 0.0012445900242334981 0.00097463017362863695 0 0.0014267231736716534 0.000965108526907498 0 0.0014669210635826497 0.001167334129412253 0 0.0016635422029882109 0.00094029376707862916 0 0.0018690002724143315 0.0012895762919847224 0 0.0016635422029882109 0.00094029376707862916 0 0.0018690002724143315 0.0012895762919847224 0 0.0018456253295270507 0.00073023956882118702 0 0.0016635422029882109 0.00094029376707862916 0 0.0014909127739475907 0.00057737569592153913 0 0.0018456253295270507 0.00073023956882118702 0 0.0019940964679839852 0.00025066930695416106 0 0.0019702131061648605 -0.00012024826543475345 0 0.0016635422029882109 0.00094029376707862916 0 0.0013317679559911998 0.00078164133612099423 0 0.0013569658793653964 0.00056442839703746027 0 0.0016635422029882109 0.00094029376707862916 0 0.0014267231736716534 0.000965108526907498 0 0.0013317679559911998 0.00078164133612099423 0 0.0012445900242334981 0.00097463017362863695 0 0.0014267231736716534 0.000965108526907498 0 0.0013317679559911998 0.00078164133612099423 0 0.0016635422029882109 0.00094029376707862916 0 0.0014909127739475907 0.00057737569592153913 0 0.0013422109631886494 0.00053061561378431527 0 0.0013317679559911998 0.00078164133612099423 0 0.0013569658793653964 0.00056442839703746027 0 0.001231148165705467 0.0006247259972777734 0 0.0014909127739475907 0.00057737569592153913 0 0.0013422109631886494 0.00053061561378431527 0 0.0014786293750578493 0.00028293613352707722 0 0.0014505400848556285 0.001128082801054119 0 0.0015377592345713032 0.0017265413876923986 0 0.0014909127739475907 0.00057737569592153913 0 0.0018223463374125947 0.00017304587526660912 0 0.0018456253295270507 0.00073023956882118702 0 0.0016587142566187169 0.00074621398767631098 0 0.0014505400848556285 0.001128082801054119 0 0.0018684676788594187 0.00012006008614199192 0 0.0014786293750578493 0.00028293613352707722 0 0.0014673084865179859 7.7378208361868561e-05 0 0.0014909127739475907 0.00057737569592153913 0 0.0018684676788594187 0.00012006008614199192 0 0.0014786293750578493 0.00028293613352707722 0 0.0013422109631886494 0.00053061561378431527 0 0.0014786293750578493 0.00028293613352707722 0 0.0012769891245374533 6.3759146840835034e-05 0 0.0014786293750578493 0.00028293613352707722 0 0.0014673084865179859 7.7378208361868561e-05 0 0.0012769891245374533 6.3759146840835034e-05 0 0.001055829328727029 0.0001694244769044821 0 0.0011427493624049834 0.00051001680780143823 0 0.00095085680145219923 0.00048183323023094746 0 0.0020749308474471099 -0.0012164580812364979 0 0.0015559470703614975 -8.1792947012203823e-05 0 0.0013422109631886494 0.00053061561378431527 0 0.0012769891245374533 6.3759146840835034e-05 0 0.00099216545393440302 7.9457251181579776e-05 0 0.0010123565927448411 0.00038462705265085402 0 0.00090244705236953928 0.00048429371813695112 0 0.00092627894839542989 0.00062761929108286045 0 0.0019702131061648605 -0.00012024826543475345 0 0.0020749308474471099 -0.0012164580812364979 0 0.0013569658793653964 0.00056442839703746027 0 0.001055829328727029 0.0001694244769044821 0 0.0011427493624049834 0.00051001680780143823 0 0.0010123565927448411 0.00038462705265085402 0 0.00090244705236953928 0.00048429371813695112 0 0.00095259551662019973 0.00030835639240635771 0 0.0036707855387128905 -0.0034472771489638034 0 0.0036850883004834341 -0.0038618513031531982 0 0.0040531071566873595 -0.0038177792530992532 0 0.0024849469461255378 -0.0022794599981455729 0 0.0021817597044798678 -0.0020604235420548654 0 0.0007632572658443688 0.00050207994410435351 0 0.00090244705236953928 0.00048429371813695112 0 0.00095259551662019973 0.00030835639240635771 0 0.0007632572658443688 0.00050207994410435351 0 0.00090244705236953928 0.00048429371813695112 0 0.00092627894839542989 0.00062761929108286045 0 0.00084990571878858982 0.0008114162833835623 0 0.00073465795021312747 0.00071462663938760493 0 0.00092627894839542989 0.00062761929108286045 0 0.0014058895670311291 0.00023724880569115685 0 0.0015559470703614975 -8.1792947012203823e-05 0 0.0007632572658443688 0.00050207994410435351 0 0.00073465795021312747 0.00071462663938760493 0 0.00092627894839542989 0.00062761929108286045 0 0.00067822919708985336 0.00082230190854888229 0 0.00084990571878858982 0.0008114162833835623 0 0.00073465795021312747 0.00071462663938760493 0 0.00084990571878858982 0.0008114162833835623 0 0.0011174521635602304 0.0007119868204373814 0 0.00095085680145219923 0.00048183323023094746 0 0.001231148165705467 0.0006247259972777734 0 0.0011174521635602304 0.0007119868204373814 0 0.0011427493624049834 0.00051001680780143823 0 0.0013317679559911998 0.00078164133612099423 0 0.001231148165705467 0.0006247259972777734 0 0.0011174521635602304 0.0007119868204373814 0 0.0013569658793653964 0.00056442839703746027 0 0.001231148165705467 0.0006247259972777734 0 0.0011427493624049834 0.00051001680780143823 0 0.0011174521635602304 0.0007119868204373814 0 0.0011427493624049834 0.00051001680780143823 0 0.00095085680145219923 0.00048183323023094746 0 0.00080130341835324404 0.0028252686872657453 0 0.0010540325754822939 0.0028537207490650575 0 0.00098117668176809819 0.0025790106529604544 0 0.0010540325754822939 0.0028537207490650575 0 0.00098117668176809819 0.0025790106529604544 0 0.0011935779914873047 0.002712613294093683 0 0.00098117668176809819 0.0025790106529604544 0 0.0011700141205059297 0.0025227942403389606 0 0.0011935779914873047 0.002712613294093683 0 0.0010540325754822939 0.0028537207490650575 0 0.0011935779914873047 0.002712613294093683 0 0.0012236611593386176 0.0029530564835324262 0 0.0011935779914873047 0.002712613294093683 0 0.0014337281096569862 0.0028531119361240582 0 0.0012236611593386176 0.0029530564835324262 0 0.0011935779914873047 0.002712613294093683 0 0.0014337281096569862 0.0028531119361240582 0 0.0014329952516953859 0.0026049584427329554 0 0.0014337281096569862 0.0028531119361240582 0 0.0014329952516953859 0.0026049584427329554 0 0.0015495878369070448 0.0027028516700338301 0 0.0011912517433689766 0.0023589463789829676 0 0.0012675250705544089 0.0022613213698390935 0 0.0012080611362615267 0.0023942822132592685 0 0.0011700141205059297 0.0025227942403389606 0 0.0012531418295975772 0.0025566552280107953 0 0.0011700141205059297 0.0025227942403389606 0 0.0011935779914873047 0.002712613294093683 0 0.0012531418295975772 0.0025566552280107953 0 0.0014329952516953859 0.0026049584427329554 0 0.0016640209448172763 0.0024891246912443019 0 0.0015495878369070448 0.0027028516700338301 0 0.0016640209448172763 0.0024891246912443019 0 0.0015495878369070448 0.0027028516700338301 0 0.0016670536602835923 0.0028621045069711407 0 0.0012675250705544089 0.0022613213698390935 0 0.0014501585371407139 0.0019827688404713694 0 0.0014501585371407139 0.0019827688404713694 0 0.0015377592345713032 0.0017265413876923986 0 0.0014337281096569862 0.0028531119361240582 0 0.0015495878369070448 0.0027028516700338301 0 0.0016670536602835923 0.0028621045069711407 0 0.0014337281096569862 0.0028531119361240582 0 0.0016670536602835923 0.0028621045069711407 0 0.0015088210989418944 0.0030402132646082836 0 0.0016535490899739136 0.0031982136540150649 0 0.0016670536602835923 0.0028621045069711407 0 0.0015088210989418944 0.0030402132646082836 0 0.0016535490899739136 0.0031982136540150649 0 0.0015088210989418944 0.0030402132646082836 0 0.0013984131934016461 0.0032180904793227064 0 0.0013984131934016461 0.0032180904793227064 0 0.001352083733406716 0.0030619939766197406 0 0.0012173254519351417 0.0031652186226356757 0 0.0015088210989418944 0.0030402132646082836 0 0.0013984131934016461 0.0032180904793227064 0 0.001352083733406716 0.0030619939766197406 0 0.0014337281096569862 0.0028531119361240582 0 0.0015088210989418944 0.0030402132646082836 0 0.001352083733406716 0.0030619939766197406 0 0.0014337281096569862 0.0028531119361240582 0 0.001352083733406716 0.0030619939766197406 0 0.0012236611593386176 0.0029530564835324262 0 0.001352083733406716 0.0030619939766197406 0 0.0012236611593386176 0.0029530564835324262 0 0.0012173254519351417 0.0031652186226356757 0 0.0012236611593386176 0.0029530564835324262 0 0.0012173254519351417 0.0031652186226356757 0 0.0011229568497556025 0.0030437022692952919 0 0.0010540325754822939 0.0028537207490650575 0 0.0012236611593386176 0.0029530564835324262 0 0.0011229568497556025 0.0030437022692952919 0 0.0013984131934016461 0.0032180904793227064 0 0.0012173254519351417 0.0031652186226356757 0 0.0012668354370631602 0.003345292527425563 0 0.0012173254519351417 0.0031652186226356757 0 0.001094418724932924 0.0031724393848693499 0 0.0011229568497556025 0.0030437022692952919 0 0.0012173254519351417 0.0031652186226356757 0 0.001094418724932924 0.0031724393848693499 0 0.0011374083746162192 0.0032916924819494458 0 0.001094418724932924 0.0031724393848693499 0 0.00098561313262801923 0.0030380919324516746 0 0.0011229568497556025 0.0030437022692952919 0 0.00080130341835324404 0.0028252686872657453 0 0.0010540325754822939 0.0028537207490650575 0 0.00098561313262801923 0.0030380919324516746 0 0.0009406035667869399 0.0031531689264036673 0 0.001094418724932924 0.0031724393848693499 0 0.00098561313262801923 0.0030380919324516746 0 0.0010540325754822939 0.0028537207490650575 0 0.00098561313262801923 0.0030380919324516746 0 0.0011229568497556025 0.0030437022692952919 0 0.0010107877520807017 0.0033641676150969603 0 0.0011405379587294039 0.0034153867532132434 0 0.0010915364571800084 0.0035452536909187748 0 0.00088893268032770741 0.0036454279695087065 0 0.00098694927979423508 0.0034476500025221882 0 0.0010107877520807017 0.0033641676150969603 0 0.001094418724932924 0.0031724393848693499 0 0.0011374083746162192 0.0032916924819494458 0 0.0010107877520807017 0.0033641676150969603 0 0.0011405379587294039 0.0034153867532132434 0 0.0011374083746162192 0.0032916924819494458 0 0.0011405379587294039 0.0034153867532132434 0 0.0011374083746162192 0.0032916924819494458 0 0.0012668354370631602 0.003345292527425563 0 0.0012173254519351417 0.0031652186226356757 0 0.0011374083746162192 0.0032916924819494458 0 0.0012668354370631602 0.003345292527425563 0 0.0011405379587294039 0.0034153867532132434 0 0.0013003366708670048 0.0035504709980055771 0 0.0010915364571800084 0.0035452536909187748 0 0.0011405379587294039 0.0034153867532132434 0 0.0012668354370631602 0.003345292527425563 0 0.0013003366708670048 0.0035504709980055771 0 0.0010477616837875801 0.00051847817680909921 0 0.0010268055979097454 0.00069632451981039417 0 0.0008935259767159806 0.00069619884021041337 0 0.0012668354370631602 0.003345292527425563 0 0.0014620699193246003 0.0033925872139767264 0 0.0013003366708670048 0.0035504709980055771 0 0.0011832187572198994 0.0017501577779902699 0 0.001046624664754816 0.0020448439213349651 0 0.0013984131934016461 0.0032180904793227064 0 0.0012668354370631602 0.003345292527425563 0 0.0014620699193246003 0.0033925872139767264 0 0.0014505400848556285 0.001128082801054119 0 0.0011832187572198994 0.0017501577779902699 0 0.0016535490899739136 0.0031982136540150649 0 0.0013984131934016461 0.0032180904793227064 0 0.0014620699193246003 0.0033925872139767264 0 0.0011929761554793485 0.0003471623011069673 0 0.0010477616837875801 0.00051847817680909921 0 0.0011988448521227664 0.00055257920519242597 0 0.0010477616837875801 0.00051847817680909921 0 0.0011262127140604121 0.00066206440238040533 0 0.0011988448521227664 0.00055257920519242597 0 0.0010477616837875801 0.00051847817680909921 0 0.0011262127140604121 0.00066206440238040533 0 0.0010268055979097454 0.00069632451981039417 0 0.0011262127140604121 0.00066206440238040533 0 0.0011988448521227664 0.00055257920519242597 0 0.0012077917281241822 0.00077443019671783061 0 0.0011262127140604121 0.00066206440238040533 0 0.0011082896544601104 0.00078384825941797394 0 0.0010268055979097454 0.00069632451981039417 0 0.0011262127140604121 0.00066206440238040533 0 0.0011082896544601104 0.00078384825941797394 0 0.0012077917281241822 0.00077443019671783061 0 0.0014408888581804869 -0.00086539343053105536 0 0.0015212097709494197 -0.00095069988917725304 0 0.0011082896544601104 0.00078384825941797394 0 0.0010491534789154101 0.00093513328113626465 0 0.0012127580149920811 0.00077353645408385007 0 0.00090943300156019042 0.00022030811223182128 0 0.0015212097709494197 -0.00095069988917725304 0 0.0011082896544601104 0.00078384825941797394 0 0.0010491534789154101 0.00093513328113626465 0 0.0009716766029980549 0.00081856917892397091 0 0.001078594512043451 0.00088540963095734549 0 0.0012918650298368824 0.00067432125344531657 0 0.0012998745031764136 0.001033309293060843 0 0.0010491534789154101 0.00093513328113626465 0 0.0009716766029980549 0.00081856917892397091 0 0.00088469981534081328 0.00094921698025921138 0 0.0009716766029980549 0.00081856917892397091 0 0.0010268055979097454 0.00069632451981039417 0 0.0008935259767159806 0.00069619884021041337 0 0.0011082896544601104 0.00078384825941797394 0 0.0009716766029980549 0.00081856917892397091 0 0.0010268055979097454 0.00069632451981039417 0 0.001046624664754816 0.0020448439213349651 0 0.00091934183304584656 0.0022473378030429736 0 0.0013003366708670048 0.0035504709980055771 0 0.0011639311099654328 0.0036953983054412399 0 0.0010915364571800084 0.0035452536909187748 0 0.0009716766029980549 0.00081856917892397091 0 0.0008935259767159806 0.00069619884021041337 0 0.00073517046654624526 0.00088377235298227569 0 0.0009716766029980549 0.00081856917892397091 0 0.00088469981534081328 0.00094921698025921138 0 0.00073517046654624526 0.00088377235298227569 0 0.00088469981534081328 0.00094921698025921138 0 0.00073517046654624526 0.00088377235298227569 0 0.00077836279047646315 0.0010182972881917724 0 0.00099537786036298375 0.0037024494656771397 0 0.0011639311099654328 0.0036953983054412399 0 0.0010915364571800084 0.0035452536909187748 0 0.00099537786036298375 0.0037024494656771397 0 0.0010371814570483036 0.003839871093290064 0 0.0011639311099654328 0.0036953983054412399 0 0.0020794738345783961 -0.0018026506319130193 0 0.0022677516129211185 -0.0023843707431883375 0 0.0024645606024715884 -0.0026948154628090178 0 0.0024361250212904693 -0.0029276325663816849 0 0.0023044065001693627 -0.0025127605823932939 0 0.0025433338965922111 -0.0027754095795696396 0 0.0024645606024715884 -0.0026948154628090178 0 0.0024361250212904693 -0.0029276325663816849 0 0.0025433338965922111 -0.0027754095795696396 0 0.0024645606024715884 -0.0026948154628090178 0 0.0025736149787039444 -0.0025645202622757691 0 0.0028943478185180001 -0.0026275938217519253 0 0.002727371737898561 -0.0028368524402462478 0 0.0025736149787039444 -0.0025645202622757691 0 0.0025433338965922111 -0.0027754095795696396 0 0.002727371737898561 -0.0028368524402462478 0 0.0025736149787039444 -0.0025645202622757691 0 0.0035460104849582758 -0.0049746135794055566 0 0.0029421191472424691 -0.0034754793428648173 0 0.0029421191472424691 -0.0034754793428648173 0 0.0021817597044798678 -0.0020604235420548654 0 0.0025433338965922111 -0.0027754095795696396 0 0.002727371737898561 -0.0028368524402462478 0 0.0025608517069795906 -0.0030476540788869394 0 0.0037346561688821429 -0.0042336252211302768 0 0.0036850883004834341 -0.0038618513031531982 0 0.0040531071566873595 -0.0038177792530992532 0 0.003281059207905663 -0.0039496145396271387 0 0.0037346561688821429 -0.0042336252211302768 0 0.0036850883004834341 -0.0038618513031531982 0 0.0020749308474471099 -0.0012164580812364979 0 0.0021817597044798678 -0.0020604235420548654 0 0.0020749308474471099 -0.0012164580812364979 0 0.0020794738345783961 -0.0018026506319130193 0 0.0021817597044798678 -0.0020604235420548654 0 0.0020794738345783961 -0.0018026506319130193 0 0.0025433338965922111 -0.0027754095795696396 0 0.0025608517069795906 -0.0030476540788869394 0 0.0024361250212904693 -0.0029276325663816849 0 0.0019871475091932226 -0.002352643732449154 0 0.0021797325172737692 -0.002105679069090986 0 0.0017775624055486792 -0.0017182813825330388 0 0.0012769891245374533 6.3759146840835034e-05 0 0.00099216545393440302 7.9457251181579776e-05 0 0.0010848619693668632 -0.00020294664571134021 0 0.0012769891245374533 6.3759146840835034e-05 0 0.0010848619693668632 -0.00020294664571134021 0 0.0014467631324380119 -0.00022534610883803775 0 0.0014673084865179859 7.7378208361868561e-05 0 0.0012769891245374533 6.3759146840835034e-05 0 0.0014467631324380119 -0.00022534610883803775 0 0.0014505400848556285 0.001128082801054119 0 0.0014927044185992361 0.00010395896901129693 0 0.0018684676788594187 0.00012006008614199192 0 0.0014467631324380119 -0.00022534610883803775 0 0.0018502386921391259 -0.00039151199302663481 0 0.0018684676788594187 0.00012006008614199192 0 0.0014673084865179859 7.7378208361868561e-05 0 0.0014467631324380119 -0.00022534610883803775 0 0.0014467631324380119 -0.00022534610883803775 0 0.0018502386921391259 -0.00039151199302663481 0 0.0014410995047358854 -0.00054895198348855741 0 0.0018502386921391259 -0.00039151199302663481 0 0.0014410995047358854 -0.00054895198348855741 0 0.0017975390637748052 -0.0008960969573553097 0 0.0010848619693668632 -0.00020294664571134021 0 0.0014467631324380119 -0.00022534610883803775 0 0.0014410995047358854 -0.00054895198348855741 0 0.0020794738345783961 -0.0018026506319130193 0 0.0018709124530141205 -0.0015494529161848966 0 0.0023867268556423292 -0.0027884750263128589 0 0.0022177412554101358 -0.0026285736394144137 0 0.0023044065001693627 -0.0025127605823932939 0 0.0022177412554101358 -0.0026285736394144137 0 0.0022644753627619071 -0.0024957876709169897 0 0.0020362514108900067 -0.0024562362378618748 0 0.0022177412554101358 -0.0026285736394144137 0 0.0023044065001693627 -0.0025127605823932939 0 0.0022644753627619071 -0.0024957876709169897 0 0.001614409438381773 -0.0021709214630497489 0 0.0016648411842133505 -0.0022050855812350899 0 0.0017248381237346593 -0.0021868025222181249 0 0.0018709124530141205 -0.0015494529161848966 0 0.0016877074367324331 -0.0012840951673646626 0 0.0018502386921391259 -0.00039151199302663481 0 0.0018301191476784318 -0.00092782973832718262 0 0.0017975390637748052 -0.0008960969573553097 0 0.0014927044185992361 0.00010395896901129693 0 0.0015212097709494197 -0.00095069988917725304 0 0.0026867213814341742 -0.0032553072976005864 0 0.0016877074367324331 -0.0012840951673646626 0 0.0016648411842133505 -0.0022050855812350899 0 0.0017327062402144925 -0.0021944004304878333 0 0.0017248381237346593 -0.0021868025222181249 0 0.0015212097709494197 -0.00095069988917725304 0 0.0016877074367324331 -0.0012840951673646626 0 0.0015212097709494197 -0.00095069988917725304 0 0.0014279876419454262 -0.00069763061478679187 0 0.0016648411842133505 -0.0022050855812350899 0 0.0017327062402144925 -0.0021944004304878333 0 0.0016770898128939994 -0.0022819339216465502 0 0.0017327062402144925 -0.0021944004304878333 0 0.0016770898128939994 -0.0022819339216465502 0 0.0017242330730872577 -0.0023449929306544976 0 0.001614409438381773 -0.0021709214630497489 0 0.0016648411842133505 -0.0022050855812350899 0 0.0016079084423214871 -0.0023050442464123558 0 0.0026867213814341742 -0.0032553072976005864 0 0.0024855043364678323 -0.0040108969293413867 0 0.0016648411842133505 -0.0022050855812350899 0 0.0016770898128939994 -0.0022819339216465502 0 0.0016079084423214871 -0.0023050442464123558 0 0.003380070213564177 -0.0055241437025329776 0 0.0030857675827549412 -0.0057587116478618073 0 0.0033694396803106092 -0.0059491887354705406 0 0.003380070213564177 -0.0055241437025329776 0 0.0030857675827549412 -0.0057587116478618073 0 0.0030351022346360832 -0.0054586466644000985 0 0.0026867213814341742 -0.0032553072976005864 0 0.002966333253190932 -0.0040735722771640471 0 0.0024645606024715884 -0.0026948154628090178 0 0.0023044065001693627 -0.0025127605823932939 0 0.0025736149787039444 -0.0025645202622757691 0 0.0023044065001693627 -0.0025127605823932939 0 0.0022644753627619071 -0.0024957876709169897 0 0.0025736149787039444 -0.0025645202622757691 0 0.0026911462636941656 -0.0053995064493527669 0 0.0030351022346360832 -0.0054586466644000985 0 0.0028129163522405184 -0.005574024474434309 0 0.0035460104849582758 -0.0049746135794055566 0 0.002966333253190932 -0.0040735722771640471 0 0.0030857675827549412 -0.0057587116478618073 0 0.0030351022346360832 -0.0054586466644000985 0 0.0028129163522405184 -0.005574024474434309 0 0.0030857675827549412 -0.0057587116478618073 0 0.0028129163522405184 -0.005574024474434309 0 0.00278325708382936 -0.0059656484276151989 0 0.00278325708382936 -0.0059656484276151989 0 0.0029554752321477151 -0.0062890338747951949 0 0.0031265051311892404 -0.0061076018896441308 0 0.0036981103009396435 -0.0074415630775251521 0 0.0035796141596290544 -0.0077373276251802951 0 0.0030857675827549412 -0.0057587116478618073 0 0.00278325708382936 -0.0059656484276151989 0 0.0031265051311892404 -0.0061076018896441308 0 0.0040332479004896908 -0.0086171570329470221 0 0.0042673520982130578 -0.0090412647102779218 0 0.003954032021384328 -0.0090751864117866489 0 0.0042673520982130578 -0.0090412647102779218 0 0.0041516119554872071 -0.009348116912788142 0 0.003954032021384328 -0.0090751864117866489 0 0.0031848119085258106 -0.0063648005197671524 0 0.0031265051311892404 -0.0061076018896441308 0 0.0033628873989310212 -0.0063799002605778301 0 0.0029554752321477151 -0.0062890338747951949 0 0.0031848119085258106 -0.0063648005197671524 0 0.0031344044003882368 -0.0066231346705256612 0 0.0029554752321477151 -0.0062890338747951949 0 0.0031848119085258106 -0.0063648005197671524 0 0.0031265051311892404 -0.0061076018896441308 0 0.0030857675827549412 -0.0057587116478618073 0 0.0031265051311892404 -0.0061076018896441308 0 0.0033694396803106092 -0.0059491887354705406 0 0.0016079084423214871 -0.0023050442464123558 0 0.0016559752213222314 -0.0023598878843408447 0 0.0016007778949779126 -0.0024380624992971322 0 0.0024855043364678323 -0.0040108969293413867 0 0.0022919782294362049 -0.0043861284745884913 0 0.0031265051311892404 -0.0061076018896441308 0 0.0033694396803106092 -0.0059491887354705406 0 0.0033628873989310212 -0.0063799002605778301 0 0.0016770898128939994 -0.0022819339216465502 0 0.0016079084423214871 -0.0023050442464123558 0 0.0016559752213222314 -0.0023598878843408447 0 0.0016770898128939994 -0.0022819339216465502 0 0.0016559752213222314 -0.0023598878843408447 0 0.0017242330730872577 -0.0023449929306544976 0 0.0014279876419454262 -0.00069763061478679187 0 0.0012667772811917467 -0.00064840315935331188 0 0.0017242330730872577 -0.0023449929306544976 0 0.0016650109078867998 -0.0024298131115453639 0 0.0017126314791452721 -0.0024927841155167776 0 0.0012998745031764136 0.001033309293060843 0 0.0013009839207030283 0.0013828787301202374 0 0.0012439130199660285 0.001333686791048888 0 0.0016559752213222314 -0.0023598878843408447 0 0.0017242330730872577 -0.0023449929306544976 0 0.0016650109078867998 -0.0024298131115453639 0 0.0016559752213222314 -0.0023598878843408447 0 0.0016650109078867998 -0.0024298131115453639 0 0.0016007778949779126 -0.0024380624992971322 0 0.0031848119085258106 -0.0063648005197671524 0 0.0033628873989310212 -0.0063799002605778301 0 0.003343935955378179 -0.0064523470991799956 0 0.0033628873989310212 -0.0063799002605778301 0 0.003343935955378179 -0.0064523470991799956 0 0.0033387020831634803 -0.0070159430272723738 0 0.0022919782294362049 -0.0043861284745884913 0 0.0019932370871722587 -0.00464586478972081 0 0.003343935955378179 -0.0064523470991799956 0 0.0032673988003336578 -0.0067710548661415295 0 0.0033387020831634803 -0.0070159430272723738 0 0.0016007778949779126 -0.0024380624992971322 0 0.0016469810437120995 -0.0025002514646588728 0 0.0015936746784234173 -0.00256770113482209 0 0.0016650109078867998 -0.0024298131115453639 0 0.0016007778949779126 -0.0024380624992971322 0 0.0016469810437120995 -0.0025002514646588728 0 0.0016650109078867998 -0.0024298131115453639 0 0.0016469810437120995 -0.0025002514646588728 0 0.0017126314791452721 -0.0024927841155167776 0 0.0016469810437120995 -0.0025002514646588728 0 0.0017126314791452721 -0.0024927841155167776 0 0.0016558486191923572 -0.0025646281355257753 0 0.0013009839207030283 0.0013828787301202374 0 0.0011827322362982567 0.0014778576118733699 0 0.0013051762072127447 0.0016927034439203131 0 0.0012667772811917467 -0.00064840315935331188 0 0.00091299125477241826 -0.0010587006372155968 0 0.0017126314791452721 -0.0024927841155167776 0 0.0016558486191923572 -0.0025646281355257753 0 0.0017019277436278939 -0.0026355944667912057 0 0.0016558486191923572 -0.0025646281355257753 0 0.0016407197981365689 -0.0026245786740316372 0 0.0017019277436278939 -0.0026355944667912057 0 0.0032673988003336578 -0.0067710548661415295 0 0.0033387020831634803 -0.0070159430272723738 0 0.0032401046632973816 -0.006889978572725392 0 0.0033387020831634803 -0.0070159430272723738 0 0.0031970011560550041 -0.0070131059414123859 0 0.0032401046632973816 -0.006889978572725392 0 0.0016469810437120995 -0.0025002514646588728 0 0.0016558486191923572 -0.0025646281355257753 0 0.0015936746784234173 -0.00256770113482209 0 0.0016558486191923572 -0.0025646281355257753 0 0.0016222563313241316 -0.0026012019726083767 0 0.0016407197981365689 -0.0026245786740316372 0 0.0016558486191923572 -0.0025646281355257753 0 0.0015936746784234173 -0.00256770113482209 0 0.0016222563313241316 -0.0026012019726083767 0 0.0031655379976935575 -0.0071674677895863532 0 0.0029604317210159201 -0.0071968297576622871 0 0.0031799723477786337 -0.0073908838344815446 0 0.0031970011560550041 -0.0070131059414123859 0 0.0029604317210159201 -0.0071968297576622871 0 0.003013261993264421 -0.0066880653070690516 0 0.0029604317210159201 -0.0071968297576622871 0 0.0025631392027203733 -0.007063356789950904 0 0.003013261993264421 -0.0066880653070690516 0 0.0031655379976935575 -0.0071674677895863532 0 0.0031970011560550041 -0.0070131059414123859 0 0.0029604317210159201 -0.0071968297576622871 0 0.0033387020831634803 -0.0070159430272723738 0 0.0031655379976935575 -0.0071674677895863532 0 0.0031799723477786337 -0.0073908838344815446 0 0.0033387020831634803 -0.0070159430272723738 0 0.0031655379976935575 -0.0071674677895863532 0 0.0031970011560550041 -0.0070131059414123859 0 0.0031970011560550041 -0.0070131059414123859 0 0.0032401046632973816 -0.006889978572725392 0 0.0030330600559422939 -0.0067129465334045107 0 0.003350028897635087 -0.0078454969466108231 0 0.0034838645804777016 -0.0081265768986059587 0 0.0029604317210159201 -0.0071968297576622871 0 0.0025631392027203733 -0.007063356789950904 0 0.0028069227716225587 -0.007397279844665124 0 0.0036324095116972311 -0.0092193949012156183 0 0.0034838645804777016 -0.0081265768986059587 0 0.0041416128176689718 -0.0097740974243280109 0 0.0041516119554872071 -0.009348116912788142 0 0.0045037345763495303 -0.0094632771455452833 0 0.0042673520982130578 -0.0090412647102779218 0 0.0041516119554872071 -0.009348116912788142 0 0.0045037345763495303 -0.0094632771455452833 0 0.0041416128176689718 -0.0097740974243280109 0 0.0041516119554872071 -0.009348116912788142 0 0.0038910793596849021 -0.009387324992613166 0 0.0035796141596290544 -0.0077373276251802951 0 0.0034838645804777016 -0.0081265768986059587 0 0.003343935955378179 -0.0064523470991799956 0 0.0032673988003336578 -0.0067710548661415295 0 0.0030330600559422939 -0.0067129465334045107 0 0.0031848119085258106 -0.0063648005197671524 0 0.003343935955378179 -0.0064523470991799956 0 0.0031344044003882368 -0.0066231346705256612 0 0.003612385758135508 -0.0078433390148215064 0 0.0034838645804777016 -0.0081265768986059587 0 0.0032673988003336578 -0.0067710548661415295 0 0.0032401046632973816 -0.006889978572725392 0 0.0030330600559422939 -0.0067129465334045107 0 0.00079226794659869432 0.0024036522256991079 0 0.00072709599942587504 0.0018345589700109529 0 0.00053315716930720262 0.0011821600653887524 0 0.00076643829642100106 0.0013342141395478856 0 0.00064695194467664853 0.0013483718298191838 0 0.00066218644598084106 0.0026243942730842947 0 0.00055692304106946301 0.0019043406900312206 0 0.00057993474579926679 0.0011885166462729489 0 0.00080801504554368572 0.0012081099498369181 0 0.00078486202443468279 0.0013242880446369747 0 0.00057993474579926679 0.0011885166462729489 0 0.00061582224507163142 0.0011443612197960557 0 0.00080801504554368572 0.0012081099498369181 0 0.00079226794659869432 0.0024036522256991079 0 0.00091934183304584656 0.0022473378030429736 0 0.00057865113662371659 0.0010761553013705087 0 0.00073517046654624526 0.00088377235298227569 0 0.00077836279047646315 0.0010182972881917724 0 0.00057865113662371659 0.0010761553013705087 0 0.00077836279047646315 0.0010182972881917724 0 0.00077799899872572453 0.0011473142091476163 0 0.00077836279047646315 0.0010182972881917724 0 0.00088496898578522415 0.0010946510665442767 0 0.00077799899872572453 0.0011473142091476163 0 0.00088469981534081328 0.00094921698025921138 0 0.00077836279047646315 0.0010182972881917724 0 0.00088496898578522415 0.0010946510665442767 0 0.00080801504554368572 0.0012081099498369181 0 0.0010153207314584376 0.0012715342976141312 0 0.00078486202443468279 0.0013242880446369747 0 0.00088496898578522415 0.0010946510665442767 0 0.00077799899872572453 0.0011473142091476163 0 0.00099868983779372467 0.0012356559562331536 0 0.00072709599942587504 0.0018345589700109529 0 0.00088312693289482359 0.0016344768303795695 0 0.00099868983779372467 0.0012356559562331536 0 0.0010553005363987688 0.0010655687036616466 0 0.0011547994489343627 0.0011652696632241521 0 0.00088496898578522415 0.0010946510665442767 0 0.00099868983779372467 0.0012356559562331536 0 0.0010553005363987688 0.0010655687036616466 0 0.001078594512043451 0.00088540963095734549 0 0.00088496898578522415 0.0010946510665442767 0 0.0010553005363987688 0.0010655687036616466 0 0.0010491534789154101 0.00093513328113626465 0 0.00088469981534081328 0.00094921698025921138 0 0.00088496898578522415 0.0010946510665442767 0 0.00090943300156019042 0.00022030811223182128 0 0.00077500751735461095 0.00051720692345556612 0 0.001078594512043451 0.00088540963095734549 0 0.0012998745031764136 0.001033309293060843 0 0.0010553005363987688 0.0010655687036616466 0 0.0012998745031764136 0.001033309293060843 0 0.0010553005363987688 0.0010655687036616466 0 0.0011547994489343627 0.0011652696632241521 0 0.0012998745031764136 0.001033309293060843 0 0.0011547994489343627 0.0011652696632241521 0 0.0012439130199660285 0.001333686791048888 0 0.00099868983779372467 0.0012356559562331536 0 0.0011547994489343627 0.0011652696632241521 0 0.0012439130199660285 0.001333686791048888 0 0.0010153207314584376 0.0012715342976141312 0 0.0012439130199660285 0.001333686791048888 0 0.0011112398643158071 0.0013898083487005645 0 0.0011112398643158071 0.0013898083487005645 0 0.0011827322362982567 0.0014778576118733699 0 0.0010066012206610142 0.0014771141229260498 0 0.00088312693289482359 0.0016344768303795695 0 0.00098613583791300609 0.0015964337695012715 0 0.0013009839207030283 0.0013828787301202374 0 0.0012439130199660285 0.001333686791048888 0 0.0011827322362982567 0.0014778576118733699 0 0.0012439130199660285 0.001333686791048888 0 0.0011112398643158071 0.0013898083487005645 0 0.0011827322362982567 0.0014778576118733699 0 0.0011827322362982567 0.0014778576118733699 0 0.0011166154650411346 0.0016032329967273229 0 0.0010066012206610142 0.0014771141229260498 0 0.0011827322362982567 0.0014778576118733699 0 0.0011166154650411346 0.0016032329967273229 0 0.0013051762072127447 0.0016927034439203131 0 0.0010066012206610142 0.0014771141229260498 0 0.00092008107469503477 0.0015700491109511298 0 0.00082187898941584185 0.0015235968213188668 0 0.0011166154650411346 0.0016032329967273229 0 0.0010066012206610142 0.0014771141229260498 0 0.00098120679473598978 0.0016316135502801078 0 0.0010066012206610142 0.0014771141229260498 0 0.00098120679473598978 0.0016316135502801078 0 0.00092008107469503477 0.0015700491109511298 0 0.00098120679473598978 0.0016316135502801078 0 0.00092008107469503477 0.0015700491109511298 0 0.00089912711863989673 0.0016269475160256479 0 0.0010153207314584376 0.0012715342976141312 0 0.0010066012206610142 0.0014771141229260498 0 0.00078486202443468279 0.0013242880446369747 0 0.0010153207314584376 0.0012715342976141312 0 0.0011112398643158071 0.0013898083487005645 0 0.0010066012206610142 0.0014771141229260498 0 0.00066581346785390006 0.0017989014387391428 0 0.00055692304106946301 0.0019043406900312206 0 0.0010066012206610142 0.0014771141229260498 0 0.00078927309650174339 0.0014308932873202736 0 0.00082187898941584185 0.0015235968213188668 0 0.0010066012206610142 0.0014771141229260498 0 0.00076643829642100106 0.0013342141395478856 0 0.00078927309650174339 0.0014308932873202736 0 0.00078927309650174339 0.0014308932873202736 0 0.00082187898941584185 0.0015235968213188668 0 0.00068804866577259702 0.0014643477153842132 0 0.00092008107469503477 0.0015700491109511298 0 0.00080746023908723013 0.0016117503941326077 0 0.00082187898941584185 0.0015235968213188668 0 0.00092008107469503477 0.0015700491109511298 0 0.00089912711863989673 0.0016269475160256479 0 0.00080746023908723013 0.0016117503941326077 0 0.00080746023908723013 0.0016117503941326077 0 0.00082187898941584185 0.0015235968213188668 0 0.00070528581970979553 0.0015565368224676971 0 0.00082187898941584185 0.0015235968213188668 0 0.00070528581970979553 0.0015565368224676971 0 0.00068804866577259702 0.0014643477153842132 0 0.00070528581970979553 0.0015565368224676971 0 0.0006056037775290994 0.0015209246178390747 0 0.00068804866577259702 0.0014643477153842132 0 0.00080746023908723013 0.0016117503941326077 0 0.00070528581970979553 0.0015565368224676971 0 0.00060358310300292963 0.0016623127511791989 0 0.00070528581970979553 0.0015565368224676971 0 0.0006056037775290994 0.0015209246178390747 0 0.00060358310300292963 0.0016623127511791989 0 0.00056784291908305124 0.0013942965092132069 0 0.0006056037775290994 0.0015209246178390747 0 0.00068804866577259702 0.0014643477153842132 0 0.00078927309650174339 0.0014308932873202736 0 0.00068804866577259702 0.0014643477153842132 0 0.00064695194467664853 0.0013483718298191838 0 0.00076643829642100106 0.0013342141395478856 0 0.00078927309650174339 0.0014308932873202736 0 0.00064695194467664853 0.0013483718298191838 0 0.00056784291908305124 0.0013942965092132069 0 0.00068804866577259702 0.0014643477153842132 0 0.00064695194467664853 0.0013483718298191838 0 0.00056784291908305124 0.0013942965092132069 0 0.00055041406329669606 0.0013089660969646043 0 0.00064695194467664853 0.0013483718298191838 0 -0.00067805831860308417 0.0023263672754728153 0 -0.00084561172520075949 0.0023866331192087717 0 -0.00082863819768591953 0.0022338742205815221 0 -0.00084561172520075949 0.0023866331192087717 0 -0.00082863819768591953 0.0022338742205815221 0 -0.0010710885528304129 0.0022098679426964239 0 -0.00049812967532955317 0.002318867038802669 0 -0.00050968728629426281 0.0022777426738920395 0 -0.00043108889596252188 0.0022811014295053096 0 -0.00049812967532955317 0.002318867038802669 0 -0.00043108889596252188 0.0022811014295053096 0 -0.00042190182430716341 0.0022971987366937692 0 0.0001019629547031569 0.0018191612202936628 0 0.00028576980829352728 0.00056956161478336745 0 -0.00067390428871242356 0.0014945729465123032 0 5.7730449583023267e-05 0.00047830076171801215 0 0.00080746023908723013 0.0016117503941326077 0 0.00060358310300292963 0.0016623127511791989 0 0.00090852167250626869 0.0017054801544042213 0 0.00089912711863989673 0.0016269475160256479 0 0.00080746023908723013 0.0016117503941326077 0 0.00090852167250626869 0.0017054801544042213 0 -0.00084561172520075949 0.0023866331192087717 0 -0.0012258137978370682 0.0024719432743212371 0 -0.0010710885528304129 0.0022098679426964239 0 5.7730449583023267e-05 0.00047830076171801215 0 -0.00013243013195266852 0.0004121562244993127 0 -0.0012258137978370682 0.0024719432743212371 0 -0.0013738624309115874 0.0022008710139964013 0 -0.0010710885528304129 0.0022098679426964239 0 0.00038552978836363378 -0.00036647594075304708 0 0.00017577323777017296 -0.00032391508239411148 0 0.00023556258105777175 -0.00065345392032837885 0 0.00028576980829352728 0.00056956161478336745 0 0.00056571899440052904 -0.00036035093940644543 0 0.00098120679473598978 0.0016316135502801078 0 0.00090852167250626869 0.0017054801544042213 0 0.0011071820684843219 0.0017360559372783682 0 0.00019533356087714587 -5.1786200305390643e-05 0 0.00022255702670389104 -3.599680329371577e-07 0 0.00034659053729452509 -2.7798449262167714e-05 0 0.00028576980829352728 0.00056956161478336745 0 5.7730449583023267e-05 0.00047830076171801215 0 0.00098120679473598978 0.0016316135502801078 0 0.00089912711863989673 0.0016269475160256479 0 0.00090852167250626869 0.0017054801544042213 0 0.0011166154650411346 0.0016032329967273229 0 0.00098120679473598978 0.0016316135502801078 0 0.0011071820684843219 0.0017360559372783682 0 5.7730449583023267e-05 0.00047830076171801215 0 0.00056571899440052904 -0.00036035093940644543 0 0.00048211219256692972 -0.00081632955543513817 0 0.0013470591939141014 -0.00099915358002402688 0 0.0013586298552591227 -0.00066690964710409474 0 0.00017577323777017296 -0.00032391508239411148 0 5.8178572149764921e-05 -0.00052932689692986674 0 -8.0995966158173071e-05 -0.00037059209527669749 0 0.00056571899440052904 -0.00036035093940644543 0 0.00085104610786576249 -0.0017288524279293011 0 0.00056571899440052904 -0.00036035093940644543 0 0.00091299125477241826 -0.0010587006372155968 0 0.0011166154650411346 0.0016032329967273229 0 0.0011071820684843219 0.0017360559372783682 0 0.0013051762072127447 0.0016927034439203131 0 0.00017577323777017296 -0.00032391508239411148 0 5.8178572149764921e-05 -0.00052932689692986674 0 0.00023556258105777175 -0.00065345392032837885 0 8.4504665246537723e-05 -0.0009409810615844987 0 0.00023556258105777175 -0.00065345392032837885 0 -9.7525729127747381e-05 -0.00076966212667478617 0 5.8178572149764921e-05 -0.00052932689692986674 0 0.00023556258105777175 -0.00065345392032837885 0 -9.7525729127747381e-05 -0.00076966212667478617 0 -0.00022409036866820545 -2.3153821690322669e-05 0 -0.00013243013195266852 0.0004121562244993127 0 -0.0012364203698408773 0.0018126287592830582 0 -0.0015239998367211737 0.00192770116538901 0 -0.0012774556432548147 0.0020221074402043764 0 -0.0012364203698408773 0.0018126287592830582 0 -0.0012774556432548147 0.0020221074402043764 0 -0.0010889297536333384 0.001996882998788212 0 -0.0013738624309115874 0.0022008710139964013 0 -0.0012774556432548147 0.0020221074402043764 0 -0.0010710885528304129 0.0022098679426964239 0 -0.0015239998367211737 0.00192770116538901 0 -0.0013738624309115874 0.0022008710139964013 0 -0.0012774556432548147 0.0020221074402043764 0 -0.0010710885528304129 0.0022098679426964239 0 -0.0010889297536333384 0.001996882998788212 0 -0.00087632005405008958 0.0020844787134716648 0 -0.0012774556432548147 0.0020221074402043764 0 -0.0010710885528304129 0.0022098679426964239 0 -0.0010889297536333384 0.001996882998788212 0 -0.0012364203698408773 0.0018126287592830582 0 -0.0010889297536333384 0.001996882998788212 0 -0.00094093289945588435 0.0018709052139262202 0 -0.00066691729635262446 0.0019850622116826112 0 -0.00094093289945588435 0.0018709052139262202 0 -0.00087632005405008958 0.0020844787134716648 0 -0.0010889297536333384 0.001996882998788212 0 -0.00094093289945588435 0.0018709052139262202 0 -0.00087632005405008958 0.0020844787134716648 0 -0.00082863819768591953 0.0022338742205815221 0 -0.0010710885528304129 0.0022098679426964239 0 -0.00087632005405008958 0.0020844787134716648 0 -0.00069587579844224818 0.0021515964918036997 0 -0.00082863819768591953 0.0022338742205815221 0 -0.00087632005405008958 0.0020844787134716648 0 0.0023667499599169337 -0.0066541346446781597 0 0.0014339225914369511 -0.0044665226444559857 0 0.0023667499599169337 -0.0066541346446781597 0 0.0011683308788025739 -0.004665437874691653 0 0.0014389251270681886 -0.0054915339652964129 0 0.0011847480286743602 -0.005522764083678685 0 0.001193357444721132 -0.0051892438120393486 0 0.0015311777109446758 -0.0073742114762637883 0 0.0014141505127095737 -0.0074825406764296512 0 0.0014074068614682246 -0.0073521418713904888 0 0.0024157884008969765 -0.0081707262611742069 0 0.0024039061554533537 -0.0079093413086062433 0 0.0027887604572743516 -0.0078141570915948345 0 0.0024614006040810433 -0.0086328373365008298 0 0.0023667499599169337 -0.0066541346446781597 0 0.0024039061554533537 -0.0079093413086062433 0 0.0027827907897453956 -0.0078164253816939127 0 0.0025559569513563794 -0.0075374145995963666 0 0.0023575572488852706 -0.0067421889192969629 0 0.0023667499599169337 -0.0066541346446781597 0 0.0025631392027203733 -0.007063356789950904 0 0.0025559569513563794 -0.0075374145995963666 0 0.0020907523767223547 -0.0074547321556552217 0 0.0023667499599169337 -0.0066541346446781597 0 0.0024682752704010447 -0.0068170122973471381 0 0.0025631392027203733 -0.007063356789950904 0 0.0025559569513563794 -0.0075374145995963666 0 0.0028069227716225587 -0.007397279844665124 0 0.0027683200780043052 -0.0077928266266477494 0 0.0025559569513563794 -0.0075374145995963666 0 0.0028069227716225587 -0.007397279844665124 0 0.0027789246654923863 -0.0077614382079173446 0 0.0031799723477786337 -0.0073908838344815446 0 0.0033152561839162897 -0.0076938964589757719 0 0.0029604317210159201 -0.0071968297576622871 0 0.0028069227716225587 -0.007397279844665124 0 0.0031799723477786337 -0.0073908838344815446 0 0.0027683200780043052 -0.0077928266266477494 0 0.0028069227716225587 -0.007397279844665124 0 0.0031799723477786337 -0.0073908838344815446 0 0.0023667499599169337 -0.0066541346446781597 0 0.0024476390867135792 -0.0068113201793579799 0 0.0016222563313241316 -0.0026012019726083767 0 0.0016407197981365689 -0.0026245786740316372 0 0.0015891180184309079 -0.0026913897538757806 0 0.0033387020831634803 -0.0070159430272723738 0 0.0031799723477786337 -0.0073908838344815446 0 0.0033152561839162897 -0.0076938964589757719 0 0.0019932370871722587 -0.00464586478972081 0 0.0014339225914369511 -0.0044665226444559857 0 0.0015936746784234173 -0.00256770113482209 0 0.0016222563313241316 -0.0026012019726083767 0 0.0015891180184309079 -0.0026913897538757806 0 0.00085104610786576249 -0.0017288524279293011 0 0.0014339225914369511 -0.0044665226444559857 0 0.0016407197981365689 -0.0026245786740316372 0 0.0016942824339064445 -0.0026677959599363719 0 0.0015891180184309079 -0.0026913897538757806 0 0.0016407197981365689 -0.0026245786740316372 0 0.0016949237802216829 -0.0026354946135249829 0 0.0016942824339064445 -0.0026677959599363719 0 0.0011193411135614428 -0.0011880006829109277 0 0.00091299125477241826 -0.0010587006372155968 0 0.00091299125477241826 -0.0010587006372155968 0 0.00085104610786576249 -0.0017288524279293011 0 0.00085104610786576249 -0.0017288524279293011 0 0.00033175451342640721 -0.0018233110899037227 0 0.00039516019968859019 -0.0032457307797001652 0 0.00052276643564623613 -0.00307837624451247 0 0.0004016702516934647 -0.0029702217732716961 0 5.8178572149764921e-05 -0.00052932689692986674 0 -8.0995966158173071e-05 -0.00037059209527669749 0 -9.7525729127747381e-05 -0.00076966212667478617 0 0.00039516019968859019 -0.0032457307797001652 0 0.0006149114833889582 -0.0032109896968923212 0 0.00052276643564623613 -0.00307837624451247 0 0.0006149114833889582 -0.0032109896968923212 0 0.00052276643564623613 -0.00307837624451247 0 0.0006219732583673355 -0.0029536006523543656 0 0.0014339225914369511 -0.0044665226444559857 0 0.0011683308788025739 -0.004665437874691653 0 0.00052276643564623613 -0.00307837624451247 0 0.0006219732583673355 -0.0029536006523543656 0 0.0004016702516934647 -0.0029702217732716961 0 -0.00011510733244110715 -0.0011718615615320313 0 8.4504665246537723e-05 -0.0009409810615844987 0 -9.7525729127747381e-05 -0.00076966212667478617 0 -4.578063009594402e-05 -0.0016726240017219424 0 0.00033175451342640721 -0.0018233110899037227 0 0.0004067770589359073 -0.0026879238566402497 0 0.0004016702516934647 -0.0029702217732716961 0 0.00051532455031952373 -0.0028209507188818343 0 0.0008130721345398637 -0.00481946931978909 0 0.0011683308788025739 -0.004665437874691653 0 0.0006219732583673355 -0.0029536006523543656 0 0.0004016702516934647 -0.0029702217732716961 0 0.00051532455031952373 -0.0028209507188818343 0 0.00087149700700796088 -0.002991894846309968 0 0.0008451698126515126 -0.0039918117734483389 0 0.00042291664171100753 -0.0034715139545317035 0 0.0011683308788025739 -0.004665437874691653 0 0.00053910813906321196 -0.0031517005886488579 0 0.0012306376103372271 -0.0070084425435273257 0 0.0012261112651065509 -0.0072520806432969835 0 0.0014467846477754915 -0.0071855385687656708 0 0.0014141505127095737 -0.0074825406764296512 0 0.0012261112651065509 -0.0072520806432969835 0 0.0014074068614682246 -0.0073521418713904888 0 0.0012261112651065509 -0.0072520806432969835 0 0.0014074068614682246 -0.0073521418713904888 0 0.0014467846477754915 -0.0071855385687656708 0 0.0015311777109446758 -0.0073742114762637883 0 0.0014074068614682246 -0.0073521418713904888 0 0.0014467846477754915 -0.0071855385687656708 0 0.0015311777109446758 -0.0073742114762637883 0 0.0014467846477754915 -0.0071855385687656708 0 0.0016381233221808296 -0.007276079284567194 0 0.0014727870894555961 -0.006989699110497829 0 0.0016379207107095662 -0.007067196673003014 0 0.0014467846477754915 -0.0071855385687656708 0 0.0020422955595061488 -0.010555638260493345 0 0.0021788369006989655 -0.01053999623534731 0 0.0021248116119168222 -0.010958746221770939 0 0.0016379207107095662 -0.007067196673003014 0 0.0014467846477754915 -0.0071855385687656708 0 0.0016381233221808296 -0.007276079284567194 0 0.0019063861378749781 -0.0093374558010856541 0 0.0025434156135698636 -0.010714482386735459 0 0.0020422955595061488 -0.010555638260493345 0 0.0021248116119168222 -0.010958746221770939 0 0.0020464469656632784 -0.011033484770783473 0 0.0022491115697137035 -0.011660898265222932 0 0.0025918833198496347 -0.011725404346236794 0 0.0027545575085494512 -0.01359927583841908 0 0.0025918833198496347 -0.011725404346236794 0 0.00358311980235182 -0.014736958894779179 0 0.0039404827503120741 -0.014394259055894318 0 0.0036352930443522774 -0.014411406981807665 0 0.0035461115220717806 -0.014674520756600948 0 0.0038796242328996869 -0.014650021773841599 0 0.003928331319062517 -0.014293124188371307 0 0.0037396550198157486 -0.014301270013875267 0 0.0038301892829238509 -0.014188589082858975 0 0.0035794734514314041 -0.014208839684912969 0 0.0037396550198157486 -0.014301270013875267 0 0.0039404827503120741 -0.014394259055894318 0 0.0036352930443522774 -0.014411406981807665 0 0.0037396550198157486 -0.014301270013875267 0 0.0038301892829238509 -0.014188589082858975 0 0.0039404827503120741 -0.014394259055894318 0 0.0025918833198496347 -0.011725404346236794 0 0.0027407877872878622 -0.012962312077106821 0 0.0025434156135698636 -0.010714482386735459 0 0.0030378515322837959 -0.010887711285062827 0 0.0039277604401380126 -0.014272590430874069 0 0.0039727023417073602 -0.014232521421649965 0 0.0039875726397449879 -0.01403346646265512 0 0.0024157884008969765 -0.0081707262611742069 0 0.0020737218169857075 -0.008496600493640441 0 0.0020798632273667248 -0.0079695363351627146 0 0.0038301892829238509 -0.014188589082858975 0 0.0039404827503120741 -0.014394259055894318 0 0.0039830971344440311 -0.014006242409835189 0 0.0025918833198496347 -0.011725404346236794 0 0.0025434156135698636 -0.010714482386735459 0 0.0024614006040810433 -0.0086328373365008298 0 0.0025434156135698636 -0.010714482386735459 0 0.0039277604401380126 -0.014272590430874069 0 0.0039830971344440311 -0.014006242409835189 0 0.0039875726397449879 -0.01403346646265512 0 0.0024039061554533537 -0.0079093413086062433 0 0.0020798632273667248 -0.0079695363351627146 0 0.0020907523767223547 -0.0074547321556552217 0 0.0024157884008969765 -0.0081707262611742069 0 0.0024039061554533537 -0.0079093413086062433 0 0.0020798632273667248 -0.0079695363351627146 0 0.0039830971344440311 -0.014006242409835189 0 0.0039875726397449879 -0.01403346646265512 0 0.0039935181997973052 -0.013777419136262202 0 0.0038301892829238509 -0.014188589082858975 0 0.0036843774778662088 -0.014040335097909317 0 0.0035794734514314041 -0.014208839684912969 0 0.0038301892829238509 -0.014188589082858975 0 0.0039830971344440311 -0.014006242409835189 0 0.0036843774778662088 -0.014040335097909317 0 0.0039830971344440311 -0.014006242409835189 0 0.0036843774778662088 -0.014040335097909317 0 0.0039935181997973052 -0.013777419136262202 0 0.0036843774778662088 -0.014040335097909317 0 0.0036766565147804864 -0.013728039354465042 0 0.003988007468988676 -0.013782577423219628 0 0.0030575700858866761 -0.012068870614112276 0 0.0035339960329819754 -0.01093148943027583 0 0.0024039061554533537 -0.0079093413086062433 0 0.0025559569513563794 -0.0075374145995963666 0 0.0020907523767223547 -0.0074547321556552217 0 0.0030378515322837959 -0.010887711285062827 0 0.0035339960329819754 -0.01093148943027583 0 0.0033543703071385396 -0.0139815681232485 0 0.003087738401988041 -0.013777574730457378 0 0.0033937918619332671 -0.013668623397951128 0 0.0036843774778662088 -0.014040335097909317 0 0.0036766565147804864 -0.013728039354465042 0 0.0033543703071385396 -0.0139815681232485 0 0.0036766565147804864 -0.013728039354465042 0 0.0033543703071385396 -0.0139815681232485 0 0.0033937918619332671 -0.013668623397951128 0 0.0036843774778662088 -0.014040335097909317 0 0.0033543703071385396 -0.0139815681232485 0 0.0035794734514314041 -0.014208839684912969 0 0.0033543703071385396 -0.0139815681232485 0 0.0033631036871093079 -0.014303193518246217 0 0.0035794734514314041 -0.014208839684912969 0 0.0033543703071385396 -0.0139815681232485 0 0.0033631036871093079 -0.014303193518246217 0 0.0031206589167253711 -0.01423018300821983 0 0.0033631036871093079 -0.014303193518246217 0 0.0031846419296743724 -0.014471461926688601 0 0.0031206589167253711 -0.01423018300821983 0 0.0033631036871093079 -0.014303193518246217 0 0.0035794734514314041 -0.014208839684912969 0 0.0036352930443522774 -0.014411406981807665 0 0.0033631036871093079 -0.014303193518246217 0 0.0036352930443522774 -0.014411406981807665 0 0.0034183377671476904 -0.014545901652210204 0 0.0037396550198157486 -0.014301270013875267 0 0.0035794734514314041 -0.014208839684912969 0 0.0036352930443522774 -0.014411406981807665 0 0.00358311980235182 -0.014736958894779179 0 0.0036352930443522774 -0.014411406981807665 0 0.0034183377671476904 -0.014545901652210204 0 0.0033459872978343999 -0.014769198333793955 0 0.00358311980235182 -0.014736958894779179 0 0.0034183377671476904 -0.014545901652210204 0 0.0033631036871093079 -0.014303193518246217 0 0.0034183377671476904 -0.014545901652210204 0 0.0031846419296743724 -0.014471461926688601 0 0.0032102371471768231 -0.014697149305902936 0 0.0033459872978343999 -0.014769198333793955 0 0.0034183377671476904 -0.014545901652210204 0 0.0032102371471768231 -0.014697149305902936 0 0.0034183377671476904 -0.014545901652210204 0 0.0031846419296743724 -0.014471461926688601 0 0.0032102371471768231 -0.014697149305902936 0 0.0031846419296743724 -0.014471461926688601 0 0.0029868085537216125 -0.014640656340393155 0 0.0031846419296743724 -0.014471461926688601 0 0.0029868085537216125 -0.014640656340393155 0 0.0029723818627846194 -0.014416197393630174 0 0.0029868085537216125 -0.014640656340393155 0 0.0027478611217733487 -0.014536956285451911 0 0.0029723818627846194 -0.014416197393630174 0 0.0027490280759335938 -0.014837600162382159 0 0.0029868085537216125 -0.014640656340393155 0 0.0027478611217733487 -0.014536956285451911 0 0.0027490280759335938 -0.014837600162382159 0 0.0027478611217733487 -0.014536956285451911 0 0.0024376841311882966 -0.014695535543373777 0 0.0028322090433510775 -0.014249406820495801 0 0.0024882278823247449 -0.014365854194321815 0 0.0026402388733398857 -0.014095484529362684 0 0.0027478611217733487 -0.014536956285451911 0 0.0028322090433510775 -0.014249406820495801 0 0.0029723818627846194 -0.014416197393630174 0 0.0027478611217733487 -0.014536956285451911 0 0.0028322090433510775 -0.014249406820495801 0 0.0024882278823247449 -0.014365854194321815 0 0.0028322090433510775 -0.014249406820495801 0 0.0031206589167253711 -0.01423018300821983 0 0.0029723818627846194 -0.014416197393630174 0 0.0031846419296743724 -0.014471461926688601 0 0.0031206589167253711 -0.01423018300821983 0 0.0029723818627846194 -0.014416197393630174 0 0.002032514200294946 -0.014581464352947458 0 0.0024376841311882966 -0.014695535543373777 0 0.0024882278823247449 -0.014365854194321815 0 0.0021996171957656681 -0.014850557071562982 0 0.002032514200294946 -0.014581464352947458 0 0.0024376841311882966 -0.014695535543373777 0 0.0027478611217733487 -0.014536956285451911 0 0.0024376841311882966 -0.014695535543373777 0 0.0024882278823247449 -0.014365854194321815 0 0.002032514200294946 -0.014581464352947458 0 0.0024882278823247449 -0.014365854194321815 0 0.0020834745154412995 -0.014128910436121434 0 0.0015096835629383387 -0.014249706746471422 0 0.0016682916958623011 -0.014186021182745215 0 0.0020834745154412995 -0.014128910436121434 0 0.0025260934600038329 -0.013921243876816898 0 0.0021177721935470178 -0.013832520057775679 0 0.0024882278823247449 -0.014365854194321815 0 0.0020834745154412995 -0.014128910436121434 0 0.0026402388733398857 -0.014095484529362684 0 0.0020834745154412995 -0.014128910436121434 0 0.0026402388733398857 -0.014095484529362684 0 0.0025260934600038329 -0.013921243876816898 0 0.0025260934600038329 -0.013921243876816898 0 0.0021177721935470178 -0.013832520057775679 0 0.0023983132332234258 -0.013561776349831892 0 0.0026402388733398857 -0.014095484529362684 0 0.0025260934600038329 -0.013921243876816898 0 0.0028346435620416684 -0.013870599715324687 0 0.0033543703071385396 -0.0139815681232485 0 0.0031206589167253711 -0.01423018300821983 0 0.0029853601714306894 -0.014000915431091268 0 0.0028322090433510775 -0.014249406820495801 0 0.0031206589167253711 -0.01423018300821983 0 0.0029853601714306894 -0.014000915431091268 0 0.0028322090433510775 -0.014249406820495801 0 0.0026402388733398857 -0.014095484529362684 0 0.0029853601714306894 -0.014000915431091268 0 0.0026402388733398857 -0.014095484529362684 0 0.0029853601714306894 -0.014000915431091268 0 0.0028346435620416684 -0.013870599715324687 0 0.0028346435620416684 -0.013870599715324687 0 0.003087738401988041 -0.013777574730457378 0 0.0028510472778344015 -0.013628413194645224 0 0.0025260934600038329 -0.013921243876816898 0 0.0028346435620416684 -0.013870599715324687 0 0.0028510472778344015 -0.013628413194645224 0 0.0029853601714306894 -0.014000915431091268 0 0.0028346435620416684 -0.013870599715324687 0 0.003087738401988041 -0.013777574730457378 0 0.0033543703071385396 -0.0139815681232485 0 0.0029853601714306894 -0.014000915431091268 0 0.003087738401988041 -0.013777574730457378 0 0.0043631235736593553 -0.013521964764968296 0 0.0028510472778344015 -0.013628413194645224 0 0.0036336610705017271 -0.013027754052331255 0 0.003087738401988041 -0.013777574730457378 0 0.0031635080557607118 -0.013558169891006246 0 0.0028510472778344015 -0.013628413194645224 0 0.0037475859756920093 -0.013015175540134677 0 0.0033371473071097477 -0.013231700561126172 0 0.0028510472778344015 -0.013628413194645224 0 0.0028846705454960162 -0.013342523088319264 0 0.0036336610705017271 -0.013027754052331255 0 0.0028846705454960162 -0.013342523088319264 0 0.0036336610705017271 -0.013027754052331255 0 0.0034436014930490028 -0.012141791986668798 0 0.0030325700960832382 -0.013109845488312705 0 0.0033998828575875278 -0.012266184978946664 0 0.0029579536163928293 -0.013324408401973669 0 0.0028621572816969107 -0.01281069700837782 0 0.0035333268139561432 -0.012277985688235304 0 0.0036336610705017271 -0.013027754052331255 0 0.0034436014930490028 -0.012141791986668798 0 0.0046675255664509994 -0.012330553822702107 0 0.0043631235736593553 -0.013521964764968296 0 0.0036336610705017271 -0.013027754052331255 0 0.0046675255664509994 -0.012330553822702107 0 0.0021177721935470178 -0.013832520057775679 0 0.0019848748640551501 -0.013464167732200032 0 0.0023983132332234258 -0.013561776349831892 0 0.0019848748640551501 -0.013464167732200032 0 0.0023983132332234258 -0.013561776349831892 0 0.002483841846158465 -0.013153026284360774 0 0.0028499533598255748 -0.013509939172408643 0 0.0030325700960832382 -0.013109845488312705 0 0.0025260934600038329 -0.013921243876816898 0 0.0029579536163928293 -0.013324408401973669 0 0.0023983132332234258 -0.013561776349831892 0 0.0025260934600038329 -0.013921243876816898 0 0.0028510472778344015 -0.013628413194645224 0 0.0028846705454960162 -0.013342523088319264 0 0.0029579536163928293 -0.013324408401973669 0 0.0023983132332234258 -0.013561776349831892 0 0.002483841846158465 -0.013153026284360774 0 0.0028621572816969107 -0.01281069700837782 0 0.002483841846158465 -0.013153026284360774 0 0.0025006312791070627 -0.012451703284042772 0 0.0029579536163928293 -0.013324408401973669 0 0.0028621572816969107 -0.01281069700837782 0 0.002483841846158465 -0.013153026284360774 0 0.0015951032729011137 -0.012995797836405634 0 0.0019848748640551501 -0.013464167732200032 0 0.002483841846158465 -0.013153026284360774 0 0.0015951032729011137 -0.012995797836405634 0 0.002483841846158465 -0.013153026284360774 0 0.0025006312791070627 -0.012451703284042772 0 0.0015951032729011137 -0.012995797836405634 0 0.0018005827038727279 -0.011866389679982723 0 0.0025006312791070627 -0.012451703284042772 0 0.0018005827038727279 -0.011866389679982723 0 0.0025006312791070627 -0.012451703284042772 0 0.0028286829402905979 -0.011157277241338064 0 0.0025006312791070627 -0.012451703284042772 0 0.0028286829402905979 -0.011157277241338064 0 0.0035333268139561432 -0.012277985688235304 0 0.0028621572816969107 -0.01281069700837782 0 0.0025006312791070627 -0.012451703284042772 0 0.0035333268139561432 -0.012277985688235304 0 0.0016879033353725918 -0.010738196438544062 0 0.0018005827038727279 -0.011866389679982723 0 0.0028286829402905979 -0.011157277241338064 0 0.0034436014930490028 -0.012141791986668798 0 0.0039988303720503889 -0.010964333568319346 0 0.0046675255664509994 -0.012330553822702107 0 0.0033998828575875278 -0.012266184978946664 0 0.0036296170337811093 -0.011710286503405901 0 0.0028286829402905979 -0.011157277241338064 0 0.0035333268139561432 -0.012277985688235304 0 0.0039988303720503889 -0.010964333568319346 0 0.0050802078284612464 -0.010334873068502075 0 0.0039988303720503889 -0.010964333568319346 0 0.0052650294068461315 -0.011439516082092375 0 0.0039988303720503889 -0.010964333568319346 0 0.0052650294068461315 -0.011439516082092375 0 0.0046675255664509994 -0.012330553822702107 0 0.0052650294068461315 -0.011439516082092375 0 0.0046675255664509994 -0.012330553822702107 0 0.0060941349581873387 -0.012114487212078966 0 0.0050802078284612464 -0.010334873068502075 0 0.0052650294068461315 -0.011439516082092375 0 0.0061895207673321297 -0.011145493370505516 0 0.0052650294068461315 -0.011439516082092375 0 0.0060941349581873387 -0.012114487212078966 0 0.0061895207673321297 -0.011145493370505516 0 0.0060941349581873387 -0.012114487212078966 0 0.0061895207673321297 -0.011145493370505516 0 0.007226534210907281 -0.011431330951332764 0 0.0066125530610724606 -0.010421922303862931 0 0.0061895207673321297 -0.011145493370505516 0 0.007226534210907281 -0.011431330951332764 0 0.0040332479004896908 -0.0086171570329470221 0 0.0037906737065725943 -0.0088044437037344096 0 0.003954032021384328 -0.0090751864117866489 0 0.0045906341021329884 -0.0098804319555688691 0 0.0044100021546210769 -0.01121287544657716 0 0.0037906737065725943 -0.0088044437037344096 0 0.003954032021384328 -0.0090751864117866489 0 0.0037842231226992667 -0.0094153869960489321 0 0.0060941349581873387 -0.012114487212078966 0 0.007226534210907281 -0.011431330951332764 0 0.0072097532268595704 -0.012829744572502928 0 0.0044100021546210769 -0.01121287544657716 0 0.0043654870018202275 -0.012391465313941304 0 0.0060941349581873387 -0.012114487212078966 0 0.0072097532268595704 -0.012829744572502928 0 0.0058170820657280423 -0.013184702428761876 0 0.0041416128176689718 -0.0097740974243280109 0 0.0038910793596849021 -0.009387324992613166 0 0.0037830400839802304 -0.0094152278337572594 0 0.0041516119554872071 -0.009348116912788142 0 0.003954032021384328 -0.0090751864117866489 0 0.0038910793596849021 -0.009387324992613166 0 0.003954032021384328 -0.0090751864117866489 0 0.0038910793596849021 -0.009387324992613166 0 0.0037842231226992667 -0.0094153869960489321 0 0.0044018444614406065 -0.011195427253846682 0 0.0044100021546210769 -0.01121287544657716 0 0.0035339960329819754 -0.01093148943027583 0 0.0044100021546210769 -0.01121287544657716 0 0.0036324095116972311 -0.0092193949012156183 0 0.0035339960329819754 -0.01093148943027583 0 0.0041416128176689718 -0.0097740974243280109 0 0.0037760454467883724 -0.01008539226954324 0 0.0037830400839802304 -0.0094152278337572594 0 0.0036766565147804864 -0.013728039354465042 0 0.0039929919021251068 -0.013315559372386904 0 0.0035723802646489334 -0.01343020288415484 0 0.0036766565147804864 -0.013728039354465042 0 0.003988007468988676 -0.013782577423219628 0 0.0039929919021251068 -0.013315559372386904 0 0.0036766565147804864 -0.013728039354465042 0 0.0033937918619332671 -0.013668623397951128 0 0.0035723802646489334 -0.01343020288415484 0 0.0031635080557607118 -0.013558169891006246 0 0.0033937918619332671 -0.013668623397951128 0 0.0035723802646489334 -0.01343020288415484 0 0.0037475859756920093 -0.013015175540134677 0 0.0043654870018202275 -0.012391465313941304 0 0.003087738401988041 -0.013777574730457378 0 0.0031635080557607118 -0.013558169891006246 0 0.0033937918619332671 -0.013668623397951128 0 0.0043631235736593553 -0.013521964764968296 0 0.0046675255664509994 -0.012330553822702107 0 0.0058170820657280423 -0.013184702428761876 0 0.0046675255664509994 -0.012330553822702107 0 0.0060941349581873387 -0.012114487212078966 0 0.0058170820657280423 -0.013184702428761876 0 
</DataArray>
</PointData>
<CellData Scalars="region_id,cross_section_updated," Vectors="" Tensors="stress,">
<DataArray type="Float64" Name="region_id" format="ascii">
5 5 6 5 5 5 5 6 5 5 5 5 5 5 5 5 5 5 5 5 6 5 5 5 5 6 5 5 5 5 5 5 5 6 5 5 5 5 5 5 5 5 6 5 5 5 5 5 5 5 5 5 5 5 6 6 5 5 5 5 5 5 5 5 6 5 5 5 5 5 5 5 5 5 5 5 5 5 5 5 5 5 5 5 5 5 5 6 5 5 5 5 5 5 5 5 5 5 5 6 5 5 5 6 5 5 5 5 5 5 5 5 5 5 5 5 5 5 5 5 5 5 5 5 5 5 5 5 5 5 5 5 5 5 5 5 5 5 5 5 5 5 5 5 5 5 5 5 5 6 5 6 5 5 5 5 5 5 5 5 5 5 5 5 5 5 5 5 5 5 5 5 5 5 5 5 5 5 6 5 5 6 5 6 5 5 5 5 5 5 5 5 5 5 5 5 5 5 6 5 6 5 5 5 5 5 5 5 6 5 6 5 5 5 5 5 5 6 5 5 6 5 5 5 5 5 5 6 6 5 5 6 5 6 5 6 6 5 5 5 6 5 5 5 5 5 5 5 5 5 5 5 5 5 6 5 5 5 5 5 5 5 6 5 5 5 5 5 5 5 6 5 5 5 5 6 5 5 5 5 5 5 6 5 5 5 6 5 5 5 5 5 5 5 6 5 5 5 5 5 5 6 5 5 5 5 5 5 6 5 5 5 5 5 5 5 6 5 5 5 5 5 5 5 5 5 5 5 5 5 5 5 5 5 5 5 5 5 6 6 5 5 5 5 5 6 5 5 5 5 5 5 5 6 5 6 5 5 5 6 5 5 5 6 5 6 5 5 5 5 5 5 5 6 5 5 5 5 5 5 5 6 5 5 5 6 5 5 5 5 5 5 5 5 5 5 5 5 5 5 5 5 5 5 5 5 5 5 5 5 5 5 5 5 5 5 5 5 6 5 5 5 5 5 5 5 5 5 5 5 5 5 5 5 5 5 5 5 5 5 5 5 5 5 5 5 5 5 5 5 5 6 5 5 5 5 5 5 5 5 5 5 5 5 5 5 5 5 5 5 5 5 6 5 5 5 5 5 5 5 6 5 5 5 5 5 6 5 5 6 5 6 5 5 5 5 6 5 5 6 5 5 5 5 5 5 6 5 5 5 5 5 5 5 5 5 5 5 5 5 5 5 5 5 5 5 6 5 5 5 5 5 5 5 5 5 5 5 6 6 5 5 5 5 5 5 5 5 5 5 5 5 5 5 5 5 5 5 5 5 5 6 5 6 6 5 5 6 5 5 5 5 5 5 5 5 5 5 5 5 5 6 5 5 5 5 5 5 5 6 6 5 5 5 5 5 5 5 5 6 6 5 5 5 6 5 5 5 5 5 5 5 5 5 5 5 5 5 5 5 5 5 5 5 5 5 5 5 5 5 5 5 5 5 5 5 5 5 5 5 6 5 5 6 5 5 5 5 6 5 5 5 6 5 5 5 6 5 5 6 5 5 5 5 5 5 5 5 5 5 5 5 5 5 5 5 5 5 5 5 5 6 5 5 5 6 5 5 5 5 5 6 5 5 5 5 5 5 6 5 5 5 5 5 5 5 5 5 5 5 5 5 5 5 5 5 5 6 5 5 5 5 5 5 5 5 5 5 5 5 5 5 5 5 5 5 5 5 5 6 5 5 5 5 5 5 5 5 5 5 5 5 5 5 5 6 5 5 5 5 5 5 5 5 5 5 5 5 5 5 5 5 5 5 6 5 5 5 5 5 5 5 6 5 5 5 5 5 5 5 5 5 5 5 5 5 5 5 5 5 5 5 5 5 6 5 5 5 5 5 5 5 5 5 6 5 5 5 5 5 5 5 5 6 5 5 5 5 5 5 5 5 5 5 5 5 5 5 5 5 5 5 5 6 5 5 5 5 5 6 5 5 5 6 5 5 5 5 5 5 6 5 5 5 5 5 5 5 5 5 5 6 5 5 5 5 5 5 5 5 5 5 5 5 6 5 6 5 5 5 5 5 5 5 6 5 6 5 5 5 5 5 5 5 5 5 5 5 5 5 5 5 5 5 5 5 5 5 5 5 5 5 5 5 5 5 5 5 5 5 5 5 5 5 5 5 5 5 5 5 5 5 6 6 5 5 6 5 5 5 5 5 5 5 5 5 5 5 5 5 5 5 5 6 5 5 5 5 6 5 5 6 5 5 5 5 5 5 6 5 6 5 5 6 5 5 5 5 5 5 5 5 5 5 6 5 5 5 5 5 6 6 5 5 5 5 6 5 5 6 5 6 5 5 5 5 5 6 5 5 6 5 5 5 5 5 5 5 5 5 5 5 5 6 5 5 5 5 5 5 5 5 5 5 5 5 5 5 5 6 5 6 5 6 6 5 6 5 5 6 5 5 5 5 5 5 6 5 6 5 5 6 5 5 5 6 5 5 6 5 5 5 5 5 6 5 5 6 5 5 5 5 5 6 5 6 5 5 6 5 5 6 5 5 5 5 5 5 5 5 6 5 5 5 5 5 5 5 5 5 5 6 5 5 5 5 6 5 5 6 5 5 5 5 5 6 5 5 5 5 5 6 5 6 5 5 5 5 5 5 6 5 5 5 5 5 5 5 5 6 6 6 5 5 5 5 6 5 6 5 5 5 6 6 5 5 5 6 5 5 5 6 5 6 5 6 6 5 6 5 5 5 5 6 5 5 5 6 5 6 5 6 5 5 5 5 5 5 5 6 5 5 5 5 6 5 5 5 5 5 5 5 5 6 5 6 6 5 5 5 6 5 5 5 5 6 6 5 5 6 6 5 5 5 5 5 6 5 5 5 5 5 5 5 5 6 5 6 5 5 5 5 5 5 5 5 5 5 5 5 5 5 5 5 5 6 5 5 5 5 5 5 5 5 5 5 5 5 5 5 5 5 5 5 5 5 5 5 5 5 5 6 5 6 5 5 5 5 5 6 6 5 5 5 5 6 6 5 6 5 5 6 5 5 6 5 5 5 5 6 6 5 5 5 5 5 5 5 5 6 5 5 6 5 5 5 6 5 5 6 5 5 5 5 5 5 6 5 5 5 5 5 5 6 5 5 5 5 5 6 5 5 6 6 5 5 6 5 5 6 5 5 5 5 5 5 5 5 5 5 5 5 6 5 6 5 5 6 5 5 5 5 5 5 6 5 5 5 6 6 6 5 5 5 6 6 5 6 6 5 5 6 5 5 6 5 6 5 6 5 5 5 6 6 5 5 6 6 6 6 5 5 5 6 6 5 5 6 6 6 5 6 6 5 5 6 5 6 6 5 6 5 5 6 5 6 6 5 5 5 5 6 6 5 5 6 5 5 5 6 5 5 5 5 5 5 5 5 5 5 5 5 5 5 5 5 5 5 5 5 5 5 5 5 5 5 5 5 5 5 5 5 5 5 5 5 5 5 5 5 5 5 5 5 5 5 5 5 5 5 5 5 5 5 5 5 5 5 6 5 6 5 5 5 5 5 5 5 5 5 5 5 5 5 5 6 5 5 5 5 5 5 5 5 5 5 6 5 5 5 5 5 5 5 5 5 5 5 5 5 5 5 5 5 5 5 5 5 5 5 5 5 5 5 5 5 5 5 5 5 5 5 5 5 5 5 5 5 5 5 5 5 5 6 5 5 5 6 5 6 5 5 5 5 5 6 5 6 5 5 5 5 5 5 5 5 5 5 5 5 5 5 5 5 5 5 5 5 5 5 5 5 5 6 5 5 5 5 5 5 6 5 6 5 5 5 6 5 5 6 5 5 5 5 5 5 5 5 5 5 5 5 5 5 5 5 5 5 5 5 5 5 5 5 5 5 5 5 5 5 5 5 5 5 5 5 5 6 5 6 5 5 5 5 5 5 5 5 5 5 6 5 5 5 5 5 5 5 5 5 5 5 5 5 5 5 5 5 6 5 5 5 6 6 5 6 5 5 5 5 5 5 5 5 6 5 5 5 5 6 5 5 5 5 5 5 5 6 5 5 6 5 6 5 5 6 5 5 6 6 5 5 5 5 5 5 5 5 5 5 5 5 5 5 5 6 5 6 5 5 5 6 5 6 5 5 5 5 5 5 5 5 5 5 5 5 6 5 6 5 5 5 5 5 5 5 5 6 5 5 6 5 5 5 6 6 5 5 5 5 5 5 5 5 5 5 5 5 5 5 5 5 5 5 5 5 5 6 5 5 5 5 5 6 5 6 5 5 5 5 6 5 5 6 5 5 5 5 5 6 5 5 5 5 6 5 5 5 5 5 5 5 6 5 5 5 6 5 5 5 5 5 5 5 5 5 5 5 6 5 5 5 5 5 5 5 5 6 5 5 5 5 5 5 6 5 5 5 5 5 5 6 5 5 5 5 5 5 5 5 5 5 5 6 5 5 5 6 5 5 5 6 5 6 5 5 5 5 5 5 6 5 5 5 5 5 5 5 5 5 5 5 5 5 5 5 6 5 5 5 5 5 6 5 5 5 5 5 5 5 5 6 5 5 5 5 5 5 5 5 5 5 5 5 5 5 5 5 6 5 5 5 5 6 5 5 5 5 5 5 5 5 5 5 5 5 5 5 5 5 5 5 5 5 5 5 5 5 5 5 6 5 5 5 6 5 6 5 5 5 5 6 5 6 5 5 5 5 5 6 5 5 5 5 5 5 5 5 5 6 5 5 5 5 5 5 5 5 5 5 5 5 5 5 5 5 5 5 5 5 5 5 5 5 6 6 5 5 5 5 5 6 5 5 5 6 5 5 5 6 5 5 6 5 6 5 5 5 5 6 5 5 5 5 6 6 5 5 5 5 5 5 5 5 5 5 5 5 6 5 5 5 5 6 5 5 5 5 5 6 5 5 6 5 5 5 5 5 5 5 5 5 5 5 5 5 5 5 5 6 5 5 6 5 5 5 6 5 5 5 5 5 5 5 5 5 5 5 6 5 5 5 5 5 5 5 5 5 5 5 5 5 5 5 5 6 5 5 6 5 6 5 5 6 5 6 5 6 5 5 5 5 5 5 5 5 5 5 5 5 5 6 5 6 6 5 5 6 6 5 5 6 6 5 5 5 6 5 6 5 5 6 5 5 5 5 6 6 5 6 5 5 6 6 5 5 6 5 5 5 6 5 5 5 6 6 6 5 5 6 5 6 6 5 5 5 5 5 5 5 5 5 5 5 6 6 5 6 5 6 5 6 5 5 5 6 5 5 5 5 5 6 5 5 5 5 5 5 5 5 5 5 5 5 5 5 5 5 5 5 5 5 5 5 5 5 6 5 5 5 5 5 5 5 5 5 5 5 5 5 5 5 5 5 5 6 5 5 5 5 5 5 5 5 5 5 5 6 5 5 5 5 5 6 5 5 5 5 5 5 5 5 5 5 5 5 5 5 6 5 5 5 5 5 5 5 5 5 5 5 5 5 5 6 5 6 5 5 5 5 6 5 5 5 5 5 5 5 5 5 5 5 5 6 5 6 5 5 5 5 6 5 5 5 5 5 5 5 6 5 5 5 5 5 5 5 6 5 5 5 6 5 6 5 5 5 5 5 5 5 5 5 6 5 5 5 5 5 5 5 5 5 5 5 5 5 5 5 5 5 5 5 5 5 5 5 5 5 5 5 5 5 5 5 5 5 5 5 5 5 5 5 5 5 5 5 6 5 5 6 5 5 5 5 5 5 5 5 5 5 6 5 5 5 5 5 6 5 5 6 5 5 5 5 5 5 6 5 5 5 5 6 5 5 6 5 6 5 5 5 5 5 5 5 5 5 5 5 6 5 6 5 5 5 5 6 5 5 5 5 5 5 5 5 5 5 5 5 5 5 5 5 5 5 5 5 5 6 5 5 5 5 6 5 5 5 5 5 5 5 6 5 5 5 5 5 6 5 5 5 6 5 5 5 6 5 5 6 5 5 5 6 5 5 6 5 5 5 5 5 5 5 5 5 5 5 5 5 5 5 5 5 5 5 5 5 5 5 5 5 5 5 5 5 5 5 6 5 5 5 5 5 5 5 5 5 5 5 6 5 5 5 5 5 5 5 5 5 5 5 5 5 5 5 6 6 5 5 5 6 5 5 5 5 6 5 5 6 5 5 5 5 5 5 5 5 5 5 5 5 5 6 6 5 5 5 5 5 5 5 5 5 5 5 6 5 5 6 5 5 5 5 5 5 5 5 5 5 5 5 5 5 5 5 5 5 5 6 5 5 5 6 5 5 5 5 5 6 5 5 5 5 5 5 5 5 5 5 5 5 5 5 5 5 5 5 5 5 6 5 5 6 5 5 5 5 5 5 5 5 5 5 5 5 5 5 5 5 5 5 5 6 5 5 5 5 5 5 5 5 5 5 5 5 5 5 5 5 5 5 5 5 5 5 5 5 5 5 5 5 5 5 5 5 6 5 5 5 5 5 5 6 5 5 5 5 5 6 5 5 5 5 6 5 5 5 5 5 5 5 5 5 5 5 5 5 5 5 5 5 5 5 5 5 5 6 5 5 5 5 5 5 5 6 5 5 6 5 5 6 5 5 5 5 5 5 6 5 5 5 5 5 5 5 5 5 5 6 5 6 5 5 5 5 5 5 5 5 6 5 5 6 5 5 5 6 5 5 5 6 5 5 5 6 6 5 5 6 5 5 6 5 5 6 5 5 5 5 5 5 5 5 5 6 5 5 5 6 5 5 5 6 5 5 5 6 5 6 5 5 6 5 5 5 5 5 5 5 5 6 5 5 6 5 5 5 5 5 5 5 5 5 5 5 5 5 6 5 6 5 5 5 6 6 5 6 5 5 5 5 6 5 6 5 5 5 5 5 5 5 5 5 6 5 5 5 5 5 5 5 5 5 5 5 5 5 5 5 5 5 5 5 5 5 5 5 5 5 5 5 5 6 5 5 5 5 5 5 6 5 5 5 5 5 5 6 5 5 5 5 5 5 6 5 5 5 6 5 5 5 6 5 5 6 5 5 5 5 5 5 6 5 5 5 6 6 5 5 5 5 5 5 5 5 5 5 5 5 5 5 5 5 5 6 5 5 5 5 5 5 5 6 5 5 5 5 5 6 5 5 5 5 5 6 5 5 6 5 5 5 5 6 5 5 5 5 5 5 6 5 6 5 6 6 5 6 5 5 5 6 5 5 5 5 5 6 5 5 5 6 5 5 5 5 6 6 6 5 5 5 5 6 6 5 6 5 5 5 5 5 5 6 5 6 5 5 6 5 5 5 6 5 5 6 5 5 5 5 5 5 5 5 5 5 5 5 6 5 5 5 5 6 5 5 5 5 6 5 5 5 5 5 5 5 5 5 6 6 6 5 5 5 6 6 5 5 6 5 6 5 5 5 5 5 5 5 6 5 5 5 5 5 5 5 5 5 5 5 5 5 5 5 5 6 5 5 5 5 5 5 5 5 5 6 5 5 6 5 6 5 6 5 5 6 5 5 5 6 6 5 5 6 5 5 5 6 5 5 5 5 6 5 5 5 5 5 5 5 5 5 5 5 6 6 5 5 5 5 5 5 5 5 5 5 5 5 5 5 5 5 5 5 5 5 5 5 5 5 5 5 5 5 5 5 5 5 6 5 5 5 5 5 5 5 5 5 5 5 5 5 5 5 5 5 5 5 6 5 5 5 5 5 5 6 6 5 5 6 6 5 5 5 6 5 5 5 5 5 5 5 5 5 5 5 5 5 5 5 5 5 5 5 5 5 5 5 6 5 6 5 6 5 5 5 5 5 5 6 5 6 6 5 5 6 5 5 5 5 5 5 6 6 5 5 6 6 5 5 6 6 5 5 5 5 5 5 5 5 6 5 5 5 5 5 6 5 5 6 5 5 5 6 5 5 5 5 5 5 5 5 5 5 5 5 5 5 5 5 5 5 5 5 5 5 5 5 5 5 5 5 5 5 5 5 5 5 6 5 5 6 5 6 6 5 5 5 5 5 5 5 5 5 6 5 5 5 5 5 6 5 5 5 5 5 5 5 6 5 5 5 5 5 5 5 5 6 5 5 5 5 5 6 5 5 5 5 5 5 5 5 5 5 5 5 5 5 5 5 5 5 5 5 5 5 5 5 5 5 5 5 5 5 6 6 5 5 5 5 5 5 5 6 5 5 5 6 5 6 5 5 5 5 5 5 5 5 5 5 5 5 5 5 5 5 5 5 5 5 5 6 5 5 5 5 5 5 6 5 5 5 5 5 5 5 6 5 5 6 5 5 5 5 5 5 6 5 5 5 6 5 5 6 6 5 5 5 5 5 5 5 5 5 5 5 5 5 5 5 5 5 5 5 5 5 5 5 5 5 5 5 5 6 5 5 5 5 5 5 5 5 5 5 5 5 5 5 5 5 5 5 5 6 5 5 5 6 6 5 5 5 5 5 6 5 5 5 6 5 5 5 5 5 6 5 5 5 5 5 5 5 5 5 5 5 5 5 5 5 5 5 5 5 5 5 6 5 5 5 5 5 5 6 5 5 5 5 5 5 5 5 5 5 5 5 6 5 5 5 5 6 5 6 5 5 5 5 5 5 5 5 5 5 5 5 5 6 5 5 5 5 5 6 5 5 5 5 5 5 6 5 5 5 5 5 5 5 5 5 5 5 5 6 5 5 6 5 5 6 5 5 6 5 5 5 5 5 5 5 5 5 5 6 5 5 5 5 5 5 5 5 6 5 5 5 6 5 5 5 6 5 5 6 5 5 5 6 5 5 5 5 5 6 5 6 5 5 5 5 6 6 5 5 5 6 5 5 5 5 6 5 5 5 5 5 5 5 5 5 5 5 5 5 5 5 6 5 5 6 6 5 5 5 5 6 5 5 5 5 5 5 6 5 5 5 5 5 5 6 5 5 5 5 5 5 5 5 6 5 5 5 5 5 5 5 5 5 5 6 5 5 6 5 5 6 5 5 5 5 5 6 6 5 5 6 6 5 6 5 6 5 6 6 5 5 6 5 6 5 6 5 6 5 6 5 5 6 5 6 5 6 5 5 5 5 5 5 6 5 5 5 6 5 5 5 5 5 5 5 5 5 6 5 5 6 5 6 5 6 5 5 5 6 6 5 5 5 5 5 5 5 5 5 5 5 6 5 5 5 5 5 6 5 5 5 5 5 5 5 5 5 5 5 5 5 5 5 5 5 6 5 5 5 5 5 5 6 5 5 5 6 5 5 6 5 5 5 6 5 6 6 5 5 5 5 5 5 5 5 5 6 5 5 5 5 5 5 5 6 5 6 5 6 5 5 5 5 5 5 5 5 5 5 5 5 5 5 5 5 5 5 5 5 5 5 5 5 5 5 5 5 5 5 5 5 5 5 5 5 5 6 5 5 6 6 5 5 5 5 6 5 5 5 5 5 6 5 5 6 6 5 5 5 5 5 5 6 5 6 5 5 6 6 5 6 5 5 5 6 5 5 5 5 6 5 5 5 6 5 5 6 6 5 5 5 6 5 5 5 5 6 5 5 6 5 5 5 6 5 5 6 5 5 5 6 5 6 5 5 6 5 5 6 6 5 5 6 5 6 6 5 5 5 5 6 5 5 5 5 6 5 5 5 5 5 5 5 5 5 5 5 5 6 5 5 5 5 6 5 6 5 5 5 5 5 6 6 6 5 5 5 5 5 5 5 5 6 5 5 5 5 5 5 6 5 5 5 5 6 5 5 5 5 5 5 5 5 5 5 5 5 5 5 5 5 5 5 6 5 6 5 5 6 6 5 6 5 5 6 5 6 5 6 5 6 5 5 5 5 6 5 5 5 6 5 5 5 5 5 5 5 5 5 5 5 5 5 5 5 5 5 5 5 5 5 5 5 5 5 6 5 5 5 5 5 6 5 5 5 5 5 5 5 5 5 5 5 6 5 5 5 5 5 6 5 5 6 6 5 5 5 6 5 5 6 6 5 6 5 5 5 5 5 5 5 5 5 5 5 5 5 5 5 5 6 5 5 5 5 6 5 5 5 5 5 5 5 5 6 6 5 5 6 5 5 5 5 5 5 5 5 5 6 6 5 5 6 5 5 5 6 5 5 5 5 5 5 5 5 5 5 5 5 5 5 5 5 5 5 5 5 5 5 5 5 5 5 6 5 5 5 5 5 5 5 5 5 5 5 5 5 5 5 5 5 5 5 5 6 5 5 5 6 6 5 5 5 6 5 5 6 5 5 5 5 5 6 5 6 5 5 5 5 5 5 5 5 6 5 5 5 6 5 5 6 5 6 5 5 5 6 5 5 5 6 5 5 5 5 5 5 5 5 5 5 5 5 5 5 5 5 5 6 5 5 5 5 5 5 5 5 5 6 5 5 5 5 5 5 5 5 6 5 5 5 5 5 5 5 5 5 5 5 5 5 6 5 5 5 6 5 5 5 5 5 5 5 5 5 5 5 5 5 5 5 5 5 5 5 6 5 5 5 6 5 6 5 5 5 6 5 5 5 6 6 5 5 5 5 5 5 5 5 5 5 5 5 5 5 5 5 5 5 5 5 5 5 6 5 5 5 5 6 5 5 5 5 6 5 5 5 5 5 5 5 6 5 5 5 5 6 5 5 5 5 5 5 6 5 5 5 5 5 5 6 5 5 5 6 5 5 5 5 5 5 5 5 5 6 5 5 5 5 5 5 6 5 5 5 5 5 5 5 5 5 5 5 6 5 5 6 5 5 5 5 5 6 5 5 6 5 5 5 5 5 5 5 6 6 5 5 5 5 6 5 5 5 5 5 5 6 5 5 5 5 5 5 5 5 5 5 6 5 5 5 5 5 5 5 5 5 5 5 5 6 5 6 5 5 5 6 5 5 6 5 5 5 5 6 5 5 5 5 5 6 5 5 5 5 5 5 5 5 6 5 5 5 5 6 5 5 5 5 5 5 5 6 5 5 5 5 5 5 5 5 5 5 6 5 5 5 6 5 6 5 5 5 5 5 5 6 5 6 5 6 5 5 5 5 6 5 5 5 5 5 5 5 5 5 5 5 5 5 5 6 5 6 5 5 5 5 5 5 5 6 5 5 5 5 5 5 5 5 5 5 5 5 5 6 5 5 5 5 6 5 5 5 5 5 5 5 5 5 5 5 5 5 5 5 5 5 5 5 5 5 5 5 5 6 5 5 5 5 6 5 5 5 6 5 5 6 5 5 6 5 5 5 5 5 5 5 5 5 5 5 5 5 5 5 6 5 5 6 5 5 5 5 5 5 5 6 5 5 5 5 5 6 5 5 5 6 5 5 5 6 5 5 5 5 5 5 5 6 5 5 5 6 5 6 6 5 5 5 5 5 6 5 5 5 5 5 5 5 5 5 5 6 5 5 5 5 5 5 5 5 5 5 5 5 5 5 5 5 5 5 5 5 5 5 5 5 5 5 5 5 5 5 5 5 5 5 5 5 5 6 5 5 5 5 5 5 5 5 5 5 5 5 5 5 5 5 6 5 5 5 5 5 5 5 5 5 6 5 5 5 5 5 5 5 6 5 5 5 5 5 5 5 5 5 5 5 5 5 5 5 5 5 5 5 5 5 6 5 5 5 5 5 5 5 5 5 5 5 5 5 5 5 5 5 6 5 5 5 5 5 5 5 5 5 5 5 5 5 5 5 5 5 5 5 5 5 5 5 5 5 5 5 5 5 5 5 5 5 5 5 5 5 5 5 5 5 5 5 5 5 5 6 5 5 5 5 5 5 5 5 5 5 5 5 5 6 5 6 5 5 5 5 5 6 5 5 5 5 5 6 6 5 5 5 5 5 5 5 5 5 5 5 5 5 5 5 5 5 6 6 5 5 5 5 5 5 6 5 6 5 5 5 5 5 5 5 5 5 6 5 5 5 5 5 5 5 5 5 5 5 5 5 5 5 5 5 5 5 6 5 5 5 5 5 6 5 6 5 5 5 5 5 5 5 6 5 5 5 6 5 5 5 6 5 5 6 5 5 5 6 5 5 6 5 6 5 6 5 5 6 5 5 5 5 5 5 5 5 5 5 5 5 5 5 5 5 5 5 5 5 5 6 5 6 5 5 5 5 5 5 5 6 5 5 5 5 5 5 5 5 5 5 5 5 5 5 5 5 5 5 5 6 5 5 5 6 5 5 5 5 5 5 5 5 5 5 6 5 5 5 5 6 5 5 6 5 5 5 5 5 6 5 5 5 5 6 5 6 5 5 6 5 5 5 5 5 5 5 6 5 5 6 5 6 5 5 5 5 5 5 5 5 5 5 5 5 5 5 5 5 5 5 6 5 5 5 5 5 5 5 6 5 5 5 5 6 5 5 5 5 5 5 5 5 5 6 5 5 5 5 6 5 5 5 5 5 5 5 5 5 5 5 5 6 5 5 5 5 5 5 5 5 5 6 5 5 5 5 5 5 5 5 5 5 5 5 6 5 5 6 5 5 5 5 5 5 5 5 5 6 6 6 5 5 5 6 5 5 5 5 5 5 6 5 5 5 6 6 5 5 5 5 5 5 5 5 5 5 5 5 6 5 5 5 6 6 5 5 5 5 5 6 5 5 5 5 6 5 5 5 5 6 5 5 5 5 5 6 6 6 5 5 5 6 6 5 5 5 5 5 5 5 5 5 6 6 5 5 5 6 6 5 5 5 5 5 5 5 5 5 5 5 5 5 5 5 5 5 6 5 6 5 5 5 5 6 5 5 5 5 5 5 5 6 5 5 5 5 5 5 5 6 5 5 6 5 6 6 5 5 5 6 6 5 5 5 6 6 5 5 5 5 5 5 5 5 5 5 6 5 5 5 5 5 5 5 6 5 5 5 5 6 5 5 5 5 5 5 6 5 5 5 5 6 5 6 5 5 5 5 5 5 5 5 5 5 5 5 5 5 6 5 5 5 5 5 5 5 6 5 5 5 5 6 5 5 5 6 5 5 5 5 5 5 5 5 5 5 5 5 5 5 5 5 5 5 5 5 5 5 6 5 6 5 5 6 5 5 5 6 5 5 6 5 5 5 5 5 5 5 5 5 5 5 5 5 5 5 5 5 5 5 5 6 6 6 5 5 5 5 5 5 5 5 5 5 5 5 5 6 5 5 5 6 5 5 6 5 5 5 5 6 5 5 6 6 5 5 5 5 6 5 5 6 5 6 5 5 5 5 5 5 5 5 5 5 5 5 6 5 5 5 5 5 5 5 6 5 6 5 5 5 5 6 5 5 5 5 5 5 5 5 5 5 5 5 5 5 5 5 5 5 5 5 5 5 5 6 5 5 5 6 5 6 5 5 5 6 5 5 5 5 5 6 5 5 6 5 5 5 5 5 5 5 5 6 5 5 5 5 5 6 5 5 5 5 5 5 5 5 5 5 5 5 5 5 6 5 5 5 5 6 5 5 5 5 5 5 5 5 5 5 5 5 6 5 5 5 5 6 5 5 5 5 5 5 5 5 5 5 5 5 5 6 5 5 6 5 5 5 6 5 5 5 5 5 5 5 5 5 5 5 5 5 6 6 5 6 6 5 5 5 6 6 5 6 5 6 5 6 5 5 5 6 5 6 5 5 5 5 6 5 5 5 5 5 5 6 5 5 5 5 5 6 5 5 6 5 5 6 5 5 6 5 5 5 5 5 6 5 6 5 5 5 5 5 5 5 5 5 5 5 5 5 6 5 5 6 5 5 5 5 5 5 5 5 5 6 5 5 5 5 5 5 5 5 5 6 5 5 6 5 6 5 5 5 5 5 5 5 6 5 5 5 5 5 5 5 6 5 6 5 5 6 5 5 5 6 5 5 5 5 6 5 5 5 5 5 6 5 5 5 5 5 5 5 5 5 5 5 5 5 5 5 5 5 5 5 5 5 6 5 5 6 5 5 5 6 5 5 5 5 6 5 5 5 5 5 5 5 5 5 5 5 5 5 5 5 5 5 5 5 5 5 5 5 6 5 5 5 5 5 5 6 5 5 5 5 5 5 5 5 5 5 5 5 5 6 5 6 5 5 6 5 5 5 5 6 6 5 6 5 6 5 5 5 5 5 6 5 5 6 6 5 5 5 5 5 6 5 5 6 5 5 5 5 5 5 5 5 6 6 5 5 5 6 5 6 5 5 5 5 5 6 5 6 5 5 5 5 5 6 6 5 5 5 5 6 5 5 5 5 6 5 5 5 5 5 5 5 5 5 5 5 5 5 5 5 5 5 6 5 5 6 5 5 5 6 5 5 5 5 5 5 5 5 5 5 5 5 5 5 5 5 5 5 5 6 5 5 5 5 5 5 5 5 5 5 5 5 5 5 6 6 5 5 5 6 5 5 5 5 5 6 5 5 5 5 5 5 5 5 5 5 5 6 5 5 6 5 5 5 5 5 5 5 5 5 5 6 5 5 5 6 5 6 5 6 5 5 5 6 6 5 6 5 5 6 5 5 6 6 5 5 5 6 5 5 6 5 6 5 5 5 6 5 5 6 6 5 6 5 5 6 5 6 5 5 5 5 5 5 5 5 5 6 5 5 5 5 5 6 5 5 5 5 5 5 5 5 5 5 6 5 5 5 5 6 6 5 5 6 5 6 5 5 5 5 5 6 5 5 6 5 6 5 5 5 5 5 5 5 6 5 5 5 5 5 5 5 5 5 6 5 6 5 6 5 6 5 5 5 5 6 5 5 5 5 5 6 6 5 5 5 5 5 5 6 5 5 5 5 5 6 5 5 5 5 6 5 5 6 5 6 5 5 5 6 5 6 5 5 6 6 6 5 5 5 5 5 5 6 6 6 5 5 5 5 6 5 6 5 6 5 5 5 5 5 5 6 5 5 5 5 5 5 5 5 5 5 5 5 5 5 5 5 5 5 5 5 5 5 5 5 5 5 5 5 5 5 5 5 5 5 5 5 5 5 5 5 5 5 5 5 5 5 5 5 5 6 5 5 5 6 6 5 5 5 5 5 5 5 5 5 5 5 5 5 5 5 5 5 5 5 6 5 5 5 5 5 5 5 6 5 5 6 5 5 6 5 5 6 5 6 5 5 6 5 5 5 6 5 6 5 6 6 5 5 5 6 6 5 5 6 5 5 6 5 5 5 5 5 5 5 5 5 5 5 5 6 5 5 5 5 6 5 5 5 5 6 5 5 5 5 5 5 5 5 5 6 5 6 5 5 5 5 6 5 5 5 6 5 5 5 5 5 5 6 5 5 6 5 5 5 6 5 5 5 5 5 5 5 6 5 5 5 5 5 6 5 5 5 5 5 5 5 5 5 5 5 5 5 5 5 6 5 5 5 5 5 6 5 5 6 5 6 5 5 5 5 6 6 5 5 6 5 5 5 5 5 5 5 5 5 5 5 6 5 6 5 5 5 5 5 6 5 5 5 6 5 5 5 6 5 5 5 5 5 5 5 5 5 5 5 5 5 6 5 5 5 5 5 5 5 6 5 6 5 5 5 5 5 5 5 6 6 5 5 5 5 5 5 5 5 5 6 5 5 5 5 5 5 6 6 6 5 6 5 5 5 5 5 5 6 5 6 5 6 5 6 5 5 5 5 5 5 6 5 5 6 5 5 5 5 6 5 5 5 5 5 5 5 5 5 5 5 5 5 5 5 5 5 5 5 5 5 6 5 6 5 5 5 5 5 5 5 5 5 5 5 5 5 5 5 5 5 5 5 5 5 5 5 5 5 5 5 5 5 5 5 5 5 5 5 5 5 5 5 5 5 5 5 5 5 5 5 5 5 5 5 5 5 5 5 5 5 5 6 5 5 5 5 5 5 5 5 5 5 5 5 5 5 5 5 5 5 5 5 5 5 5 6 5 5 5 6 5 6 5 5 5 5 5 5 5 5 5 5 5 5 5 5 5 5 5 5 5 5 5 5 5 5 5 5 5 5 5 5 5 5 5 5 5 5 5 5 5 6 5 6 5 5 5 5 5 5 5 5 5 5 5 5 5 5 5 5 5 5 5 5 5 5 5 5 5 6 5 5 5 5 5 5 5 5 5 5 5 5 5 5 5 5 5 5 5 5 5 5 5 5 5 5 5 5 5 5 5 5 5 5 5 5 5 5 5 5 5 5 5 5 5 5 5 5 5 5 5 5 5 5 5 5 5 5 5 5 5 5 5 5 5 5 5 5 5 6 5 5 5 5 5 5 5 6 5 5 6 5 5 5 5 5 5 5 5 5 5 5 5 5 5 5 5 5 5 5 5 6 5 5 5 5 5 5 5 5 5 5 5 5 5 5 5 5 5 5 5 5 5 5 5 5 5 5 5 5 5 5 5 5 6 5 5 5 5 6 5 6 5 5 5 5 5 5 6 5 5 6 5 5 6 6 5 6 5 5 5 6 5 5 5 5 5 5 5 5 5 5 5 5 5 5 5 6 5 5 5 5 5 5 5 5 6 5 5 5 5 5 5 5 5 5 5 5 5 5 5 5 5 5 5 5 5 5 5 5 5 5 5 5 5 5 5 5 5 5 5 5 5 6 5 5 5 5 5 5 5 6 5 5 6 5 6 5 5 5 5 5 5 5 5 5 5 5 6 6 5 5 6 5 5 6 6 5 5 5 5 6 5 6 5 5 6 5 6 6 5 6 5 6 5 5 5 5 5 5 5 6 5 6 5 5 5 5 5 6 5 5 5 6 5 5 6 5 6 5 6 6 5 5 6 5 5 5 5 5 5 6 5 5 5 5 5 5 5 5 6 6 5 5 5 6 5 5 5 5 6 6 5 6 5 5 5 6 5 5 5 5 5 5 5 5 5 5 5 5 5 5 5 5 6 5 5 5 5 5 5 6 5 6 5 5 5 6 6 5 5 6 5 6 5 5 5 5 5 5 5 5 5 5 5 5 6 6 5 5 5 5 5 6 5 5 5 5 5 5 5 6 5 5 5 6 5 6 5 5 6 5 5 5 5 5 5 5 5 5 6 5 5 6 5 5 5 5 5 5 5 5 5 5 5 6 5 5 5 5 5 5 5 5 5 5 5 5 5 5 5 5 5 5 5 5 5 5 6 5 5 5 5 5 5 5 5 5 5 5 6 5 5 5 5 6 5 5 5 5 5 5 5 5 5 5 5 6 5 5 5 5 5 6 5 6 5 5 5 5 5 5 5 5 5 6 5 5 6 5 5 6 5 5 5 5 6 5 5 5 5 5 5 5 5 5 5 5 5 5 5 5 5 5 5 5 5 5 6 5 5 6 5 6 5 5 5 5 5 5 5 5 5 6 5 5 6 6 6 5 5 5 6 5 5 5 5 5 5 6 6 5 6 5 5 6 5 5 6 5 5 5 5 6 5 5 5 5 6 5 5 5 5 5 5 5 5 5 5 5 6 5 5 6 5 6 6 5 5 6 6 6 5 5 5 5 5 5 5 5 5 5 6 5 5 5 5 5 5 5 5 5 6 5 5 5 5 5 6 5 5 5 5 5 5 5 5 5 5 6 5 5 5 5 5 5 5 5 5 5 5 5 5 5 5 5 5 5 5 5 5 5 5 5 6 6 5 5 5 5 5 5 5 5 6 5 5 5 5 5 5 5 5 5 5 5 5 5 5 5 5 6 5 5 5 5 6 5 5 5 6 6 5 5 5 5 5 5 6 5 6 5 5 5 6 5 5 5 5 5 5 5 5 6 5 6 6 5 5 5 5 5 5 5 5 5 5 5 5 6 5 5 6 5 6 5 5 5 5 5 5 5 5 5 5 5 5 5 5 5 5 5 5 5 5 5 5 5 6 5 5 5 5 5 6 5 5 5 5 5 5 5 5 5 5 6 5 5 5 6 5 5 5 5 5 5 5 5 5 5 5 6 6 5 5 5 5 5 6 5 5 5 6 5 5 5 5 5 5 5 5 5 5 6 5 5 5 5 5 5 5 6 6 5 6 5 5 5 5 6 5 5 5 5 5 6 5 5 5 5 5 5 5 5 5 5 6 5 5 5 5 5 5 5 5 5 5 6 5 5 5 5 5 5 5 6 5 5 5 5 5 5 5 5 5 5 5 5 5 5 5 5 5 5 5 5 6 5 5 5 6 5 5 5 5 5 5 5 5 5 5 5 5 5 6 5 6 6 5 6 6 5 5 5 5 5 6 5 5 5 5 5 5 5 6 5 5 6 5 5 6 5 5 6 5 5 6 6 6 6 5 5 6 6 5 5 6 5 5 6 5 5 5 5 6 6 6 6 5 5 5 6 5 6 5 6 5 6 6 5 5 5 5 5 5 5 6 5 5 6 5 6 5 5 6 6 5 5 5 5 5 5 5 5 5 5 5 5 5 5 5 5 5 6 5 5 5 5 5 5 5 5 5 5 5 5 5 5 5 5 5 6 5 5 5 5 5 5 5 5 5 5 5 5 5 5 6 6 5 5 5 5 6 5 6 5 5 5 6 6 5 6 5 5 5 5 5 5 5 5 5 5 5 5 5 5 5 5 5 5 5 6 5 6 5 5 5 5 6 5 5 5 5 5 5 5 5 5 5 5 5 5 5 5 5 5 5 5 5 6 5 5 5 5 5 5 5 5 5 5 5 5 5 5 6 5 5 5 5 5 5 5 5 5 5 5 5 5 5 5 5 5 5 5 5 5 5 5 5 5 5 5 5 5 5 5 5 5 5 5 5 5 5 5 5 5 5 5 5 5 5 5 5 5 5 5 5 5 5 5 5 5 5 5 5 5 5 6 5 5 5 6 5 5 6 5 5 5 5 5 5 5 5 5 5 5 6 5 5 5 5 6 5 5 5 5 5 5 5 5 5 5 5 5 5 5 5 5 5 5 5 5 5 5 5 5 5 5 5 5 5 6 5 5 5 5 6 5 5 5 5 5 5 5 5 5 5 6 5 5 6 5 5 5 5 5 5 5 5 5 5 5 5 6 5 5 5 5 5 5 5 5 6 5 5 5 5 5 5 5 5 5 5 6 5 6 5 5 5 6 5 5 5 6 5 6 5 6 6 5 5 5 5 5 6 5 5 5 5 5 5 5 5 5 5 5 5 5 5 5 5 5 5 5 5 5 5 5 6 5 5 6 5 5 5 6 5 6 5 5 5 5 5 5 5 5 5 5 5 5 6 5 5 5 5 5 5 5 5 5 5 5 5 5 5 5 5 5 5 5 6 5 5 5 5 5 5 5 5 5 5 5 5 5 5 5 5 5 5 5 5 5 5 5 5 5 5 5 6 5 5 5 5 5 5 5 5 5 5 5 5 5 5 5 5 5 5 6 5 5 5 6 5 5 5 6 6 5 5 5 5 5 6 5 5 5 5 5 5 5 6 6 5 5 5 6 5 6 5 5 5 5 5 5 6 6 5 5 6 6 5 5 5 5 5 5 5 5 5 5 6 5 5 5 5 5 5 6 5 5 5 5 5 5 5 5 5 5 5 5 5 5 5 5 5 6 5 5 5 5 6 5 5 6 5 5 5 5 5 5 5 5 5 5 5 6 5 6 5 6 5 5 5 5 5 5 5 5 5 5 5 5 5 5 5 5 5 5 5 6 5 5 6 5 5 5 6 5 5 6 5 5 5 5 6 5 5 5 5 5 5 5 6 5 5 5 5 5 5 5 5 5 5 5 5 5 5 5 5 5 5 5 5 5 5 5 5 5 5 5 5 5 6 5 5 5 5 5 5 5 5 5 5 5 5 5 5 5 5 5 5 5 5 5 5 5 5 5 5 5 5 5 5 5 5 5 5 5 5 5 6 6 6 5 5 6 5 5 5 6 5 6 5 5 5 5 5 6 5 5 5 5 5 5 5 6 5 5 5 5 5 5 5 5 5 5 5 5 5 5 6 5 5 5 6 5 6 5 5 5 5 5 5 5 5 6 5 5 5 5 5 5 5 6 5 6 5 6 5 5 5 5 5 5 5 5 6 5 5 6 6 6 5 6 5 6 5 5 5 5 5 5 5 5 5 5 5 5 5 5 5 5 5 5 5 5 5 6 5 5 6 6 5 5 5 6 5 5 5 5 5 5 5 6 5 6 5 5 5 5 6 5 5 6 5 5 5 5 5 5 5 6 5 5 6 5 5 5 6 5 5 5 5 5 5 5 5 5 6 5 5 5 5 5 5 6 5 5 6 5 5 5 5 6 5 5 5 5 5 5 6 6 6 5 5 5 6 5 6 5 6 5 5 5 5 5 5 6 5 5 5 6 5 5 5 6 5 5 5 5 5 5 5 5 5 5 5 5 6 5 5 5 6 5 5 5 5 5 6 6 5 5 6 5 6 6 6 5 5 5 6 5 5 5 5 5 6 5 5 5 5 5 5 5 5 5 5 5 5 6 5 5 5 5 5 5 6 5 5 6 5 5 6 5 5 5 5 5 6 5 5 6 5 6 5 6 5 5 5 5 5 5 6 5 5 5 5 6 5 5 5 5 5 5 5 5 5 5 6 5 5 5 5 5 6 5 5 5 5 5 5 5 5 5 5 5 5 5 5 5 6 5 5 5 5 5 6 5 6 5 5 5 5 5 6 5 5 5 5 5 6 5 5 5 5 5 6 5 5 5 5 5 5 5 5 5 5 6 5 6 5 6 5 5 6 5 5 5 5 5 5 5 5 6 5 6 5 5 5 5 5 5 5 5 5 5 6 5 5 5 5 5 5 5 5 5 5 6 5 5 5 6 5 6 6 5 5 5 6 5 5 5 6 6 5 5 5 5 5 5 5 5 5 5 6 6 5 5 5 5 5 6 5 5 5 5 5 5 5 5 5 5 6 5 6 6 6 5 5 5 5 5 5 5 5 6 5 5 5 5 5 5 5 5 5 5 5 5 5 5 5 5 5 5 5 5 5 5 5 5 5 5 5 5 5 6 5 5 5 5 6 5 5 5 5 5 5 5 5 6 5 5 5 5 5 5 5 5 6 5 5 5 5 5 5 5 5 5 5 5 5 5 5 5 5 5 5 5 5 5 5 5 5 5 5 6 5 5 5 5 5 5 6 5 6 5 5 6 5 5 5 6 5 6 5 5 5 6 5 5 5 6 5 5 5 5 5 5 6 5 5 5 5 5 5 5 5 5 5 5 5 5 5 5 5 5 5 5 5 5 5 5 5 5 5 5 6 5 6 5 5 5 5 6 5 5 5 5 5 5 5 5 5 5 5 5 5 6 5 5 6 5 5 6 5 5 5 5 5 6 5 5 5 5 5 5 5 5 6 5 6 5 5 5 5 5 6 6 5 5 6 5 5 5 6 5 5 5 5 5 5 5 6 5 5 5 5 5 5 5 5 5 5 5 5 5 5 5 5 6 5 5 5 5 5 6 5 6 5 5 5 5 5 5 5 5 5 5 5 5 6 5 6 5 5 5 5 5 5 6 6 5 5 5 5 5 5 5 5 5 5 5 5 5 5 5 5 5 5 5 5 5 6 5 5 6 5 5 5 5 5 6 5 5 5 5 5 5 6 5 5 5 5 5 5 5 5 5 5 5 5 5 5 5 5 6 5 5 6 5 5 5 5 6 5 5 5 5 5 5 5 5 5 5 5 6 5 5 5 5 5 5 5 5 5 5 5 5 5 5 5 5 5 5 5 6 5 5 5 5 5 5 5 5 5 5 5 5 6 5 5 5 5 5 5 5 5 5 5 5 5 5 6 6 5 5 5 5 5 5 6 5 5 5 5 5 5 5 5 5 5 5 5 5 5 5 5 5 5 5 5 5 5 5 5 5 5 5 5 5 5 5 5 5 5 5 6 5 5 5 5 5 5 5 5 6 5 5 5 5 5 5 5 5 5 5 5 5 6 5 5 5 5 6 5 6 5 5 5 5 5 5 5 5 6 5 5 5 5 5 5 5 5 5 5 6 5 5 5 6 5 5 6 5 5 5 5 6 5 5 6 5 5 5 5 5 5 5 5 6 5 5 5 6 5 5 5 5 5 5 5 6 5 6 5 6 5 6 6 5 5 5 6 6 6 5 5 6 5 5 5 6 5 5 5 5 6 5 5 5 5 5 5 5 5 5 5 5 5 5 5 5 5 5 5 5 5 5 5 5 5 5 5 5 5 5 5 5 5 5 5 5 5 5 5 6 5 5 5 5 5 5 5 5 6 5 5 5 5 6 5 5 6 5 5 6 5 5 5 5 6 5 5 5 5 5 6 5 5 5 5 5 5 5 5 5 5 5 5 5 6 6 5 5 5 6 5 5 5 5 5 5 5 5 5 5 5 5 5 5 6 5 5 5 5 5 5 6 5 5 6 5 5 5 5 5 5 5 5 5 5 6 5 5 5 5 5 6 5 5 5 5 5 5 5 5 5 5 6 5 5 5 5 5 5 5 5 5 5 5 5 5 5 5 6 5 5 5 5 5 5 5 5 5 5 5 5 5 5 5 5 5 5 5 5 5 5 5 6 5 6 5 5 5 6 5 5 5 5 5 5 5 5 5 6 5 5 5 6 5 5 5 5 5 5 5 5 5 5 5 5 5 5 5 5 6 5 5 5 5 5 6 5 5 5 6 5 6 5 5 5 5 5 5 6 5 5 5 5 5 5 5 5 5 5 5 5 5 5 5 5 5 5 5 5 5 5 5 5 5 5 5 6 5 5 6 5 5 5 5 5 5 5 6 5 5 5 5 6 5 5 6 5 5 5 5 5 5 6 5 5 5 6 5 5 5 6 5 5 5 5 5 6 5 5 5 5 5 6 5 5 5 5 5 5 5 5 6 5 5 6 5 5 5 5 6 5 5 5 5 6 5 5 5 5 6 5 5 5 6 5 6 5 5 5 5 5 5 5 5 5 5 6 5 5 5 5 5 5 5 6 6 5 5 5 5 5 6 5 5 5 5 5 6 5 5 5 6 5 5 6 5 5 6 5 5 5 6 5 5 5 5 5 5 6 5 5 5 5 5 6 5 5 5 5 5 6 5 5 5 5 5 5 6 5 5 5 5 6 5 5 5 5 5 6 5 5 5 5 5 5 5 5 5 5 6 5 5 5 5 5 5 5 6 5 5 5 5 6 6 5 5 6 5 5 5 5 5 5 5 6 5 5 5 5 5 5 5 6 5 6 5 5 6 5 5 5 5 6 5 6 5 5 5 5 5 5 5 5 5 5 6 5 5 5 5 5 6 5 5 5 6 5 5 5 5 6 5 5 6 5 5 5 5 5 6 5 6 5 6 6 5 5 5 5 6 6 5 5 5 5 5 5 5 5 5 5 5 5 5 6 5 5 5 5 5 5 6 6 5 5 5 5 5 5 5 5 5 5 5 5 5 6 5 5 5 5 5 5 5 5 5 5 5 5 5 5 5 5 5 5 5 5 5 5 5 5 5 5 5 5 5 5 5 5 5 6 5 5 6 5 5 5 5 5 5 5 6 5 5 5 6 5 5 6 5 5 5 6 6 5 5 5 5 6 6 5 5 5 5 5 5 5 5 5 5 5 5 5 5 6 5 5 6 5 5 5 6 5 5 5 5 6 5 5 6 5 5 5 5 5 5 5 5 5 5 5 6 5 5 5 5 5 5 5 6 5 5 5 5 5 5 5 5 5 5 5 5 5 5 5 5 5 5 6 5 5 5 5 5 5 6 5 6 5 5 5 5 5 6 5 5 6 5 5 5 6 5 5 5 6 5 5 5 5 5 5 5 5 5 5 5 5 5 5 6 5 5 5 5 6 6 5 5 5 5 5 5 5 5 5 5 5 5 5 5 5 5 5 5 5 6 5 5 5 5 5 5 5 5 6 5 6 5 5 5 5 5 5 5 6 5 6 5 5 5 5 5 6 5 5 5 5 5 5 6 5 5 5 5 5 6 6 5 5 5 6 6 6 5 5 5 5 5 6 5 5 5 5 5 6 5 5 5 5 6 5 6 6 5 6 6 5 5 5 6 5 5 5 6 5 5 5 6 5 5 5 6 5 5 5 5 5 5 5 5 6 5 5 5 6 5 5 5 5 5 5 6 5 5 5 5 5 5 6 5 5 5 5 5 5 5 5 5 5 5 5 5 5 6 5 6 5 5 5 6 5 5 6 5 6 5 6 5 5 6 5 5 5 5 5 5 6 5 5 5 5 6 5 5 5 5 5 5 6 5 5 5 5 5 5 5 5 5 5 6 5 5 5 5 5 5 5 5 5 5 5 5 5 5 5 5 5 5 5 6 6 5 5 5 6 5 5 6 5 5 6 5 5 6 5 5 6 6 5 5 5 5 6 5 5 5 5 5 5 5 5 5 5 5 6 6 5 5 5 6 5 6 5 6 5 5 5 5 5 6 5 5 6 5 6 5 5 6 6 6 5 5 5 5 6 5 5 6 5 6 5 5 6 5 5 5 5 5 5 5 5 6 5 6 6 5 5 5 5 5 6 6 5 5 5 6 6 5 5 5 5 5 5 5 5 6 5 6 5 5 5 5 5 5 5 5 5 5 5 5 5 5 5 5 5 5 5 5 5 5 5 5 5 5 5 5 5 6 5 5 5 5 5 5 5 5 5 5 5 5 5 5 5 6 5 5 6 5 5 5 5 5 6 5 5 5 5 5 5 5 5 5 5 5 5 5 6 5 5 5 5 5 5 5 5 5 6 5 5 6 5 5 5 5 6 6 6 5 5 5 5 5 6 5 5 5 
</DataArray>
<DataArray type="Float64" Name="stress" NumberOfComponents="9" format="ascii">
55624.517021640757 -156341360.61376762 0 -156341360.61376762 939897270.19602466 0 0 0 0 175246.72087119834 -262619.02663516998 0 -262619.02663516998 55690053.193687439 0 0 0 0 -20931.733989116547 -253926.66562202247 0 -253926.66562202247 476361.04981737956 0 0 0 0 -133834541.33928069 104601568.80102539 0 104601568.80102539 256690454.76194382 0 0 0 0 -144254509.41643852 -127875481.66561317 0 -127875481.66561317 943388031.21778107 0 0 0 0 42673728.997837231 -259828362.40275192 0 -259828362.40275192 306557801.78963852 0 0 0 0 69869942.525843963 -270268013.103405 0 -270268013.103405 209766569.12556005 0 0 0 0 -11661.436149066336 -286376.4470898835 0 -286376.4470898835 497504.46451836824 0 0 0 0 108736287.03881675 -360630721.3237114 0 -360630721.3237114 378797306.08639908 0 0 0 0 -60038.288427621126 -168723914.74505424 0 -168723914.74505424 531719039.92549706 0 0 0 0 187678.77307754429 -140074799.50749061 0 -140074799.50749061 249040995.90791321 0 0 0 0 -25751160.456936002 -94169770.038070679 0 -94169770.038070679 328156669.75388908 0 0 0 0 28360496.028959423 -60038380.295465469 0 -60038380.295465469 288988099.75626945 0 0 0 0 27074820.295949951 -54806265.56303215 0 -54806265.56303215 313925515.62060165 0 0 0 0 680615.32156359078 -47015657.189558029 0 -47015657.189558029 366227994.45272255 0 0 0 0 -89742671.07871753 -203365936.79983521 0 -203365936.79983521 423964813.40375996 0 0 0 0 -22935699.105195522 -93954012.065221786 0 -93954012.065221786 276552595.08702254 0 0 0 0 -68853810.148485124 -32804870.038579941 0 -32804870.038579941 284629745.45707393 0 0 0 0 -162517966.78991646 67297346.849689484 0 67297346.849689484 112484194.42175102 0 0 0 0 -412528755.55290043 -66385583.496910095 0 -66385583.496910095 378005662.4589119 0 0 0 0 -13426.740260035178 -476555.88911208231 0 -476555.88911208231 866101.10560555384 0 0 0 0 108571077.11630741 -220428383.92678452 0 -220428383.92678452 -66018226.874624252 0 0 0 0 15859208.996237583 -250589517.08244228 0 -250589517.08244228 390685515.26589966 0 0 0 0 -142995124.60895136 -260951212.19572258 0 -260951212.19572258 390010555.37049675 0 0 0 0 -142953560.77162579 -388310772.73839378 0 -388310772.73839378 943056593.84633636 0 0 0 0 -88427.281059974906 -614862.90724787023 0 -614862.90724787023 823845.37539964542 0 0 0 0 -391975602.05884945 184765116.2222023 0 184765116.2222023 676263430.48927307 0 0 0 0 75210513.879478857 -497846872.2989521 0 -497846872.2989521 331164967.2117424 0 0 0 0 -351417272.04566377 5030807.560959816 0 5030807.560959816 942877851.34068298 0 0 0 0 -18994908.939240783 -45646105.50185585 0 -45646105.50185585 536099638.56650925 0 0 0 0 -18872668.779755186 -156989488.07953513 0 -156989488.07953513 733441091.35055923 0 0 0 0 -133494695.18218674 211620211.30833912 0 211620211.30833912 216498953.3394928 0 0 0 0 377052398.4491843 -422989951.38827324 0 -422989951.38827324 1466768259.9478874 0 0 0 0 -90273.998068049157 348613.08394144289 0 348613.08394144289 1243487.0360640027 0 0 0 0 399284730.85042089 -415627777.04750061 0 -415627777.04750061 636962044.40703011 0 0 0 0 93071155.669688225 -328273487.15779877 0 -328273487.15779877 945617205.35649419 0 0 0 0 289935763.66820294 -241587328.53551292 0 -241587328.53551292 391143105.49570274 0 0 0 0 298524826.18680239 -358264359.9318428 0 -358264359.9318428 403463286.32361937 0 0 0 0 28676873.313272923 150666071.5620842 0 150666071.5620842 -291119596.24367142 0 0 0 0 -95584114.696206346 705658851.91248131 0 705658851.91248131 -5478713.0657691956 0 0 0 0 -54500462.279554248 49515275.410136223 0 49515275.410136223 51021045.217302322 0 0 0 0 -281166753.46148872 -66553524.786677361 0 -66553524.786677361 62616185.356693268 0 0 0 0 -587823.82309694996 661924.29556668457 0 661924.29556668457 3076247.0619535539 0 0 0 0 -360850625.91843462 228163627.46982861 0 228163627.46982861 -44491696.443325043 0 0 0 0 -186227781.59347248 11765616.926591873 0 11765616.926591873 3730025.8237190247 0 0 0 0 -109349890.13688332 26054068.312274933 0 26054068.312274933 1419942.9526519775 0 0 0 0 -179195722.99642944 15183047.591835022 0 15183047.591835022 19990829.401878357 0 0 0 0 -123269118.51213136 -962004.04868793488 0 -962004.04868793488 107979156.78449631 0 0 0 0 60361504.901018471 -144724580.3926239 0 -144724580.3926239 101022280.36063004 0 0 0 0 -57245864.540742934 -434159683.52231979 0 -434159683.52231979 282932065.30633926 0 0 0 0 145517583.14119571 -349304412.59547043 0 -349304412.59547043 -69389911.680106163 0 0 0 0 203415385.13638473 -382086241.52673721 0 -382086241.52673721 275483932.48396647 0 0 0 0 199289236.91626233 -211564709.27385807 0 -211564709.27385807 274874605.85313034 0 0 0 0 -235623717.85529542 90260368.385429382 0 90260368.385429382 -27210599.642059326 0 0 0 0 -938034.4894561891 601279.36262847111 0 601279.36262847111 3796347.086873062 0 0 0 0 -621053.01765373105 -434062.94797610678 0 -434062.94797610678 674186.57766519301 0 0 0 0 -152522480.35766572 -444889704.912148 0 -444889704.912148 440611386.73844147 0 0 0 0 -172883614.47496122 -198231941.28188324 0 -198231941.28188324 353576007.12834167 0 0 0 0 102710316.83890772 23308615.260124207 0 23308615.260124207 -12815436.570888519 0 0 0 0 5295208.445717454 -35703609.316965103 0 -35703609.316965103 71455867.235267639 0 0 0 0 -262699543.81490976 -14711404.133914948 0 -14711404.133914948 116864664.34864426 0 0 0 0 -240237919.97059295 4484104.2368428707 0 4484104.2368428707 80526722.000957489 0 0 0 0 -237817105.28285903 -142786421.30298233 0 -142786421.30298233 -98528974.295463562 0 0 0 0 -216945339.4191646 -89942341.549578667 0 -89942341.549578667 30059173.665378571 0 0 0 0 -461091.88960009813 -1155844.4063899037 0 -1155844.4063899037 4291540.5825004578 0 0 0 0 -166771809.39796591 -68266156.729774475 0 -68266156.729774475 -44236074.393409729 0 0 0 0 -118824106.26055908 28359557.527999878 0 28359557.527999878 -1913613.9485292435 0 0 0 0 -113516762.52846754 47954094.255080223 0 47954094.255080223 36825414.743057251 0 0 0 0 -148647766.15317002 -14505422.589775085 0 -14505422.589775085 111174443.1978302 0 0 0 0 105451215.61685272 -93862865.411916733 0 -93862865.411916733 77233184.938114166 0 0 0 0 -6830827.3088088036 -118030111.44962311 0 -118030111.44962311 116615673.59756851 0 0 0 0 -93071893.767079949 -2421504.771191597 0 -2421504.771191597 41804230.595928192 0 0 0 0 -184771490.11228037 725806.80249786377 0 725806.80249786377 87088787.177696228 0 0 0 0 -51129558.555826187 -135658426.52286339 0 -135658426.52286339 46693829.405974388 0 0 0 0 -33615411.807244599 -102135394.77452469 0 -102135394.77452469 94948897.384083748 0 0 0 0 -109829550.08659697 3627752.5539464951 0 3627752.5539464951 -31400015.966514587 0 0 0 0 -28444556.049245827 -84375387.131520271 0 -84375387.131520271 150980434.91494751 0 0 0 0 138375439.69365561 -146769095.1146431 0 -146769095.1146431 42822324.291275024 0 0 0 0 124104837.73867977 -98520031.189011574 0 -98520031.189011574 -7567290.8507919312 0 0 0 0 64419433.365896463 -159605365.32807159 0 -159605365.32807159 62634176.188621521 0 0 0 0 -3481974.1421929598 -84444614.866381645 0 -84444614.866381645 -92955.200107574463 0 0 0 0 68802497.873790383 -64455421.294704437 0 -64455421.294704437 -38825384.227725983 0 0 0 0 62425394.242476583 -151646375.0054245 0 -151646375.0054245 48047703.659755707 0 0 0 0 65603441.482489944 -135705953.33319473 0 -135705953.33319473 2059173.989235878 0 0 0 0 65559641.629995711 -102148154.38726282 0 -102148154.38726282 -14444048.315452576 0 0 0 0 -248707606.4526965 -15120806.12934494 0 -15120806.12934494 56738040.898614883 0 0 0 0 -182538706.44950199 -52081655.858892441 0 -52081655.858892441 46120474.501754761 0 0 0 0 -221342.08037403008 -922011.49369861407 0 -922011.49369861407 3098406.1772982385 0 0 0 0 -84381293.384987354 79938496.802892685 0 79938496.802892685 19191318.298160553 0 0 0 0 -64620213.34440577 87956011.600301743 0 87956011.600301743 44345304.765358925 0 0 0 0 -93417153.331736624 37503534.783188105 0 37503534.783188105 57146687.236614227 0 0 0 0 -81998381.907999396 5677400.8410434723 0 5677400.8410434723 -31961352.033340454 0 0 0 0 -8818327.2092319727 35523211.404635429 0 35523211.404635429 75672062.41053009 0 0 0 0 -26408712.872735381 66388708.241407394 0 66388708.241407394 41318036.679712296 0 0 0 0 8512764.2411964536 72406801.516349792 0 72406801.516349792 139389783.67061996 0 0 0 0 20416175.355058372 71474055.785776138 0 71474055.785776138 50356427.425266266 0 0 0 0 35940574.699214965 44727319.824943542 0 44727319.824943542 28862975.494253159 0 0 0 0 72172022.062932819 4470513.8629341125 0 4470513.8629341125 -1624569.3923568726 0 0 0 0 68291734.829543367 79788059.410352707 0 79788059.410352707 61459762.742134094 0 0 0 0 -136550.68839885527 -21795.669813007698 0 -21795.669813007698 926699.69686695188 0 0 0 0 17455.63688003322 19608097.184485435 0 19608097.184485435 -66260302.540126801 0 0 0 0 -18188194.653556827 6284086.0781817436 0 6284086.0781817436 -1905759.2095184326 0 0 0 0 7935945.5937742591 13053586.729476929 0 13053586.729476929 19689487.373390198 0 0 0 0 -23379.616840750528 85171.378543996601 0 85171.378543996601 371560.3582453914 0 0 0 0 159568499.11887383 80558869.531352997 0 80558869.531352997 13684728.985926628 0 0 0 0 -51018481.620435424 -28630842.613300323 0 -28630842.613300323 216246812.66089249 0 0 0 0 196777142.21900159 159387210.50078964 0 159387210.50078964 142635553.70368958 0 0 0 0 41861900.498213112 60659197.118900299 0 60659197.118900299 74855110.639274597 0 0 0 0 63798606.340955563 121440847.23272705 0 121440847.23272705 201558328.96906281 0 0 0 0 9679133.2276905775 54969596.570547104 0 54969596.570547104 243425972.7636261 0 0 0 0 35490057.615624592 107357539.82121658 0 107357539.82121658 435398268.09189606 0 0 0 0 22425377.605788141 42355009.479883194 0 42355009.479883194 211477751.86873507 0 0 0 0 75358492.5200008 -61666779.641822815 0 -61666779.641822815 335505529.24105072 0 0 0 0 -138900.23574967735 93785924.68956852 0 93785924.68956852 449722542.77861404 0 0 0 0 114278701.97318304 -16106684.433524132 0 -16106684.433524132 313288574.4587059 0 0 0 0 65865848.93762967 -9937837.1283302307 0 -9937837.1283302307 325124416.44221115 0 0 0 0 -30215547.285962611 -79227735.769193649 0 -79227735.769193649 301741565.30878448 0 0 0 0 10952640.567218162 -33330788.615159988 0 -33330788.615159988 274707283.06377411 0 0 0 0 15241349.122105792 -51606218.618103027 0 -51606218.618103027 345400773.98523712 0 0 0 0 -148022362.61212039 -110253087.70512962 0 -110253087.70512962 288856018.33128357 0 0 0 0 -36204047.749420941 -47107142.437664032 0 -47107142.437664032 190456504.73767853 0 0 0 0 -35991974.532425821 -102965815.69433212 0 -102965815.69433212 288493033.78649712 0 0 0 0 172375545.60637724 -257616200.73321104 0 -257616200.73321104 173064947.2466774 0 0 0 0 -45592455.642185569 -81897945.132854462 0 -81897945.132854462 133486440.93370056 0 0 0 0 -16704392.64813605 -102744910.79696369 0 -102744910.79696369 134014391.7740097 0 0 0 0 -58096957.13321805 -23767383.894388199 0 -23767383.894388199 88993637.552230835 0 0 0 0 -27236596.565093569 6777424.3883118629 0 6777424.3883118629 117525437.24463654 0 0 0 0 -24224469.259472914 -20818323.134481668 0 -20818323.134481668 214243601.98551941 0 0 0 0 2598241.9687868357 10821035.367050171 0 10821035.367050171 129082466.15907717 0 0 0 0 -36194014.891246468 -49462662.291219711 0 -49462662.291219711 285856194.85601044 0 0 0 0 46338509.61368414 -31613239.401019573 0 -31613239.401019573 -34779740.18819046 0 0 0 0 12541691.595833495 -80184518.167797089 0 -80184518.167797089 144268349.90532303 0 0 0 0 -16253040.621911108 -54222071.126838684 0 -54222071.126838684 171012282.59115219 0 0 0 0 23590486.619696885 -32529169.337334633 0 -32529169.337334633 206293699.82882118 0 0 0 0 8609471.1889421158 -94983242.270305395 0 -94983242.270305395 299755413.441679 0 0 0 0 30034132.376469135 -214871470.87346745 0 -214871470.87346745 420619383.08318138 0 0 0 0 -21675880.740583934 -153291935.09197426 0 -153291935.09197426 424338382.61856079 0 0 0 0 120935101.15005252 -145504684.35660362 0 -145504684.35660362 145825381.04625702 0 0 0 0 -75318581.501762584 -262954094.36519098 0 -262954094.36519098 945361997.62456608 0 0 0 0 -131354417.34268485 -150259658.9788413 0 -150259658.9788413 741642320.92902756 0 0 0 0 -107630945.0703467 -149270600.62467003 0 -149270600.62467003 741349169.73655319 0 0 0 0 -80161251.813438132 -145833850.22308493 0 -145833850.22308493 579454181.76023674 0 0 0 0 -143592168.23311189 -47085602.016911507 0 -47085602.016911507 761603610.19879055 0 0 0 0 -180317186.84369573 -123901230.80899954 0 -123901230.80899954 944846586.48417854 0 0 0 0 -142424791.30664757 -80733160.847966313 0 -80733160.847966313 754077417.90746117 0 0 0 0 -29984421.552776165 -40491419.156678438 0 -40491419.156678438 389822313.76405334 0 0 0 0 -64585334.16666317 17565757.406734467 0 17565757.406734467 486825000.44458294 0 0 0 0 16082551.454645693 52958743.634902954 0 52958743.634902954 137395246.16481781 0 0 0 0 -26929028.025440574 87652147.185442924 0 87652147.185442924 366998503.77857161 0 0 0 0 190379.51711544732 292878.16005309857 0 292878.16005309857 265531.51405808516 0 0 0 0 75649322.471845448 192746907.72235298 0 192746907.72235298 351854913.80491161 0 0 0 0 209082.75222685654 -258901.31560697453 0 -258901.31560697453 1009196.9301151875 0 0 0 0 -29422351.558120944 -74347073.088707924 0 -74347073.088707924 697822262.92302513 0 0 0 0 -32377502.542737849 109449803.71058464 0 109449803.71058464 635224603.2382679 0 0 0 0 -41888982.688097037 63962314.9053545 0 63962314.9053545 944761992.37279129 0 0 0 0 -21632456.166547962 54845160.853312492 0 54845160.853312492 701384726.53699493 0 0 0 0 66402021.609460346 228669146.39299583 0 228669146.39299583 944785577.86202097 0 0 0 0 328873371.43207002 33084888.223986626 0 33084888.223986626 655379758.42438126 0 0 0 0 293191705.0196349 218041889.41918564 0 218041889.41918564 457425039.70609474 0 0 0 0 139251358.00914073 335883383.04314041 0 335883383.04314041 687461907.99884224 0 0 0 0 41700146.682612889 365038717.68154907 0 365038717.68154907 681941237.63224792 0 0 0 0 -37320057.762143448 314273590.41239357 0 314273590.41239357 1093352833.9863625 0 0 0 0 607206459.23610592 193877711.63396072 0 193877711.63396072 945298060.03574109 0 0 0 0 -88254279.010179579 632034689.48000526 0 632034689.48000526 733746048.85095215 0 0 0 0 48536224.760329247 264471692.32183075 0 264471692.32183075 339300437.14869881 0 0 0 0 146726901.34999281 372673960.11016512 0 372673960.11016512 252729716.30477524 0 0 0 0 8705742.1461079419 -95284536.77725029 0 -95284536.77725029 345050254.09449005 0 0 0 0 167411757.62098148 111097182.9395256 0 111097182.9395256 133900961.81614685 0 0 0 0 173053564.42526561 187935790.31019783 0 187935790.31019783 588436176.39933586 0 0 0 0 209014868.58300853 -231640925.99383831 0 -231640925.99383831 506815890.55848336 0 0 0 0 438108594.60653758 -220838242.84442616 0 -220838242.84442616 89275012.413665771 0 0 0 0 81663139.572510898 -111832575.16407967 0 -111832575.16407967 107072538.72697258 0 0 0 0 194825311.044283 -155429246.27363157 0 -155429246.27363157 109304961.45904922 0 0 0 0 102181791.88011104 -116099477.71398616 0 -116099477.71398616 213372309.39771271 0 0 0 0 292411725.20929205 -137541466.61569023 0 -137541466.61569023 63105266.010994911 0 0 0 0 233724918.12197572 -202763480.82768059 0 -202763480.82768059 122537949.19903564 0 0 0 0 111384992.30346555 -14020135.432788372 0 -14020135.432788372 -8378034.7872047424 0 0 0 0 -46836018.973178506 -23942672.237812042 0 -23942672.237812042 88624309.088591576 0 0 0 0 619898.01653157361 -301850.91108391713 0 -301850.91108391713 2276903.2719012708 0 0 0 0 50837056.485984921 3035085.4779500961 0 3035085.4779500961 -37855888.012273788 0 0 0 0 424521582.27715933 -67470172.382940292 0 -67470172.382940292 10990763.32460022 0 0 0 0 78530.512336514425 42184.921805500984 0 42184.921805500984 55548.102933817776 0 0 0 0 377634599.10424185 -209468636.14644432 0 -209468636.14644432 81370755.693004608 0 0 0 0 210512.13748015338 -231633.63019530568 0 -231633.63019530568 169623.81313564442 0 0 0 0 139567284.98506975 -94035987.090241253 0 -94035987.090241253 84412108.03339386 0 0 0 0 185274239.63314462 -163876196.32601166 0 -163876196.32601166 62260000.983401299 0 0 0 0 42838082.703696728 48074291.860383987 0 48074291.860383987 21193740.982635498 0 0 0 0 294388995.30779552 -32979979.950645447 0 -32979979.950645447 -61183599.488349915 0 0 0 0 180542851.65745878 106616590.56330872 0 106616590.56330872 -44471827.055231094 0 0 0 0 118700654.56312644 -54210906.46377182 0 -54210906.46377182 -33073528.033496857 0 0 0 0 111141583.15176845 -57779620.576356888 0 -57779620.576356888 -24905553.549942017 0 0 0 0 103626493.17183685 -117969713.24026489 0 -117969713.24026489 -15222918.087755203 0 0 0 0 40858547.378861666 -60653604.880807877 0 -60653604.880807877 -16027615.372123718 0 0 0 0 67910886.124470949 -91716582.30329895 0 -91716582.30329895 4710251.3179969788 0 0 0 0 60111199.389998436 -31762514.781801224 0 -31762514.781801224 -44780102.701835632 0 0 0 0 15570305.084353745 -36517144.192142963 0 -36517144.192142963 3289340.8269958496 0 0 0 0 5650550.6135435104 -2982195.6996984482 0 -2982195.6996984482 -1499945.4989852905 0 0 0 0 1997457.751226902 -2327578.265039444 0 -2327578.265039444 -284352.71941566467 0 0 0 0 966726.85797926039 -1334687.7612658571 0 -1334687.7612658571 -1248411.6835530289 0 0 0 0 -1818273.5246839523 -4830459.4985656738 0 -4830459.4985656738 1105147.0829429626 0 0 0 0 959116.22256594314 -2017740.5340637353 0 -2017740.5340637353 2192958.3418865111 0 0 0 0 2956903.5061788559 -6243393.2493133545 0 -6243393.2493133545 48574.938671112061 0 0 0 0 -1915954.2735261917 2928751.6019878387 0 2928751.6019878387 5796362.8545246124 0 0 0 0 3512609.1102671623 -2710430.3626117706 0 -2710430.3626117706 672130.05361747742 0 0 0 0 3331524.9405193329 -2389686.4740877151 0 -2389686.4740877151 5298544.2564582825 0 0 0 0 -171197.8922560215 -167569.84178161621 0 -167569.84178161621 3776624.0077943802 0 0 0 0 2690138.8585329056 -833361.4337053299 0 -833361.4337053299 2970075.7248325348 0 0 0 0 8589653.3498953581 -2335442.6725721359 0 -2335442.6725721359 -6162201.2761974335 0 0 0 0 2065686.6663167211 -289011.9610056309 0 -289011.9610056309 2825480.7271573581 0 0 0 0 16712966.792780161 -48778027.120415688 0 -48778027.120415688 73984817.545732498 0 0 0 0 634833.18485392362 -1008932.349098002 0 -1008932.349098002 2519094.2687731534 0 0 0 0 -9268976.5804286301 -10960278.805811644 0 -10960278.805811644 3277682.5340118408 0 0 0 0 3606544.9111195207 -984663.79811096191 0 -984663.79811096191 -855849.02113437653 0 0 0 0 28770554.633853242 -19658016.718107224 0 -19658016.718107224 -442117.93750953674 0 0 0 0 30129790.654455431 12046085.43869701 0 12046085.43869701 4927250.7898406982 0 0 0 0 35056949.854477346 9849584.6841678619 0 9849584.6841678619 46646001.378074646 0 0 0 0 -8226844.6586178541 -58408837.099990845 0 -58408837.099990845 38494023.579965115 0 0 0 0 1403352.2607327367 1007081.3887370601 0 1007081.3887370601 -26636.059426771477 0 0 0 0 -18146475.58985579 -14439873.573779106 0 -14439873.573779106 95598122.78849411 0 0 0 0 7801352.9699118435 5548366.2884674072 0 5548366.2884674072 -2252245.4479198456 0 0 0 0 4159936.4084499832 27312.01552989427 0 27312.01552989427 2413173.2567593092 0 0 0 0 5377963.0713691711 -1138694.1047172546 0 -1138694.1047172546 4916840.8257751465 0 0 0 0 2929205.7402762175 -12303.948596715927 0 -12303.948596715927 5367850.9371471405 0 0 0 0 4433204.4138665199 -3590543.6168746948 0 -3590543.6168746948 5573250.2391166687 0 0 0 0 8052539.0495882034 -3667806.3919916153 0 -3667806.3919916153 7420819.2492052913 0 0 0 0 5264277.0957083702 -1701685.6381320953 0 -1701685.6381320953 8985065.4067993164 0 0 0 0 4990344.0282351971 -1349411.1434671879 0 -1349411.1434671879 7508196.6654186249 0 0 0 0 3045584.9981668359 -568916.62706900295 0 -568916.62706900295 3899305.6270311028 0 0 0 0 713078.50323757296 788161.54149037914 0 788161.54149037914 8352751.5400605192 0 0 0 0 -979228.7126531601 10513648.498046637 0 10513648.498046637 1877361.6762461662 0 0 0 0 93008283.923538208 -65600152.579657555 0 -65600152.579657555 -29596553.739575386 0 0 0 0 -1036405.3101962539 867079.51337203337 0 867079.51337203337 2396371.5399093744 0 0 0 0 5059638.5191612244 92777253.924707413 0 92777253.924707413 86666139.010926723 0 0 0 0 1784057.6017842623 1262272.5912239111 0 1262272.5912239111 3643724.6934289085 0 0 0 0 102523272.68675351 -67407898.726417303 0 -67407898.726417303 -73549200.836122513 0 0 0 0 16541.213433802593 307503.92092142114 0 307503.92092142114 748445.40155132115 0 0 0 0 2158842.0990834776 683395.53416520078 0 683395.53416520078 2422124.886621573 0 0 0 0 16186987.592829406 -15359062.653251648 0 -15359062.653251648 -29019521.596450329 0 0 0 0 589381.9002289772 548739.66882991791 0 548739.66882991791 1493229.4691514969 0 0 0 0 47808218.17902559 22229451.537796974 0 22229451.537796974 6558558.8969020844 0 0 0 0 1794898.8262422697 1908458.2532102906 0 1908458.2532102906 4197013.3100356478 0 0 0 0 -20625853.673934434 52428097.664631605 0 52428097.664631605 48273328.715118408 0 0 0 0 97950914.078536034 6654258.1079916954 0 6654258.1079916954 8267056.1042537689 0 0 0 0 24937683.343359709 30193235.291315794 0 30193235.291315794 9694512.9682283401 0 0 0 0 12817204.768204689 27129822.439167976 0 27129822.439167976 18191638.758597612 0 0 0 0 1501732.7392892838 24423274.128875256 0 24423274.128875256 17920371.554225922 0 0 0 0 1142792.5072270632 21543472.919929564 0 21543472.919929564 7587071.296043396 0 0 0 0 13717025.592314243 25736785.592748642 0 25736785.592748642 1271104.2303472757 0 0 0 0 22498421.563531876 24314376.90756917 0 24314376.90756917 351456.20828485489 0 0 0 0 29166125.537806988 18421340.984650612 0 18421340.984650612 -11842762.519682884 0 0 0 0 42993902.477920294 21191504.99902153 0 21191504.99902153 -11910190.049627304 0 0 0 0 22220908.086136818 2452874.0445346832 0 2452874.0445346832 -1750952.0611701012 0 0 0 0 -16687328.740772247 21160020.500091076 0 21160020.500091076 627772.62067198753 0 0 0 0 6266576.0530557632 14075836.604279995 0 14075836.604279995 -2770931.655228138 0 0 0 0 -38488.239085425623 1917180.0633177925 0 1917180.0633177925 10673301.429578232 0 0 0 0 3733053.9466934204 -6594789.4807014465 0 -6594789.4807014465 11430105.635777473 0 0 0 0 1124271.5206165314 -7135977.1688556671 0 -7135977.1688556671 11418243.086795807 0 0 0 0 3799567.4463262558 -5735132.365401268 0 -5735132.365401268 6845042.2354393005 0 0 0 0 6681268.9944648743 -10804284.188035965 0 -10804284.188035965 8743820.5954627991 0 0 0 0 -1519013.2312812805 -8684530.2956123352 0 -8684530.2956123352 14053834.478271484 0 0 0 0 2805292.1280879974 -9434080.227057457 0 -9434080.227057457 14177255.982402802 0 0 0 0 -65146940.61181736 -13905793.757479668 0 -13905793.757479668 23447083.370349884 0 0 0 0 -74876.566375790862 3142378.787409924 0 3142378.787409924 12659858.855502017 0 0 0 0 2369270.5153827667 -62636866.370124817 0 -62636866.370124817 -20482206.024646759 0 0 0 0 -23290689.40664196 15399728.120629549 0 15399728.120629549 10629455.732021809 0 0 0 0 -29633643.099919081 30166760.289853811 0 30166760.289853811 2953375.2288460732 0 0 0 0 -19224876.840940475 17542185.364135742 0 17542185.364135742 15429378.11749506 0 0 0 0 -19366751.0200634 14263889.131104469 0 14263889.131104469 24402775.866892338 0 0 0 0 -41119051.424820423 21995186.917083502 0 21995186.917083502 18329823.894101143 0 0 0 0 -29390231.492235184 10719219.491257191 0 10719219.491257191 11098430.477630258 0 0 0 0 -26390.024171442492 4265155.1645483784 0 4265155.1645483784 14437307.297933208 0 0 0 0 -21648981.766919613 5094139.3894023895 0 5094139.3894023895 177385877.39359283 0 0 0 0 -162074700.96221828 106465687.1652298 0 106465687.1652298 235163433.30546951 0 0 0 0 120470758.95033705 -527455.45418119431 0 -527455.45418119431 -43975547.951057434 0 0 0 0 89071966.738046646 -38756812.941661835 0 -38756812.941661835 -46033415.930706024 0 0 0 0 197370.08350475522 -638151.31444389559 0 -638151.31444389559 305331.91989362985 0 0 0 0 -35868293.673760891 27569627.620948792 0 27569627.620948792 142088787.36752129 0 0 0 0 -9585513.2520627975 24278252.254016876 0 24278252.254016876 64163103.23337543 0 0 0 0 -33284829.937700272 21277640.2787714 0 21277640.2787714 71904956.488609314 0 0 0 0 -9248698.4394865036 7556203.7817459106 0 7556203.7817459106 78372042.050159454 0 0 0 0 51039861.494040012 19499861.521891594 0 19499861.521891594 -85448368.725395203 0 0 0 0 -135517296.09719634 -19794557.801795959 0 -19794557.801795959 126531382.6519165 0 0 0 0 310803.05015976855 -450001.13912749942 0 -450001.13912749942 -279853.87130011246 0 0 0 0 -59812873.285096645 -9872803.3074398041 0 -9872803.3074398041 65718011.821861267 0 0 0 0 49773611.278095245 2840889.2876472473 0 2840889.2876472473 16768752.748168945 0 0 0 0 -340504.45486068726 -28118962.647180557 0 -28118962.647180557 13760231.568490028 0 0 0 0 441802.45022021694 -1352550.1109622503 0 -1352550.1109622503 990497.35096025281 0 0 0 0 29611187.656187296 -15981223.323507309 0 -15981223.323507309 4109862.5751876831 0 0 0 0 1592181.7244896889 -4463737.89793396 0 -4463737.89793396 4605743.9653053284 0 0 0 0 5878889.5112003684 -7252488.5494039059 0 -7252488.5494039059 2373592.0748176575 0 0 0 0 2698234.3957395554 -3683814.2593412399 0 -3683814.2593412399 4262219.1343650818 0 0 0 0 4517761.8881950378 -5804487.558719635 0 -5804487.558719635 5026809.5962395668 0 0 0 0 -15763391.41828084 -16165035.173351288 0 -16165035.173351288 1465054.863067627 0 0 0 0 23232707.909339905 -22020645.7122612 0 -22020645.7122612 -23696217.629089355 0 0 0 0 636664.53809228539 -1675621.3552065678 0 -1675621.3552065678 1637110.6227134969 0 0 0 0 30746015.230242252 1827332.2347621918 0 1827332.2347621918 -16015045.784431458 0 0 0 0 -34229126.855428934 4040216.9187941551 0 4040216.9187941551 43465913.237434387 0 0 0 0 49903620.070174456 -69107118.108081818 0 -69107118.108081818 -47778746.248685837 0 0 0 0 -101265042.98258972 39659272.096096039 0 39659272.096096039 140624284.48560333 0 0 0 0 -8436958.0283644199 -4022538.2498207092 0 -4022538.2498207092 -23610528.487184525 0 0 0 0 -74983372.877908826 -72499152.612436295 0 -72499152.612436295 -11648928.81388092 0 0 0 0 673452.04168678855 -962918.61373267602 0 -962918.61373267602 -699212.7707452625 0 0 0 0 3318752.0338408947 -40970713.675516129 0 -40970713.675516129 7812570.0175908804 0 0 0 0 25159676.762064815 -29599717.093396187 0 -29599717.093396187 -32806136.708507538 0 0 0 0 54436642.922198057 8788798.4977378845 0 8788798.4977378845 -20114613.42570591 0 0 0 0 1824229.6361351125 48318494.30705452 0 48318494.30705452 -43258853.994819641 0 0 0 0 94073964.421162248 -7564792.8009824753 0 -7564792.8009824753 64238644.231777191 0 0 0 0 -16014592.990312278 -26713158.90853405 0 -26713158.90853405 238613397.582901 0 0 0 0 319375.52133445721 261371.54065616988 0 261371.54065616988 78915.413410433204 0 0 0 0 9219632.3386983871 65892754.125263214 0 65892754.125263214 104453635.94438553 0 0 0 0 1014981.5367840528 3239520.5053300858 0 3239520.5053300858 73270022.075641632 0 0 0 0 10112696.458626032 7035377.5273761749 0 7035377.5273761749 56443338.033279419 0 0 0 0 -2107916.4720525742 10850923.328914642 0 10850923.328914642 56739321.897635937 0 0 0 0 8654794.88611269 15038734.747943878 0 15038734.747943878 63018100.488620758 0 0 0 0 23973775.766649246 18172201.168362617 0 18172201.168362617 30540048.93019104 0 0 0 0 -25552621.715437829 -12248724.171311378 0 -12248724.171311378 36787095.406768799 0 0 0 0 27241.275182029756 -10402.781711854041 0 -10402.781711854041 -82787.79484468326 0 0 0 0 21430468.893139362 6347948.078086853 0 6347948.078086853 -4694380.4211273193 0 0 0 0 6727285.7890608311 -298182.42737388611 0 -298182.42737388611 -25605433.350190163 0 0 0 0 7863467.5014891624 6577939.5840091705 0 6577939.5840091705 30806384.476379395 0 0 0 0 9833750.0631046295 6263108.9083328247 0 6263108.9083328247 30682944.353124619 0 0 0 0 -8989919.7923088074 -2860024.7111625671 0 -2860024.7111625671 35338788.392127991 0 0 0 0 2863858.1563472748 -501645.33953857422 0 -501645.33953857422 34958015.6816535 0 0 0 0 5333078.6008267403 -2475416.5542144775 0 -2475416.5542144775 4918279.8176879883 0 0 0 0 9988080.2727866173 1387784.2317581177 0 1387784.2317581177 7809157.9157867432 0 0 0 0 20585979.401491046 11662184.503972054 0 11662184.503972054 7814519.7390289307 0 0 0 0 12828145.975338936 7292321.64402771 0 7292321.64402771 4464078.1622085571 0 0 0 0 17840731.789153099 2594104.8225975037 0 2594104.8225975037 -4536713.1352844238 0 0 0 0 14373628.850644588 4138342.6381340027 0 4138342.6381340027 -5187896.0138931274 0 0 0 0 10814850.499012709 4824367.8740978241 0 4824367.8740978241 -8665467.136051178 0 0 0 0 16472067.861199379 3965727.924533844 0 3965727.924533844 -14446904.070007324 0 0 0 0 1472099.6906852722 10740803.816101074 0 10740803.816101074 -12582309.299995422 0 0 0 0 11174367.641510963 1934511.3463249207 0 1934511.3463249207 -1868163.18384552 0 0 0 0 13082529.564546704 5151272.8011960983 0 5151272.8011960983 -18883521.15473175 0 0 0 0 10074642.191229582 9212277.2087755203 0 9212277.2087755203 -17975221.909637451 0 0 0 0 -3767906.5970239639 15852180.795539856 0 15852180.795539856 -10019273.089317322 0 0 0 0 9367292.6499028206 6946566.4607315063 0 6946566.4607315063 -11686466.087028503 0 0 0 0 -2926619.3559902906 377229.02542924881 0 377229.02542924881 -1794062.6447029114 0 0 0 0 -394009.23710157123 976202.53002053173 0 976202.53002053173 148483.18563612923 0 0 0 0 -61844.482766687986 129471.88992755674 0 129471.88992755674 -128538.99583666027 0 0 0 0 -3334848.6038804054 11530052.718479156 0 11530052.718479156 11997930.880844116 0 0 0 0 9743854.1048336029 1996045.4554901123 0 1996045.4554901123 -9260866.8476486206 0 0 0 0 -9957329.4147807956 7435395.5462899208 0 7435395.5462899208 21261781.414886475 0 0 0 0 18225413.022215366 -1028278.4368743896 0 -1028278.4368743896 -9458219.6985359192 0 0 0 0 -734425.48784291744 36915142.78489542 0 36915142.78489542 -13592453.096366882 0 0 0 0 -556588.25718921609 1065612.4930219837 0 1065612.4930219837 1231305.5785792302 0 0 0 0 -295975.02187197655 -1524529.9678688049 0 -1524529.9678688049 -395857.0314540863 0 0 0 0 -3439971.1598415263 -900017.05711460114 0 -900017.05711460114 1258923.5909080505 0 0 0 0 -5680086.3491366059 -3260193.3604545593 0 -3260193.3604545593 2516971.4598007202 0 0 0 0 -2763553.1667065397 -3948739.4214363098 0 -3948739.4214363098 1885913.9027175903 0 0 0 0 -80827.793739110231 -782380.21131134033 0 -782380.21131134033 1019982.690410614 0 0 0 0 -14810275.762692094 5265156.3661632538 0 5265156.3661632538 13540865.021461487 0 0 0 0 -261713.82406562567 3483625.3596153259 0 3483625.3596153259 2759541.1466026306 0 0 0 0 -1028740.8481404213 -494755.77108541061 0 -494755.77108541061 3783145.2804333754 0 0 0 0 -6386971.1719174385 10681631.441162109 0 10681631.441162109 8032952.1496257782 0 0 0 0 -2184896.3915835335 3405853.7080419259 0 3405853.7080419259 2214115.6855835412 0 0 0 0 3708109.9795036316 5850820.6654434204 0 5850820.6654434204 3340048.3348007202 0 0 0 0 -6428176.2343864441 14138505.925231934 0 14138505.925231934 3814472.840763092 0 0 0 0 -8385484.922703743 13930323.136873245 0 13930323.136873245 3824392.4869098663 0 0 0 0 -3870447.3559147953 -2578557.7380968276 0 -2578557.7380968276 8820066.1756404229 0 0 0 0 -7767633.7529995441 -7232266.3196544647 0 -7232266.3196544647 -709641.20813751221 0 0 0 0 -10034186.07415247 1887984.6203117371 0 1887984.6203117371 11117054.814881325 0 0 0 0 -7613740.246970892 -6768413.1751098633 0 -6768413.1751098633 -287328.30165052414 0 0 0 0 384186.31394249672 191312.29029024579 0 191312.29029024579 -64661.940902872942 0 0 0 0 -72256.764675736427 3139387.7913188934 0 3139387.7913188934 15388400.263355255 0 0 0 0 -67317.760869805381 26103.263320365455 0 26103.263320365455 3312.0336230397224 0 0 0 0 -223167.28036046028 6526736.625415802 0 6526736.625415802 18124351.238653183 0 0 0 0 -620496.35135751963 2097061.0017967224 0 2097061.0017967224 20522942.265106201 0 0 0 0 -24982983.275454521 -24993367.857857704 0 -24993367.857857704 -22884180.247688293 0 0 0 0 -6821311.6778459549 -5095090.0297851562 0 -5095090.0297851562 -417549.75802230835 0 0 0 0 -6576491.5521607399 -6860830.1851501465 0 -6860830.1851501465 -2829640.983443141 0 0 0 0 -6702419.4612169266 -5853048.9639635086 0 -5853048.9639635086 -2848339.6385421753 0 0 0 0 -16722236.839468002 1670080.5322394371 0 1670080.5322394371 19538238.455871105 0 0 0 0 -2184087.7241530064 16298.744857894257 0 16298.744857894257 13530744.705743402 0 0 0 0 -15651100.541303873 -3551840.9310775697 0 -3551840.9310775697 17331321.700343132 0 0 0 0 -7617936.0709000826 -7697426.3867397308 0 -7697426.3867397308 -1535647.6449508667 0 0 0 0 -21143525.329277039 2580509.659535408 0 2580509.659535408 19777456.156498909 0 0 0 0 -20462375.83453083 1475882.945286274 0 1475882.945286274 21478930.033651352 0 0 0 0 -24282390.221038818 5431468.7833468914 0 5431468.7833468914 21283304.038332462 0 0 0 0 -21320208.376602173 4525443.6398534775 0 4525443.6398534775 20293800.170543671 0 0 0 0 -57554163.065333009 82367200.509210348 0 82367200.509210348 -55806419.289829254 0 0 0 0 -813187.22702229535 4784579.9523550728 0 4784579.9523550728 16348312.187240943 0 0 0 0 -22262769.822052002 3749022.2127542496 0 3749022.2127542496 22333860.524227381 0 0 0 0 -21305733.986562535 5762564.3354285564 0 5762564.3354285564 20598768.749747276 0 0 0 0 -21637507.664438248 4112056.7156310081 0 4112056.7156310081 19899610.820246756 0 0 0 0 -1453786.3937607151 1112303.3332340121 0 1112303.3332340121 2161984.1296896227 0 0 0 0 -47668264.114777565 13622834.777328491 0 13622834.777328491 19392549.912714005 0 0 0 0 -47903444.649120331 31794840.090057373 0 31794840.090057373 -32655645.367347717 0 0 0 0 -20639448.949893951 33045418.732822418 0 33045418.732822418 -20178765.980033875 0 0 0 0 2800020.0118751526 11293933.72410202 0 11293933.72410202 -29875079.171348572 0 0 0 0 -36463576.75424099 40527160.661991119 0 40527160.661991119 -41351412.491203308 0 0 0 0 19698841.247550964 -7460036.3343887329 0 -7460036.3343887329 -27320856.025679588 0 0 0 0 -960882.57804298401 -7490743.1036643982 0 -7490743.1036643982 1958520.9601821899 0 0 0 0 560214.34924030304 -119963.04210281372 0 -119963.04210281372 2666343.2055435181 0 0 0 0 -11669364.880297661 -21609714.152309418 0 -21609714.152309418 48036885.311843872 0 0 0 0 -15130083.833499908 -59154318.272994995 0 -59154318.272994995 127469837.603899 0 0 0 0 -12916859.11961031 -34266431.358974457 0 -34266431.358974457 -2155925.507194519 0 0 0 0 96703616.194509506 -81418043.488910675 0 -81418043.488910675 -86787349.556884766 0 0 0 0 7268779.6219454408 61133189.696886301 0 61133189.696886301 -112523717.17858887 0 0 0 0 -27774060.91510582 19150041.719817162 0 19150041.719817162 12051388.418619275 0 0 0 0 -21869858.156253815 8231138.3483557701 0 8231138.3483557701 15448279.765169024 0 0 0 0 -24705921.358373642 7551554.2368648052 0 7551554.2368648052 24091864.986324906 0 0 0 0 -30572704.430195808 12104691.389439464 0 12104691.389439464 27521438.784574032 0 0 0 0 -22059943.966909409 2730070.0722148418 0 2730070.0722148418 34842198.889716148 0 0 0 0 -24188386.300526142 11646458.229138136 0 11646458.229138136 39979276.164355755 0 0 0 0 -27311567.141119957 248931.77382588387 0 248931.77382588387 28508329.332228184 0 0 0 0 -26340316.394397736 2647999.8687872887 0 2647999.8687872887 31258589.152477741 0 0 0 0 -28578370.763084412 10625296.107705355 0 10625296.107705355 26423453.25122118 0 0 0 0 -26116067.611370087 3651579.5858311653 0 3651579.5858311653 26006519.052131593 0 0 0 0 -22856019.838497162 -676794.17486286163 0 -676794.17486286163 23134655.420946121 0 0 0 0 -24128217.454559326 -313063.88523006439 0 -313063.88523006439 25604047.056076914 0 0 0 0 -25403384.089823246 -655018.47370183468 0 -655018.47370183468 28338337.807132721 0 0 0 0 -25056850.023168564 -8717091.9797563553 0 -8717091.9797563553 24410125.990621567 0 0 0 0 -25682738.887372971 -5333843.8597557545 0 -5333843.8597557545 29305716.706548214 0 0 0 0 -22017136.028453827 -2848601.0060861111 0 -2848601.0060861111 22704700.585459769 0 0 0 0 -23032270.94045639 -5022786.9564623833 0 -5022786.9564623833 22077874.634081841 0 0 0 0 -24020375.745265961 -8270789.3091850281 0 -8270789.3091850281 21929774.259445265 0 0 0 0 -28008719.691275597 -20085473.754345894 0 -20085473.754345894 13811731.678149879 0 0 0 0 -1087918.2993837867 -2152404.9878845727 0 -2152404.9878845727 12800167.024952536 0 0 0 0 -20838640.974662781 -15246234.604142904 0 -15246234.604142904 8562389.4074530005 0 0 0 0 -18338937.424530029 -7257379.9007894993 0 -7257379.9007894993 12276748.269626141 0 0 0 0 -26044534.940979004 -13459466.587794781 0 -13459466.587794781 20430790.596771851 0 0 0 0 -23980304.193397522 -11545912.115824819 0 -11545912.115824819 19499159.934251785 0 0 0 0 -23068568.854010582 -7266832.1096289158 0 -7266832.1096289158 20020663.320171356 0 0 0 0 -22282381.74852562 -17178686.348712564 0 -17178686.348712564 23486829.878876567 0 0 0 0 -21744657.944478989 -17832328.347716331 0 -17832328.347716331 16832556.179323673 0 0 0 0 -22941802.370672226 -14644843.674997807 0 -14644843.674997807 24978260.928557396 0 0 0 0 -20671924.399963379 -15171265.59479177 0 -15171265.59479177 27541679.274183512 0 0 0 0 -21023623.241483688 -13047257.954360723 0 -13047257.954360723 22918876.792803764 0 0 0 0 -25331278.190279961 -10143849.737107635 0 -10143849.737107635 35974757.10738802 0 0 0 0 -24792437.893993378 -7879511.6718969345 0 -7879511.6718969345 26569945.813292086 0 0 0 0 -27319952.759734616 -17290.059930875897 0 -17290.059930875897 40992930.484926701 0 0 0 0 -25151454.96523571 -6128215.4465512037 0 -6128215.4465512037 33321691.056952477 0 0 0 0 -21430133.751945496 -16462470.272059321 0 -16462470.272059321 39623263.495738626 0 0 0 0 -25839162.978406906 -6845538.5487883091 0 -6845538.5487883091 54640733.777078331 0 0 0 0 -20298224.591619968 -13683095.220065892 0 -13683095.220065892 32888237.28200078 0 0 0 0 -9691473.4899864197 -26905645.176222444 0 -26905645.176222444 24206963.311354667 0 0 0 0 -15007647.514618158 -37404921.299849525 0 -37404921.299849525 69770454.929833174 0 0 0 0 -12733960.665107727 -43013701.198763192 0 -43013701.198763192 32589179.87691322 0 0 0 0 -18501501.422040939 -20508867.323706269 0 -20508867.323706269 79413599.814846754 0 0 0 0 -19344110.077286363 -9530654.7722888887 0 -9530654.7722888887 53543287.819129944 0 0 0 0 -6335398.2470993996 24540768.930459261 0 24540768.930459261 76951274.196526289 0 0 0 0 -18169800.145888329 9825301.8578720093 0 9825301.8578720093 47676908.384649992 0 0 0 0 -18086680.142580509 8264886.0620362759 0 8264886.0620362759 54639567.641900539 0 0 0 0 -9191648.726606071 18773018.719794542 0 18773018.719794542 34926125.507155895 0 0 0 0 -9479366.0136165619 16363818.725838661 0 16363818.725838661 23538586.773040771 0 0 0 0 4391633.0248126984 31077985.659240007 0 31077985.659240007 45799694.350038767 0 0 0 0 7670704.6566691399 25838967.625349104 0 25838967.625349104 31769416.022527695 0 0 0 0 14378212.542196512 33384329.204146564 0 33384329.204146564 33783140.169211864 0 0 0 0 6898341.7937651062 671523.31040763855 0 671523.31040763855 109658789.84828186 0 0 0 0 5037021.3033149475 -14818193.747159362 0 -14818193.747159362 97138469.921951294 0 0 0 0 -17526.034656216973 -7385.0861248020083 0 -7385.0861248020083 395706.20088639972 0 0 0 0 -5133833.4723617285 2037768.127281189 0 2037768.127281189 127433924.3547821 0 0 0 0 -9978106.7361904383 -9656961.2642002106 0 -9656961.2642002106 139875363.96987915 0 0 0 0 -6354510.5582223982 -14241362.265182495 0 -14241362.265182495 120111857.30731392 0 0 0 0 -871682.55354046822 -10891144.991876602 0 -10891144.991876602 109296309.40093231 0 0 0 0 -6685816.8098969534 -22840433.055160522 0 -22840433.055160522 106972605.89120483 0 0 0 0 2462361.1755547412 -18708883.748538971 0 -18708883.748538971 64722505.580093384 0 0 0 0 4529020.607448604 -17992660.649454117 0 -17992660.649454117 66447130.627658844 0 0 0 0 -1554592.7351578367 -19078130.524143219 0 -19078130.524143219 88667793.122123718 0 0 0 0 -2527547.8407415301 -18565189.032417297 0 -18565189.032417297 93180377.037122726 0 0 0 0 3478502.8257425735 -15291176.541769028 0 -15291176.541769028 91485844.555137634 0 0 0 0 1746143.4246975938 -8523495.1420001984 0 -8523495.1420001984 66308938.37871933 0 0 0 0 -1603955.1255378779 -11426598.658189774 0 -11426598.658189774 81812112.519938707 0 0 0 0 -1828445.7298145415 -9271881.2297401428 0 -9271881.2297401428 93315760.662338257 0 0 0 0 -879941.70538415015 -8744369.9116096497 0 -8744369.9116096497 81550843.803411484 0 0 0 0 1234022.1194856931 -14689912.081588745 0 -14689912.081588745 75812532.729641914 0 0 0 0 5388586.6751059145 -4704579.4941864014 0 -4704579.4941864014 80085187.529364586 0 0 0 0 -12965.30282091407 -14240755.878887177 0 -14240755.878887177 89975963.333251953 0 0 0 0 16549108.953336848 -23224140.795383453 0 -23224140.795383453 38381234.437381744 0 0 0 0 -364579.38257289398 -5319674.491027832 0 -5319674.491027832 95656323.783805847 0 0 0 0 -5422271.8297405792 -5062581.340587616 0 -5062581.340587616 96232688.062503815 0 0 0 0 -19268.40704738292 29976.403684530407 0 29976.403684530407 121469.58375601788 0 0 0 0 -5605068.0493128402 -11413914.060749054 0 -11413914.060749054 106121764.15202296 0 0 0 0 -5369323.395925479 -5873843.588476181 0 -5873843.588476181 99397088.490982056 0 0 0 0 -3995851.730809744 -14051105.500091553 0 -14051105.500091553 96833299.89994812 0 0 0 0 1579821.3253884204 -5110521.7151870728 0 -5110521.7151870728 4633694.2255516052 0 0 0 0 -2204355.3576155007 -1845531.1512718201 0 -1845531.1512718201 8266719.7746857405 0 0 0 0 3280455.9098967835 -1032270.5229082108 0 -1032270.5229082108 -2468877.2061195374 0 0 0 0 -738136.44287751615 319288.57863616943 0 319288.57863616943 1812596.7346324921 0 0 0 0 11053.612862306249 -30323.365160651272 0 -30323.365160651272 36641.531792618334 0 0 0 0 -5485666.5481433403 5283225.0261669159 0 5283225.0261669159 23335760.045303345 0 0 0 0 -761.54482277085015 -2828432.8902511597 0 -2828432.8902511597 -8534056.1402816772 0 0 0 0 6480199.2166168634 -2882036.2164020538 0 -2882036.2164020538 -2702276.7783126831 0 0 0 0 849496.10125874821 1420562.5813217163 0 1420562.5813217163 -2540855.7007808685 0 0 0 0 -1654455.3798706159 1110009.4957313538 0 1110009.4957313538 -1652934.4215927124 0 0 0 0 33822.001756452461 -105393.42290960357 0 -105393.42290960357 92061.08794529736 0 0 0 0 724961.5387025997 -340937.09594917297 0 -340937.09594917297 -2268181.5197067261 0 0 0 0 -1631978.486931042 -498164.39179873466 0 -498164.39179873466 276385.03198242188 0 0 0 0 -187105.42118498258 24048.781667884439 0 24048.781667884439 1088737.0546292132 0 0 0 0 36495403.989305958 7286317.9294052124 0 7286317.9294052124 3632772.8039417267 0 0 0 0 -138953.52233864792 -383482.51713636331 0 -383482.51713636331 941213.94976024795 0 0 0 0 20184526.584862188 40398416.690526962 0 40398416.690526962 33882359.986530304 0 0 0 0 10890666.901424676 44391736.00806284 0 44391736.00806284 54664557.574073792 0 0 0 0 11913669.956678271 42685878.596233368 0 42685878.596233368 46199439.296855927 0 0 0 0 11853985.31554544 36759717.348739624 0 36759717.348739624 44789134.363297462 0 0 0 0 126344.96945644058 -592321.44815865252 0 -592321.44815865252 764492.58596899826 0 0 0 0 94645.864289524965 -2901061.7591826916 0 -2901061.7591826916 620187.57888412476 0 0 0 0 3598324.6520073116 1245502.0303649902 0 1245502.0303649902 1288521.9657325745 0 0 0 0 502846.47892685037 -701959.3685371615 0 -701959.3685371615 576638.04487162083 0 0 0 0 -35126592.355946302 -6945007.0221991539 0 -6945007.0221991539 50964840.371332169 0 0 0 0 -1375218.0081244633 -779239.54678153992 0 -779239.54678153992 3104449.0370941162 0 0 0 0 -30760200.136050105 46389529.190236568 0 46389529.190236568 95340105.40234375 0 0 0 0 -28698830.692864776 59395799.456871033 0 59395799.456871033 53073459.596660614 0 0 0 0 9291263.2434131503 37035618.286697388 0 37035618.286697388 53363185.044288635 0 0 0 0 -88341726.413944602 67450746.056183815 0 67450746.056183815 107126572.4770813 0 0 0 0 -34330.659234542691 -424460.64844495122 0 -424460.64844495122 1137087.1873805802 0 0 0 0 -113602629.88428974 82890258.971524239 0 82890258.971524239 200057639.81973267 0 0 0 0 112227501.84671533 -148402262.2399826 0 -148402262.2399826 -184775438.41895676 0 0 0 0 -71295158.754955292 -111471982.96206665 0 -111471982.96206665 379939981.60640335 0 0 0 0 155021757.83084321 -282996022.68412209 0 -282996022.68412209 3301513.9545631409 0 0 0 0 -82357550.006151438 16720456.676564217 0 16720456.676564217 81232190.52461338 0 0 0 0 -81875703.47935307 10252365.587504387 0 10252365.587504387 154011478.7588253 0 0 0 0 -91708992.986735374 -27665088.028837204 0 -27665088.028837204 38096278.747192383 0 0 0 0 -3222389.6222754717 -83155359.499118805 0 -83155359.499118805 53167284.135912299 0 0 0 0 16477802.471378267 -65014286.255958557 0 -65014286.255958557 50408678.238384247 0 0 0 0 174589150.79911655 -154458360.82962155 0 -154458360.82962155 37260218.519130707 0 0 0 0 51746203.661823958 -189247798.61606121 0 -189247798.61606121 254804704.97163391 0 0 0 0 -48456825.096391439 88864178.157110214 0 88864178.157110214 295474269.73596191 0 0 0 0 142369314.78422093 108262340.73308945 0 108262340.73308945 -254602672.22808838 0 0 0 0 88006675.263107777 256273118.31828117 0 256273118.31828117 14763248.980869293 0 0 0 0 -68542304.39685528 4228536.930683136 0 4228536.930683136 58137737.655161858 0 0 0 0 -15779964.304188345 -30810232.622789383 0 -30810232.622789383 -52155613.374515533 0 0 0 0 12916267.435608029 -18061543.813037872 0 -18061543.813037872 94728537.384040833 0 0 0 0 5531059.4957095385 -43064617.869752884 0 -43064617.869752884 159407972.30937958 0 0 0 0 -17060432.158682883 -38374604.880491257 0 -38374604.880491257 182733875.71678543 0 0 0 0 862083.33921115939 209704.22669201344 0 209704.22669201344 225152.28291720315 0 0 0 0 -6861226.5436426997 25261318.110744476 0 25261318.110744476 201621725.43571472 0 0 0 0 -22727740.574597538 -53010455.176834106 0 -53010455.176834106 213688307.09236908 0 0 0 0 36435174.681832314 9763197.8365974426 0 9763197.8365974426 75559769.680152893 0 0 0 0 101581.60893893242 15232218.767372131 0 15232218.767372131 75116232.408004284 0 0 0 0 -3423926.7474988699 -7105171.4177112579 0 -7105171.4177112579 152491807.20665741 0 0 0 0 -3769283.3671315908 3091925.4848858118 0 3091925.4848858118 94949501.376853943 0 0 0 0 4088299.3372491598 -12406082.881881714 0 -12406082.881881714 71241194.160758972 0 0 0 0 -17410341.485677958 8985594.4940681458 0 8985594.4940681458 88114606.365970612 0 0 0 0 10427185.960753143 -2949317.0083217621 0 -2949317.0083217621 115705803.13748932 0 0 0 0 382719.89713254571 -16974264.164819717 0 -16974264.164819717 124458162.37687683 0 0 0 0 -5400056.2734926045 18433378.167583466 0 18433378.167583466 184549128.07256317 0 0 0 0 273039.17160533281 -12271.767833242193 0 -12271.767833242193 -27170.898592102341 0 0 0 0 708570.71909920359 -281968.98697495833 0 -281968.98697495833 499966.49775869912 0 0 0 0 -17308310.803950787 -14345602.671562195 0 -14345602.671562195 273339472.66836929 0 0 0 0 37853182.395537376 -15393273.384048462 0 -15393273.384048462 6446332.2449517846 0 0 0 0 89328139.609181881 11135206.090824127 0 11135206.090824127 133788142.56137085 0 0 0 0 26557614.136512708 -52782301.478907824 0 -52782301.478907824 114899891.65316772 0 0 0 0 6667092.2325893641 -8389763.6196327209 0 -8389763.6196327209 131643859.70589828 0 0 0 0 14177837.214751601 17551354.621417999 0 17551354.621417999 84617727.575683594 0 0 0 0 20753132.541382909 -15582094.63526535 0 -15582094.63526535 54642675.447681427 0 0 0 0 -16156429.714280725 -10174038.430332184 0 -10174038.430332184 78917581.942089081 0 0 0 0 4819045.4215831161 -39987239.999992371 0 -39987239.999992371 51392321.613891602 0 0 0 0 -13375926.204176933 -26881586.447372437 0 -26881586.447372437 129253315.25147057 0 0 0 0 -3775334.2176036984 -32461745.913129807 0 -32461745.913129807 66547200.980857849 0 0 0 0 2399989.7620680127 -27870926.388456225 0 -27870926.388456225 37756012.851982117 0 0 0 0 3730716.407388702 -13166308.551524162 0 -13166308.551524162 -6276514.8698425293 0 0 0 0 -25591272.369111538 2302389.8354530334 0 2302389.8354530334 15078996.802921295 0 0 0 0 -28379824.080363691 -33748902.774040222 0 -33748902.774040222 51333812.773376465 0 0 0 0 -6075861.338029027 -38570299.25528717 0 -38570299.25528717 41080689.753437042 0 0 0 0 -15730696.058488101 1791156.3873653412 0 1791156.3873653412 -14078756.415809631 0 0 0 0 -3852964.1447185148 22915021.242622495 0 22915021.242622495 17663049.618721008 0 0 0 0 9095543.8618167639 -18343856.425743103 0 -18343856.425743103 -6748243.1023292542 0 0 0 0 -28901496.430924654 -6576844.0109285116 0 -6576844.0109285116 -8234062.1667175293 0 0 0 0 -28029749.693831801 -12656038.567562103 0 -12656038.567562103 -5340926.0067176819 0 0 0 0 3010.0319639239897 40172.117051811889 0 40172.117051811889 -1926.2916163615882 0 0 0 0 -1152808.0026502609 4609805.8848342896 0 4609805.8848342896 -13727653.224063873 0 0 0 0 10902.404224822309 30546.296317191795 0 30546.296317191795 -19723.681571345776 0 0 0 0 133310.80692372151 341170.12779215164 0 341170.12779215164 -929.65110747329891 0 0 0 0 -222197.76316001639 187843.07298630476 0 187843.07298630476 336478.27055740356 0 0 0 0 -21175754.968442202 -1861036.1128402948 0 -1861036.1128402948 8462971.2804870605 0 0 0 0 -233564.32932743753 -1760.7542400186649 0 -1760.7542400186649 207292.8370474875 0 0 0 0 -16145887.683761433 1559827.7177429199 0 1559827.7177429199 -431590.78176116943 0 0 0 0 -15488884.727611851 4672845.1864356995 0 4672845.1864356995 13311379.230056763 0 0 0 0 -2758270.9156527817 -4384835.8053836823 0 -4384835.8053836823 8302613.2173805237 0 0 0 0 6476033.4313297272 19239007.838920593 0 19239007.838920593 41480513.729454041 0 0 0 0 4956299.3044543266 -95396.88568687439 0 -95396.88568687439 -1699180.8815774918 0 0 0 0 7495318.5026040077 10177705.051273346 0 10177705.051273346 -1093960.509552002 0 0 0 0 2268693.0619992614 -1912092.5927610397 0 -1912092.5927610397 21637090.871315002 0 0 0 0 2366767.2343437672 10051985.07352829 0 10051985.07352829 18440499.073242188 0 0 0 0 11606978.363484383 -3501570.3512535095 0 -3501570.3512535095 -323611.52939987183 0 0 0 0 18100418.420966208 -584385.48187065125 0 -584385.48187065125 23898344.825073242 0 0 0 0 -4430981.6805467606 -14230994.678249359 0 -14230994.678249359 -4534429.6444721222 0 0 0 0 22132479.601385713 1864604.0793037415 0 1864604.0793037415 -8221645.0507583618 0 0 0 0 6197967.7476013899 -17338335.806240082 0 -17338335.806240082 -15518720.920000076 0 0 0 0 -105527.30072933453 462476.57505678292 0 462476.57505678292 112741.82534087077 0 0 0 0 -158717.16224765778 320401.2022857666 0 320401.2022857666 545892.31815338135 0 0 0 0 -147823.31622928381 84426.332424163818 0 84426.332424163818 198766.40675544739 0 0 0 0 -2596185.5397205874 7950088.2502857447 0 7950088.2502857447 -9275666.1443557739 0 0 0 0 6919581.1341640949 -2372937.9083747864 0 -2372937.9083747864 -17374807.811044693 0 0 0 0 214844.13523125648 606246.826587677 0 606246.826587677 -7819643.7893466949 0 0 0 0 1404157.4559473991 9596040.8667564392 0 9596040.8667564392 -4961015.9681816101 0 0 0 0 -734713.04340226203 477368.7936630249 0 477368.7936630249 -1185757.9110717773 0 0 0 0 -618893.68815044058 99022.619158794172 0 99022.619158794172 358141.79853335023 0 0 0 0 -440157.56932625617 -15219.832625222392 0 -15219.832625222392 227961.54666722566 0 0 0 0 -170082.18468399718 2258314.9483356476 0 2258314.9483356476 -1336769.8373985291 0 0 0 0 3376723.1381919533 -1924427.8136100769 0 -1924427.8136100769 226910.64461958408 0 0 0 0 -1155302.5074843736 -209952.56378221512 0 -209952.56378221512 163938.71588897705 0 0 0 0 -1131745.4494717121 2967551.0098323822 0 2967551.0098323822 1776276.2535133362 0 0 0 0 -17965410.096198726 11296648.679458618 0 11296648.679458618 6393204.896987915 0 0 0 0 -4852798.8432395309 7290203.8721656799 0 7290203.8721656799 1271901.9574069977 0 0 0 0 -15170228.151020229 4710170.5609111786 0 4710170.5609111786 2605969.0199203491 0 0 0 0 -413828.63617372513 15150.544004440308 0 15150.544004440308 334946.71599578857 0 0 0 0 -227796.81801793457 21800.023199923977 0 21800.023199923977 231702.630198434 0 0 0 0 -143437.01948316686 84.097295082494384 0 84.097295082494384 131567.97654596344 0 0 0 0 -318249.02703613043 700940.23108100891 0 700940.23108100891 3524155.1408996582 0 0 0 0 -4203489.0774507821 711129.81630516052 0 711129.81630516052 614566.12840652466 0 0 0 0 -13336130.787785251 13699042.368626595 0 13699042.368626595 -9087712.1150245667 0 0 0 0 -173634.84326920961 35996.626389775425 0 35996.626389775425 139091.51123699546 0 0 0 0 639011.53767631948 253497.77207946777 0 253497.77207946777 -4619228.2624368668 0 0 0 0 -15399045.866228528 3785585.9003715515 0 3785585.9003715515 7515537.2636871338 0 0 0 0 -6469712.8895374089 36512609.069421768 0 36512609.069421768 -19210672.649843216 0 0 0 0 6377029.6292398404 -7348054.5830373764 0 -7348054.5830373764 17232673.019077301 0 0 0 0 2366662.5836482449 6884778.7512931824 0 6884778.7512931824 10965518.474777222 0 0 0 0 -3341875.6672645509 -3443283.2773723602 0 -3443283.2773723602 8624688.7060933113 0 0 0 0 8673720.7986223437 -10119925.054962158 0 -10119925.054962158 18153908.596240997 0 0 0 0 2019754.9876956791 -14750071.978815079 0 -14750071.978815079 33446329.062858582 0 0 0 0 -244996.45727234147 2127938.0077018738 0 2127938.0077018738 17539435.295795441 0 0 0 0 478281.867975384 -494988.01968383789 0 -494988.01968383789 12908177.132469177 0 0 0 0 6434625.2609195113 -3034201.3945236206 0 -3034201.3945236206 26720121.614172935 0 0 0 0 8903850.4262751173 -11796941.098227501 0 -11796941.098227501 30062629.832176208 0 0 0 0 4163769.1224438306 -6802889.7741451263 0 -6802889.7741451263 37323234.591312408 0 0 0 0 6656369.7921053134 -19542141.310123444 0 -19542141.310123444 44829642.287935257 0 0 0 0 1886900.2425108682 -11102243.659309387 0 -11102243.659309387 63773784.864982605 0 0 0 0 1120737.875348404 -25922371.928840637 0 -25922371.928840637 60208884.07264328 0 0 0 0 1322271.7118814141 -16081068.183116913 0 -16081068.183116913 56154032.394844055 0 0 0 0 5904556.7770130569 -11227349.538427114 0 -11227349.538427114 36347796.544677734 0 0 0 0 9718.6213361142854 -3492936.2351474762 0 -3492936.2351474762 58057913.369352341 0 0 0 0 4010807.4275541268 -7391839.77602005 0 -7391839.77602005 50297493.944473267 0 0 0 0 5179164.0166668529 -17383790.265095711 0 -17383790.265095711 55472863.5365448 0 0 0 0 7167198.6541375881 -4897033.2322635651 0 -4897033.2322635651 33847273.247337341 0 0 0 0 4644815.2977861324 -9551844.22315979 0 -9551844.22315979 48505735.468955994 0 0 0 0 8752846.7786807604 1479739.697013855 0 1479739.697013855 25587481.103378296 0 0 0 0 8452.7408789089022 546184.31806838932 0 546184.31806838932 31927545.100227356 0 0 0 0 8841879.5657933392 1819762.2679862976 0 1819762.2679862976 22867227.587273598 0 0 0 0 8677326.6572320573 -8726292.2207336426 0 -8726292.2207336426 28143805.655258179 0 0 0 0 7624892.1774633005 -1165089.5972146988 0 -1165089.5972146988 18466365.084308624 0 0 0 0 12779938.053860392 3177122.4756412506 0 3177122.4756412506 15519854.100160599 0 0 0 0 -718.25512493360475 5548945.563873291 0 5548945.563873291 24412999.422899723 0 0 0 0 8885196.4650807232 10243761.616912842 0 10243761.616912842 21962200.252429962 0 0 0 0 -5462180.4606390577 2537702.9214744568 0 2537702.9214744568 18486865.127456665 0 0 0 0 -6273648.8515771534 -8267021.9397347569 0 -8267021.9397347569 -796608.72526168823 0 0 0 0 12202.752173530309 6749494.3837528229 0 6749494.3837528229 8554643.0861797333 0 0 0 0 -4287169.933852734 2137071.4713411331 0 2137071.4713411331 51312790.169017792 0 0 0 0 -29882.127021943779 10528.272338241339 0 10528.272338241339 31389.256280807778 0 0 0 0 -3838003.7472958788 20465587.294023514 0 20465587.294023514 47584295.525657654 0 0 0 0 10421676.999509435 40065624.515869141 0 40065624.515869141 26643840.901380539 0 0 0 0 -12982.090608128203 -12701.584487368353 0 -12701.584487368353 60716.066924475133 0 0 0 0 838333.41405564547 9055400.5122051239 0 9055400.5122051239 1627842.7966051102 0 0 0 0 16873578.124112353 23331028.44944191 0 23331028.44944191 40088784.719888687 0 0 0 0 5342717.2907044142 8377080.8002643585 0 8377080.8002643585 23843199.273197174 0 0 0 0 -5136786.7194087375 -4231554.6492199898 0 -4231554.6492199898 10583158.549911499 0 0 0 0 -19818.187056322342 -38860.932454222813 0 -38860.932454222813 130798.68053004518 0 0 0 0 16161291.981618583 -571035.96743392944 0 -571035.96743392944 6508005.8202400208 0 0 0 0 -9664942.3468851559 1733233.6796627045 0 1733233.6796627045 23762537.17407608 0 0 0 0 -5008262.3778785095 9993584.1066741943 0 9993584.1066741943 19270740.476566315 0 0 0 0 -23179.481213772269 2787.7085363231599 0 2787.7085363231599 36544.854535577819 0 0 0 0 2547695.1914121164 3526384.3548297882 0 3526384.3548297882 26391472.970888138 0 0 0 0 2109552.4128794223 9499109.7877197266 0 9499109.7877197266 30629567.127378464 0 0 0 0 8283360.9903436378 30226379.848531723 0 30226379.848531723 33052943.424699783 0 0 0 0 -17175.671386103102 -3366.8468270730227 0 -3366.8468270730227 24503.654232312925 0 0 0 0 1255682.3296742849 9030542.1656951904 0 9030542.1656951904 45852267.890232086 0 0 0 0 865087.49802625924 9904618.3860645294 0 9904618.3860645294 44223387.191612244 0 0 0 0 -7156.928468197556 8059.9599027466029 0 8059.9599027466029 32289.285508004948 0 0 0 0 2210509.9584543835 3711709.091047287 0 3711709.091047287 15071865.631221771 0 0 0 0 799919.87126336247 10049574.596185684 0 10049574.596185684 11435220.752708435 0 0 0 0 3631816.6206651852 622904.74146461487 0 622904.74146461487 13044814.746681213 0 0 0 0 -902749.41984970833 4566001.9509868622 0 4566001.9509868622 31633300.431529999 0 0 0 0 243312.1957910452 4046432.9754486084 0 4046432.9754486084 31618519.509763002 0 0 0 0 -1071.339557669708 349881.99627876282 0 349881.99627876282 27559794.7397995 0 0 0 0 -1206587.5370257129 4406657.0513706207 0 4406657.0513706207 31249683.963476181 0 0 0 0 -2382.589488945604 -366746.18828392029 0 -366746.18828392029 37586472.737445831 0 0 0 0 -1331820.3229280685 -241595.19269943237 0 -241595.19269943237 39562656.875095367 0 0 0 0 863221.65584441833 -3335419.1303253174 0 -3335419.1303253174 42095510.259960175 0 0 0 0 -1261904.7272005379 2158361.1683959961 0 2158361.1683959961 39144313.082336426 0 0 0 0 -1658256.346831799 1092289.7527208328 0 1092289.7527208328 38180202.226802826 0 0 0 0 -454095.62262155442 2782435.2323923111 0 2782435.2323923111 39988945.859664917 0 0 0 0 -294025.83560422808 3282159.0588302612 0 3282159.0588302612 40342321.581806183 0 0 0 0 -850830.11811129563 -803965.8318977356 0 -803965.8318977356 45675050.967845917 0 0 0 0 1224827.5697339941 5438159.1208429337 0 5438159.1208429337 51511640.079650879 0 0 0 0 1406602.5128701478 5368396.0555610657 0 5368396.0555610657 42514870.363143921 0 0 0 0 -2309421.9704755396 1861733.7174263 0 1861733.7174263 48787655.342597961 0 0 0 0 -604910.01277787564 1543484.6585357189 0 1543484.6585357189 47921125.026268005 0 0 0 0 -1513265.295074353 -1396818.4068632126 0 -1396818.4068632126 61284716.932403564 0 0 0 0 7763510.7748881299 155244.35295677185 0 155244.35295677185 44779979.033031464 0 0 0 0 49071.551304319801 -201.6205988060683 0 -201.6205988060683 62330.113909050124 0 0 0 0 -121577.34121529013 -4237062.8811187744 0 -4237062.8811187744 53920341.413414001 0 0 0 0 922953.29974300042 -4944421.2297744751 0 -4944421.2297744751 51631938.346369743 0 0 0 0 -1930325.1157112177 -2795348.0044212341 0 -2795348.0044212341 48054791.736087799 0 0 0 0 35385.467393838633 11710.736916819587 0 11710.736916819587 83441.218963735038 0 0 0 0 -298248.62016041949 -1200531.7261238098 0 -1200531.7261238098 45319437.579299927 0 0 0 0 10512497.626717523 2185530.774105072 0 2185530.774105072 55179051.054374695 0 0 0 0 -12448767.986966748 -11475676.528692245 0 -11475676.528692245 81538513.37695694 0 0 0 0 3747275.2229471654 30577465.236436844 0 30577465.236436844 88916524.694622517 0 0 0 0 -7438190.9547649622 3228960.4340572357 0 3228960.4340572357 3875552.9583492279 0 0 0 0 58843.365811646589 60236.516424058005 0 60236.516424058005 224520.41667847335 0 0 0 0 -8764176.5912849773 -18021170.073753424 0 -18021170.073753424 39806816.105464935 0 0 0 0 -8739320.9889714867 -20623994.487230301 0 -20623994.487230301 1239955.2179374695 0 0 0 0 4782946.6882367171 -1507584.1293067932 0 -1507584.1293067932 20344393.769115448 0 0 0 0 -939502.64875888452 3390067.2543563843 0 3390067.2543563843 24173620.489391327 0 0 0 0 1316343.6811768226 -2750852.5993843079 0 -2750852.5993843079 37872472.99161911 0 0 0 0 -7363460.346879174 -6767635.688133955 0 -6767635.688133955 68550238.742637634 0 0 0 0 7139.0754895820364 11592.200093174353 0 11592.200093174353 92118.030136563582 0 0 0 0 6739.5046892180953 5150135.8593826294 0 5150135.8593826294 42995920.45113945 0 0 0 0 -4398248.5910053216 2516960.8897171021 0 2516960.8897171021 59699633.397636414 0 0 0 0 -3681537.6044499949 5576134.5033512115 0 5576134.5033512115 38856180.320238113 0 0 0 0 -3881491.4502032921 3243494.8549842834 0 3243494.8549842834 29472664.47223407 0 0 0 0 -6988565.3255166076 6523438.5917134285 0 6523438.5917134285 41747066.368888855 0 0 0 0 -2562255.4606561959 7161839.8164920807 0 7161839.8164920807 29539875.573680878 0 0 0 0 -2464245.6556411386 6423834.5609016418 0 6423834.5609016418 16810596.821176529 0 0 0 0 -1691354.6029506475 3864604.9307556152 0 3864604.9307556152 20194352.037834167 0 0 0 0 939326.82029251009 6219088.9355926514 0 6219088.9355926514 20530880.376937866 0 0 0 0 -713238.49153696746 7555336.119134903 0 7555336.119134903 29066899.429023743 0 0 0 0 5593975.2311462313 6408597.4168052673 0 6408597.4168052673 28674455.865799904 0 0 0 0 5992321.366577426 11835562.049865723 0 11835562.049865723 18363845.139972687 0 0 0 0 6360030.3402813748 8894227.0925064087 0 8894227.0925064087 29467681.506173611 0 0 0 0 4699096.5863205008 9032739.2593688965 0 9032739.2593688965 29515989.378483295 0 0 0 0 -2237221.8049236685 -5605.313383102417 0 -5605.313383102417 56227830.439605713 0 0 0 0 10440983.131685089 17963415.026775837 0 17963415.026775837 45091332.454368591 0 0 0 0 -1174438.5458413158 -1459593.0865287781 0 -1459593.0865287781 38569492.097846031 0 0 0 0 2284325.9848934188 3277424.793586731 0 3277424.793586731 40713724.788986206 0 0 0 0 22251.431411077036 -5047.6198474504054 0 -5047.6198474504054 25886.821432610741 0 0 0 0 4940572.9632499367 -2402467.7964761257 0 -2402467.7964761257 37637389.75920105 0 0 0 0 2820537.1702400669 -346017.40863037109 0 -346017.40863037109 64673660.207641125 0 0 0 0 1520214.7292749956 -6576694.3404197693 0 -6576694.3404197693 56265435.75769043 0 0 0 0 433250.01060888171 9946119.699432373 0 9946119.699432373 46051449.073921204 0 0 0 0 -3529700.4242424816 9890584.8568115234 0 9890584.8568115234 56485132.416915894 0 0 0 0 -4350416.8085222691 12267411.06502533 0 12267411.06502533 84245028.453062057 0 0 0 0 -3447741.5981136262 12302365.355897903 0 12302365.355897903 51300766.870792389 0 0 0 0 -6522278.2446054816 -11920742.531173706 0 -11920742.531173706 52829620.36073637 0 0 0 0 17855049.70203945 -4564926.778553009 0 -4564926.778553009 64869070.757564545 0 0 0 0 7703328.8935104683 7778265.8370609283 0 7778265.8370609283 55689516.010421753 0 0 0 0 -7545152.8218401596 -4471571.0599937439 0 -4471571.0599937439 52886198.004917145 0 0 0 0 8662385.2250139732 11899243.558863163 0 11899243.558863163 41847660.05241394 0 0 0 0 -19734729.185515948 -12043780.235229492 0 -12043780.235229492 32778478.296588898 0 0 0 0 -10694779.393789027 1330299.489780426 0 1330299.489780426 47273731.155239105 0 0 0 0 -9597292.1145201772 -523887.65957069397 0 -523887.65957069397 47017097.863848686 0 0 0 0 471427.23346956819 -2391645.3573322296 0 -2391645.3573322296 32847519.44594574 0 0 0 0 -706007.48224262148 1381167.8872947693 0 1381167.8872947693 32344219.646659851 0 0 0 0 2515010.1986310109 9266526.5297374725 0 9266526.5297374725 26312101.989162445 0 0 0 0 -641180.48986174166 5659697.4575138092 0 5659697.4575138092 31681539.297255039 0 0 0 0 -3582579.6618418656 9881251.3404779434 0 9881251.3404779434 25862783.638851166 0 0 0 0 2356520.9472341835 25397413.547439575 0 25397413.547439575 59966694.381225586 0 0 0 0 -7702.3608480305993 -23903.091871457174 0 -23903.091871457174 74858.875511642545 0 0 0 0 6703744.0410203636 -12320787.539825439 0 -12320787.539825439 -10038046.097564697 0 0 0 0 -4222370.8854458779 -26474048.268749237 0 -26474048.268749237 7103334.4050598145 0 0 0 0 2272307.2425855473 -12388460.077833176 0 -12388460.077833176 9787530.522354126 0 0 0 0 -5896149.2804886848 -21516735.672703266 0 -21516735.672703266 27729447.594848633 0 0 0 0 6275865.306245327 -5220162.3194122314 0 -5220162.3194122314 22619599.800048828 0 0 0 0 5403223.1559718326 -3892749.9998035431 0 -3892749.9998035431 20780964.799880981 0 0 0 0 11645293.720532864 6508943.7860565186 0 6508943.7860565186 21412372.779384851 0 0 0 0 17878535.516879693 6685223.1637268066 0 6685223.1637268066 18586982.73441577 0 0 0 0 7287039.1240228266 5812122.5148658752 0 5812122.5148658752 9155042.2158899307 0 0 0 0 7245214.3412033767 1213379.807559967 0 1213379.807559967 18203579.527450562 0 0 0 0 -6917385.7414057925 13884486.654129028 0 13884486.654129028 16096476.029474258 0 0 0 0 7642055.0977247208 1572007.1425666809 0 1572007.1425666809 -9761072.312174201 0 0 0 0 -8200864.076982379 11383982.983390808 0 11383982.983390808 35106330.317165375 0 0 0 0 -5644781.6446411312 15356986.28950882 0 15356986.28950882 41152941.807279587 0 0 0 0 -2006179.9640309513 1316045.3360548019 0 1316045.3360548019 38262910.694477081 0 0 0 0 -42970.353483235413 3797.9580612534191 0 3797.9580612534191 53041.177087195218 0 0 0 0 12810307.098086121 20854976.380113244 0 20854976.380113244 24210156.848182678 0 0 0 0 155081.83641969273 -12138200.24454391 0 -12138200.24454391 19859853.643058777 0 0 0 0 6712550.4328448772 3270510.8203926086 0 3270510.8203926086 1791733.0192718506 0 0 0 0 -3405147.3760142699 -477870.75120925903 0 -477870.75120925903 33162157.876003265 0 0 0 0 -2663945.0903409682 4122868.7799568176 0 4122868.7799568176 26467573.5184021 0 0 0 0 -1008064.5014186688 3193354.1581525803 0 3193354.1581525803 17985451.652698517 0 0 0 0 11690652.507787149 16413023.553877354 0 16413023.553877354 30910744.339408875 0 0 0 0 -5271002.2093720883 4771991.0321807861 0 4771991.0321807861 42648490.482852936 0 0 0 0 1011129.330735568 -5432426.0135402679 0 -5432426.0135402679 15692520.424629211 0 0 0 0 4369142.7704943046 -1747778.0550785065 0 -1747778.0550785065 724411.05981063843 0 0 0 0 1715440.0389568359 325255.12853431702 0 325255.12853431702 4688282.6794662476 0 0 0 0 771268.84538064338 -2875628.9282531738 0 -2875628.9282531738 4782022.2864532471 0 0 0 0 -2708762.9024679586 702448.02068901062 0 702448.02068901062 11983491.476634979 0 0 0 0 -1682028.3943604343 818598.22925949097 0 818598.22925949097 2088936.2486457825 0 0 0 0 -1619998.3889468685 72631.006566047668 0 72631.006566047668 9190032.1410713196 0 0 0 0 1959666.1669755653 5839297.4283618927 0 5839297.4283618927 10652922.882982254 0 0 0 0 -22228623.951760948 -11664112.968361855 0 -11664112.968361855 9332631.0207748413 0 0 0 0 -6431221.9057981223 1335091.9018669128 0 1335091.9018669128 9558535.5528697968 0 0 0 0 -235655.43998325325 -905496.66621083417 0 -905496.66621083417 2534302.5385155845 0 0 0 0 -395401.54599100351 -8054938.1554775238 0 -8054938.1554775238 -3187541.1154689789 0 0 0 0 3133833.1302649006 5824525.2717232704 0 5824525.2717232704 11786134.334907532 0 0 0 0 916088.86481940746 5756831.6923389435 0 5756831.6923389435 12489184.182441711 0 0 0 0 3766130.323273778 -3327437.3407974243 0 -3327437.3407974243 4033058.8239212036 0 0 0 0 -1671771.1433181018 674218.90868854523 0 674218.90868854523 15910781.394866943 0 0 0 0 -1141704.1799550056 -4184761.415397644 0 -4184761.415397644 1995678.459728241 0 0 0 0 -5117543.9355716705 5881064.8645591736 0 5881064.8645591736 61705478.201698303 0 0 0 0 284038.01894337835 181362.3562675016 0 181362.3562675016 -184586.92436950561 0 0 0 0 6092429.5708808899 11771903.702999115 0 11771903.702999115 33660587.779098511 0 0 0 0 7363357.7159080505 9538208.2227611542 0 9538208.2227611542 22014821.926223755 0 0 0 0 2588251.2240235806 3519585.3114318848 0 3519585.3114318848 15423353.485857964 0 0 0 0 5891010.1213827133 -5907952.7168045044 0 -5907952.7168045044 17985220.960579872 0 0 0 0 3692567.9463996887 -3198575.9695510864 0 -3198575.9695510864 15444598.643249512 0 0 0 0 8315889.7885336876 -10661797.083190918 0 -10661797.083190918 12998528.319389343 0 0 0 0 3529063.9232902527 -5562757.2941055298 0 -5562757.2941055298 37639469.182857513 0 0 0 0 -2310422.4598278999 -9215226.0906085968 0 -9215226.0906085968 7770237.1148090363 0 0 0 0 9261203.6363495588 -7828978.9324355125 0 -7828978.9324355125 6519150.4040603638 0 0 0 0 8819718.3732450008 -9180814.3125782013 0 -9180814.3125782013 6214792.2983627319 0 0 0 0 5741142.2083448172 -5280853.8260402679 0 -5280853.8260402679 1367031.7711639404 0 0 0 0 -860535.41564279795 -2011436.0364189148 0 -2011436.0364189148 -3821121.7578430176 0 0 0 0 -15177245.354665078 -76137.351848602295 0 -76137.351848602295 7394274.8269119263 0 0 0 0 1122543.2327694297 -7475192.2716579437 0 -7475192.2716579437 7027482.8484573364 0 0 0 0 168222.48041576147 -3704451.1272535324 0 -3704451.1272535324 2879172.6391639709 0 0 0 0 -8181601.8786148429 -11333733.495641708 0 -11333733.495641708 2084918.1810903549 0 0 0 0 8316527.0617812276 -18553060.140531063 0 -18553060.140531063 15685582.350200653 0 0 0 0 12871430.352772951 -10817725.741371155 0 -10817725.741371155 -178635.27688789368 0 0 0 0 -3060445.728933692 -20773869.964372635 0 -20773869.964372635 15252271.103515625 0 0 0 0 7034513.6563538909 -35751725.148181915 0 -35751725.148181915 36441068.273239136 0 0 0 0 -1441793.8297832012 -28146652.728523254 0 -28146652.728523254 36592242.273620367 0 0 0 0 82940.788349421186 -345355.80442373035 0 -345355.80442373035 480559.47140054032 0 0 0 0 81913862.264349729 -51617762.841543198 0 -51617762.841543198 22294733.505716324 0 0 0 0 40247156.624591291 -11647140.820981979 0 -11647140.820981979 -6022914.6196708679 0 0 0 0 -3583911.0271931365 18310811.109083176 0 18310811.109083176 28360139.538943291 0 0 0 0 76987747.964373589 96410508.463852882 0 96410508.463852882 103900257.99413109 0 0 0 0 -15214734.89891557 9096412.8766622543 0 9096412.8766622543 38502302.658683777 0 0 0 0 -6407302.1717464328 24553037.743246078 0 24553037.743246078 64610227.464687347 0 0 0 0 4076283.5640939772 12901914.741014481 0 12901914.741014481 15985953.575026512 0 0 0 0 -4558268.6038401127 13825613.539862633 0 13825613.539862633 39178251.501972198 0 0 0 0 8586121.8978456799 20237107.988781452 0 20237107.988781452 27910614.574214935 0 0 0 0 48342.400352820281 -760906.32039838075 0 -760906.32039838075 1497214.5514978804 0 0 0 0 12048161.059292793 -15982982.913254187 0 -15982982.913254187 -2121053.924018532 0 0 0 0 -931746.73023581505 -12621428.544025712 0 -12621428.544025712 2739845.7955791354 0 0 0 0 -113891.9983997345 -20444319.485529155 0 -20444319.485529155 681890.7827404649 0 0 0 0 -7710392.9128007889 -26800377.957805574 0 -26800377.957805574 557523.11927485466 0 0 0 0 -7627531.5637998581 -15414309.317370385 0 -15414309.317370385 2252498.9123109579 0 0 0 0 -13508919.617664337 -12813554.223236784 0 -12813554.223236784 2654548.0222579837 0 0 0 0 -5368575.2761135101 -19034692.477338225 0 -19034692.477338225 3050938.2843329832 0 0 0 0 -22178347.684898376 -23090182.325697154 0 -23090182.325697154 4455511.7477064729 0 0 0 0 -891790.63750451175 -3402655.7357369773 0 -3402655.7357369773 13600196.318714073 0 0 0 0 -17892095.22342062 -12512994.130111694 0 -12512994.130111694 15526713.380970001 0 0 0 0 -14583489.413437843 -19742221.55347234 0 -19742221.55347234 8240092.9722757339 0 0 0 0 -14765089.460814476 -16780997.804837525 0 -16780997.804837525 -521020.19550979137 0 0 0 0 -13515155.616932869 -18604325.338300586 0 -18604325.338300586 7764378.5655636787 0 0 0 0 -21662250.382305145 -39842277.494491577 0 -39842277.494491577 17844015.436096191 0 0 0 0 -28274599.259138107 -12027773.302116334 0 -12027773.302116334 11942634.099328935 0 0 0 0 1481441.3306193352 8469300.2051048279 0 8469300.2051048279 -5587851.5579214096 0 0 0 0 2050930.9871263504 -27335815.778549194 0 -27335815.778549194 53874472.704652786 0 0 0 0 22716427.494869709 -39236167.138458252 0 -39236167.138458252 -25489384.537078857 0 0 0 0 2933678.3129358292 -8642090.718837738 0 -8642090.718837738 13795919.085107803 0 0 0 0 -2413562.6815030575 -9913758.3341846466 0 -9913758.3341846466 13325044.670467377 0 0 0 0 -18584441.768540382 -1555029.0176067352 0 -1555029.0176067352 11956314.156242371 0 0 0 0 -11984122.31941843 -10187128.512592316 0 -10187128.512592316 21580142.141254425 0 0 0 0 -13418681.10971725 -14016408.51290226 0 -14016408.51290226 27206776.968650818 0 0 0 0 -9077217.9955406189 -22936746.523260117 0 -22936746.523260117 33459366.030929565 0 0 0 0 -18933191.327192545 -1809260.3138542175 0 -1809260.3138542175 22150740.264774323 0 0 0 0 -22566275.555616856 -14732701.16822052 0 -14732701.16822052 42882130.732704163 0 0 0 0 -29762039.615553379 -4249003.1802368164 0 -4249003.1802368164 34156091.326530457 0 0 0 0 -26549692.832107902 -3364024.2675442696 0 -3364024.2675442696 30134633.567810059 0 0 0 0 -1628527.4116506116 5747869.519300798 0 5747869.519300798 13791581.408170331 0 0 0 0 -19131862.677728415 1611912.0695419312 0 1611912.0695419312 20860660.467784882 0 0 0 0 -7416366.8555476665 -791543.18279886246 0 -791543.18279886246 21227640.534572601 0 0 0 0 -12679080.187325478 -8062321.9891910553 0 -8062321.9891910553 15266855.513911486 0 0 0 0 -5027136.6991547942 -14985749.477653328 0 -14985749.477653328 2765878.8387887478 0 0 0 0 -5157038.1173248291 -15650621.111057818 0 -15650621.111057818 3005246.41985479 0 0 0 0 -1327667.4858343122 -4145769.2603781605 0 -4145769.2603781605 15241134.159161286 0 0 0 0 -172449720.16944456 -160119036.07296455 0 -160119036.07296455 163804697.13826892 0 0 0 0 9456280.1397657394 -45055715.019983828 0 -45055715.019983828 31279151.931763649 0 0 0 0 -522695781.79741192 -8094869.7152248025 0 -8094869.7152248025 131518176.76444793 0 0 0 0 -543385.60753034218 417705.87730391847 0 417705.87730391847 762661.77690571151 0 0 0 0 303258201.28594685 85933620.844817162 0 85933620.844817162 -35923639.913889647 0 0 0 0 8717581.722155571 44181772.126358598 0 44181772.126358598 94955522.503059089 0 0 0 0 -24694654.485338211 -3580355.6657050848 0 -3580355.6657050848 138039268.05475271 0 0 0 0 -17463601.953767061 293172.2421054095 0 293172.2421054095 51288913.136410773 0 0 0 0 15946523.467490673 120302346.86177683 0 120302346.86177683 -13585131.001719192 0 0 0 0 -58775414.599945545 -23515462.951985948 0 -23515462.951985948 61105521.755225062 0 0 0 0 -2582558.7367229462 -2523471.7147972034 0 -2523471.7147972034 6020765.0950507456 0 0 0 0 2604514.7936778069 4047751.5845525339 0 4047751.5845525339 23552175.398191065 0 0 0 0 3652618.9762949944 746982.13700528443 0 746982.13700528443 26482864.237633958 0 0 0 0 10204689.385875702 3841497.632453382 0 3841497.632453382 19887343.753192157 0 0 0 0 9883998.8796144724 12238749.627305761 0 12238749.627305761 24329591.066087723 0 0 0 0 -9349630.5182275772 10703206.634969629 0 10703206.634969629 33631621.448677599 0 0 0 0 32689114.349948406 27553913.689523354 0 27553913.689523354 23316585.500066996 0 0 0 0 12202753.830846906 5982866.8698483929 0 5982866.8698483929 17782632.36573565 0 0 0 0 14536405.853137016 10855307.531311363 0 10855307.531311363 26063675.08364135 0 0 0 0 22451450.706956625 13294770.167316049 0 13294770.167316049 11924018.95083487 0 0 0 0 7796265.3195905685 -2340032.7954391539 0 -2340032.7954391539 14409341.216619909 0 0 0 0 93352.205282821087 -242284.35998202336 0 -242284.35998202336 1654045.0259030568 0 0 0 0 20432529.214568138 5817059.6928402781 0 5817059.6928402781 8608306.9238034785 0 0 0 0 13030141.777165413 -2319706.9731306136 0 -2319706.9731306136 1765753.9024465084 0 0 0 0 2872021.876857996 -10721219.141784221 0 -10721219.141784221 5726064.698169589 0 0 0 0 -10774228.720546722 -7515402.776866138 0 -7515402.776866138 19003288.101389963 0 0 0 0 -6387298.6071910858 -5608369.5781077743 0 -5608369.5781077743 18933272.964090705 0 0 0 0 10561163.292112142 -818488.533305672 0 -818488.533305672 15220819.148874879 0 0 0 0 2152919.0391597748 -3583686.0396280289 0 -3583686.0396280289 19895279.128756762 0 0 0 0 4090237.0113391876 -3340602.9392252266 0 -3340602.9392252266 19922748.297112778 0 0 0 0 2870096.56366539 -1226320.8551546931 0 -1226320.8551546931 20543493.162198022 0 0 0 0 1758369.6142901182 -1296110.02980211 0 -1296110.02980211 20555274.383362055 0 0 0 0 -8922508.9166898727 -121858.46183171868 0 -121858.46183171868 23641679.595784694 0 0 0 0 -6383004.6019916534 -260151.35390409827 0 -260151.35390409827 23538794.877235338 0 0 0 0 -74536.526667784201 1000653.7878333034 0 1000653.7878333034 7160089.9853507364 0 0 0 0 -9459384.4059224129 -952404.75919498503 0 -952404.75919498503 23032795.939618945 0 0 0 0 -1015876.2746370403 -865451.22796530847 0 -865451.22796530847 7083079.0822942602 0 0 0 0 -11179984.741589546 -3222656.2830649614 0 -3222656.2830649614 20934615.353844792 0 0 0 0 -6091148.6629867554 39615.622566878796 0 39615.622566878796 22891941.436689913 0 0 0 0 -29901264.841674685 -39248382.949812889 0 -39248382.949812889 51085926.341088057 0 0 0 0 77800749.595803261 29431847.179661512 0 29431847.179661512 15942300.822606564 0 0 0 0 -44561638.931769133 58072318.24224472 0 58072318.24224472 7684054.0950222015 0 0 0 0 -26545330.232817173 17289523.187028885 0 17289523.187028885 -7337062.7389717102 0 0 0 0 -35559157.892804623 5435224.5504999161 0 5435224.5504999161 55890019.57762146 0 0 0 0 -1878067.3395553371 6061297.3952836888 0 6061297.3952836888 13329330.452847959 0 0 0 0 7957336.1051826179 554392.24353981018 0 554392.24353981018 21959702.232667923 0 0 0 0 475695.46859916142 -4651226.6455624197 0 -4651226.6455624197 12988266.651133245 0 0 0 0 -4968948.484288156 -2282839.8711259365 0 -2282839.8711259365 26035370.511901379 0 0 0 0 3437776.21956563 -13479524.747746885 0 -13479524.747746885 17667481.871995687 0 0 0 0 6623118.4711796045 -6824032.4997268915 0 -6824032.4997268915 -9165952.9695880413 0 0 0 0 -17846393.968710899 10854173.11972034 0 10854173.11972034 9112661.1670060158 0 0 0 0 -3336994.7329926491 -1290455.9411649704 0 -1290455.9411649704 16603032.573276281 0 0 0 0 -5560247.0656490475 -2044915.1757941246 0 -2044915.1757941246 24486774.155185223 0 0 0 0 -11550914.149039745 -2404862.0324878693 0 -2404862.0324878693 24848703.692832947 0 0 0 0 -18053864.505194664 4202138.2076144218 0 4202138.2076144218 22336000.06095767 0 0 0 0 -22057045.273504734 -1685651.7089343071 0 -1685651.7089343071 34984988.86623621 0 0 0 0 -26451542.590600967 -6992130.0214214325 0 -6992130.0214214325 30489262.929423809 0 0 0 0 -10866261.884246349 -8958892.4811458588 0 -8958892.4811458588 29139208.116147518 0 0 0 0 4959118.5723838806 -35258978.448931217 0 -35258978.448931217 26557838.24250555 0 0 0 0 -5945219.1276578903 -17756750.212257862 0 -17756750.212257862 13372286.470475674 0 0 0 0 -28463985.626984 -27949716.812061414 0 -27949716.812061414 52710870.130797386 0 0 0 0 -25935303.594529152 84637747.995384574 0 84637747.995384574 -94105770.033647478 0 0 0 0 -49780190.640428543 -22159964.686881542 0 -22159964.686881542 51234356.259682178 0 0 0 0 -2278404.4854059219 7315192.2952088118 0 7315192.2952088118 -29068897.155615091 0 0 0 0 -85752460.486114502 33397862.343385696 0 33397862.343385696 61026604.921531677 0 0 0 0 -53151540.53769207 -9928577.2995471954 0 -9928577.2995471954 72925947.711028099 0 0 0 0 -18130191.252135277 11279124.510937929 0 11279124.510937929 16961731.251353621 0 0 0 0 -50322056.431328773 16005892.333631754 0 16005892.333631754 24518103.419084787 0 0 0 0 -45435186.455526352 51278465.65399456 0 51278465.65399456 -23375968.987810612 0 0 0 0 -84577733.203391075 15480033.510088444 0 15480033.510088444 105338505.34398007 0 0 0 0 -281355634.80675888 301372679.26373553 0 301372679.26373553 69527994.424577415 0 0 0 0 -167359441.75080872 -160738959.56918812 0 -160738959.56918812 324369667.83131742 0 0 0 0 -684831439.88338089 223886166.89383996 0 223886166.89383996 748526804.01254892 0 0 0 0 251898031.92878056 -306970285.76988637 0 -306970285.76988637 245184920.79076862 0 0 0 0 -733181878.50254583 -76798653.433446527 0 -76798653.433446527 1174593268.0121145 0 0 0 0 -124529621.10728502 -495819495.99025154 0 -495819495.99025154 798357794.42355919 0 0 0 0 67281968.155612946 -115436307.8431232 0 -115436307.8431232 61786291.548734665 0 0 0 0 52495663.126520157 -108028917.6233077 0 -108028917.6233077 60828511.645843625 0 0 0 0 -29260451.432038307 -71640191.138295174 0 -71640191.138295174 125588170.97987843 0 0 0 0 -87814431.755641937 -215449111.65969825 0 -215449111.65969825 361536443.07173157 0 0 0 0 -142882650.13404655 -12035401.457456112 0 -12035401.457456112 103399032.38684988 0 0 0 0 43160016.409315109 -63932269.745247364 0 -63932269.745247364 29890407.963409424 0 0 0 0 12577235.515626907 -63139764.447011471 0 -63139764.447011471 31384584.131728172 0 0 0 0 5623922.1258104444 -28375055.58799845 0 -28375055.58799845 -3619398.2753419876 0 0 0 0 36231180.100761414 -20460115.384506226 0 -20460115.384506226 -20922181.963011742 0 0 0 0 123530203.55891037 -56498460.858202696 0 -56498460.858202696 -739153.61982345581 0 0 0 0 36560172.285323858 -18263905.385671973 0 -18263905.385671973 -17144958.215790749 0 0 0 0 -16085070.905485153 18667664.101635933 0 18667664.101635933 398912.17158985138 0 0 0 0 51853226.778859138 13290719.056936383 0 13290719.056936383 -5116394.6036996841 0 0 0 0 -26146375.311383724 7805071.0973980427 0 7805071.0973980427 -7144524.9192900658 0 0 0 0 51927603.04028368 81033432.844553649 0 81033432.844553649 80808502.182295412 0 0 0 0 277325046.83849525 -263829515.81434068 0 -263829515.81434068 93321592.29198432 0 0 0 0 916181.36732816836 162367.96033801115 0 162367.96033801115 2862428.4917398887 0 0 0 0 789442.73308842443 -799660.64014124009 0 -799660.64014124009 73364.002872196725 0 0 0 0 169365848.9611845 -55078558.250804842 0 -55078558.250804842 32456738.074875832 0 0 0 0 -14986742.608781576 11139490.001304626 0 11139490.001304626 79931163.040949821 0 0 0 0 -27772.507888241045 209578.86046434194 0 209578.86046434194 1902522.7582829916 0 0 0 0 39386258.075025462 -97815882.877435684 0 -97815882.877435684 -116167839.41084099 0 0 0 0 -4488239.9605251849 18894837.587450027 0 18894837.587450027 59865339.509426117 0 0 0 0 -981989.65311078727 3697552.1769275665 0 3697552.1769275665 43070408.161493301 0 0 0 0 -39150878.627477884 4113254.7190637589 0 4113254.7190637589 58881618.071369171 0 0 0 0 -19258047.152737029 11601813.158433914 0 11601813.158433914 -2448268.3411712646 0 0 0 0 -63824179.227504984 -9353926.6161966324 0 -9353926.6161966324 196382871.52313995 0 0 0 0 -20918189.815401278 -157433116.08054924 0 -157433116.08054924 79863195.840705872 0 0 0 0 27345458.418213248 -78934192.937105179 0 -78934192.937105179 124588461.57545471 0 0 0 0 -41499830.94105792 15184898.6208992 0 15184898.6208992 215486627.14236832 0 0 0 0 142529087.88742262 183448542.69901848 0 183448542.69901848 16053127.722248077 0 0 0 0 -57629358.138545513 49058800.432817459 0 49058800.432817459 26681882.152084351 0 0 0 0 -25383416.303923309 -26165034.09957695 0 -26165034.09957695 90247262.976707458 0 0 0 0 -29368190.74882257 23383175.033149719 0 23383175.033149719 45619744.394760132 0 0 0 0 -59452229.486997604 21757220.067150116 0 21757220.067150116 53455802.063405991 0 0 0 0 83463380.671096444 33033689.063661575 0 33033689.063661575 -160528558.83634186 0 0 0 0 18241773.189374574 15320328.970485687 0 15320328.970485687 40208351.624997616 0 0 0 0 -569823.26440996048 238130.99790169857 0 238130.99790169857 7050506.1908468436 0 0 0 0 -2131869.0045309393 14583951.804613948 0 14583951.804613948 73763618.534118652 0 0 0 0 81109254.737089828 13459043.654998779 0 13459043.654998779 -51471569.361938477 0 0 0 0 44313109.904016212 -33864700.920715332 0 -33864700.920715332 24003979.389976501 0 0 0 0 -6968378.160132736 -9644903.0520095825 0 -9644903.0520095825 83743006.226036072 0 0 0 0 -1830962.5346309512 6027115.1021481352 0 6027115.1021481352 15120995.900766876 0 0 0 0 -36782309.037849203 -20311699.303184509 0 -20311699.303184509 108675405.67894363 0 0 0 0 -4882007.2417969927 8005451.971578598 0 8005451.971578598 24913880.826200008 0 0 0 0 -1903309.4185300546 -676878.55678212643 0 -676878.55678212643 4073674.5290805064 0 0 0 0 9534986.1166892964 -587005.36469906569 0 -587005.36469906569 21216679.249874115 0 0 0 0 -424098.50287036598 2989003.4077305794 0 2989003.4077305794 25339776.443896472 0 0 0 0 8445705.8977216482 -4291584.2136239409 0 -4291584.2136239409 22933372.059283257 0 0 0 0 4718289.6631374359 -3362042.9720172882 0 -3362042.9720172882 22766504.204981089 0 0 0 0 -6447276.9521239474 -11738556.276242256 0 -11738556.276242256 5012171.8139572144 0 0 0 0 -20831666.374064878 17273401.604206085 0 17273401.604206085 10030789.803758621 0 0 0 0 -1608765.8787151454 5025310.1059880955 0 5025310.1059880955 13500916.014908185 0 0 0 0 17152594.165421367 57623175.493217468 0 57623175.493217468 -36793146.605910301 0 0 0 0 -1800997.2700927844 4243519.7521353066 0 4243519.7521353066 13071905.646752078 0 0 0 0 -2718422.7124479413 11659356.503608704 0 11659356.503608704 -15090030.841594696 0 0 0 0 2664852.7674887925 1016935.3486862183 0 1016935.3486862183 5177603.3201141357 0 0 0 0 -549619.36783813825 -319159.72508116439 0 -319159.72508116439 3277438.1442874297 0 0 0 0 2153866.6322849318 1729675.3812522888 0 1729675.3812522888 5444639.4302787781 0 0 0 0 -4691439.2313968092 4032454.4705734253 0 4032454.4705734253 31589662.779506683 0 0 0 0 -2425962.9564583674 -6722106.5278539658 0 -6722106.5278539658 35902676.948364258 0 0 0 0 -5776545.0304017663 -676951.37100124359 0 -676951.37100124359 41103449.435482025 0 0 0 0 -2864938.6712710522 4132493.5843863487 0 4132493.5843863487 63017718.813514709 0 0 0 0 -11129670.921020955 7240239.9928245544 0 7240239.9928245544 61857974.829250336 0 0 0 0 -9987389.6360780448 11921580.172870636 0 11921580.172870636 33555414.141615868 0 0 0 0 -9268782.1066321582 -4018557.0919532776 0 -4018557.0919532776 27031044.014820099 0 0 0 0 -6476981.9414676866 878391.65769705176 0 878391.65769705176 17095410.290035248 0 0 0 0 -6279680.7808632273 5521605.2954838872 0 5521605.2954838872 17241120.479522705 0 0 0 0 -248851.13284102408 1148077.0292906668 0 1148077.0292906668 3168736.2375952774 0 0 0 0 -2763659.4078726396 2965817.3821458817 0 2965817.3821458817 11941439.562221527 0 0 0 0 -2774.2835075855255 -481828.72075653076 0 -481828.72075653076 1881327.1328349113 0 0 0 0 451712.33413267136 -600199.78665161133 0 -600199.78665161133 1687180.5619659424 0 0 0 0 1216249.0124317408 -429857.82269573212 0 -429857.82269573212 7349921.5853271484 0 0 0 0 588822.90966928005 -1509013.0926198959 0 -1509013.0926198959 9138947.3129119873 0 0 0 0 202719.85788026103 -101560.98766239733 0 -101560.98766239733 2414045.8921353053 0 0 0 0 -13394.595640403451 391852.39445768856 0 391852.39445768856 1335755.8272310854 0 0 0 0 -554748.82680976391 -737481.90563201904 0 -737481.90563201904 5436187.9411593676 0 0 0 0 677432.75191804767 -1662748.1366062164 0 -1662748.1366062164 9374650.8035049438 0 0 0 0 1189757.6314983964 -1981470.7024230957 0 -1981470.7024230957 8683985.989906311 0 0 0 0 -725028.00635904074 -722652.61605119705 0 -722652.61605119705 16495575.379535675 0 0 0 0 -322271.02987949824 414494.11850934103 0 414494.11850934103 7355241.1139790826 0 0 0 0 -114913.6833102107 -2638181.5129241943 0 -2638181.5129241943 19035606.160545349 0 0 0 0 -553774.96061748266 -684130.04301977158 0 -684130.04301977158 3890273.9825897217 0 0 0 0 -1378084.0882759562 -61749.503926048055 0 -61749.503926048055 9864844.0922179241 0 0 0 0 -670885.39663654566 -993877.07124328613 0 -993877.07124328613 6418028.114200592 0 0 0 0 1694775.1259693753 -3750830.1241573053 0 -3750830.1241573053 5725454.2320907209 0 0 0 0 1123170.7950176001 -1911435.1269330978 0 -1911435.1269330978 6100369.6624031067 0 0 0 0 5254102.9995298386 -2148294.8966650963 0 -2148294.8966650963 23347445.763345242 0 0 0 0 3003260.6182608604 -2598913.0132389069 0 -2598913.0132389069 5923539.0832281113 0 0 0 0 1185045.3309187889 871507.75852060318 0 871507.75852060318 22287302.067710876 0 0 0 0 189405.36911667138 -715658.22833818197 0 -715658.22833818197 11844866.909923553 0 0 0 0 369329.90107852826 782447.53023105487 0 782447.53023105487 2756267.9319930761 0 0 0 0 -5219246.0282239914 -1556308.0148010254 0 -1556308.0148010254 17516941.823101044 0 0 0 0 3921465.6144310534 -1486412.5998783112 0 -1486412.5998783112 12003091.212582588 0 0 0 0 -10362.561089379175 208954.87975868955 0 208954.87975868955 420899.19687842613 0 0 0 0 -1999805.8845036328 -418394.57325935364 0 -418394.57325935364 18021643.58611095 0 0 0 0 913284.44145917892 -663846.1984500885 0 -663846.1984500885 5379985.2028808594 0 0 0 0 -196535.87414956093 -3499908.3766269684 0 -3499908.3766269684 18226909.248563766 0 0 0 0 -4410287.3713088036 -5276547.0346946716 0 -5276547.0346946716 17706508.349632263 0 0 0 0 862907.93762099743 -6280182.6483664513 0 -6280182.6483664513 17974658.162467957 0 0 0 0 -21405279.778368473 -20189805.781514168 0 -20189805.781514168 29502674.116271973 0 0 0 0 -10320704.764600754 -2141437.3170757294 0 -2141437.3170757294 21059599.72587204 0 0 0 0 1283919.6330478787 -7212910.8419837952 0 -7212910.8419837952 16545292.963813782 0 0 0 0 -4489680.8411364555 -5576293.3880271912 0 -5576293.3880271912 22270032.104196548 0 0 0 0 3038025.8520143032 -1642717.6569299698 0 -1642717.6569299698 11912604.390491486 0 0 0 0 25698796.534461498 -11258704.179765701 0 -11258704.179765701 14114771.026861191 0 0 0 0 -8766137.7135608196 -1955447.07056427 0 -1955447.07056427 13662317.928071976 0 0 0 0 -383524.60450361483 1226408.5593222962 0 1226408.5593222962 -339340.89600149915 0 0 0 0 -1495208.290435791 252955.66073513031 0 252955.66073513031 12644349.73324585 0 0 0 0 -5848019.2863482237 -4304475.1967058182 0 -4304475.1967058182 16149310.606193542 0 0 0 0 -1826184.1595544815 -3784028.1424331665 0 -3784028.1424331665 11036843.560811996 0 0 0 0 -2659667.2723441124 -6735264.5148744583 0 -6735264.5148744583 12271815.571231842 0 0 0 0 -598219.07603383064 -3416727.3186016083 0 -3416727.3186016083 15763075.597499847 0 0 0 0 -876677.12683823705 -3938074.3797326088 0 -3938074.3797326088 18203758.707553864 0 0 0 0 -1306395.9127826691 -10971072.709850311 0 -10971072.709850311 7663528.4975795746 0 0 0 0 9723200.1834324002 -6027016.6665267944 0 -6027016.6665267944 9353949.4610977173 0 0 0 0 8289849.4504828453 -6864091.6430196762 0 -6864091.6430196762 11904868.972698212 0 0 0 0 1478980.1355429888 -681524.18488693237 0 -681524.18488693237 5695715.4320392609 0 0 0 0 962896.90122881532 -2097165.5546183586 0 -2097165.5546183586 7638702.2384147644 0 0 0 0 6854501.3740600646 -4142403.8992347717 0 -4142403.8992347717 7908049.4217414856 0 0 0 0 50875.989886879921 143075.38192367554 0 143075.38192367554 12522062.151664734 0 0 0 0 35178.520280599594 -180744.72353363037 0 -180744.72353363037 1118749.2453079224 0 0 0 0 -57179.257091239095 2249676.6759327054 0 2249676.6759327054 3012905.3426551819 0 0 0 0 -138826.19341159589 672212.37396746781 0 672212.37396746781 2579844.8443947318 0 0 0 0 196968.06582927704 -2000557.0269851685 0 -2000557.0269851685 6235826.7041091919 0 0 0 0 -19321.132441325113 -55158.434210870415 0 -55158.434210870415 387063.5008665435 0 0 0 0 1206469.6625967026 -1109928.0151062012 0 -1109928.0151062012 4228729.3502197266 0 0 0 0 582398.27594517288 -314489.46997730434 0 -314489.46997730434 3431689.9167898633 0 0 0 0 -253308.69764388437 262454.09643204324 0 262454.09643204324 1526606.8584337402 0 0 0 0 980456.70170545578 -357066.04971313477 0 -357066.04971313477 9607437.5550403595 0 0 0 0 206147.75217678439 709077.95740106329 0 709077.95740106329 3132939.6857539574 0 0 0 0 2663265.5504126549 -2750407.6353492737 0 -2750407.6353492737 15662978.103744507 0 0 0 0 6644404.7035524845 -4045880.2376041412 0 -4045880.2376041412 11994245.912406921 0 0 0 0 -4997.2592940658506 81229.139006911777 0 81229.139006911777 723497.31998027861 0 0 0 0 1179282.920883894 -983598.05186271667 0 -983598.05186271667 8359094.2895040512 0 0 0 0 -1618621.9249888659 -1208283.5935729742 0 -1208283.5935729742 7262700.5271234512 0 0 0 0 -2170713.7847800255 -193221.53884470463 0 -193221.53884470463 6812000.647974968 0 0 0 0 -10485865.303670883 -334148.59721231461 0 -334148.59721231461 12712698.670555115 0 0 0 0 -1689525.0797834396 -9833116.2704613209 0 -9833116.2704613209 1208506.6870894432 0 0 0 0 -1489706.9225593805 628002.36790406704 0 628002.36790406704 4742496.6799135208 0 0 0 0 -2159764.0416328073 -909976.48057156918 0 -909976.48057156918 6137032.494661808 0 0 0 0 3124756.5192127228 -16849240.000154972 0 -16849240.000154972 7315557.6403579712 0 0 0 0 -1594467.7748099105 -772919.74567349651 0 -772919.74567349651 2127404.0754067446 0 0 0 0 9377457.1576271057 10564502.000801563 0 10564502.000801563 -27334679.826150537 0 0 0 0 3499924.1611404419 -17098079.13492465 0 -17098079.13492465 6906729.9589681625 0 0 0 0 -1502477.247258768 -2619615.2455210835 0 -2619615.2455210835 5902164.2944716699 0 0 0 0 -2992212.070469141 2122183.4687643051 0 2122183.4687643051 6333370.8701343536 0 0 0 0 -1026324.653693676 -361696.32494401932 0 -361696.32494401932 5809449.9428091049 0 0 0 0 -31770687.657458305 15624332.922029495 0 15624332.922029495 12936671.058811188 0 0 0 0 -2404155.9977070214 1242188.0529401642 0 1242188.0529401642 7356236.4728606436 0 0 0 0 -58278309.236391068 6654760.474565506 0 6654760.474565506 75932737.244058609 0 0 0 0 -5181585.6006755829 5892017.5344772339 0 5892017.5344772339 -11377638.642433167 0 0 0 0 137153.46759605547 170275.82270705514 0 170275.82270705514 -348509.97733645281 0 0 0 0 -58618715.567806721 -9378401.4641399384 0 -9378401.4641399384 32011256.445376396 0 0 0 0 960385.86496448517 -6649062.6083693504 0 -6649062.6083693504 -2545989.978354454 0 0 0 0 -8314907.1187138557 -13651382.736548662 0 -13651382.736548662 20829566.371799469 0 0 0 0 661125.00525635481 -6755623.2725207806 0 -6755623.2725207806 15837255.539865494 0 0 0 0 -3490408.6993107796 -4911104.0884037018 0 -4911104.0884037018 18775658.521352053 0 0 0 0 807163.16404175269 -2768022.5975232078 0 -2768022.5975232078 3007987.1019522361 0 0 0 0 197121.17411541939 -1791898.304492712 0 -1791898.304492712 20782284.371362686 0 0 0 0 168119.62463779002 -442366.00373521447 0 -442366.00373521447 11126210.164455414 0 0 0 0 353417.08345904341 824434.05557089206 0 824434.05557089206 3901731.1465004832 0 0 0 0 81516964.836891174 10939134.490333557 0 10939134.490333557 47457315.623313904 0 0 0 0 3513783.3040394783 -49743628.414175034 0 -49743628.414175034 32152663.01063633 0 0 0 0 -35157058.706062794 18104403.576083183 0 18104403.576083183 9432419.2990083694 0 0 0 0 35060727.083904743 22865498.002202988 0 22865498.002202988 -18290738.439785004 0 0 0 0 31716093.584607601 -44730108.792490005 0 -44730108.792490005 13823021.037834167 0 0 0 0 -341281.71731859108 90131.916438295273 0 90131.916438295273 160420.05817901902 0 0 0 0 5501535.1645109653 16847755.013251305 0 16847755.013251305 -17538087.409514427 0 0 0 0 -1835175.6709817778 653841.83495552046 0 653841.83495552046 6475547.3481077552 0 0 0 0 -2175201.5157978535 -935718.98230648041 0 -935718.98230648041 7786365.6422793865 0 0 0 0 -3124371.1559224129 2979568.0118727684 0 2979568.0118727684 6756276.2416052818 0 0 0 0 -1648774.3181054359 1145776.2663119861 0 1145776.2663119861 6407155.4176833909 0 0 0 0 -1759304.7937557101 -976130.01366984844 0 -976130.01366984844 7113328.3131380081 0 0 0 0 -256998.97127318382 653243.05493307114 0 653243.05493307114 8849967.1131999493 0 0 0 0 -1418747.1997907315 2086722.4538765715 0 2086722.4538765715 4365820.0571041349 0 0 0 0 -28447.76591719687 -2979866.1629018337 0 -2979866.1629018337 11387222.016064644 0 0 0 0 4175845.7785537243 -4201004.0573756695 0 -4201004.0573756695 14090168.21428299 0 0 0 0 -99163811.154266357 -26254050.1242342 0 -26254050.1242342 36171083.740214854 0 0 0 0 -36415949.223733187 -38127720.56119895 0 -38127720.56119895 -9493549.138838768 0 0 0 0 -42868475.210288882 -8184181.0646598339 0 -8184181.0646598339 32478309.758803368 0 0 0 0 -50457365.279257774 -12033950.240114689 0 -12033950.240114689 36889405.069385439 0 0 0 0 -34238531.086349249 14443143.794002056 0 14443143.794002056 25528349.711855888 0 0 0 0 -12636775.761644006 -6796074.8723505735 0 -6796074.8723505735 31712921.204817772 0 0 0 0 -1862383.7230001478 1850734.7330254766 0 1850734.7330254766 4413929.5311342888 0 0 0 0 -520044.66184043884 -3474630.9426836967 0 -3474630.9426836967 11913236.841958523 0 0 0 0 -17296387.934807837 -13015488.460814714 0 -13015488.460814714 33466591.159876347 0 0 0 0 -9884796.6842207313 -5987665.1032575369 0 -5987665.1032575369 31339219.478948593 0 0 0 0 -13783644.083154559 -15551472.479029655 0 -15551472.479029655 13517454.635375977 0 0 0 0 -11704054.508188248 -8119791.798661232 0 -8119791.798661232 15192006.390788794 0 0 0 0 5466815.1053930521 -11049849.802908659 0 -11049849.802908659 24673781.486095667 0 0 0 0 58845.083599790931 551434.9384098649 0 551434.9384098649 8623589.3973293304 0 0 0 0 -3188634.4659098163 2635164.6923173666 0 2635164.6923173666 7299029.914276123 0 0 0 0 366554.74042439461 -742446.13848543167 0 -742446.13848543167 6709190.5677433014 0 0 0 0 -1557394.7590694726 -2314460.44780159 0 -2314460.44780159 10708659.005224228 0 0 0 0 -2042896.1537652202 1273531.4882262568 0 1273531.4882262568 4954300.8486162806 0 0 0 0 3060210.8621216565 -6033729.0011298507 0 -6033729.0011298507 18483565.536757469 0 0 0 0 425087.68145012856 -3780039.6629571915 0 -3780039.6629571915 7188500.2100448608 0 0 0 0 -2550943.8074352741 -3107672.3804063797 0 -3107672.3804063797 12888957.371012449 0 0 0 0 -2655157.8025233746 -4501279.0512348413 0 -4501279.0512348413 9687798.5384254456 0 0 0 0 -22735.548489695182 -1400181.7360467273 0 -1400181.7360467273 1159956.0988004766 0 0 0 0 -1703631.3673353195 -10517947.876166821 0 -10517947.876166821 9870792.9626903534 0 0 0 0 -11285787.355493069 -8246703.7654857635 0 -8246703.7654857635 16086195.147064686 0 0 0 0 -1197471.4581620907 -1093754.8539563715 0 -1093754.8539563715 532877.76727663819 0 0 0 0 -2181814.8583525382 2322629.7376804352 0 2322629.7376804352 9587582.024055481 0 0 0 0 -5652284.8945886791 4577778.3455338478 0 4577778.3455338478 8159003.6345863342 0 0 0 0 184099.90968132019 4277891.5688781738 0 4277891.5688781738 4310972.032699585 0 0 0 0 5360151.7841708958 -27333632.485191584 0 -27333632.485191584 8019588.8715057373 0 0 0 0 1336106.4941703081 2042570.12495327 0 2042570.12495327 6243104.374540329 0 0 0 0 -728823.03936887428 302168.47992374189 0 302168.47992374189 3928309.7697591069 0 0 0 0 -2015075.1496568322 -32071358.194267273 0 -32071358.194267273 11377944.17650795 0 0 0 0 -16319549.055802822 -28119669.429228783 0 -28119669.429228783 17556914.011356354 0 0 0 0 -33781469.144227028 50452244.352863312 0 50452244.352863312 38333947.411369324 0 0 0 0 -22767172.984039843 -31550340.382012546 0 -31550340.382012546 16196363.583084106 0 0 0 0 -61055534.254469872 -19484995.37326622 0 -19484995.37326622 15554170.071249008 0 0 0 0 -10816.581521856599 24994.779177938122 0 24994.779177938122 71313.289237266872 0 0 0 0 21973443.477596283 -7674674.6947565079 0 -7674674.6947565079 -3824525.7936420441 0 0 0 0 -453839.45330079657 -654652.48820210039 0 -654652.48820210039 471242.06038076384 0 0 0 0 -154985510.83079624 30027259.548089981 0 30027259.548089981 -289380.52223014832 0 0 0 0 -181776645.1984756 -37470832.886442423 0 -37470832.886442423 28955774.882278442 0 0 0 0 31456370.559421301 -38259101.189702988 0 -38259101.189702988 12994224.311677933 0 0 0 0 -2884141.417535603 5299790.0950546265 0 5299790.0950546265 -25280726.754014969 0 0 0 0 -13442993.503433824 -658647.31628799438 0 -658647.31628799438 68348654.834377289 0 0 0 0 24462620.539197162 -55463540.081031799 0 -55463540.081031799 50721181.602527618 0 0 0 0 209259.77173954577 -27684.339236832689 0 -27684.339236832689 142700.49343545549 0 0 0 0 9588780.2584581971 30492777.789289474 0 30492777.789289474 -9115222.7952518463 0 0 0 0 -3023934.0932485163 -17117796.93320179 0 -17117796.93320179 7817121.1685409546 0 0 0 0 48497676.681399927 -5426368.3511781693 0 -5426368.3511781693 -2355409.5752601624 0 0 0 0 13265616.616666585 -826132.98770904541 0 -826132.98770904541 865626.57680130005 0 0 0 0 17772070.661599517 -15446861.915349245 0 -15446861.915349245 3987282.1653556824 0 0 0 0 -194094.40733140707 -10166348.76294899 0 -10166348.76294899 7328752.6300582886 0 0 0 0 -3493929.2085006237 -7097413.6361236572 0 -7097413.6361236572 6824715.5362110138 0 0 0 0 -31384476.346856356 8024840.0603427887 0 8024840.0603427887 6417594.3249517381 0 0 0 0 -1311756.4232056127 1728056.7195940837 0 1728056.7195940837 2293710.6148310471 0 0 0 0 -996219.82606415381 210703.84239220247 0 210703.84239220247 3696221.3201817116 0 0 0 0 -1931318.1876076066 200283.38884783164 0 200283.38884783164 6465831.9045346845 0 0 0 0 -5040817.3424315453 3644144.9711685181 0 3644144.9711685181 562687.96057128906 0 0 0 0 -2187246.8031130433 1482421.1174488068 0 1482421.1174488068 5848170.2451820374 0 0 0 0 -452471.9839682579 -1416860.7654275894 0 -1416860.7654275894 6449877.395604372 0 0 0 0 -17630347.647893786 -24147394.525203705 0 -24147394.525203705 13204844.327316284 0 0 0 0 -1570774.7913793677 941964.43244635919 0 941964.43244635919 2640584.4913344644 0 0 0 0 -2428351.7739520073 2373847.3136425018 0 2373847.3136425018 -1736258.0455799103 0 0 0 0 -259758.97854049731 -1221994.0830458142 0 -1221994.0830458142 5324089.0724361464 0 0 0 0 -3553076.470289778 2473670.7452058792 0 2473670.7452058792 2196969.7706718445 0 0 0 0 -138902.05343392491 -1183246.653470993 0 -1183246.653470993 5558828.9139595032 0 0 0 0 -2038168.7198534012 -17187719.615594387 0 -17187719.615594387 33756681.29878521 0 0 0 0 -3254088.4175976398 101293.13397890702 0 101293.13397890702 6282829.6970625352 0 0 0 0 -104484.3097433853 -531846.1602246766 0 -531846.1602246766 1301586.3231048137 0 0 0 0 2531299.4218722284 -10562939.618669599 0 -10562939.618669599 24438875.963514328 0 0 0 0 10242076.931625366 -9428382.79413414 0 -9428382.79413414 21020078.345823288 0 0 0 0 5696593.1136789322 -3705644.5471582413 0 -3705644.5471582413 16923597.792593002 0 0 0 0 1347820.4136032881 -2390453.6999073164 0 -2390453.6999073164 2608571.2877516309 0 0 0 0 4245022.2957496643 -5826539.870344162 0 -5826539.870344162 17083693.890310287 0 0 0 0 1118123.101146698 -3407602.1286306381 0 -3407602.1286306381 6897408.4301624298 0 0 0 0 -501916.64935362339 -1613249.4563455582 0 -1613249.4563455582 3910111.7694339752 0 0 0 0 -418695.64379705634 -1682513.3290959075 0 -1682513.3290959075 3817159.5737781692 0 0 0 0 -27722.341638565063 484155.08839416504 0 484155.08839416504 5950405.6198921204 0 0 0 0 400810.56032023259 -1642233.1595175639 0 -1642233.1595175639 4095221.8612931818 0 0 0 0 -270928.25387477875 -891295.95458984375 0 -891295.95458984375 1779715.9785804749 0 0 0 0 -672621.42679145583 -598251.26993333595 0 -598251.26993333595 3352508.8432393968 0 0 0 0 -2643030.1031616367 -774290.01729872078 0 -774290.01729872078 5487725.9414117895 0 0 0 0 -798145.34466576576 -2556804.7417464256 0 -2556804.7417464256 6761087.8371009827 0 0 0 0 -24180.176784312818 34434.022259224206 0 34434.022259224206 591591.95723423478 0 0 0 0 -879879.78982877731 -1692537.8515548706 0 -1692537.8515548706 7610032.4304237366 0 0 0 0 -105247.36417889595 -2532179.7150535583 0 -2532179.7150535583 6510824.2698955536 0 0 0 0 -49579601.190458298 69070326.049749374 0 69070326.049749374 17224542.831184387 0 0 0 0 -56992343.043471403 -15297686.92679131 0 -15297686.92679131 54207395.379756927 0 0 0 0 -599601.17553463695 841431.43633672269 0 841431.43633672269 2737874.3961599544 0 0 0 0 67886553.959857538 -4449363.1374549866 0 -4449363.1374549866 18288447.852493286 0 0 0 0 7714680.422221601 17289858.985198021 0 17289858.985198021 30937600.98381424 0 0 0 0 -24169567.566530645 -14691599.028985023 0 -14691599.028985023 56598931.669525146 0 0 0 0 107856.78404072698 -34176.435216201469 0 -34176.435216201469 116759.78271528892 0 0 0 0 49545131.271321416 44949504.171517372 0 44949504.171517372 -81674153.600135803 0 0 0 0 -701203.38300279703 -346541.36537280772 0 -346541.36537280772 6387673.9673690498 0 0 0 0 -271836.82137870789 -1108591.9968986511 0 -1108591.9968986511 8170621.115486145 0 0 0 0 -68863.546951212891 -491804.95469963551 0 -491804.95469963551 5265190.2808567639 0 0 0 0 -2871579.099764064 125226.06728553772 0 125226.06728553772 9436084.5446767807 0 0 0 0 542529.75615853071 3042706.966714859 0 3042706.966714859 7568525.3433666229 0 0 0 0 -2309631.7673287988 2628935.2751159668 0 2628935.2751159668 12581046.162200928 0 0 0 0 3967425.1330292374 -2532749.3720741272 0 -2532749.3720741272 1576944.8842544556 0 0 0 0 2189041.7686055303 -62150784.784229279 0 -62150784.784229279 -248819.39381408691 0 0 0 0 17417526.927176118 68761666.893257141 0 68761666.893257141 -3735524.828854084 0 0 0 0 77648644.595557019 42486825.777344704 0 42486825.777344704 -20664768.694023132 0 0 0 0 14640.483482776424 57816.906734695891 0 57816.906734695891 81835.870488125831 0 0 0 0 -4128662.761122942 -3031498.8166952133 0 -3031498.8166952133 5483412.2874069214 0 0 0 0 -6587433.1911997795 10714784.957050323 0 10714784.957050323 21488540.846410751 0 0 0 0 25020554.026632667 4289603.7618179321 0 4289603.7618179321 14826533.494464874 0 0 0 0 -51207646.581547782 31565935.687375546 0 31565935.687375546 26370567.680274963 0 0 0 0 498402.35336896766 -1116573.2221268406 0 -1116573.2221268406 4299496.9057370517 0 0 0 0 -10841896.789751291 -2739756.5471954346 0 -2739756.5471954346 -11093355.667518616 0 0 0 0 -43331355.708671011 -11236948.079576969 0 -11236948.079576969 16946215.636947632 0 0 0 0 -1514771.363586247 -6476200.7777500153 0 -6476200.7777500153 6430381.6295127869 0 0 0 0 -13967524.880139828 -5674730.2296619415 0 -5674730.2296619415 3177905.8172454834 0 0 0 0 -5490762.5310251117 8495683.2416906357 0 8495683.2416906357 5774282.089263916 0 0 0 0 -2429946.9692882299 2140310.7487850189 0 2140310.7487850189 5234449.2280330658 0 0 0 0 -10791476.546525598 -304612.25855255127 0 -304612.25855255127 5943764.8429336548 0 0 0 0 -1138351.1307616234 -718110.04069519043 0 -718110.04069519043 3886465.4700927734 0 0 0 0 -98310.863771422242 -133324.70645641908 0 -133324.70645641908 555617.40249146847 0 0 0 0 1115985.5969825983 4336727.3519439697 0 4336727.3519439697 -182002.74868488312 0 0 0 0 11152.568476123975 315741.77534210589 0 315741.77534210589 293884.28281661123 0 0 0 0 14066.791614092363 206688.79185220972 0 206688.79185220972 627512.72854434885 0 0 0 0 16391551.272449613 13670031.834158897 0 13670031.834158897 2698024.7507705688 0 0 0 0 3672840.9696854353 5298141.9879760742 0 5298141.9879760742 3855616.2116756439 0 0 0 0 963.00582717359066 211277.22526168823 0 211277.22526168823 1860992.0841274261 0 0 0 0 81480.847333780621 -551534.481328208 0 -551534.481328208 1534634.5511615118 0 0 0 0 881479.84621493146 -725576.638215065 0 -725576.638215065 5095966.4830169678 0 0 0 0 -157756.22492589056 -63722.880313873291 0 -63722.880313873291 1775526.1840820312 0 0 0 0 -156647.63513725996 30389.041007995605 0 30389.041007995605 1854741.0424880981 0 0 0 0 -788008.2024037987 -1242810.8803310394 0 -1242810.8803310394 6079418.048664093 0 0 0 0 84378.689941935329 -694973.09136066586 0 -694973.09136066586 2074407.9179319483 0 0 0 0 41064.935286721564 -117237.55353091564 0 -117237.55353091564 1230131.613002507 0 0 0 0 -51982.54584980011 60996.510608673096 0 60996.510608673096 1753982.837097168 0 0 0 0 -905822.83964064717 -1101587.4149265289 0 -1101587.4149265289 -4441173.2265701294 0 0 0 0 -294736.14941313607 -641824.84670205694 0 -641824.84670205694 5358400.0630739611 0 0 0 0 -625079.51034635573 -681108.30238470342 0 -681108.30238470342 1847238.0173913836 0 0 0 0 -2826497.4231777415 -1787358.4216327667 0 -1787358.4216327667 4304325.9148101807 0 0 0 0 -1118837.8649407886 -925124.50060367584 0 -925124.50060367584 3142098.1446609497 0 0 0 0 -1219203.3182793483 -4631954.0794849396 0 -4631954.0794849396 9053595.9855766296 0 0 0 0 1378092.8534658253 -2742843.5461883545 0 -2742843.5461883545 1990460.8001594543 0 0 0 0 -192263.26358852163 -1859587.4515600204 0 -1859587.4515600204 5643373.9048156738 0 0 0 0 -97561.069889512422 -192256.97095413506 0 -192256.97095413506 461681.83192433789 0 0 0 0 1665637.4644424617 1570843.2809791565 0 1570843.2809791565 4104115.9805498123 0 0 0 0 1181592.4096042532 3366559.9211478233 0 3366559.9211478233 11483908.799194336 0 0 0 0 -656340.74098914117 -111252.37586402893 0 -111252.37586402893 19810915.702647686 0 0 0 0 4869036.8878012057 -4956076.6152524948 0 -4956076.6152524948 12471210.094043732 0 0 0 0 1848312.4732402116 -7189903.4773216248 0 -7189903.4773216248 18357885.25730896 0 0 0 0 -1569895.9645866379 -1081467.7538871765 0 -1081467.7538871765 19415694.670984268 0 0 0 0 1688256.4771579616 1551432.3404183388 0 1551432.3404183388 14308420.582443237 0 0 0 0 1210498.2774544209 2707144.5713057518 0 2707144.5713057518 -696521.09434127808 0 0 0 0 4372.5699258654859 14030.412343725562 0 14030.412343725562 13160.465254535899 0 0 0 0 262403.99834707379 -1695572.3145294189 0 -1695572.3145294189 3056693.1864700317 0 0 0 0 8067.5333017701778 26884.061969678849 0 26884.061969678849 25854.67747526709 0 0 0 0 1080271.1220622286 3202824.6352806091 0 3202824.6352806091 5939843.179069519 0 0 0 0 684581.49970856309 -608479.42041397095 0 -608479.42041397095 9153834.8345890045 0 0 0 0 -495632.66151947156 -2898713.0545635223 0 -2898713.0545635223 11875814.218379974 0 0 0 0 962594.69732349459 -380985.13477802277 0 -380985.13477802277 4578132.279302597 0 0 0 0 -1433516.7364229197 870423.49423599243 0 870423.49423599243 14900893.719970703 0 0 0 0 -1999481.739621209 -88354.256809234619 0 -88354.256809234619 13787004.21465683 0 0 0 0 -2557728.4170527533 203540.29968452454 0 203540.29968452454 13816458.360031128 0 0 0 0 -2598625.3819573745 8908.1404838562012 0 8908.1404838562012 19112310.715349197 0 0 0 0 -652447.75007972843 -1302686.5664825439 0 -1302686.5664825439 10448382.466098547 0 0 0 0 741632.65682375222 -2502896.5438394547 0 -2502896.5438394547 3743950.9462623596 0 0 0 0 -401288.82497242 -53276.862997055054 0 -53276.862997055054 9882860.2134217024 0 0 0 0 671989.12630196032 -553722.4741859436 0 -553722.4741859436 9855554.4426651001 0 0 0 0 1907010.9796126012 2111050.1368865967 0 2111050.1368865967 14859339.065620422 0 0 0 0 4054767.0439606658 -253803.2223815918 0 -253803.2223815918 12829623.902381897 0 0 0 0 1617213.8012577768 -2941421.7166099548 0 -2941421.7166099548 10596599.388826609 0 0 0 0 -4125.6264372388414 -1728411.8945124061 0 -1728411.8945124061 16147935.431072235 0 0 0 0 391767.75923588965 5554260.9724464417 0 5554260.9724464417 11178418.110389709 0 0 0 0 -25838.054312624998 -42952.342703046277 0 -42952.342703046277 157481.42707961611 0 0 0 0 -49098.837231459096 2570888.2722053528 0 2570888.2722053528 1381000.1900787354 0 0 0 0 378801.72329299571 507704.91228103638 0 507704.91228103638 23501761.550750732 0 0 0 0 1310283.067594137 -1574909.4412231445 0 -1574909.4412231445 14295498.286414623 0 0 0 0 5350055.0906146029 -2857449.1486320496 0 -2857449.1486320496 10092703.26701355 0 0 0 0 5826254.1754764831 -10771069.458343506 0 -10771069.458343506 22393786.784371853 0 0 0 0 -1336169.6885865482 -1473731.9425103664 0 -1473731.9425103664 2261235.5181427002 0 0 0 0 -1438397.6564514241 -548436.6680855751 0 -548436.6680855751 2953259.5325775146 0 0 0 0 -1148576.0815114528 -608151.7716217041 0 -608151.7716217041 2687355.5837593079 0 0 0 0 669491.90512292064 33142.143329620361 0 33142.143329620361 2949320.7569503784 0 0 0 0 -27620.094278867356 -851211.77240371704 0 -851211.77240371704 2556587.491733551 0 0 0 0 -629194.15051806811 -724505.79916000366 0 -724505.79916000366 2908159.5950534344 0 0 0 0 2977.1849119089566 -1360946.5613498688 0 -1360946.5613498688 3469481.6381225586 0 0 0 0 -1001035.102020862 -465177.91334915161 0 -465177.91334915161 7434067.8336048126 0 0 0 0 147627.82204834372 -285835.3901348114 0 -285835.3901348114 7609111.2689666748 0 0 0 0 -98858.74514272064 -1316351.7367362976 0 -1316351.7367362976 6714832.0228767395 0 0 0 0 -2056478.6940030102 -1041950.9948358536 0 -1041950.9948358536 12621900.700492859 0 0 0 0 -1925170.1072868109 -721207.79005241394 0 -721207.79005241394 12860637.773170471 0 0 0 0 -1915302.7237918191 -1164674.2175445557 0 -1164674.2175445557 14148720.648426056 0 0 0 0 -559441.25289496407 960277.95463943481 0 960277.95463943481 17194302.312400818 0 0 0 0 -852882.14038457349 -4983276.3828125 0 -4983276.3828125 15445885.85200882 0 0 0 0 -1008355.6568901613 -2862745.0746269226 0 -2862745.0746269226 10117118.885917664 0 0 0 0 -2101716.258442089 -4599584.8281402588 0 -4599584.8281402588 8788635.630645752 0 0 0 0 -228363.47851863131 -1561062.6614751816 0 -1561062.6614751816 6729712.7880249023 0 0 0 0 512290.34387395531 -5711920.2794914246 0 -5711920.2794914246 1683376.1487083435 0 0 0 0 2829161.3536910713 -2821546.3227577209 0 -2821546.3227577209 6420287.3987503052 0 0 0 0 -67712.31713822631 -18586.353051725775 0 -18586.353051725775 413088.65930059645 0 0 0 0 1351690.7953162864 -1150056.9442634583 0 -1150056.9442634583 726514.18368053436 0 0 0 0 -135284.76117752536 -130041.77835432626 0 -130041.77835432626 554811.85952407494 0 0 0 0 -2606337.1472939253 -7078268.8705749512 0 -7078268.8705749512 3407390.6478271484 0 0 0 0 -4184051.757846985 -1260323.6580429077 0 -1260323.6580429077 11934550.204917908 0 0 0 0 -3241565.0755925141 -8499859.8321533203 0 -8499859.8321533203 7039375.8110542297 0 0 0 0 -572897.11695352942 10685.129657745361 0 10685.129657745361 3250770.5577850342 0 0 0 0 -280457.2449074313 110482.45819473267 0 110482.45819473267 2260269.1125488281 0 0 0 0 -10000.436836397475 2656.940669497475 0 2656.940669497475 90916.101329945959 0 0 0 0 46197.415197688344 -30278.445758591406 0 -30278.445758591406 -73859.428860459477 0 0 0 0 -427877.03754360601 2935867.2901878357 0 2935867.2901878357 5972347.5251579285 0 0 0 0 11804095.292700857 1649139.8988037109 0 1649139.8988037109 2653095.7460632324 0 0 0 0 1309013.5997749865 -2082393.9898757935 0 -2082393.9898757935 -75180.263511657715 0 0 0 0 -8865371.6399797648 -2252764.1550140381 0 -2252764.1550140381 2918540.9258756638 0 0 0 0 -291905.82779526128 461955.10401786305 0 461955.10401786305 430784.58052279055 0 0 0 0 71358.68680997935 -485269.02581253089 0 -485269.02581253089 864055.8382560527 0 0 0 0 -54763.591492660344 -91122.496162414551 0 -91122.496162414551 685745.01287841797 0 0 0 0 -355348.77297746576 449441.41734997183 0 449441.41734997183 2161692.8214817317 0 0 0 0 435602.09696559608 -2248960.0270195007 0 -2248960.0270195007 3771380.2848358154 0 0 0 0 173964.16006082296 -1304642.0355377197 0 -1304642.0355377197 6630816.3452682495 0 0 0 0 127035.65210994572 -524705.81317276321 0 -524705.81317276321 2019676.9799115667 0 0 0 0 -609029.78552865982 -890719.09280967712 0 -890719.09280967712 5145828.7842025757 0 0 0 0 279956.72542480193 -2726060.3666086197 0 -2726060.3666086197 5793395.2921524048 0 0 0 0 -181500.63924457337 230106.53903569654 0 230106.53903569654 1752669.9197056619 0 0 0 0 -582440.06362122297 1344399.6985778809 0 1344399.6985778809 -1709415.1065425873 0 0 0 0 305106.18912289292 -1874901.3153209686 0 -1874901.3153209686 10615479.07743454 0 0 0 0 -395524.317872677 1979046.7664604187 0 1979046.7664604187 -446421.70764923096 0 0 0 0 217087.64977839589 -1023866.473493576 0 -1023866.473493576 3976574.3361177444 0 0 0 0 206189.02003581682 307209.98236568086 0 307209.98236568086 -300291.94731629081 0 0 0 0 -87796.733752280023 18086.830043712631 0 18086.830043712631 1443773.7613095278 0 0 0 0 -365710.01549417526 655229.95833206177 0 655229.95833206177 1483900.1625652313 0 0 0 0 -8681560.5418329388 8063179.9911212921 0 8063179.9911212921 10540601.606606007 0 0 0 0 -1248034.5760471518 5426192.100818634 0 5426192.100818634 10852225.298557281 0 0 0 0 -5257756.3577303477 671229.38591194153 0 671229.38591194153 14140371.946350098 0 0 0 0 -1364479.3870107979 -892412.65843200684 0 -892412.65843200684 11775584.539413452 0 0 0 0 -3186119.4838601574 44670.848567962646 0 44670.848567962646 11320123.308634758 0 0 0 0 -10486660.879486177 2192625.1503295898 0 2192625.1503295898 18113259.679443359 0 0 0 0 5803941.4536736263 -8529686.5678195953 0 -8529686.5678195953 18278903.776870728 0 0 0 0 7669.9765223098175 67392.746323581785 0 67392.746323581785 412928.22291271761 0 0 0 0 904736.06997069251 -389079.08187294006 0 -389079.08187294006 -157834.60797119141 0 0 0 0 -188501.37494317011 477541.99495697021 0 477541.99495697021 1407655.7262716293 0 0 0 0 -4927.1253182292676 62338.232848115265 0 62338.232848115265 535924.80913058855 0 0 0 0 -358196.27059669793 -851643.4672203064 0 -851643.4672203064 2349133.9887084961 0 0 0 0 3149874.4522940386 5875772.5528144836 0 5875772.5528144836 9097799.7636070251 0 0 0 0 -188501.37494306662 32170.282186508179 0 32170.282186508179 1083800.5819597244 0 0 0 0 -49165.038387061402 162563.96774998214 0 162563.96774998214 314275.40036177076 0 0 0 0 1436.7861076196682 -130647.68197631836 0 -130647.68197631836 361221.62724304199 0 0 0 0 -916.10458524459659 -131594.61303138733 0 -131594.61303138733 361804.93115139008 0 0 0 0 47820.915021880428 87160.080712829717 0 87160.080712829717 113282.17161010765 0 0 0 0 9789851.0774488077 13884287.157178879 0 13884287.157178879 17043681.30960083 0 0 0 0 8696590.3584425636 8901536.6109542847 0 8901536.6109542847 5087961.2590255737 0 0 0 0 -1379339.7178762034 -341952.23026371002 0 -341952.23026371002 12676281.365322113 0 0 0 0 3300172.8808957441 6294254.1339321136 0 6294254.1339321136 20835682.616256714 0 0 0 0 26638.801312855296 5908732.9981897483 0 5908732.9981897483 25269909.825065613 0 0 0 0 4833545.0548292398 4878744.3178634644 0 4878744.3178634644 19091505.612157822 0 0 0 0 -24264.717315152695 20507.839316159487 0 20507.839316159487 448849.06090872153 0 0 0 0 -6388973.7539637834 8357460.7650985718 0 8357460.7650985718 4809379.0471394062 0 0 0 0 -4329282.1206018887 3474969.395242691 0 3474969.395242691 10000861.595005035 0 0 0 0 -9840726.9637143351 8046779.4296522141 0 8046779.4296522141 13389004.942043304 0 0 0 0 -6196892.817606546 -2411784.1972332001 0 -2411784.1972332001 18093123.060371399 0 0 0 0 -8756069.9845509529 3687730.7648735046 0 3687730.7648735046 7673583.5818786621 0 0 0 0 -682604.71683084965 3392635.8753967285 0 3392635.8753967285 7526371.1013832092 0 0 0 0 136069.2326901381 219626.39134227857 0 219626.39134227857 809718.80759540945 0 0 0 0 -3324891.3384193853 -2872861.3237361908 0 -2872861.3237361908 2071957.3522834778 0 0 0 0 -448361.63839900494 3803118.5041046143 0 3803118.5041046143 5293837.309261322 0 0 0 0 27925606.952852741 20373542.433425903 0 20373542.433425903 -4266593.1869471073 0 0 0 0 -5031936.4138785787 -9854867.7148647308 0 -9854867.7148647308 29397846.11636734 0 0 0 0 -3893929.9780105278 1760581.6111812592 0 1760581.6111812592 13653665.579177856 0 0 0 0 -91427.716755436108 126448.13169974647 0 126448.13169974647 1529400.3653770313 0 0 0 0 -44252.082060217857 1082921.8382720947 0 1082921.8382720947 13208109.634326935 0 0 0 0 1753365.5763949603 413649.14282226562 0 413649.14282226562 7461260.551612854 0 0 0 0 134352.76727730603 1137423.1170380944 0 1137423.1170380944 1302952.0418892421 0 0 0 0 -186122.07526039367 434571.86800966784 0 434571.86800966784 2216300.0262589138 0 0 0 0 -7234876.5873076916 -10685280.978401184 0 -10685280.978401184 738404.73517608643 0 0 0 0 -35131.265178920701 715762.70886683464 0 715762.70886683464 7500243.1502304077 0 0 0 0 -310670.93777317822 -869071.86146494281 0 -869071.86146494281 2587426.6559854643 0 0 0 0 -895669.80473003304 -377278.24626326561 0 -377278.24626326561 8255651.496711731 0 0 0 0 -1067922.8618902266 2992235.6412353516 0 2992235.6412353516 13603487.902397156 0 0 0 0 -41326.465728219031 -25050.040591182187 0 -25050.040591182187 315948.60142772645 0 0 0 0 4762793.7623686939 6056581.0972900391 0 6056581.0972900391 11276983.198833466 0 0 0 0 2480714.4838862568 5606304.2848205566 0 5606304.2848205566 11349943.132524967 0 0 0 0 384620.28290306032 8127826.8145637512 0 8127826.8145637512 20336008.867030621 0 0 0 0 722944.77822753787 5935233.4753379822 0 5935233.4753379822 13859544.257827759 0 0 0 0 -2516648.2391114235 8157527.2921943665 0 8157527.2921943665 13640352.541601658 0 0 0 0 -1380770.8025396168 8978466.8150177002 0 8978466.8150177002 17418698.427352905 0 0 0 0 -69984.134517103434 7813183.9858703613 0 7813183.9858703613 10937121.31993103 0 0 0 0 167166.16183341295 6972034.3297634125 0 6972034.3297634125 6176040.3695068359 0 0 0 0 -1792326.5013825297 6272686.5462150574 0 6272686.5462150574 13288809.955551147 0 0 0 0 -1796399.5294145346 6429413.5007514954 0 6429413.5007514954 15334653.003658295 0 0 0 0 -326904.00375026464 4408340.2747688293 0 4408340.2747688293 10351122.430355072 0 0 0 0 -224649.41846525669 3974190.3961601257 0 3974190.3961601257 8991835.672744751 0 0 0 0 -119015.48093730827 858602.66055741627 0 858602.66055741627 2984930.8339342894 0 0 0 0 1467539.4499893039 3908741.5664558411 0 3908741.5664558411 1007879.2071685791 0 0 0 0 -196286.53288974325 398420.2578856952 0 398420.2578856952 1010185.1184968911 0 0 0 0 -690227.04971289635 410820.75188446045 0 410820.75188446045 823366.04939770699 0 0 0 0 -635573.58191150427 525745.27813911438 0 525745.27813911438 852674.16842651367 0 0 0 0 -393068.11809075525 679253.98360361811 0 679253.98360361811 1306084.9901928194 0 0 0 0 -552453.2093102932 -201736.19177627563 0 -201736.19177627563 1808150.6673812866 0 0 0 0 1026336.9513230324 1243563.6224060059 0 1243563.6224060059 2866640.3206853867 0 0 0 0 -58170.259009242058 -219778.51561737061 0 -219778.51561737061 3049406.9594802856 0 0 0 0 2208353.3408156037 7023213.6004180908 0 7023213.6004180908 7041946.2942886353 0 0 0 0 2240303.6920338571 6049279.0841827393 0 6049279.0841827393 6296880.6038341522 0 0 0 0 -3123279.2725019604 1805770.248588562 0 1805770.248588562 5872527.1768341064 0 0 0 0 -308559.12653864472 406493.54805323947 0 406493.54805323947 465877.7360477671 0 0 0 0 -574808.24693039432 3202425.1315860748 0 3202425.1315860748 7032669.0173339844 0 0 0 0 -495189.82581945043 292629.47680079937 0 292629.47680079937 2678721.6683044434 0 0 0 0 -513158.74297687411 471552.04214096069 0 471552.04214096069 1787417.2826280594 0 0 0 0 -297843.1494302387 558064.97065392602 0 558064.97065392602 2397380.9372364748 0 0 0 0 76603.49424804037 903360.78182758577 0 903360.78182758577 2749507.1285013026 0 0 0 0 -12199.632622900579 21664.973613585345 0 21664.973613585345 23691.513345271349 0 0 0 0 -4562838.440566361 529375.35175704956 0 529375.35175704956 10463500.740104675 0 0 0 0 -3267100.641978085 1049206.2583789825 0 1049206.2583789825 6596302.5584793091 0 0 0 0 -808157.32662144303 206150.7273273468 0 206150.7273273468 1595118.9016723633 0 0 0 0 -1031046.7757071736 -202447.32887362037 0 -202447.32887362037 3439673.1765433289 0 0 0 0 -411264.45970687509 226842.2947461186 0 226842.2947461186 2024074.7593512535 0 0 0 0 61399.629531227052 -415699.47371292114 0 -415699.47371292114 3038740.3063240051 0 0 0 0 -327026.78114865086 1274090.4470435777 0 1274090.4470435777 2116364.2767452486 0 0 0 0 142921.90403727716 866713.80318126734 0 866713.80318126734 2977669.6408817014 0 0 0 0 -3372294.9256279469 3799090.3660469055 0 3799090.3660469055 4893798.9013290405 0 0 0 0 -4889552.4487841129 3424113.6337776184 0 3424113.6337776184 8475841.4573745728 0 0 0 0 362156.97053357435 -583284.52145004179 0 -583284.52145004179 1888437.7561235633 0 0 0 0 -246684.17992258072 148417.20152664185 0 148417.20152664185 470582.14424705505 0 0 0 0 89945.999817848206 -345762.29544067383 0 -345762.29544067383 720792.32438659668 0 0 0 0 13005.228986278991 355518.87161695026 0 355518.87161695026 3852616.9450035105 0 0 0 0 5305.7070510387421 -365481.82899475098 0 -365481.82899475098 1756521.4608001709 0 0 0 0 -164496.73725122353 368945.84999593161 0 368945.84999593161 3397135.7500233874 0 0 0 0 -1720.1361339986324 -309779.61152553558 0 -309779.61152553558 1462084.2670974731 0 0 0 0 -131457.89094156935 -707025.17299549002 0 -707025.17299549002 2423344.6359754512 0 0 0 0 -497326.98822307587 -11204.580635070801 0 -11204.580635070801 1346153.9885444641 0 0 0 0 -425591.15473848581 315281.21912384033 0 315281.21912384033 1158922.4475021362 0 0 0 0 -345832.72019386292 433587.99436950684 0 433587.99436950684 2656758.0050735474 0 0 0 0 -362371.39055095153 1048187.8740928194 0 1048187.8740928194 860807.77872275934 0 0 0 0 -356231.95271598618 1218607.6825331645 0 1218607.6825331645 1402770.5953786559 0 0 0 0 -909816.03558880091 1121551.6849155426 0 1121551.6849155426 796653.97619628906 0 0 0 0 -847220.30136871338 369611.10208129883 0 369611.10208129883 1482371.5713577271 0 0 0 0 -586876.35436431412 723674.93594151828 0 723674.93594151828 1873408.4607179444 0 0 0 0 -486198.47756238095 832075.65150943957 0 832075.65150943957 2074484.1054360606 0 0 0 0 -67103.512045088282 -407690.14128528535 0 -407690.14128528535 1804440.8897917541 0 0 0 0 -117478.27479957722 -606198.4213174656 0 -606198.4213174656 2730611.6293883473 0 0 0 0 -470698.85016202927 685094.12006759644 0 685094.12006759644 957235.85964584351 0 0 0 0 -563817.76871311665 579852.45786857605 0 579852.45786857605 992763.63980102539 0 0 0 0 -708514.55022072792 151396.15251159668 0 151396.15251159668 1004334.7147827148 0 0 0 0 -337542.23381093971 -312244.7857453255 0 -312244.7857453255 3403961.5728358459 0 0 0 0 -232195.14805532855 1116637.9289157456 0 1116637.9289157456 746559.39509936608 0 0 0 0 -374573.12071418762 173927.60614395142 0 173927.60614395142 963850.04674530029 0 0 0 0 -1168299.9045669436 1147711.1674900055 0 1147711.1674900055 980971.92495727539 0 0 0 0 -350664.92533103976 1292300.6467186045 0 1292300.6467186045 1449825.8869887348 0 0 0 0 -58784.793361466611 -296895.79005985241 0 -296895.79005985241 4381182.3698468981 0 0 0 0 283047.92081632465 -40061.186273451895 0 -40061.186273451895 670433.90929269604 0 0 0 0 -869416.13316351175 4042613.215177536 0 4042613.215177536 3523123.8347358704 0 0 0 0 -378625.90373016032 1387817.2427444262 0 1387817.2427444262 433851.62320413254 0 0 0 0 -313248.85971759702 734373.16555060027 0 734373.16555060027 1481789.9606421255 0 0 0 0 5906729.7332634926 5275088.07447052 0 5275088.07447052 553007.83682250977 0 0 0 0 -1980788.2932964116 556670.12933158875 0 556670.12933158875 818385.13968658447 0 0 0 0 -324801.3717336143 549199.37972456077 0 549199.37972456077 1956110.7683666982 0 0 0 0 -4164478.1502859592 12141733.066675186 0 12141733.066675186 6877847.5824112296 0 0 0 0 11261.110548440629 -522859.68689257838 0 -522859.68689257838 1163736.9610482771 0 0 0 0 -72870.142073895666 495871.92828170443 0 495871.92828170443 1551114.2551633827 0 0 0 0 -212805.62222832441 -559178.30582714081 0 -559178.30582714081 2000215.5491943359 0 0 0 0 11963.008437193959 -209555.39133553673 0 -209555.39133553673 3114940.2233389113 0 0 0 0 -214197.49036848545 -207558.48980903625 0 -207558.48980903625 1984481.6816635132 0 0 0 0 -907483.72894465923 197794.02391052246 0 197794.02391052246 4065192.6184234619 0 0 0 0 -131903.13647969763 -328292.56163920369 0 -328292.56163920369 2158331.792937818 0 0 0 0 -282456.51733364165 -515947.99040555954 0 -515947.99040555954 1877897.0798034668 0 0 0 0 24683.591214506057 614735.94188154303 0 614735.94188154303 2130855.6501265662 0 0 0 0 12258.56577031294 -304722.06879038922 0 -304722.06879038922 2175899.438476772 0 0 0 0 1538326.6754841506 -2445540.106967926 0 -2445540.106967926 4455363.7722702026 0 0 0 0 -1822076.1521417946 -2224150.7524681091 0 -2224150.7524681091 -13840638.576530457 0 0 0 0 2033733.3630054891 6470940.1162796021 0 6470940.1162796021 -3482409.4707946777 0 0 0 0 -1370.1714609563351 100090.19640350342 0 100090.19640350342 793842.7223815918 0 0 0 0 -19209.327547610112 -89285.150715521537 0 -89285.150715521537 1447046.8634102382 0 0 0 0 -59599.426048750531 182146.74371984042 0 182146.74371984042 3660145.6950992458 0 0 0 0 -2244970.2068706863 4587241.6324234009 0 4587241.6324234009 -2624879.5601882935 0 0 0 0 -29100.737587485462 -377584.12065887451 0 -377584.12065887451 4063212.3993759155 0 0 0 0 -327442.0070969871 225940.70225306042 0 225940.70225306042 483114.73283637315 0 0 0 0 7018767.4010162652 11460061.328495026 0 11460061.328495026 -10363240.777915955 0 0 0 0 7436115.5572806597 -1038847.1081504822 0 -1038847.1081504822 -1701642.3157196045 0 0 0 0 2625040.8444259949 -17761278.070114136 0 -17761278.070114136 26565580.368412018 0 0 0 0 77437.218619750071 91768.264516033232 0 91768.264516033232 -92414.612476173788 0 0 0 0 -4039409.8140726872 -4746466.6563415527 0 -4746466.6563415527 -2838166.3235281706 0 0 0 0 -20052145.614618585 -15236996.981748581 0 -15236996.981748581 47737648.765548706 0 0 0 0 16055666.455504052 17670152.517277718 0 17670152.517277718 2767900.6739120483 0 0 0 0 1004413.6495270729 21353337.517456055 0 21353337.517456055 24785734.089870453 0 0 0 0 -6945400.1477113664 6984153.5607795715 0 6984153.5607795715 6952351.906539917 0 0 0 0 5452053.1792176962 10453164.618690491 0 10453164.618690491 -4611826.1864891052 0 0 0 0 1765684.5811236799 7489141.2946510315 0 7489141.2946510315 885608.43572998047 0 0 0 0 24475403.324507236 15720557.428922176 0 15720557.428922176 35654044.617842197 0 0 0 0 24346819.462096214 24116396.201210022 0 24116396.201210022 30188108.540281773 0 0 0 0 33357105.349353075 11147494.346137881 0 11147494.346137881 23390456.746368408 0 0 0 0 37238510.213549614 6235662.6481509209 0 6235662.6481509209 35203453.574184418 0 0 0 0 18330964.877874374 1931677.8715324402 0 1931677.8715324402 34489712.693861961 0 0 0 0 29361625.777405262 2207290.6087141037 0 2207290.6087141037 23408807.665474892 0 0 0 0 29266031.810104489 -15170048.599839449 0 -15170048.599839449 45323253.165343285 0 0 0 0 49761288.774600029 -4015985.8476324081 0 -4015985.8476324081 41053876.483735561 0 0 0 0 60557988.003255844 -13037696.429326057 0 -13037696.429326057 58932883.030299544 0 0 0 0 38651669.47492528 -4781278.258867979 0 -4781278.258867979 56938595.754766464 0 0 0 0 54345883.251032829 9022360.940633297 0 9022360.940633297 55883434.395094991 0 0 0 0 41599933.465987861 19818108.481915832 0 19818108.481915832 35724266.087283134 0 0 0 0 35456125.501646996 3852393.449662447 0 3852393.449662447 54900327.729055405 0 0 0 0 32746421.873012543 5856563.0695514679 0 5856563.0695514679 52709125.157827854 0 0 0 0 41397482.854167461 26357599.578738689 0 26357599.578738689 29998639.367634296 0 0 0 0 19290679.994177341 22358762.785906792 0 22358762.785906792 32685305.234292984 0 0 0 0 -10395939.280401707 27977703.405241013 0 27977703.405241013 33084568.008152962 0 0 0 0 -835919.38583135605 35852872.712208271 0 35852872.712208271 20608591.068862915 0 0 0 0 21975136.170136839 34171300.468535781 0 34171300.468535781 13602618.373100281 0 0 0 0 18972852.274609804 35793055.078633785 0 35793055.078633785 14110801.785136223 0 0 0 0 -3987067.1314520836 49578730.948343277 0 49578730.948343277 22260541.231726885 0 0 0 0 -4296444.4239778519 54745981.792357683 0 54745981.792357683 46508452.750074387 0 0 0 0 7672583.483789444 32014588.507044315 0 32014588.507044315 26403991.022245169 0 0 0 0 32036872.235624313 25584687.093925595 0 25584687.093925595 27204770.938359261 0 0 0 0 17390014.929533005 37765377.901209831 0 37765377.901209831 25391301.848239183 0 0 0 0 18418711.179735899 17594517.268537521 0 17594517.268537521 23115626.676516533 0 0 0 0 10312855.605494976 36724664.265559196 0 36724664.265559196 33781315.661049843 0 0 0 0 -9314792.9680635929 30706631.021348 0 30706631.021348 32168162.128960133 0 0 0 0 -11100568.88689068 39992317.587357581 0 39992317.587357581 48100240.548455238 0 0 0 0 -12905612.172852039 -1484899.9244329929 0 -1484899.9244329929 12288687.373693943 0 0 0 0 4203808.855730474 10126350.566463649 0 10126350.566463649 5577047.7481555939 0 0 0 0 -547337.17548561096 21097527.065441132 0 21097527.065441132 38138403.0633564 0 0 0 0 14979870.016013384 2915795.1275513172 0 2915795.1275513172 -2501133.2793149948 0 0 0 0 2101945.9677278996 13873576.660780191 0 13873576.660780191 16782705.480246544 0 0 0 0 21486889.447903633 20932349.561944485 0 20932349.561944485 18646514.931311369 0 0 0 0 8462765.3273670673 10350765.505344868 0 10350765.505344868 23583937.685499191 0 0 0 0 8854858.5896236897 701292.81883096695 0 701292.81883096695 23307296.624345779 0 0 0 0 6420623.4025855064 8681051.4382486343 0 8681051.4382486343 11031844.721068859 0 0 0 0 20060859.294321537 5128217.6714229584 0 5128217.6714229584 11767917.314154625 0 0 0 0 17745558.918639183 2575182.9873595238 0 2575182.9873595238 10895805.03752327 0 0 0 0 8182711.9058520198 -6320296.7162094712 0 -6320296.7162094712 6378183.8651371002 0 0 0 0 -1370798.8107509613 6885662.2041735649 0 6885662.2041735649 -3420562.4250333309 0 0 0 0 -1668881.4731042385 -14839116.005793095 0 -14839116.005793095 -11583834.368708849 0 0 0 0 11623846.090600729 -9735246.9609835148 0 -9735246.9609835148 -35701166.849590778 0 0 0 0 325127856.76422149 -458335260.92448997 0 -458335260.92448997 -16650535.670238495 0 0 0 0 2942205.6507611275 -9434528.8951306343 0 -9434528.8951306343 6240689.276348114 0 0 0 0 8471460.6377253532 3707314.8912010193 0 3707314.8912010193 -5713913.5066552162 0 0 0 0 -441680.18678760529 3589620.0216093063 0 3589620.0216093063 -12239466.450691223 0 0 0 0 -10241919.312439919 10812012.987599373 0 10812012.987599373 -14027648.969765186 0 0 0 0 -427999380.84698898 142400186.51415324 0 142400186.51415324 -386350518.4700489 0 0 0 0 15889624.162070274 -14551262.105517864 0 -14551262.105517864 -8016616.0024404526 0 0 0 0 1531606.1219417125 -573977.82955575758 0 -573977.82955575758 109074.59150221408 0 0 0 0 3609686.8486881256 -23536077.484856606 0 -23536077.484856606 -7590144.1668744087 0 0 0 0 447166.36501063575 -45058.524595960509 0 -45058.524595960509 106576.86736241193 0 0 0 0 -25093785.297724485 -6200225.5725836754 0 -6200225.5725836754 3810199.0138053894 0 0 0 0 -8734036.0857051611 -16350727.043125987 0 -16350727.043125987 8177705.0161304474 0 0 0 0 961729.60287761688 -9007365.6793613434 0 -9007365.6793613434 12054506.61266613 0 0 0 0 544799.8813290596 -19278344.988338947 0 -19278344.988338947 24044528.87788868 0 0 0 0 3153086.0563158989 -4160941.3567099571 0 -4160941.3567099571 32554966.99751997 0 0 0 0 891002.71722406894 -24761910.435598951 0 -24761910.435598951 12103136.793926239 0 0 0 0 6671117.9774436951 -29170572.889419556 0 -29170572.889419556 47363926.031517029 0 0 0 0 2485120.3580184579 -27619075.189597249 0 -27619075.189597249 49248796.353392601 0 0 0 0 295883.79852434993 -11866994.125553489 0 -11866994.125553489 31668643.075091362 0 0 0 0 14743401.473623753 -27505680.659293175 0 -27505680.659293175 39770290.68638134 0 0 0 0 5450914.5549526215 -11170297.229025841 0 -11170297.229025841 25857981.057168484 0 0 0 0 21097279.003982067 -10437300.678757668 0 -10437300.678757668 25214181.255745411 0 0 0 0 3487608.8412932158 -943417.35918843746 0 -943417.35918843746 11011517.725523949 0 0 0 0 36776447.320139647 13446894.726436615 0 13446894.726436615 -235069212.2256186 0 0 0 0 1374949.9231957942 -299412.29419530323 0 -299412.29419530323 417333.81996827445 0 0 0 0 -18511501.327467501 -6289615.634563446 0 -6289615.634563446 -239819069.59860945 0 0 0 0 57858837.649815083 -136063005.08187675 0 -136063005.08187675 -502215199.48007584 0 0 0 0 10196305.981253147 -2127209.9395914078 0 -2127209.9395914078 999475.86765480042 0 0 0 0 -3867072.04570961 -40399466.762830257 0 -40399466.762830257 68567182.115352631 0 0 0 0 11873151.696317196 -59636545.0791502 0 -59636545.0791502 90621785.727170587 0 0 0 0 19544264.286449909 -57714306.56532383 0 -57714306.56532383 79729912.118439674 0 0 0 0 -16009717.051939011 7541124.1312668324 0 7541124.1312668324 79305103.476829529 0 0 0 0 46166477.250480175 -105934549.45842457 0 -105934549.45842457 156484429.91879511 0 0 0 0 -1762963.3853279352 -32712000.168663859 0 -32712000.168663859 188774324.60260296 0 0 0 0 122172763.15720868 -111016549.92099476 0 -111016549.92099476 73811562.791254044 0 0 0 0 639145.01105303527 -121024.6231937441 0 -121024.6231937441 -44408.438908419572 0 0 0 0 61291934.937002897 -48787945.028823495 0 -48787945.028823495 23427568.091750145 0 0 0 0 44773264.143118382 -79966520.687774658 0 -79966520.687774658 73867775.915714741 0 0 0 0 29857901.654670238 -60551006.688986063 0 -60551006.688986063 48595388.077619553 0 0 0 0 30191523.759521365 -58682767.862668633 0 -58682767.862668633 58994153.091209412 0 0 0 0 11503594.547842979 -56307115.101341724 0 -56307115.101341724 72234214.673427582 0 0 0 0 31051442.29581213 -52227146.938622952 0 -52227146.938622952 53883792.440420389 0 0 0 0 31367687.419949055 -52865918.358484745 0 -52865918.358484745 55000475.282839775 0 0 0 0 28754328.084254742 -43320392.967105865 0 -43320392.967105865 39233383.146176815 0 0 0 0 35173533.069393039 -38845206.915826559 0 -38845206.915826559 26394277.445473671 0 0 0 0 31989158.638257504 -25566197.993619442 0 -25566197.993619442 47897736.212975025 0 0 0 0 22937877.274001002 -29092665.28334403 0 -29092665.28334403 46710611.276796341 0 0 0 0 31858666.344569683 -10741614.51457119 0 -10741614.51457119 34735557.629990578 0 0 0 0 15077196.801501989 -12167994.740605593 0 -12167994.740605593 34992116.537120819 0 0 0 0 6677611.092250824 -18019216.603947878 0 -18019216.603947878 41805814.41496563 0 0 0 0 4857253.2502462864 -34979513.838994741 0 -34979513.838994741 57809972.910960197 0 0 0 0 17955486.374468327 -38460540.026938915 0 -38460540.026938915 52239030.711758614 0 0 0 0 20870498.297745705 -43609503.211347103 0 -43609503.211347103 56778525.785114288 0 0 0 0 31869234.748815656 -41820883.356014967 0 -41820883.356014967 55357535.168071747 0 0 0 0 26381409.500459194 -55100222.883085728 0 -55100222.883085728 55628529.550762177 0 0 0 0 34421847.776451588 -48370971.217691422 0 -48370971.217691422 58540967.173647165 0 0 0 0 33833967.288309097 -49897593.612462282 0 -49897593.612462282 65397779.204912186 0 0 0 0 47644891.849952221 -44805371.768755436 0 -44805371.768755436 55455741.315345764 0 0 0 0 39050117.342598438 -30655030.402724743 0 -30655030.402724743 61023462.82781601 0 0 0 0 43090101.947158337 -34304010.046299934 0 -34304010.046299934 53794872.972705841 0 0 0 0 52310169.164587021 -9982151.0842313766 0 -9982151.0842313766 46243006.322320461 0 0 0 0 55063642.047684193 -25509095.376458168 0 -25509095.376458168 81868231.326674461 0 0 0 0 72997633.559469461 -32654115.629110575 0 -32654115.629110575 60000000.120662689 0 0 0 0 83771438.446900845 -30805565.768789291 0 -30805565.768789291 82581117.118140697 0 0 0 0 40390259.936106324 -38555453.562240362 0 -38555453.562240362 63356763.001214027 0 0 0 0 41068414.539502382 -43577446.886250496 0 -43577446.886250496 86655248.876228333 0 0 0 0 25448369.752430439 -28862507.13427043 0 -28862507.13427043 135921589.43800974 0 0 0 0 68467714.339580774 13189776.64589709 0 13189776.64589709 78342619.157266617 0 0 0 0 18157472.337059021 -4522937.3087918758 0 -4522937.3087918758 68123167.011240363 0 0 0 0 68335723.688131332 -5563241.3038201332 0 -5563241.3038201332 291455570.07414722 0 0 0 0 155856341.63150573 -26270891.462857723 0 -26270891.462857723 107190677.53938818 0 0 0 0 88393495.991228998 -8762747.8113991916 0 -8762747.8113991916 104801241.58478642 0 0 0 0 83109039.31469965 -47973186.703008652 0 -47973186.703008652 85585447.189214945 0 0 0 0 19276465.22351563 -27829125.654307723 0 -27829125.654307723 41571802.193530083 0 0 0 0 841187.2988653183 -18434970.094920397 0 -18434970.094920397 42020649.380088329 0 0 0 0 26935734.568608522 -41894892.018574476 0 -41894892.018574476 83104749.575330734 0 0 0 0 18935913.72659874 -26500403.610874176 0 -26500403.610874176 54902295.649153784 0 0 0 0 13628982.107520819 -7199539.3438513279 0 -7199539.3438513279 66939330.774637699 0 0 0 0 3221905.3839654922 8098446.3946464062 0 8098446.3946464062 44477998.353035003 0 0 0 0 5733039.3571681976 14081022.585560799 0 14081022.585560799 26005766.880070686 0 0 0 0 2957341.9694395065 19298368.936764479 0 19298368.936764479 27329949.943515778 0 0 0 0 24302609.465017796 37419801.517851949 0 37419801.517851949 55289066.025552273 0 0 0 0 -87438.421483031823 53131.92946443957 0 53131.92946443957 65649.152417851146 0 0 0 0 13724039.405386448 8253760.1916747093 0 8253760.1916747093 26061843.330565453 0 0 0 0 68507209.873566151 61204630.306280613 0 61204630.306280613 28619230.845856547 0 0 0 0 6113212.0461716652 19433954.698735714 0 19433954.698735714 24346811.853374839 0 0 0 0 -249129.4315416544 165018.59591574036 0 165018.59591574036 112730.87710137526 0 0 0 0 111267197.92989826 45101331.878157616 0 45101331.878157616 13274392.323918343 0 0 0 0 60997.524213925077 -27412.639509267756 0 -27412.639509267756 259858.1579248854 0 0 0 0 180670901.69767523 126439560.52710342 0 126439560.52710342 102426210.99078655 0 0 0 0 43058564.673278093 66814801.168136835 0 66814801.168136835 129795415.49135494 0 0 0 0 21462589.435657263 12817948.123118877 0 12817948.123118877 21598124.623841763 0 0 0 0 53988875.687751412 37727184.344668984 0 37727184.344668984 25989530.595108032 0 0 0 0 52829234.235075951 33917914.147075176 0 33917914.147075176 22247078.954956293 0 0 0 0 172786.32182311959 -122695.90258197486 0 -122695.90258197486 679111.39531571185 0 0 0 0 -14797877.552617669 -11656047.469931364 0 -11656047.469931364 1435140.3373842239 0 0 0 0 755267.12791765342 -183178.80980620242 0 -183178.80980620242 482918.98678745702 0 0 0 0 1060687.3034467697 -2710415.9581463337 0 -2710415.9581463337 20380100.510540843 0 0 0 0 -15963134.187619209 -7230671.4313355684 0 -7230671.4313355684 32200154.883765936 0 0 0 0 -3089010.4909463525 -28171025.572508037 0 -28171025.572508037 232788178.58713865 0 0 0 0 -15358098.90324831 1821663.8865203857 0 1821663.8865203857 165993724.90389061 0 0 0 0 33530984.869874477 1374731.5694069862 0 1374731.5694069862 20868807.005142808 0 0 0 0 8052549.2407526225 -86272825.913794637 0 -86272825.913794637 166111099.04010963 0 0 0 0 -12643916.516008139 16015561.578549862 0 16015561.578549862 225019141.36153674 0 0 0 0 106563342.84422231 45583512.342299938 0 45583512.342299938 147064157.14690304 0 0 0 0 8400925.5248394012 -32078947.080702305 0 -32078947.080702305 184601337.57265997 0 0 0 0 36889862.303664446 -47301913.360802412 0 -47301913.360802412 130626032.04970837 0 0 0 0 48184314.630942345 -5007343.6683416367 0 -5007343.6683416367 85716677.701208115 0 0 0 0 38925365.645818233 -2045861.3993809223 0 -2045861.3993809223 101350384.62883759 0 0 0 0 46176523.175254196 10859107.00634817 0 10859107.00634817 54554142.704965591 0 0 0 0 45589766.874518096 -7201629.591854766 0 -7201629.591854766 84659704.225991249 0 0 0 0 50517998.445078373 5606340.3611650467 0 5606340.3611650467 129952172.62930751 0 0 0 0 68499806.903963089 -208684.36885070801 0 -208684.36885070801 72112138.580194473 0 0 0 0 91653672.968791962 -3660900.9705610275 0 -3660900.9705610275 72462818.854277611 0 0 0 0 19889624.926359445 6979374.2808174491 0 6979374.2808174491 52192316.824763298 0 0 0 0 23482864.854607224 22384057.053538352 0 22384057.053538352 26061506.55147934 0 0 0 0 35401462.934063911 18080070.705735445 0 18080070.705735445 59956735.29174614 0 0 0 0 63870719.221491814 -19208321.702645779 0 -19208321.702645779 73911972.887912273 0 0 0 0 95795968.111964464 -40707929.329406977 0 -40707929.329406977 64789785.642546237 0 0 0 0 52020265.401520133 -75480595.257466435 0 -75480595.257466435 180641313.42455292 0 0 0 0 37496436.061926425 31355405.067571104 0 31355405.067571104 74210296.134945869 0 0 0 0 -10403702.055702448 -77971130.51925993 0 -77971130.51925993 135023355.60500503 0 0 0 0 377435.68717312487 -21741.772293241811 0 -21741.772293241811 74614.816485312767 0 0 0 0 73417083.687786102 -81011823.919659257 0 -81011823.919659257 54144210.003175497 0 0 0 0 36169985.071428537 -13022626.143275976 0 -13022626.143275976 -23431050.578875661 0 0 0 0 29409719.322635651 -128642625.69330502 0 -128642625.69330502 75196395.550021887 0 0 0 0 2679973.2119222879 -167001081.45829105 0 -167001081.45829105 13011432.610331625 0 0 0 0 -12624377.789314389 -140386339.84030986 0 -140386339.84030986 171295148.64874482 0 0 0 0 -35329417.787094355 -9978522.5969470143 0 -9978522.5969470143 80782.61516046524 0 0 0 0 -304659.27016561001 -617961.27573607222 0 -617961.27573607222 2881243.4009432327 0 0 0 0 -160318480.45256436 -59930359.268611908 0 -59930359.268611908 36456496.06895566 0 0 0 0 -101244.64357396946 -172051.95420410053 0 -172051.95420410053 1038764.8879990116 0 0 0 0 226771024.52785873 284861611.59424508 0 284861611.59424508 202928725.73625588 0 0 0 0 50714835.291464567 48872537.787971616 0 48872537.787971616 52889672.584755838 0 0 0 0 -8600314.7482087612 70606691.098363996 0 70606691.098363996 81255461.543149292 0 0 0 0 2573710.408472891 -2793790.3665700005 0 -2793790.3665700005 2645394.6207683496 0 0 0 0 -7694710.3802611232 55836018.269725859 0 55836018.269725859 138500939.61457181 0 0 0 0 13310093.923700809 67256693.509291172 0 67256693.509291172 78127443.707509279 0 0 0 0 -446653.92620717303 -1242980.4543290797 0 -1242980.4543290797 4252303.7266358081 0 0 0 0 -27728501.446922779 -14198902.742747307 0 -14198902.742747307 37932758.276899815 0 0 0 0 4882056.6486291885 -7187148.9443123341 0 -7187148.9443123341 109416823.06278086 0 0 0 0 -1514799.2595105171 16127687.633882999 0 16127687.633882999 43171509.474531651 0 0 0 0 7205982.662396431 -34828496.983838558 0 -34828496.983838558 -244038.76603651047 0 0 0 0 -110310673.2223002 -18030931.048885226 0 -18030931.048885226 18523463.744626522 0 0 0 0 -84310728.193689883 20363833.026063442 0 20363833.026063442 33686553.638973713 0 0 0 0 -28093730.629800081 28219513.326497078 0 28219513.326497078 56450682.434769511 0 0 0 0 -47087499.666149259 476970.5606675148 0 476970.5606675148 24191657.208453178 0 0 0 0 -30992141.778338194 -18361071.069072485 0 -18361071.069072485 50473722.498172283 0 0 0 0 -39176027.058474779 4382517.8812615871 0 4382517.8812615871 404265.45205593109 0 0 0 0 -67207614.376791954 -70472625.482327938 0 -70472625.482327938 -13482463.878479004 0 0 0 0 -34596482.986037254 -39354480.731706619 0 -39354480.731706619 -3077034.3929870129 0 0 0 0 11470702.094773293 -69242160.358062744 0 -69242160.358062744 3139196.0066146851 0 0 0 0 -29402256.069049835 -56705586.970300674 0 -56705586.970300674 51882756.205814362 0 0 0 0 -8231691.9836513996 -68155567.640249968 0 -68155567.640249968 5306354.3377380371 0 0 0 0 -13639557.977307796 -56844287.294599771 0 -56844287.294599771 11861437.510383606 0 0 0 0 -55492326.307023048 -75015275.189038277 0 -75015275.189038277 14776944.458425522 0 0 0 0 -16159802.643110752 -54623633.058177948 0 -54623633.058177948 10783728.226204395 0 0 0 0 9903127.8013916016 -40504998.15927124 0 -40504998.15927124 2845738.952530086 0 0 0 0 10674321.520538807 -66494199.770917177 0 -66494199.770917177 2455724.8621845245 0 0 0 0 -2743228.0655221939 -51250365.074152946 0 -51250365.074152946 2089844.6656951904 0 0 0 0 9220553.8928794861 -35384291.539570808 0 -35384291.539570808 -19121382.574120879 0 0 0 0 24188872.722039223 -52787443.652180195 0 -52787443.652180195 -17294570.791159153 0 0 0 0 22427983.311664581 -56320111.855625629 0 -56320111.855625629 -8448470.1461935043 0 0 0 0 19523200.365039349 -88845018.457231998 0 -88845018.457231998 50843873.00846386 0 0 0 0 61794155.814302444 -62764810.194284916 0 -62764810.194284916 -16559652.061299801 0 0 0 0 22876111.008950152 -20704821.999944482 0 -20704821.999944482 -52129154.046985626 0 0 0 0 22612969.905080795 -103493703.83472395 0 -103493703.83472395 -28146253.001835108 0 0 0 0 -43371194.120810509 -17666274.1068964 0 -17666274.1068964 -17771048.785992146 0 0 0 0 -47598663.198664665 -53942690.03883791 0 -53942690.03883791 -31899215.016907692 0 0 0 0 65394713.647871017 10328553.952003241 0 10328553.952003241 89953861.273745537 0 0 0 0 98885541.43964529 42937493.610365987 0 42937493.610365987 88715571.177244186 0 0 0 0 31881806.543318987 41979786.060881138 0 41979786.060881138 125672716.38641548 0 0 0 0 41202308.241076946 2783681.2451269627 0 2783681.2451269627 -10297395.730936527 0 0 0 0 39199680.332975388 -40809706.511680126 0 -40809706.511680126 51284993.32843709 0 0 0 0 -40818156.899414062 12838496.041629314 0 12838496.041629314 -2016741.8940486908 0 0 0 0 42698165.550349385 32806464.572695911 0 32806464.572695911 -30445524.922679901 0 0 0 0 562079.51788936928 -538137.18166325917 0 -538137.18166325917 -1057249.8120130035 0 0 0 0 -184268460.45098591 -280857568.15261197 0 -280857568.15261197 -138865065.41104299 0 0 0 0 940208.35484747076 -898822.39902759762 0 -898822.39902759762 842039.15501981368 0 0 0 0 10835962.445331454 245672791.95871091 0 245672791.95871091 434197291.20707893 0 0 0 0 -515201972.83066368 -314628073.90215349 0 -314628073.90215349 432565992.96939421 0 0 0 0 705629628.04390717 -82363401.432694912 0 -82363401.432694912 -320823275.52194977 0 0 0 0 22794553.740185738 -115112998.61467075 0 -115112998.61467075 117661780.70848656 0 0 0 0 10758378.302837372 -23574281.575417995 0 -23574281.575417995 392583629.45439339 0 0 0 0 10473485.826876573 -84997256.820809513 0 -84997256.820809513 112029640.89877415 0 0 0 0 -3645557.5444469452 -51961730.832380772 0 -51961730.832380772 69797893.37392664 0 0 0 0 45502972.804729462 138864794.88486576 0 138864794.88486576 283734983.88144588 0 0 0 0 336346741.07931137 424881695.81844854 0 424881695.81844854 496399094.19803715 0 0 0 0 118873154.10473633 78888648.749289274 0 78888648.749289274 -50107186.212217331 0 0 0 0 45844.472956147045 -145556.65342406809 0 -145556.65342406809 198816.08239537821 0 0 0 0 34949220.394470215 61186169.5655123 0 61186169.5655123 -36737095.329510629 0 0 0 0 78647256.286905289 77235781.904315472 0 77235781.904315472 -47926249.323339522 0 0 0 0 -30087425.525341988 7513015.7134261131 0 7513015.7134261131 10286583.540287018 0 0 0 0 -34974248.669708252 29752518.407164097 0 29752518.407164097 55125290.397663593 0 0 0 0 -72988247.517379284 7470119.8578372002 0 7470119.8578372002 60429508.901236534 0 0 0 0 11127559.841420174 46442352.089892387 0 46442352.089892387 40344906.731984615 0 0 0 0 -6803291.1631296873 -62799097.5976547 0 -62799097.5976547 52917810.417425156 0 0 0 0 -57903074.947210789 16646492.110661507 0 16646492.110661507 141745578.19556522 0 0 0 0 -79130220.696291924 11520896.121809721 0 11520896.121809721 37551250.502622604 0 0 0 0 -60268533.526608467 1097499.606379509 0 1097499.606379509 42550705.578596115 0 0 0 0 832997.4042596817 -2814817.4275889397 0 -2814817.4275889397 7927117.8835096359 0 0 0 0 519860.45134162903 -135927.97152233124 0 -135927.97152233124 7798786.6004495621 0 0 0 0 12697179.090554714 31385606.280941397 0 31385606.280941397 9207701.0607613623 0 0 0 0 4049562.0840011835 -8206361.1882765144 0 -8206361.1882765144 -8424749.4245128632 0 0 0 0 -91524.698750019073 -4179590.0455770493 0 -4179590.0455770493 6079872.2738273144 0 0 0 0 986815.2917265892 1712900.3641353846 0 1712900.3641353846 -6006278.8164503574 0 0 0 0 4338146.9451293945 3835667.5119613409 0 3835667.5119613409 -8530935.6095595378 0 0 0 0 -538398.46075606486 1845454.6424876531 0 1845454.6424876531 4521219.7920406219 0 0 0 0 127068.99832725525 -2872260.8665971756 0 -2872260.8665971756 9908631.9995727539 0 0 0 0 -5325202.5807828903 -7073902.3110705614 0 -7073902.3110705614 13200208.78454046 0 0 0 0 -18286361.631019592 15385428.942714691 0 15385428.942714691 9543716.4599802494 0 0 0 0 -129255.73788489681 5236.8298288163496 0 5236.8298288163496 365326.99748021405 0 0 0 0 200975.49007732433 -127033.22693070816 0 -127033.22693070816 1441960.9377726445 0 0 0 0 21322576.833856583 18353052.467866421 0 18353052.467866421 -24772948.630076408 0 0 0 0 1161566.8589788997 -2070543.4967633821 0 -2070543.4967633821 200857.88576391118 0 0 0 0 1631537.3251943588 -2321767.3869900107 0 -2321767.3869900107 -283740.20983171463 0 0 0 0 -4072741.5564336777 -7690443.490490675 0 -7690443.490490675 -12667992.30688715 0 0 0 0 1098463.7957549095 504402.64679539204 0 504402.64679539204 -6892102.7242412567 0 0 0 0 7467940.1353273392 1907836.1839792728 0 1907836.1839792728 -6789803.7503784299 0 0 0 0 -2025899.715593338 8933233.5612691641 0 8933233.5612691641 -7667684.1368074417 0 0 0 0 -2899115.5475549698 -4496517.5923380852 0 -4496517.5923380852 -8557230.6183204651 0 0 0 0 20917658.149408877 -7659170.2440984845 0 -7659170.2440984845 -9236296.2024598122 0 0 0 0 18098815.853027821 12897608.021279812 0 12897608.021279812 -7834770.828956604 0 0 0 0 -66211.960353409406 -196581.45186585409 0 -196581.45186585409 637271.33269252139 0 0 0 0 23793839.021457195 -97532692.678257704 0 -97532692.678257704 121935045.02151442 0 0 0 0 60839968.130064487 -39311409.506727457 0 -39311409.506727457 27493539.608950496 0 0 0 0 -74903511.339672089 -33528978.57221818 0 -33528978.57221818 90802850.619668633 0 0 0 0 -129582750.4657135 -46250586.865848422 0 -46250586.865848422 189555320.4631865 0 0 0 0 177481.33422251081 294033.5840930678 0 294033.5840930678 267891.56144178065 0 0 0 0 21371772.366920829 49672763.857081726 0 49672763.857081726 -26162200.609428823 0 0 0 0 -86480916.765169621 -10173425.876957059 0 -10173425.876957059 215288516.00511122 0 0 0 0 100708889.66363144 274298919.38933873 0 274298919.38933873 124665492.9763298 0 0 0 0 38617725.333994627 47536217.061856151 0 47536217.061856151 -114888527.90746927 0 0 0 0 -3263231.4459428787 39784490.991107941 0 39784490.991107941 91485321.57343334 0 0 0 0 -5875639.9994029999 12747766.509488344 0 12747766.509488344 9515823.4886493683 0 0 0 0 6560416.5964360237 2251349.9146883488 0 2251349.9146883488 8239289.592998147 0 0 0 0 -725374.35228977678 223745.49388338148 0 223745.49388338148 1192567.2151286516 0 0 0 0 -1919042.2304595038 -59711442.334110759 0 -59711442.334110759 -95314305.448769331 0 0 0 0 1162424.7303962708 -1504866.5165252686 0 -1504866.5165252686 6513255.7067117691 0 0 0 0 -258968.28398190474 -2126675.1310324036 0 -2126675.1310324036 5487568.8968400899 0 0 0 0 -13294.051293373108 -1003963.6411252022 0 -1003963.6411252022 8243548.4689736366 0 0 0 0 -478315.75854316214 -1619087.9491074318 0 -1619087.9491074318 5402388.9870356955 0 0 0 0 1737913.4792643785 -19178111.017035723 0 -19178111.017035723 52002869.216644764 0 0 0 0 -510126.60173225403 -1959930.3140273094 0 -1959930.3140273094 6507632.3460435867 0 0 0 0 283941.40042295645 -981435.9022964912 0 -981435.9022964912 -238009.08902103733 0 0 0 0 -56566326.594750404 59315526.280452073 0 59315526.280452073 389296273.59459949 0 0 0 0 -591798.51701211929 -443097.55881547928 0 -443097.55881547928 5051336.2833282948 0 0 0 0 -2674233.1267102947 -1442137.2372069971 0 -1442137.2372069971 5341362.5478135068 0 0 0 0 2335.7880360530689 -65002.798426836729 0 -65002.798426836729 313572.99170706701 0 0 0 0 -952336.72646188736 -1834600.1780800819 0 -1834600.1780800819 6464436.4014463425 0 0 0 0 -65152475.622308969 -26039537.81098938 0 -26039537.81098938 -81149598.998523474 0 0 0 0 -78178704.035020679 10523765.953148484 0 10523765.953148484 1376806.8090267181 0 0 0 0 96784371.60585475 -237104373.11098862 0 -237104373.11098862 47591784.918566704 0 0 0 0 16926246.301488876 131474048.85142708 0 131474048.85142708 -170648668.58444595 0 0 0 0 -8511662.3173789978 106683539.0702796 0 106683539.0702796 95531132.589827538 0 0 0 0 -8782243.691318512 76399865.636087418 0 76399865.636087418 -15370435.527068138 0 0 0 0 -17906191.386773586 30825189.894339085 0 30825189.894339085 2176624.4850857258 0 0 0 0 -17909707.907133214 31171419.384486321 0 31171419.384486321 -17335984.996353149 0 0 0 0 -39338174.821516514 27838422.416882038 0 27838422.416882038 23701472.288260289 0 0 0 0 -184120.59297418594 36791729.944850922 0 36791729.944850922 1582394.5490293503 0 0 0 0 -21027023.242784142 11397572.818771839 0 11397572.818771839 10701852.945123672 0 0 0 0 -68966658.862549067 4631676.3003163338 0 4631676.3003163338 10366407.392933846 0 0 0 0 -59225583.996573925 7859132.3577055931 0 7859132.3577055931 25645193.003091693 0 0 0 0 -66416233.301863447 19525120.733313084 0 19525120.733313084 6925657.2081632614 0 0 0 0 -499248.14695183421 -2280621.2932168571 0 -2280621.2932168571 5072856.3983989693 0 0 0 0 -36510578.749075502 17316042.105000138 0 17316042.105000138 -5551851.1531209946 0 0 0 0 269112.12938276958 -2726432.391490222 0 -2726432.391490222 922994.824146303 0 0 0 0 -16914500.242226601 -26453725.336338997 0 -26453725.336338997 -3109457.333486557 0 0 0 0 5726154.7288265228 -4499279.3404684067 0 -4499279.3404684067 -20989958.622991085 0 0 0 0 -964263.78589367867 -1309396.2217297554 0 -1309396.2217297554 326839.38081216812 0 0 0 0 193751.55466220435 -1157118.2256741992 0 -1157118.2256741992 1324468.2821389695 0 0 0 0 -8574538.5832037926 2466310.6224232912 0 2466310.6224232912 -1518570.1731767654 0 0 0 0 -352300.19569296145 -769640.3681348376 0 -769640.3681348376 758005.25976123707 0 0 0 0 -37796206.451501369 -4138128.8692069054 0 -4138128.8692069054 25755612.748953819 0 0 0 0 62573840.449280262 -34286973.940039635 0 -34286973.940039635 -122792320.83937597 0 0 0 0 -56794974.624580294 27466590.092480421 0 27466590.092480421 -10370291.53438139 0 0 0 0 -54538217.757833004 -40810578.304947376 0 -40810578.304947376 75665507.454722404 0 0 0 0 -46490933.112492085 47676385.618789673 0 47676385.618789673 31509444.302342653 0 0 0 0 -46308528.523186207 76330199.285680771 0 76330199.285680771 199842565.60820246 0 0 0 0 -34287174.134298801 6873127.6363458633 0 6873127.6363458633 59639728.996695518 0 0 0 0 42599640.284217715 64324144.756015182 0 64324144.756015182 31022378.78886652 0 0 0 0 80873638.893844366 119977154.39105505 0 119977154.39105505 101976791.27117848 0 0 0 0 4437116.5340906978 26554339.884872139 0 26554339.884872139 57611605.09739399 0 0 0 0 -59884705.585033417 34878000.071608782 0 34878000.071608782 85615535.241181374 0 0 0 0 -60523426.181539536 61987123.266515255 0 61987123.266515255 -36053685.583034992 0 0 0 0 -76766.046097697341 -41020.567802104866 0 -41020.567802104866 149819.93145892466 0 0 0 0 64721935.224252582 110836874.82931161 0 110836874.82931161 175193804.43435383 0 0 0 0 -86049.601237912168 77165.770304451929 0 77165.770304451929 592104.65348207718 0 0 0 0 60637330.370604999 -92758143.669246152 0 -92758143.669246152 122668238.1456852 0 0 0 0 -75788332.40979135 254169833.36208403 0 254169833.36208403 150197504.63276863 0 0 0 0 -83681305.503139496 2742681.2058801651 0 2742681.2058801651 357283960.02113914 0 0 0 0 -55021521.691539928 -41825952.002390027 0 -41825952.002390027 303747487.28280449 0 0 0 0 -37088240.962632298 38553785.444707155 0 38553785.444707155 74593156.93121767 0 0 0 0 -58159915.190828085 50317760.339580059 0 50317760.339580059 87487135.593532562 0 0 0 0 -13618903.517554522 -2249122.7622175217 0 -2249122.7622175217 69837193.663507938 0 0 0 0 18200248.894390464 -9922743.133831501 0 -9922743.133831501 8671060.9753749371 0 0 0 0 -156571.56477415492 -65852.528755381471 0 -65852.528755381471 781825.52817823645 0 0 0 0 65055.72068977356 -89103.650138139725 0 -89103.650138139725 1090962.5608348846 0 0 0 0 -449967.09635615349 -105921.7807996273 0 -105921.7807996273 1412775.9045906067 0 0 0 0 -805615.38411814847 -728297.68532176968 0 -728297.68532176968 1916449.5669171819 0 0 0 0 -549174.89388799667 -94580.985072135925 0 -94580.985072135925 1398925.4799575806 0 0 0 0 -43183419.314349413 -18344788.817449391 0 -18344788.817449391 -5937895.1024158001 0 0 0 0 -963066.20744395256 255368.58602118492 0 255368.58602118492 1258204.5147864223 0 0 0 0 -472973.77589484106 47053.222798358765 0 47053.222798358765 1948750.4244810168 0 0 0 0 -319731.00911651086 502938.69547120621 0 502938.69547120621 1309523.9468350136 0 0 0 0 -70481328.949843407 11084709.638553187 0 11084709.638553187 36089503.612039566 0 0 0 0 -600433.15847468376 -281071.3875617981 0 -281071.3875617981 1219298.7491312027 0 0 0 0 -10577994.401752949 17312990.958961964 0 17312990.958961964 50834198.520081043 0 0 0 0 -50472826.71706295 -18866125.938665867 0 -18866125.938665867 90252558.241696596 0 0 0 0 -11111936.93545568 -43057122.240390629 0 -43057122.240390629 23661811.539382458 0 0 0 0 -52545191.286436796 -1411527.7189831734 0 -1411527.7189831734 4775479.5892322063 0 0 0 0 -9186489.8673285097 43450556.11146313 0 43450556.11146313 216369734.95800257 0 0 0 0 37842017.288301945 -91934155.085936189 0 -91934155.085936189 159776719.97650528 0 0 0 0 -3195950.7819218636 -16923356.189544797 0 -16923356.189544797 51382837.156093359 0 0 0 0 53691726.535485268 -12098404.764344692 0 -12098404.764344692 -32260912.581993103 0 0 0 0 16652985.781686306 -50382835.061337829 0 -50382835.061337829 12730955.514633656 0 0 0 0 -33484659.885881424 -19331577.443061948 0 -19331577.443061948 -4180585.507547617 0 0 0 0 3609179.620868206 1984644.183506161 0 1984644.183506161 -41634652.083215475 0 0 0 0 -23139233.848178864 -42431847.93781203 0 -42431847.93781203 -19259425.94796443 0 0 0 0 -716664.18501853943 12976958.202147305 0 12976958.202147305 -40867871.508162975 0 0 0 0 26883798.804984093 16798677.789574027 0 16798677.789574027 -64678909.320406914 0 0 0 0 -38271014.903695107 -29771911.400600672 0 -29771911.400600672 19219264.750279069 0 0 0 0 -35859864.432928085 -36199433.481109619 0 -36199433.481109619 22429491.355780363 0 0 0 0 -19487970.554962635 -34288490.66644609 0 -34288490.66644609 -15045725.182876552 0 0 0 0 -32908788.067884684 -33977083.184613943 0 -33977083.184613943 -15044118.73570466 0 0 0 0 7422820.1755924225 -25758144.129912138 0 -25758144.129912138 -55746148.362716198 0 0 0 0 -564062.70274688024 -525344.27348211315 0 -525344.27348211315 2148639.3087330186 0 0 0 0 -20642667.592947245 -24182824.40315634 0 -24182824.40315634 -16259164.479245067 0 0 0 0 -66689302.785686493 -66463988.043473303 0 -66463988.043473303 -71855650.074691653 0 0 0 0 -21253893.014613628 -44553924.104682922 0 -44553924.104682922 -61457309.502719641 0 0 0 0 -32393882.219000578 -56830624.23014991 0 -56830624.23014991 -94407884.351209164 0 0 0 0 -52888429.247743607 -24746345.272785306 0 -24746345.272785306 -29674524.413456917 0 0 0 0 -43244.336421395303 -72467.278177235741 0 -72467.278177235741 57820.860014960053 0 0 0 0 -55090259.234119892 57592742.740924045 0 57592742.740924045 -74625216.880586937 0 0 0 0 -237020.51359809935 -84167.413034937519 0 -84167.413034937519 349882.20397923712 0 0 0 0 -34639841.292686462 52692858.247609645 0 52692858.247609645 -80925054.934734106 0 0 0 0 -101131658.98609734 6272060.390178442 0 6272060.390178442 -39340011.332642719 0 0 0 0 -96262858.645328522 -50410149.043717563 0 -50410149.043717563 -44758883.323297739 0 0 0 0 46892610.122807503 42817371.824855074 0 42817371.824855074 -113966862.35599753 0 0 0 0 124001.6780639526 142403.80439238483 0 142403.80439238483 22874.329873616007 0 0 0 0 35115892.902775764 -43234792.745802358 0 -43234792.745802358 12727943.681074709 0 0 0 0 -95723608.205063581 -11774432.954457868 0 -11774432.954457868 29204384.833791196 0 0 0 0 -42508.513706995989 746643.9313309897 0 746643.9313309897 1063682.565188338 0 0 0 0 -1837795.3536791801 336595.1555352211 0 336595.1555352211 1129104.6851286888 0 0 0 0 -59029067.338959575 43428339.754235476 0 43428339.754235476 4303105.4939321652 0 0 0 0 -15900346.119778633 -55244660.227689505 0 -55244660.227689505 -22190572.264404297 0 0 0 0 -14519821.940186977 -40072054.855090618 0 -40072054.855090618 -30660183.146724224 0 0 0 0 -72191735.253743649 -30368496.277097464 0 -30368496.277097464 -6692921.1765956879 0 0 0 0 -462073.7208282862 420365.61624916631 0 420365.61624916631 2170635.2134563578 0 0 0 0 -1313782.4294672012 486186.05622208118 0 486186.05622208118 688270.7240691185 0 0 0 0 -30474378.081503391 31394461.482176617 0 31394461.482176617 81752591.086923599 0 0 0 0 -12462754.667187214 -2083208.5868600309 0 -2083208.5868600309 55710205.189514518 0 0 0 0 17157877.755963326 48792106.293616533 0 48792106.293616533 73982711.529328167 0 0 0 0 1910307.3190937778 -2488634.3114024457 0 -2488634.3114024457 471601.98895673035 0 0 0 0 -7237793.8490700722 37843816.007631868 0 37843816.007631868 48434015.040657997 0 0 0 0 9390975.816321373 10581901.660486758 0 10581901.660486758 66262756.229849398 0 0 0 0 28171876.217593193 14398413.198008895 0 14398413.198008895 60578204.837770462 0 0 0 0 23213326.150950432 60497738.335668087 0 60497738.335668087 55635662.72939232 0 0 0 0 67717763.186067581 46562058.38851732 0 46562058.38851732 10618384.670484185 0 0 0 0 28571134.69191204 4627313.1448420202 0 4627313.1448420202 -12044915.796471834 0 0 0 0 31776968.556093693 -36340874.216587596 0 -36340874.216587596 38578167.457881011 0 0 0 0 319870.43907380057 -106848.54077761198 0 -106848.54077761198 795433.21730248374 0 0 0 0 22146572.900734901 17924592.821014345 0 17924592.821014345 42238477.874997377 0 0 0 0 3122969.5377168655 -16546739.810862543 0 -16546739.810862543 69092286.165036321 0 0 0 0 -68910397.8469944 109715485.6682245 0 109715485.6682245 85627800.875725806 0 0 0 0 362362.09171071777 592433.34497178404 0 592433.34497178404 478142.6380408674 0 0 0 0 35252007.033842087 -48403533.286301345 0 -48403533.286301345 -37518255.629580975 0 0 0 0 63255360.088157654 26009248.320093036 0 26009248.320093036 -63895319.110174775 0 0 0 0 -97830670.251401663 -116880692.88406479 0 -116880692.88406479 164744999.45722723 0 0 0 0 124189452.69893551 179821210.2097702 0 179821210.2097702 -13108486.498919249 0 0 0 0 192581813.4714365 -47347386.431736588 0 -47347386.431736588 -3066727.3258767128 0 0 0 0 -100159542.43081379 156524329.24178743 0 156524329.24178743 28910665.3233006 0 0 0 0 9129987.3662486076 -2595980.295131743 0 -2595980.295131743 -45148740.151558638 0 0 0 0 24117025.843804359 20387750.834323883 0 20387750.834323883 -10039014.608431384 0 0 0 0 27006269.137564659 18546638.124236584 0 18546638.124236584 -63560670.918283224 0 0 0 0 52872574.021059036 3450243.1252867728 0 3450243.1252867728 -90838922.552442208 0 0 0 0 -55971269.406708241 -12491440.365996048 0 -12491440.365996048 18163828.102594823 0 0 0 0 312813.94549182313 438297.35503858572 0 438297.35503858572 234615.24997220997 0 0 0 0 12185283.400190353 -17468018.615248904 0 -17468018.615248904 6132975.7798229009 0 0 0 0 10591045.638029575 -31358335.922536403 0 -31358335.922536403 20764027.874172181 0 0 0 0 4642440.1585915089 -21911038.448659554 0 -21911038.448659554 27103499.999543875 0 0 0 0 31908179.238278866 -58203021.1652188 0 -58203021.1652188 -24641092.202141218 0 0 0 0 62783148.328412652 5945736.8536597267 0 5945736.8536597267 10129951.704413056 0 0 0 0 17502537.49835968 -19073499.753627598 0 -19073499.753627598 5172944.4430428334 0 0 0 0 20068063.484524369 -5782075.1022901051 0 -5782075.1022901051 35504030.833721131 0 0 0 0 -24576159.453238964 -1351669.6106131077 0 -1351669.6106131077 41272572.248528913 0 0 0 0 13318.605005741119 -38485.722674572724 0 -38485.722674572724 -22252.593969265261 0 0 0 0 -3111346.3800597191 1967679.8607029617 0 1967679.8607029617 33254375.612609312 0 0 0 0 -4252563.5029058456 8431377.5916135162 0 8431377.5916135162 24717869.063642919 0 0 0 0 -23662179.491527796 -36783097.776266858 0 -36783097.776266858 -1002067.3681874573 0 0 0 0 -20285233.250904322 15377579.33670564 0 15377579.33670564 75917184.052922964 0 0 0 0 -9063351.3834848404 -5889106.4437755346 0 -5889106.4437755346 38267837.265626758 0 0 0 0 26098902.257582664 -34131316.582904667 0 -34131316.582904667 78954.76763227582 0 0 0 0 38034.67059096694 -83601.409556509927 0 -83601.409556509927 -48801.36354769356 0 0 0 0 8436529.8787589073 -25646407.497216016 0 -25646407.497216016 28173424.518427864 0 0 0 0 -15531715.635073453 -39281712.215241842 0 -39281712.215241842 47948181.107994139 0 0 0 0 7313400.2332429886 -13564181.901874781 0 -13564181.901874781 34356702.512796864 0 0 0 0 6270812.2276812792 -18347169.23192215 0 -18347169.23192215 40506028.618961811 0 0 0 0 13881132.258233547 -15781142.679041713 0 -15781142.679041713 19889688.730591565 0 0 0 0 29143144.842079878 -24311748.268712446 0 -24311748.268712446 23898154.837730169 0 0 0 0 80982.262335568899 -74537.370180724247 0 -74537.370180724247 -53715.789513364492 0 0 0 0 31986368.097355723 -1645539.2499229833 0 -1645539.2499229833 30922816.872754216 0 0 0 0 19016012.867427588 77844777.684889168 0 77844777.684889168 112182084.46005392 0 0 0 0 56414951.584416866 66577024.429742813 0 66577024.429742813 53555866.102340817 0 0 0 0 41649013.018922329 35162420.545604944 0 35162420.545604944 16886651.799955517 0 0 0 0 75203669.17457056 65991843.905122519 0 65991843.905122519 -61714931.807383597 0 0 0 0 45371628.083880424 35564139.738965154 0 35564139.738965154 67773236.634517074 0 0 0 0 36230716.365299702 -16493149.056502759 0 -16493149.056502759 864325.00869715773 0 0 0 0 -12845265.768843651 -54562154.897291452 0 -54562154.897291452 -26273247.148871958 0 0 0 0 -16500110.217750549 -74806968.701548159 0 -74806968.701548159 -17271850.836569428 0 0 0 0 12147544.966094255 -15255224.627037026 0 -15255224.627037026 -56551412.361168921 0 0 0 0 -71774517.310300827 18254783.60636127 0 18254783.60636127 -13570935.504259109 0 0 0 0 -42812.74854535982 -754582.49697230628 0 -754582.49697230628 911926.61173988809 0 0 0 0 -74795823.490605354 37703315.374570876 0 37703315.374570876 32511301.219548106 0 0 0 0 -27307179.806049347 16661404.807968706 0 16661404.807968706 13836836.152935922 0 0 0 0 -56785397.11107254 -23911863.86145854 0 -23911863.86145854 -38177623.554979444 0 0 0 0 -1487.5796783722399 235172.3575872964 0 235172.3575872964 -44817.427946268261 0 0 0 0 53039187.93901445 156451749.20212096 0 156451749.20212096 422522339.10218906 0 0 0 0 56058011.631483316 21243116.880081773 0 21243116.880081773 -129301244.08576441 0 0 0 0 63142474.021368265 25610509.082794428 0 25610509.082794428 -37514709.089774609 0 0 0 0 -240497.16522224527 173044.81447219604 0 173044.81447219604 1473354.7985724178 0 0 0 0 -3101832.2536855787 1732322.4305215552 0 1732322.4305215552 300833.66071510315 0 0 0 0 -51249.473437679742 1392579.4041240676 0 1392579.4041240676 1214184.9074845959 0 0 0 0 -218405777.61662626 -18842015.562307574 0 -18842015.562307574 169559464.23247528 0 0 0 0 -15812402.181433916 48278202.88262786 0 48278202.88262786 -8352470.170403257 0 0 0 0 -26641461.06707859 -39126037.506924957 0 -39126037.506924957 52484349.210176155 0 0 0 0 -74741697.066537142 -2215738.0179424435 0 -2215738.0179424435 41476975.760509253 0 0 0 0 10388460.183864117 -3408594.1671732366 0 -3408594.1671732366 66396117.163611501 0 0 0 0 9663078.4890013933 -31350480.702552397 0 -31350480.702552397 38552626.246191502 0 0 0 0 60857.435382033465 -32646.374340056034 0 -32646.374340056034 -29855.541050815285 0 0 0 0 16116601.977809429 -37777617.061510861 0 -37777617.061510861 22429882.25060676 0 0 0 0 45773269.887784719 -29298830.630679771 0 -29298830.630679771 16277561.88171345 0 0 0 0 26401592.006937027 -20551934.393365324 0 -20551934.393365324 9159764.4392746985 0 0 0 0 -18613596.654816866 -11374040.998807672 0 -11374040.998807672 204052710.82716972 0 0 0 0 -16242130.184758663 -8084584.099088937 0 -8084584.099088937 65960817.596380323 0 0 0 0 17635985.927829742 4267620.1732885242 0 4267620.1732885242 47656010.777733266 0 0 0 0 59963.090579986572 45550083.727863252 0 45550083.727863252 130639030.25118119 0 0 0 0 1536429.6758568287 44110096.930332214 0 44110096.930332214 77645325.279251337 0 0 0 0 -15794872.988149166 66314910.146481782 0 66314910.146481782 106456984.43660021 0 0 0 0 -15562042.09498167 81461723.332656443 0 81461723.332656443 165377147.89110959 0 0 0 0 -49865184.912535667 55607415.738434643 0 55607415.738434643 145967430.08738738 0 0 0 0 50453573.954688072 236624372.45382816 0 236624372.45382816 263506349.08637166 0 0 0 0 -54807784.762619406 70082449.215740487 0 70082449.215740487 424683658.86566448 0 0 0 0 104365173.24061766 -46125987.482849732 0 -46125987.482849732 23705533.468525976 0 0 0 0 19611012.149127483 -55477950.51717034 0 -55477950.51717034 22231529.307098269 0 0 0 0 183422.13384563627 708864.59873363143 0 708864.59873363143 776782.64212594461 0 0 0 0 -2655759.966296196 -108166237.98473655 0 -108166237.98473655 279394424.97287154 0 0 0 0 158351225.05382872 258494798.39648268 0 258494798.39648268 120342200.8670985 0 0 0 0 151731019.45466709 272725479.57667089 0 272725479.57667089 94368342.785712123 0 0 0 0 -59927185.397132874 -179994545.13672921 0 -179994545.13672921 315752095.92684805 0 0 0 0 10704923.46296382 -13572409.426169872 0 -13572409.426169872 9321799.6379992962 0 0 0 0 184616.3433618242 766947.07614128664 0 766947.07614128664 1855902.1232067801 0 0 0 0 -175323415.04413792 -41502982.119599439 0 -41502982.119599439 162380095.74373835 0 0 0 0 27023373.60539341 -5815619.9005923271 0 -5815619.9005923271 7139653.3401255608 0 0 0 0 51464157.25037992 -30812179.288401365 0 -30812179.288401365 9576736.9728095531 0 0 0 0 15324543.237572074 -14694116.981142521 0 -14694116.981142521 8789400.7677116394 0 0 0 0 30221445.606851339 -24607140.112422943 0 -24607140.112422943 15378102.092361927 0 0 0 0 -34449433.175904274 58965510.005410433 0 58965510.005410433 108342118.73328292 0 0 0 0 12379165.482054561 -50614000.496628881 0 -50614000.496628881 66658505.570232868 0 0 0 0 205444216.3703357 281410735.71454155 0 281410735.71454155 58849554.447861671 0 0 0 0 64591.809945212961 456946.43777997879 0 456946.43777997879 765552.10811223788 0 0 0 0 45187154.220594406 -14601168.962063074 0 -14601168.962063074 5774932.3427904248 0 0 0 0 98391774.878455997 -68543393.997610569 0 -68543393.997610569 56695828.982446432 0 0 0 0 -17553361.860815838 29529936.069146395 0 29529936.069146395 16815378.367980003 0 0 0 0 -20529044.449776292 -10556810.811307907 0 -10556810.811307907 48983730.972306252 0 0 0 0 -36968447.589201346 -29083408.828322649 0 -29083408.828322649 32141919.497092247 0 0 0 0 15324157.039454579 -14873648.276827574 0 -14873648.276827574 23870348.765305281 0 0 0 0 -17681315.039449155 -24623093.803048134 0 -24623093.803048134 30098869.064081073 0 0 0 0 -14025803.197713375 -16078697.521314144 0 -16078697.521314144 27068563.49632287 0 0 0 0 -36189643.628841169 36951914.021697521 0 36951914.021697521 34449592.471186161 0 0 0 0 -12527294.048715435 -20194298.875836372 0 -20194298.875836372 7020463.9998383522 0 0 0 0 -22870400.512363136 58392702.155833483 0 58392702.155833483 -24702888.737983227 0 0 0 0 -22005173.713502057 -1553427.3149057925 0 -1553427.3149057925 811085.11701345444 0 0 0 0 -25435032.456619307 23156759.16666317 0 23156759.16666317 -13993737.212761402 0 0 0 0 -1643925.9982998371 14684818.868294239 0 14684818.868294239 -13697737.670302004 0 0 0 0 -6862729.9577086568 -20554724.965608358 0 -20554724.965608358 3199895.5304641724 0 0 0 0 53754789.161149502 53330402.13715744 0 53330402.13715744 67275015.829042673 0 0 0 0 -72564.610012452104 -257259.01515800937 0 -257259.01515800937 -61177.550081889844 0 0 0 0 -6772377.7810223699 49071247.823244572 0 49071247.823244572 -55196592.76409483 0 0 0 0 103885014.23317286 86122837.90102005 0 86122837.90102005 33099316.973168373 0 0 0 0 -25825439.886487067 120649929.09557891 0 120649929.09557891 218251955.48988914 0 0 0 0 83583780.722940326 40682522.691616058 0 40682522.691616058 12714178.530646324 0 0 0 0 399476.8181008416 203870.02646252303 0 203870.02646252303 -110744.21693579806 0 0 0 0 -10528349.399242163 -6797888.9486150742 0 -6797888.9486150742 253049612.91983032 0 0 0 0 20651628.266951561 118103157.87992573 0 118103157.87992573 387602164.6911447 0 0 0 0 373614374.20303679 64247028.858303785 0 64247028.858303785 17816898.384849072 0 0 0 0 8647913.7359434366 52446732.195393801 0 52446732.195393801 35619123.517880917 0 0 0 0 -8288032.5176336765 158463092.82011604 0 158463092.82011604 179121566.0286088 0 0 0 0 30355648.054970264 36390641.416051388 0 36390641.416051388 29773527.720757961 0 0 0 0 115991988.54209077 99598093.416106939 0 99598093.416106939 62091674.479310036 0 0 0 0 34399006.206978738 4685556.1151356697 0 4685556.1151356697 -9785127.7830209732 0 0 0 0 12221430.146977603 -612513.70569896698 0 -612513.70569896698 59384023.486913681 0 0 0 0 -24329833.228667021 -33916857.530357838 0 -33916857.530357838 -10807819.933083504 0 0 0 0 -12446.601791143417 -26028419.486225128 0 -26028419.486225128 17905290.33885932 0 0 0 0 55691824.287019849 16351693.204678059 0 16351693.204678059 10868034.258686185 0 0 0 0 29451741.652878761 65986025.91671443 0 65986025.91671443 99596368.152558327 0 0 0 0 104088068.09349275 -2601739.5904555321 0 -2601739.5904555321 154679008.56035137 0 0 0 0 61864715.834683076 155116143.84272444 0 155116143.84272444 185621688.35798454 0 0 0 0 17858045.866533816 86650181.536204338 0 86650181.536204338 107848447.64713359 0 0 0 0 -8877275.7928002477 104391609.29300165 0 104391609.29300165 102160623.87264729 0 0 0 0 60423705.507136121 68816566.967649937 0 68816566.967649937 34831831.897165298 0 0 0 0 8542770.4124186933 165424.31196784973 0 165424.31196784973 50734682.10219574 0 0 0 0 18826553.9384799 20025797.459675789 0 20025797.459675789 -375193.97643852234 0 0 0 0 3043538.6001477838 12877047.68872261 0 12877047.68872261 -52260149.182184219 0 0 0 0 -31087639.202249885 -20206272.585436583 0 -20206272.585436583 -15218806.668336868 0 0 0 0 -9420992.3353484869 -11658893.376594067 0 -11658893.376594067 -125600242.33453941 0 0 0 0 -57117074.20498839 17672386.467495918 0 17672386.467495918 28555006.125983477 0 0 0 0 -6369467.4267052412 51317175.237379313 0 51317175.237379313 -1381099.6991195679 0 0 0 0 -128956223.28885174 20094914.536693573 0 20094914.536693573 22952054.718204498 0 0 0 0 962943.31539295637 -1067250.5709378337 0 -1067250.5709378337 1065537.9499371368 0 0 0 0 -23162399.847021103 -52990774.033374786 0 -52990774.033374786 -106447435.05252838 0 0 0 0 6258665.652150631 -2712665.722556591 0 -2712665.722556591 -18081769.066605091 0 0 0 0 -53652283.401760817 -63017138.992033958 0 -63017138.992033958 -90159862.891317368 0 0 0 0 5634.786727672501 -37585.699835469481 0 -37585.699835469481 94050.814682370517 0 0 0 0 3675855.8225845098 7754322.8123842478 0 7754322.8123842478 -1026690.6703467369 0 0 0 0 163878.79459901818 -21494.348994774278 0 -21494.348994774278 748841.97767832316 0 0 0 0 -2338907.6202933788 4387214.6705157757 0 4387214.6705157757 5583049.4602011293 0 0 0 0 52701.934905290604 -332020.23498439789 0 -332020.23498439789 1732554.4881334305 0 0 0 0 20981360.844431102 -4933724.7262351513 0 -4933724.7262351513 -54515424.733118057 0 0 0 0 7171983.1737357378 -52965078.614700317 0 -52965078.614700317 -71551878.496367455 0 0 0 0 78476.743434791337 -977934.33790990338 0 -977934.33790990338 1080166.9675613302 0 0 0 0 71540375.493469715 57927085.215149879 0 57927085.215149879 -124448132.78813219 0 0 0 0 322567.95332497219 22708.891817482654 0 22708.891817482654 37230.44454566366 0 0 0 0 127197239.27406397 31718750.252110243 0 31718750.252110243 241058516.55528069 0 0 0 0 -3783251.9162749052 15477755.339048386 0 15477755.339048386 416425749.18343544 0 0 0 0 36686821.302308798 78693326.022588253 0 78693326.022588253 496327554.48664927 0 0 0 0 52724947.980526686 -60552694.471482277 0 -60552694.471482277 73150459.276498929 0 0 0 0 37015250.469760656 144045775.65820408 0 144045775.65820408 491940065.95780849 0 0 0 0 301502.26517005404 39242.546353056561 0 39242.546353056561 -70951.432431600057 0 0 0 0 -25636456.752874374 69222624.685084343 0 69222624.685084343 341283727.67262936 0 0 0 0 93178157.18647933 131317652.94874096 0 131317652.94874096 310009406.45025635 0 0 0 0 -8854365.8169743866 -38469315.98363173 0 -38469315.98363173 256269760.50637627 0 0 0 0 18274218.464945316 -98241598.488698959 0 -98241598.488698959 285746477.62312144 0 0 0 0 46338578.013218403 -69276188.304275513 0 -69276188.304275513 257457629.69872665 0 0 0 0 42646790.465839267 -137688092.36125183 0 -137688092.36125183 228507741.29519272 0 0 0 0 55451743.280565858 -84839980.028589725 0 -84839980.028589725 157795086.71426392 0 0 0 0 49252791.962200165 -2072892.4018974304 0 -2072892.4018974304 176404324.36152244 0 0 0 0 33241804.40169704 -6626824.6178884506 0 -6626824.6178884506 -199840635.94059896 0 0 0 0 1608171.6776701361 -973724.90301353531 0 -973724.90301353531 535884.25811748533 0 0 0 0 48167439.659125112 -116999013.14683992 0 -116999013.14683992 75971394.697759628 0 0 0 0 -55148193.491102457 78059166.677275181 0 78059166.677275181 99020028.156212807 0 0 0 0 41926111.571258664 42017155.042490959 0 42017155.042490959 -18228540.419592381 0 0 0 0 40148419.82817626 154048657.93357277 0 154048657.93357277 206045741.98711801 0 0 0 0 85582286.64175421 -19067403.896985531 0 -19067403.896985531 180446176.53397083 0 0 0 0 25413376.110864997 94655479.162815571 0 94655479.162815571 90161879.441435814 0 0 0 0 28763225.776834249 101248669.35553932 0 101248669.35553932 87175150.547855377 0 0 0 0 24071100.97025001 100704694.64452887 0 100704694.64452887 64223286.961276054 0 0 0 0 12512213.15471071 97640900.1358248 0 97640900.1358248 92999390.483599663 0 0 0 0 1356971.3401981592 47560265.11258316 0 47560265.11258316 123783351.04160547 0 0 0 0 65607954.244679391 65731678.390625477 0 65731678.390625477 28774193.383134842 0 0 0 0 4731469.6235957146 28513286.697062016 0 28513286.697062016 48207896.727905989 0 0 0 0 15488281.859858513 24507703.502838612 0 24507703.502838612 25610382.485262871 0 0 0 0 123162930.42818868 135583562.88358164 0 135583562.88358164 -7951606.9411172867 0 0 0 0 27608913.182616711 41759617.352360249 0 41759617.352360249 14831974.821879387 0 0 0 0 30633611.757066011 36251054.245994925 0 36251054.245994925 -17610732.015523911 0 0 0 0 -31463908.164943516 42177392.209549904 0 42177392.209549904 -13496342.677482605 0 0 0 0 -13956773.382484913 2858789.5265350342 0 2858789.5265350342 -39284662.83055687 0 0 0 0 506365.44027262926 38346879.012823522 0 38346879.012823522 -14824051.062548637 0 0 0 0 -3390527.8525671959 15732127.546187401 0 15732127.546187401 15517960.927246094 0 0 0 0 5888899.3714365959 11539023.390955925 0 11539023.390955925 12800986.049683571 0 0 0 0 3985409.8543670177 10767973.657161713 0 10767973.657161713 17156918.643780708 0 0 0 0 -536542.70572733879 546079.41443824768 0 546079.41443824768 825820.38492786884 0 0 0 0 1356572.5940606594 574920.16345667839 0 574920.16345667839 11025070.966784477 0 0 0 0 -426898.37251494697 198028.0822626322 0 198028.0822626322 233092.41568570677 0 0 0 0 -377886.79119433434 519471.25612959103 0 519471.25612959103 662336.34291461622 0 0 0 0 -7471845.262150526 6523395.6028437614 0 6523395.6028437614 27206164.453667492 0 0 0 0 -112212.28750503063 108873.55195784569 0 108873.55195784569 376968.43399143219 0 0 0 0 5924033.1686376333 -1758766.9758044481 0 -1758766.9758044481 -4988524.4433794022 0 0 0 0 -343598.83384847641 197298.54358243942 0 197298.54358243942 487495.3748755455 0 0 0 0 -274581.96620893478 75843.032767772675 0 75843.032767772675 599625.29439496994 0 0 0 0 -310712.97525996424 618206.59304880444 0 618206.59304880444 322297.14023609087 0 0 0 0 -5744293.8448561877 -7232838.980015099 0 -7232838.980015099 51856516.442364693 0 0 0 0 9919605.0621646643 20486803.50104332 0 20486803.50104332 33204451.66917038 0 0 0 0 2184838.8245384097 21222713.108002305 0 21222713.108002305 34357510.434886932 0 0 0 0 -285888.95903860679 90548.862216884736 0 90548.862216884736 509899.39011741336 0 0 0 0 -156179.39459228516 -115260.29608535767 0 -115260.29608535767 990980.75969696045 0 0 0 0 8732176.257555604 -6866948.326261282 0 -6866948.326261282 7566723.2638456821 0 0 0 0 -84900.389121770859 -3923.0120048522949 0 -3923.0120048522949 833291.48245382309 0 0 0 0 -456128.08321182546 -307394.71137529728 0 -307394.71137529728 47831.551086259191 0 0 0 0 -20268012.26589179 -8518599.7512087822 0 -8518599.7512087822 -3825125.6678576469 0 0 0 0 462528.76281118393 17096479.272199154 0 17096479.272199154 32610446.128399611 0 0 0 0 725729.5613917046 652976.07713012025 0 652976.07713012025 -25906.857714743353 0 0 0 0 1816395.6765865088 415926.9651017189 0 415926.9651017189 -12689687.979895115 0 0 0 0 -312528.64661654527 -76247.59406458016 0 -76247.59406458016 311218.23682877189 0 0 0 0 -3066540.9467630386 -1447467.4475212097 0 -1447467.4475212097 -137785.254529953 0 0 0 0 -2929038.6418232918 4732005.2099246979 0 4732005.2099246979 -816220.9395442009 0 0 0 0 -1221879.8662316799 -239853.88135528564 0 -239853.88135528564 -2339405.1634054184 0 0 0 0 -525193.46769762039 514960.14613580704 0 514960.14613580704 -1222495.536427021 0 0 0 0 -105479.59142233629 6439.0042924252339 0 6439.0042924252339 38707.123204761068 0 0 0 0 -1748429.2928969264 -614714.93347918987 0 -614714.93347918987 3140865.7217178345 0 0 0 0 119783.12948584557 514878.48560905457 0 514878.48560905457 911135.54619026184 0 0 0 0 -935288.78182178736 6198.4590845704079 0 6198.4590845704079 671047.31685066223 0 0 0 0 -2371307.2183653712 2908459.1443295479 0 2908459.1443295479 -523632.65257644653 0 0 0 0 -118181.81240504095 -36783.877308547497 0 -36783.877308547497 -556441.856471351 0 0 0 0 197703.21525846276 92794.069346538046 0 92794.069346538046 -470270.5222207508 0 0 0 0 303927.26206111908 -4611026.9061872959 0 -4611026.9061872959 6248309.3016290665 0 0 0 0 -954501.49912011623 -4091658.9244372845 0 -4091658.9244372845 7242595.9889345169 0 0 0 0 -3653865.0282456875 -5437369.1204967499 0 -5437369.1204967499 16337041.669368744 0 0 0 0 -8376682.4623931646 -3490263.9921483994 0 -3490263.9921483994 19648992.240181446 0 0 0 0 -5249910.4430769682 -2788631.769131422 0 -2788631.769131422 13333420.997322083 0 0 0 0 -21168500.315616012 4585307.9038484097 0 4585307.9038484097 54164083.728220224 0 0 0 0 -3084559.7869906425 4718301.6477632523 0 4718301.6477632523 7365539.5374102592 0 0 0 0 -10543312.17983222 -155147.80685830116 0 -155147.80685830116 21001131.090385199 0 0 0 0 -10495486.698242664 -1465416.9177498817 0 -1465416.9177498817 17999385.427455425 0 0 0 0 -3029046.5905706286 12144323.448283911 0 12144323.448283911 17835393.13580513 0 0 0 0 -181533.92810857296 230567.13429808617 0 230567.13429808617 259388.33110618591 0 0 0 0 -60730.833446979523 487924.86012220383 0 487924.86012220383 -518925.37166666985 0 0 0 0 -13409.573227018467 -10664.400897053885 0 -10664.400897053885 82446.573074500076 0 0 0 0 -7099.0792293548584 285979.31635165215 0 285979.31635165215 -1556557.6796808243 0 0 0 0 50535.103524208069 931579.60813045502 0 931579.60813045502 -872378.21060991287 0 0 0 0 2156839.9113282561 -58912.852751791477 0 -58912.852751791477 3960814.2033834457 0 0 0 0 98746.524563074112 946732.90992164612 0 946732.90992164612 -1349988.1213315725 0 0 0 0 97926.642423206591 24565.078035351238 0 24565.078035351238 -180263.93938769214 0 0 0 0 4105824.3042490482 -10776618.400579453 0 -10776618.400579453 15888329.379324436 0 0 0 0 11716155.975309134 -5366788.5610468388 0 -5366788.5610468388 3193348.9473797679 0 0 0 0 5467048.7280678749 2702610.6570048332 0 2702610.6570048332 -2788071.1651320457 0 0 0 0 9920273.477117002 12573430.08507055 0 12573430.08507055 3046840.4990859032 0 0 0 0 -2984612.9721386433 1532777.827208519 0 1532777.827208519 3095958.0504379272 0 0 0 0 -240199.41138051488 371435.40649389243 0 371435.40649389243 549108.99135372089 0 0 0 0 16358226.097518444 6892083.2194046974 0 6892083.2194046974 4475282.3967814445 0 0 0 0 39018979.370782137 26581672.690423131 0 26581672.690423131 17821617.28373909 0 0 0 0 -96070.896178130555 164292.54297517007 0 164292.54297517007 208159.55258229165 0 0 0 0 10904727.581444383 -25417225.571873486 0 -25417225.571873486 29743611.235138893 0 0 0 0 24245667.053509712 -12689943.889947176 0 -12689943.889947176 7765017.0357990265 0 0 0 0 3290832.3817987442 17572434.265208125 0 17572434.265208125 31306979.713909149 0 0 0 0 4083664.0326416492 11198761.498145819 0 11198761.498145819 53726218.513408661 0 0 0 0 10271115.828635693 -19543327.663920164 0 -19543327.663920164 37000807.685698032 0 0 0 0 11007942.070826054 2920880.4853278399 0 2920880.4853278399 4251536.0917108059 0 0 0 0 3022593.5415832996 -10535921.603525698 0 -10535921.603525698 16496522.286797523 0 0 0 0 -1449729.8667037487 -3531680.0433088541 0 -3531680.0433088541 18608355.485547066 0 0 0 0 34632886.130178094 -10386617.759016335 0 -10386617.759016335 11074430.691340923 0 0 0 0 29918506.367450729 13779657.307929784 0 13779657.307929784 -475989.76687955856 0 0 0 0 1904741.5787261128 15304869.523471653 0 15304869.523471653 8944493.5954902172 0 0 0 0 6179687.2183811069 10911091.222602963 0 10911091.222602963 13328684.980260134 0 0 0 0 2120338.1402618885 3222208.3878489733 0 3222208.3878489733 5423248.9226455092 0 0 0 0 3245078.4902638346 -6658913.8338593841 0 -6658913.8338593841 9156299.4791634083 0 0 0 0 -1860501.7399783134 -20602853.806339622 0 -20602853.806339622 25946521.100892067 0 0 0 0 15578923.392644584 -43465277.730228424 0 -43465277.730228424 55340399.717965126 0 0 0 0 -135073.91121244259 375093.73599665437 0 375093.73599665437 229124.87422962987 0 0 0 0 3238910.7128527164 2883608.3410909176 0 2883608.3410909176 -207503.30800771713 0 0 0 0 -7665393.929948926 -28391746.666296661 0 -28391746.666296661 20538579.451680183 0 0 0 0 126441.07840059607 141639.90519303782 0 141639.90519303782 -40453.404346428928 0 0 0 0 171421.47530436516 -28508260.323239267 0 -28508260.323239267 28203339.328976631 0 0 0 0 216195.93373417854 22788224.838299155 0 22788224.838299155 -12139767.628404856 0 0 0 0 -6801996.1775035858 -3478606.5320718288 0 -3478606.5320718288 3714196.8099595308 0 0 0 0 213659.55145010754 250184.16465313913 0 250184.16465313913 -55312.564643729711 0 0 0 0 -20814093.478986084 12623590.109558821 0 12623590.109558821 5518397.0343945026 0 0 0 0 -2972568.2947573662 -17117454.431912184 0 -17117454.431912184 29032930.954955101 0 0 0 0 33804116.973089874 3521153.1964263916 0 3521153.1964263916 -19257891.308254719 0 0 0 0 -30266963.812778831 14908794.426288009 0 14908794.426288009 15790810.031445265 0 0 0 0 -6669363.7579290867 -8849603.813365221 0 -8849603.813365221 46587358.287943602 0 0 0 0 -7285392.1389814615 -1622908.5481078625 0 -1622908.5481078625 6074063.1211570501 0 0 0 0 -4449082.0122016519 -11260889.776362628 0 -11260889.776362628 23829969.315905571 0 0 0 0 -4439715.8195844889 -10873939.012517691 0 -10873939.012517691 18083313.212466002 0 0 0 0 -8905173.6150642633 -16576195.095679522 0 -16576195.095679522 18586086.15757513 0 0 0 0 -8508256.2349279523 -21028664.240199447 0 -21028664.240199447 36719043.056917667 0 0 0 0 -30682171.897589605 19727644.794405222 0 19727644.794405222 14285989.351727486 0 0 0 0 126794.96040339596 142739.36663937665 0 142739.36663937665 -52615.534034956247 0 0 0 0 -23382013.451239526 3692645.8771426082 0 3692645.8771426082 40122511.732221603 0 0 0 0 -3029471.0309557393 -7320611.387201488 0 -7320611.387201488 20831820.982753277 0 0 0 0 13910651.937009335 -7780029.6786952019 0 -7780029.6786952019 12900751.688932419 0 0 0 0 -4138494.7728337646 641137.98870110512 0 641137.98870110512 12414124.779196262 0 0 0 0 3076769.9047883712 -4846169.6126887202 0 -4846169.6126887202 4187746.8545055389 0 0 0 0 4402504.2141450047 -10261840.89657408 0 -10261840.89657408 17247246.966413498 0 0 0 0 19880282.505597115 -10864484.295640349 0 -10864484.295640349 6548586.9515557289 0 0 0 0 -138822.18515750766 -14951847.176979303 0 -14951847.176979303 7719032.0398167372 0 0 0 0 -10870072.849700477 -13552409.81220901 0 -13552409.81220901 -1281594.2341942787 0 0 0 0 -5828510.2789200656 6028593.9784986973 0 6028593.9784986973 -12388748.545805693 0 0 0 0 -6145472.0827739574 -3193870.1075379848 0 -3193870.1075379848 15034509.153587222 0 0 0 0 28460248.713142037 -13278951.685255766 0 -13278951.685255766 -3773847.6668975353 0 0 0 0 29271086.29584831 -5754891.8799109608 0 -5754891.8799109608 14469008.828201294 0 0 0 0 13884300.208243489 -7657476.9671192169 0 -7657476.9671192169 24877855.366847515 0 0 0 0 10474718.557788014 463345.75812202692 0 463345.75812202692 -2711611.3085584641 0 0 0 0 25082082.938482046 -19367187.129755855 0 -19367187.129755855 15822710.964917302 0 0 0 0 216474.61674713573 258750.45541582175 0 258750.45541582175 -217196.1835233497 0 0 0 0 -6048575.6712806895 -24942927.890228912 0 -24942927.890228912 -55116770.381422043 0 0 0 0 -10066635.662196398 2087944.2472350597 0 2087944.2472350597 8041123.1129658222 0 0 0 0 434094.60170318926 1019543.1384455444 0 1019543.1384455444 2350126.8450319255 0 0 0 0 -307702.22442436218 14182369.335259676 0 14182369.335259676 20875803.748643041 0 0 0 0 657293.82317974162 1560371.87250632 0 1560371.87250632 1407836.4423055607 0 0 0 0 16251.344689458609 871542.29760086536 0 871542.29760086536 524564.96940499544 0 0 0 0 3854635.4364156723 6888298.3274598122 0 6888298.3274598122 -5177034.6769758463 0 0 0 0 619360.40022982459 533920.52952433319 0 533920.52952433319 1873818.4530527815 0 0 0 0 1774846.3340295553 1277531.3574845791 0 1277531.3574845791 -4270942.5498178005 0 0 0 0 669740.20983909036 818417.15981029079 0 818417.15981029079 -686286.20151581941 0 0 0 0 5626.3285964131355 859228.31802082062 0 859228.31802082062 136021.92834615707 0 0 0 0 599431.93869004515 385284.16303082585 0 385284.16303082585 1494575.6567205794 0 0 0 0 474745.39804492891 542623.38083171844 0 542623.38083171844 1196886.40226686 0 0 0 0 246610.34561452456 941830.00876028836 0 941830.00876028836 771046.44034814835 0 0 0 0 263805.25310632586 3376626.9282902181 0 3376626.9282902181 1356257.3979253769 0 0 0 0 129575.01946265996 559452.55693854392 0 559452.55693854392 1093218.8205330372 0 0 0 0 -478917.60363936424 -10955418.57521069 0 -10955418.57521069 17502738.633813858 0 0 0 0 3108127.7517120093 -11769289.111371636 0 -11769289.111371636 7703953.9668898582 0 0 0 0 -4050839.1151055247 -5609834.8664695024 0 -5609834.8664695024 7937392.5545139313 0 0 0 0 7709236.8520647287 -10352942.134594679 0 -10352942.134594679 8899481.3213977814 0 0 0 0 10056649.91203618 -10191706.692064643 0 -10191706.692064643 7999988.887624383 0 0 0 0 7714055.9545538425 -10317329.269306898 0 -10317329.269306898 8277641.5797977448 0 0 0 0 7789451.4653946757 -7775091.44538939 0 -7775091.44538939 10598991.426135063 0 0 0 0 1966016.9666217566 -11701652.146416664 0 -11701652.146416664 9053010.9050095081 0 0 0 0 2693330.2589276433 -2668200.6382411718 0 -2668200.6382411718 7929023.7560707927 0 0 0 0 609193.91471081588 223167.78715010785 0 223167.78715010785 267172.15508905123 0 0 0 0 347960.41977319121 186412.19986578822 0 186412.19986578822 -237055.34562826157 0 0 0 0 579968.27944918326 630038.34369918786 0 630038.34369918786 165889.69132544677 0 0 0 0 -2645.4687665725942 348370.46077930549 0 348370.46077930549 1282890.1285991399 0 0 0 0 -540.2415144443512 3332293.5492949486 0 3332293.5492949486 2860342.9479999542 0 0 0 0 -3377996.8336081654 351509.96173202991 0 351509.96173202991 36343659.745990634 0 0 0 0 261542.7553359071 327533.01788742887 0 327533.01788742887 429214.32090291724 0 0 0 0 -102561.64743916426 -50550.896537055902 0 -50550.896537055902 523227.89245105983 0 0 0 0 1665939.926505059 -2005065.1348392963 0 -2005065.1348392963 18004157.951394275 0 0 0 0 370375.61300468445 758996.73572540283 0 758996.73572540283 1153972.8209381104 0 0 0 0 -18240.669116271165 -1708.5793674673187 0 -1708.5793674673187 60791.697326836409 0 0 0 0 -83437.50383321321 60254.765564210888 0 60254.765564210888 989599.67460658506 0 0 0 0 -188807.86876189709 -54499.303930908442 0 -54499.303930908442 544608.18221822381 0 0 0 0 -616467.603916049 1482462.7998542786 0 1482462.7998542786 1020423.9040851593 0 0 0 0 -111552.4858635664 -126988.13286206126 0 -126988.13286206126 613237.3087067306 0 0 0 0 222476.28122612031 167024.12214098166 0 167024.12214098166 1102069.8189273193 0 0 0 0 -252131.09545409679 -122740.87462365627 0 -122740.87462365627 591334.02286911011 0 0 0 0 -253845.329428386 -199018.36016048631 0 -199018.36016048631 1725555.2727980022 0 0 0 0 -195521.15480804443 -53110.350638985634 0 -53110.350638985634 590723.71988427639 0 0 0 0 117007.38141495734 514221.29642415047 0 514221.29642415047 2067894.4573624134 0 0 0 0 276887.57569150266 232671.02583021511 0 232671.02583021511 615818.87351074792 0 0 0 0 625526.68052336574 -1003502.926380232 0 -1003502.926380232 -1935168.8623958826 0 0 0 0 -95111.590596407652 -630994.32648867369 0 -630994.32648867369 108528.62155866623 0 0 0 0 -120715.21751049161 -194731.05908319354 0 -194731.05908319354 509100.10077744722 0 0 0 0 -190409.29971969128 -79565.173962593079 0 -79565.173962593079 343079.04050041735 0 0 0 0 -9470.551514059116 119987.95997629268 0 119987.95997629268 903554.43055054848 0 0 0 0 272142.4651418248 -268961.11948764988 0 -268961.11948764988 201569.75608794094 0 0 0 0 -156317.01116991043 927715.34679687023 0 927715.34679687023 1992196.882578373 0 0 0 0 178434.7684905408 1000270.0794401735 0 1000270.0794401735 1993444.2728738196 0 0 0 0 -3523018.2782099247 2481570.1155099869 0 2481570.1155099869 9503427.2801647186 0 0 0 0 376786.84710085392 637495.66108036041 0 637495.66108036041 1081148.1446049809 0 0 0 0 -5183.7878652113868 477610.73040335462 0 477610.73040335462 1656224.6983740553 0 0 0 0 -198969.3535004002 -427037.98785575619 0 -427037.98785575619 6006.5456513613462 0 0 0 0 405256.67532113194 973385.01040136814 0 973385.01040136814 1543428.1230479479 0 0 0 0 180500.89561207592 776778.11091303825 0 776778.11091303825 2010008.1560745239 0 0 0 0 95131.878215250574 349625.24864296539 0 349625.24864296539 1600753.0801236611 0 0 0 0 -50945.913521647453 184559.77826413512 0 184559.77826413512 2213139.8288669586 0 0 0 0 1170713.1134117842 515027.32285779715 0 515027.32285779715 -589603.9258492589 0 0 0 0 1038149.6469348669 -6595194.154978931 0 -6595194.154978931 3202159.8214156628 0 0 0 0 -344537.07426564611 -49920.141796905547 0 -49920.141796905547 2073895.7450630341 0 0 0 0 -11325.620404481888 464889.75449204445 0 464889.75449204445 2168238.3639864922 0 0 0 0 -1092112.2812476158 -3571705.1091163158 0 -3571705.1091163158 -979916.55449068546 0 0 0 0 -325225.92595648766 -219259.97336912155 0 -219259.97336912155 296361.79081726074 0 0 0 0 -49472.041238508245 -161230.57395421961 0 -161230.57395421961 688791.9138352701 0 0 0 0 -316264.95902377681 206187.92142291687 0 206187.92142291687 1531877.5162729686 0 0 0 0 -374890.75695467828 436758.87713863171 0 436758.87713863171 3646199.6066267695 0 0 0 0 -4155515.3478452265 -393868.86575606465 0 -393868.86575606465 -2578774.842124939 0 0 0 0 -305340.10197043419 -210585.35905075073 0 -210585.35905075073 265441.68209457397 0 0 0 0 -264898.49888737936 677036.19749560067 0 677036.19749560067 2972385.5635267026 0 0 0 0 -17107320.081846118 -3718263.3725548387 0 -3718263.3725548387 9970866.7387752533 0 0 0 0 -217858.99508085696 1089095.3378608439 0 1089095.3378608439 3481888.4149001553 0 0 0 0 -147259.35308065341 -586402.20002898504 0 -586402.20002898504 -12140.716484678211 0 0 0 0 -7875173.0289760977 -1757693.2137108203 0 -1757693.2137108203 5646614.6869442463 0 0 0 0 -12322972.301427603 2083483.0845274925 0 2083483.0845274925 -4355795.9287325144 0 0 0 0 -4802740.9553747177 -4532230.2857345343 0 -4532230.2857345343 8039247.7284344435 0 0 0 0 -4861891.0837215185 -3343072.3315881491 0 -3343072.3315881491 5244546.1564151049 0 0 0 0 -7090330.733071208 -3977828.2152808905 0 -3977828.2152808905 19806174.058881998 0 0 0 0 5447064.3717730511 -1387198.0219460651 0 -1387198.0219460651 7260444.5022506714 0 0 0 0 4732911.6884092018 -7505437.9304510728 0 -7505437.9304510728 2650770.6250915527 0 0 0 0 -7158437.069050312 -252460.7241435051 0 -252460.7241435051 -4575568.9523074627 0 0 0 0 -14258188.091917276 -9318095.5050728321 0 -9318095.5050728321 7076278.6476206779 0 0 0 0 -4134465.3522676229 -901259.25674188137 0 -901259.25674188137 3650879.0086789131 0 0 0 0 -11479110.732337236 4181698.6315801218 0 4181698.6315801218 6545699.9529016912 0 0 0 0 -131726.96800876586 429360.72617085441 0 429360.72617085441 493909.31806447334 0 0 0 0 450831.52653021284 385929.5805577212 0 385929.5805577212 83156.095882704074 0 0 0 0 -4085055.8898686171 -2134626.9741082806 0 -2134626.9741082806 -3941345.5058211982 0 0 0 0 -101620.20222915622 428723.86489106365 0 428723.86489106365 767201.0201421997 0 0 0 0 -128078.47556018829 249754.66098970175 0 249754.66098970175 122863.13854122162 0 0 0 0 447211.16336724506 291778.21110798971 0 291778.21110798971 73333.787956352346 0 0 0 0 -2637315.2365842462 2167502.0474265218 0 2167502.0474265218 -293832.81363916397 0 0 0 0 -96979.856128379062 -236672.42323573725 0 -236672.42323573725 915647.94110796694 0 0 0 0 8966498.9175191224 -2022299.9775307178 0 -2022299.9775307178 89905.610805988312 0 0 0 0 2666353.8837980032 -1476096.7593104839 0 -1476096.7593104839 990293.95358192921 0 0 0 0 -80245.562680184841 431701.86320972443 0 431701.86320972443 1127184.7977055907 0 0 0 0 -57621.221188735304 -176982.66345189436 0 -176982.66345189436 191982.90739195986 0 0 0 0 17798308.539286554 -10095640.088281512 0 -10095640.088281512 2136306.221682027 0 0 0 0 482858.60853201151 3806269.2318300605 0 3806269.2318300605 4341726.6628799438 0 0 0 0 6712.2990978956223 -1536868.625970155 0 -1536868.625970155 -7888950.996568203 0 0 0 0 11794135.959483385 -340525.15012061596 0 -340525.15012061596 -8763490.5985341668 0 0 0 0 70829042.558460712 47481758.620382905 0 47481758.620382905 24951777.863601804 0 0 0 0 231608.55529215804 211302.64711675828 0 211302.64711675828 -31882.491680480307 0 0 0 0 52079947.757376194 34116153.799244881 0 34116153.799244881 11314858.172842979 0 0 0 0 -9039403.432123661 -7329966.7835070491 0 -7329966.7835070491 5985376.5665676296 0 0 0 0 20515206.740727901 -3226467.5247834325 0 -3226467.5247834325 -6062980.1856044531 0 0 0 0 15005501.441046476 1164536.5160566121 0 1164536.5160566121 443744.18409660459 0 0 0 0 7769745.6249396801 1198862.1128017306 0 1198862.1128017306 731391.34053635597 0 0 0 0 11003881.08185029 12518099.382420026 0 12518099.382420026 7006216.6123867035 0 0 0 0 -3412770.9799413681 537754.70235160738 0 537754.70235160738 2669644.7280595899 0 0 0 0 22182255.041807175 20717946.306555927 0 20717946.306555927 12600704.398043063 0 0 0 0 -14993763.723599911 6709728.5816882849 0 6709728.5816882849 12365846.206042536 0 0 0 0 -5166512.994355917 22191521.117208123 0 22191521.117208123 36075645.384054124 0 0 0 0 -5671509.8509664536 41316227.367908955 0 41316227.367908955 18628440.567366958 0 0 0 0 27460767.080670357 32567747.759821296 0 32567747.759821296 20705923.595791638 0 0 0 0 20458974.4114151 23229623.241649866 0 23229623.241649866 49905548.191144228 0 0 0 0 23865355.890984058 28270340.210368156 0 28270340.210368156 16748506.853295326 0 0 0 0 32705119.72485733 -27311361.067201376 0 -27311361.067201376 68492593.154571533 0 0 0 0 34000570.498762131 -30960241.340027094 0 -30960241.340027094 -74749806.020886183 0 0 0 0 79762316.528609276 31722039.184780955 0 31722039.184780955 -15459705.008079171 0 0 0 0 55846988.001490593 123127444.88452458 0 123127444.88452458 -255927748.64322835 0 0 0 0 -29886597.338603973 135804425.8124989 0 135804425.8124989 -46218739.43316257 0 0 0 0 -22206478.765010834 90596421.879742503 0 90596421.879742503 59179913.341330379 0 0 0 0 -22367276.166347504 80947119.837201014 0 80947119.837201014 19463952.393111646 0 0 0 0 25469594.6340065 62285400.55705893 0 62285400.55705893 -32256754.912694454 0 0 0 0 -31613231.489516854 110276263.4676422 0 110276263.4676422 64609547.058533072 0 0 0 0 31924312.193653584 -28440291.90854162 0 -28440291.90854162 -11565896.248679996 0 0 0 0 -43147.02890247968 -94525.677402462345 0 -94525.677402462345 632090.25005025265 0 0 0 0 -3486830.7597999573 -9673887.5524311066 0 -9673887.5524311066 19125102.118358731 0 0 0 0 -3614737.1350231171 -1242233.6703654528 0 -1242233.6703654528 10882112.412178397 0 0 0 0 -2681328.1954135895 -9618744.7321572304 0 -9618744.7321572304 19025086.83556366 0 0 0 0 -3822500.2296085358 -13489110.443479598 0 -13489110.443479598 13730379.703210831 0 0 0 0 -3965542.4279880524 -3016906.8434154987 0 -3016906.8434154987 1092446.7032613845 0 0 0 0 -2322636.1723206043 -20780471.698084474 0 -20780471.698084474 33339788.742794514 0 0 0 0 -7138381.1790018082 -17991709.768708766 0 -17991709.768708766 46053777.948613524 0 0 0 0 -666628.18072319031 -132385777.05218595 0 -132385777.05218595 -176546564.66346359 0 0 0 0 -12642030.595653534 -23417756.042287588 0 -23417756.042287588 47164696.108601332 0 0 0 0 -27407761.273397446 -37079247.945227027 0 -37079247.945227027 81797025.194763541 0 0 0 0 -45661362.416531563 74069985.934764385 0 74069985.934764385 169578227.89348435 0 0 0 0 -56636770.535603523 4493811.5102387965 0 4493811.5102387965 226225744.95563754 0 0 0 0 -3316379.5820660591 51564787.466659375 0 51564787.466659375 49868293.818941593 0 0 0 0 -43433963.998379707 28383793.041677535 0 28383793.041677535 38476517.365740657 0 0 0 0 -44403444.245080948 41549931.129718959 0 41549931.129718959 126323196.46606612 0 0 0 0 -46875409.185718536 85631516.923948452 0 85631516.923948452 61958547.647043467 0 0 0 0 -55629737.511615276 22626140.041112244 0 22626140.041112244 101023319.20123971 0 0 0 0 16438140.423763871 -10623077.710591406 0 -10623077.710591406 -11758860.336462021 0 0 0 0 929713.79509613826 -581157.20801839232 0 -581157.20801839232 397760.69442176266 0 0 0 0 -11549068.522541165 -42198100.671435177 0 -42198100.671435177 -9076698.21678859 0 0 0 0 -40832559.678612709 -71931210.547316909 0 -71931210.547316909 115777992.8078358 0 0 0 0 797782.25874042511 -5943518.6539957523 0 -5943518.6539957523 -7043570.4144463539 0 0 0 0 76111913.777501583 21325350.945907757 0 21325350.945907757 -57309792.709370852 0 0 0 0 -41981663.715208054 -70590831.032016277 0 -70590831.032016277 171908932.29764801 0 0 0 0 -119575.88129472733 2067661.9865111113 0 2067661.9865111113 9668461.4304219484 0 0 0 0 -4605409.2415364385 -6655284.3552728295 0 -6655284.3552728295 3162727.4603900909 0 0 0 0 -3350689.5256487504 773001.56467662752 0 773001.56467662752 15749787.311994433 0 0 0 0 8830942.3018747568 18853886.91255039 0 18853886.91255039 8206625.6991341114 0 0 0 0 -8655181.1839373112 2660798.8132995367 0 2660798.8132995367 45561768.344116032 0 0 0 0 -26611057.824490905 6834430.5211684704 0 6834430.5211684704 2023711.3280506134 0 0 0 0 16561.554889159823 -179085.79402825845 0 -179085.79402825845 987768.58963643201 0 0 0 0 -6011082.5320090055 11123908.123822093 0 11123908.123822093 9802367.2152221799 0 0 0 0 -9021119.446870923 -1456865.871481061 0 -1456865.871481061 3075708.6441147327 0 0 0 0 -10567220.722933978 4093800.0879708827 0 4093800.0879708827 -1039275.8440856934 0 0 0 0 962771.67161011696 5553444.1504768729 0 5553444.1504768729 -11611148.613556266 0 0 0 0 5266865.8982555866 10627318.200262815 0 10627318.200262815 -8036745.8246377707 0 0 0 0 384463.69385777239 -458694.91952991812 0 -458694.91952991812 707630.64598190784 0 0 0 0 25566763.120815754 50061386.520825028 0 50061386.520825028 64211966.315087318 0 0 0 0 43181354.225532055 36175261.464955568 0 36175261.464955568 21760859.899144396 0 0 0 0 97538674.216754794 33324023.050137758 0 33324023.050137758 95826.215444087982 0 0 0 0 54067323.164589643 53692302.502005577 0 53692302.502005577 49180305.058377743 0 0 0 0 48655251.259263039 55983793.261371374 0 55983793.261371374 49279410.608095869 0 0 0 0 115770075.72221327 136791762.41445363 0 136791762.41445363 146370139.73859787 0 0 0 0 -2301974.4709758759 25009681.70506227 0 25009681.70506227 61093738.935294151 0 0 0 0 22125631.489032745 68050027.175007224 0 68050027.175007224 136308235.77154207 0 0 0 0 -14198370.240283728 -27559321.501539588 0 -27559321.501539588 127190820.35239577 0 0 0 0 -8655968.0576412678 -17324958.918204665 0 -17324958.918204665 58837356.239133835 0 0 0 0 32989671.937802792 20705569.540798306 0 20705569.540798306 87890342.883364588 0 0 0 0 -78913879.857313871 -30677534.039412975 0 -30677534.039412975 107139203.37653029 0 0 0 0 80201278.528632879 -62559370.461332798 0 -62559370.461332798 234588132.81930923 0 0 0 0 13678038.228044033 81998682.080139637 0 81998682.080139637 317547323.87984908 0 0 0 0 510381.50324507337 -91195.908755172568 0 -91195.908755172568 -87432.499524316168 0 0 0 0 165551648.83129162 130389741.49169014 0 130389741.49169014 65161883.097518802 0 0 0 0 8938718.5029486418 47712284.304485634 0 47712284.304485634 107948730.73221064 0 0 0 0 -4355135.7024230957 15617065.008660197 0 15617065.008660197 15601736.311466217 0 0 0 0 64528549.458276272 -37507211.328225851 0 -37507211.328225851 -10513521.077496409 0 0 0 0 169644557.22630572 38734756.415387064 0 38734756.415387064 1332691.7668914795 0 0 0 0 56579760.799494982 -7573482.5891692638 0 -7573482.5891692638 -2871055.3892509639 0 0 0 0 12518746.515525222 -10973328.994466662 0 -10973328.994466662 15077722.484706402 0 0 0 0 46833815.112763882 3351939.878420949 0 3351939.878420949 997214.90782594681 0 0 0 0 -1242999.5998319387 2789975.2941277027 0 2789975.2941277027 1588092.8407754898 0 0 0 0 -1463735.2245366573 3979673.3825647831 0 3979673.3825647831 7660253.1604670286 0 0 0 0 2312938.4699084759 -5482903.0670948029 0 -5482903.0670948029 10079782.351045728 0 0 0 0 -5119254.3074586242 2767046.3022596836 0 2767046.3022596836 3827502.9725749493 0 0 0 0 -515826.09046816826 214766.67806482315 0 214766.67806482315 -1032666.2394695282 0 0 0 0 3881028.9915702194 157500.38404369354 0 157500.38404369354 -1709400.9996232986 0 0 0 0 -230921.63595120487 396803.7893749564 0 396803.7893749564 313882.28557389951 0 0 0 0 -5070112.1767030731 2275484.2878406569 0 2275484.2878406569 566144.0018696785 0 0 0 0 2115014.5758135314 -19674.746290744486 0 -19674.746290744486 -632118.47092356253 0 0 0 0 -4313737.9620569944 4716316.459866941 0 4716316.459866941 -23364.414698600769 0 0 0 0 1528237.6492297649 2658571.6338994503 0 2658571.6338994503 -5488549.9242986441 0 0 0 0 5699222.0580465794 11965239.485111952 0 11965239.485111952 -21937870.458695054 0 0 0 0 -4942015.7862947285 3824814.2800133824 0 3824814.2800133824 2049090.1300954819 0 0 0 0 1375255.0805083273 -61368.33076411605 0 -61368.33076411605 -285218.10040123586 0 0 0 0 4428319.4352660179 38833651.814513087 0 38833651.814513087 125816899.63267592 0 0 0 0 3408441.7329872251 64623462.56133204 0 64623462.56133204 96674748.842863679 0 0 0 0 3860887.7847356796 61169167.022753298 0 61169167.022753298 123047062.83053863 0 0 0 0 13401541.268939972 71184418.956878901 0 71184418.956878901 84343166.426583886 0 0 0 0 22415508.268184662 112924808.73160654 0 112924808.73160654 85678649.080918312 0 0 0 0 9494956.6968574524 59348615.961667895 0 59348615.961667895 48610553.503576636 0 0 0 0 7317989.454890728 10636680.285605192 0 10636680.285605192 18090666.304042518 0 0 0 0 -2123480.9696733952 16337501.88097623 0 16337501.88097623 65598051.667269945 0 0 0 0 36607462.009651184 58736898.931680739 0 58736898.931680739 -2360986.7091295719 0 0 0 0 22635548.128184557 17486081.750248551 0 17486081.750248551 12192985.889008403 0 0 0 0 -3140034.8534011841 -3028198.3240993023 0 -3028198.3240993023 8248205.4795356989 0 0 0 0 1248201.5665323175 -127780.96787923574 0 -127780.96787923574 -356564.05007362366 0 0 0 0 777772.43909142702 498321.13516651781 0 498321.13516651781 -186517.90066615399 0 0 0 0 -12253589.435277939 -21404068.955367744 0 -21404068.955367744 -31234781.601375997 0 0 0 0 315990.88498727139 -226905.85381389488 0 -226905.85381389488 -285495.23058690951 0 0 0 0 16583494.699660301 7486411.0038439035 0 7486411.0038439035 -7048045.7405570745 0 0 0 0 11011447.949804306 14452832.840167761 0 14452832.840167761 13525472.654163361 0 0 0 0 189275321.47742605 236091887.55309072 0 236091887.55309072 1071902.6948376894 0 0 0 0 50235096.885011673 83976507.465155661 0 83976507.465155661 34381003.296761274 0 0 0 0 263413.43542713369 130793.86706691154 0 130793.86706691154 -172934.93841705273 0 0 0 0 84414818.152177691 10857825.066629305 0 10857825.066629305 -125576260.04500246 0 0 0 0 24017467.541433215 110974515.77723123 0 110974515.77723123 11308256.160351753 0 0 0 0 67940295.705593348 -26075001.089829803 0 -26075001.089829803 -87548235.119046926 0 0 0 0 60480993.923105001 23196491.920295477 0 23196491.920295477 -137843745.0858922 0 0 0 0 253349903.96175051 -132159562.56043053 0 -132159562.56043053 -12918130.13786447 0 0 0 0 -11243589.456285954 -12761613.732009292 0 -12761613.732009292 1137792.6282709837 0 0 0 0 2166506.9862744808 2269052.5439033508 0 2269052.5439033508 1024074.0441083908 0 0 0 0 1784311.9941895697 491641.48755760421 0 491641.48755760421 698587.99547882564 0 0 0 0 -557088.38192725182 48264384.79484278 0 48264384.79484278 -38730444.991403103 0 0 0 0 1623193.1321545243 1904292.7035355568 0 1904292.7035355568 1191964.9982624054 0 0 0 0 2344473.6461334229 2131722.6269378662 0 2131722.6269378662 1050821.8393087387 0 0 0 0 1267916.9018874168 2336903.6496353149 0 2336903.6496353149 1418030.675535202 0 0 0 0 2347549.8321185112 2406479.8532123566 0 2406479.8532123566 1245224.5017056465 0 0 0 0 4043488.9503240585 2591599.70408535 0 2591599.70408535 406810.4804110527 0 0 0 0 3605419.2518681288 1521634.0830636024 0 1521634.0830636024 1265826.7965612411 0 0 0 0 58268.599524987978 -169889.93590970268 0 -169889.93590970268 -82501.780591421179 0 0 0 0 2343295.9541089535 2634035.402179718 0 2634035.402179718 3445134.4907531738 0 0 0 0 1335723.0666224957 1490900.7348399162 0 1490900.7348399162 2218317.8119106293 0 0 0 0 1641543.976535216 613080.77875590324 0 613080.77875590324 -47570.754219055176 0 0 0 0 521231.54462119471 1329103.7612353489 0 1329103.7612353489 179658.76501671528 0 0 0 0 3711393.0016803145 2213532.5348882675 0 2213532.5348882675 142425.38928985596 0 0 0 0 -29060.432409850728 -10656.52936967602 0 -10656.52936967602 5090.4718370861374 0 0 0 0 5202490.9311891794 2350808.7659115791 0 2350808.7659115791 276584.04125785828 0 0 0 0 4716844.8282883167 3303633.6216535568 0 3303633.6216535568 1449705.9371547699 0 0 0 0 3624190.329556942 2023497.1073789597 0 2023497.1073789597 27186.194531440735 0 0 0 0 4327249.8641952276 2506280.472946167 0 2506280.472946167 241464.6015920639 0 0 0 0 4107356.4410492182 2626249.6713809967 0 2626249.6713809967 181075.75057220459 0 0 0 0 4117747.1707811356 2399944.0175664425 0 2399944.0175664425 407051.46336746216 0 0 0 0 4309566.633190155 2536600.7133126259 0 2536600.7133126259 492452.7335319519 0 0 0 0 4104659.3253191113 2713882.1645493507 0 2713882.1645493507 1352484.1769285202 0 0 0 0 3876548.2618677095 1740262.4264622927 0 1740262.4264622927 1390184.0222415924 0 0 0 0 -176506.06539010518 886261.27413507947 0 886261.27413507947 385240.68746369146 0 0 0 0 4075357.9503052235 2374307.3743581772 0 2374307.3743581772 792176.11918926239 0 0 0 0 4032762.160050869 2596203.2312250137 0 2596203.2312250137 735111.22689628601 0 0 0 0 4342481.3250807524 2498346.0844955444 0 2498346.0844955444 763274.30491161346 0 0 0 0 3823544.4466652125 2500296.3275241852 0 2500296.3275241852 930790.18223571777 0 0 0 0 4092636.2376697659 2527791.8056259155 0 2527791.8056259155 287033.40148353577 0 0 0 0 3975663.8344283104 2217909.6347398758 0 2217909.6347398758 1436339.7875537872 0 0 0 0 4566647.2596175075 1490380.4516093731 0 1490380.4516093731 936886.68360710144 0 0 0 0 4780785.3307071328 2215991.6883811951 0 2215991.6883811951 1426729.9443893433 0 0 0 0 4342085.3729121089 2037444.6192789078 0 2037444.6192789078 2101924.329618454 0 0 0 0 3399059.0580599308 2472475.950937748 0 2472475.950937748 3422412.497897156 0 0 0 0 4503316.7908753753 2538353.5156245232 0 2538353.5156245232 1389465.4856472015 0 0 0 0 4287733.888544023 2294675.919418335 0 2294675.919418335 2388457.6702537537 0 0 0 0 3408410.2498877048 1648926.8768072128 0 1648926.8768072128 1333834.184751749 0 0 0 0 3402115.6815221459 2547382.6710591167 0 2547382.6710591167 3438019.5617733002 0 0 0 0 3033849.6639568806 2782940.0130729675 0 2782940.0130729675 -1346693.7123470306 0 0 0 0 4080872.3117754459 2375569.6229934692 0 2375569.6229934692 533573.39029359818 0 0 0 0 3388267.6333289146 3189676.7868440151 0 3189676.7868440151 326129.84787082672 0 0 0 0 2245478.3620941639 3792104.1047430038 0 3792104.1047430038 8387649.2425384521 0 0 0 0 1056732.4451282024 4230870.9877128601 0 4230870.9877128601 8225954.4104242325 0 0 0 0 1449368.6654863358 3927203.3083357811 0 3927203.3083357811 7132908.3782787323 0 0 0 0 4125345.3194726775 4647264.6313065588 0 4647264.6313065588 6002145.661989212 0 0 0 0 2276731.6523122787 5204747.7524814606 0 5204747.7524814606 9062417.6038894653 0 0 0 0 750431.20862579346 2145004.5493459702 0 2145004.5493459702 10969588.034692764 0 0 0 0 139659.36815667152 -1851565.8055205345 0 -1851565.8055205345 3201245.4889736176 0 0 0 0 1135741.5206848979 1795244.4374530315 0 1795244.4374530315 5973860.0036621094 0 0 0 0 3473654.0885493755 2562260.0942687988 0 2562260.0942687988 3439306.8702875376 0 0 0 0 3489208.2767014503 2486608.2379922867 0 2486608.2379922867 3422406.7134746579 0 0 0 0 4109613.4814634323 3710554.3490886688 0 3710554.3490886688 5342796.3589897156 0 0 0 0 4124418.5685727596 2701207.9315338135 0 2701207.9315338135 5222343.8329000473 0 0 0 0 5564528.8320447206 2335996.1538174152 0 2335996.1538174152 -99219.957147598267 0 0 0 0 5061174.6228073835 3874730.3021335602 0 3874730.3021335602 3359621.374994278 0 0 0 0 5886361.3287567794 3084652.440032959 0 3084652.440032959 1067566.3405170441 0 0 0 0 5114855.290573746 5074691.2147321701 0 5074691.2147321701 7022851.4358358383 0 0 0 0 6196843.0223557353 3282311.8377923965 0 3282311.8377923965 5283215.9552259445 0 0 0 0 2535583.0200607777 3306226.5897922516 0 3306226.5897922516 5967234.4413614273 0 0 0 0 3117735.3681722879 6444898.3618392944 0 6444898.3618392944 9994018.0459165573 0 0 0 0 2696073.1297588348 5357867.6057882309 0 5357867.6057882309 8023109.8340091705 0 0 0 0 8461801.3625150174 6396519.0171015263 0 6396519.0171015263 5746412.1472873688 0 0 0 0 -301663.23381054401 3268359.2825903893 0 3268359.2825903893 7991411.9079799652 0 0 0 0 -956539.36535358429 1410939.1966648102 0 1410939.1966648102 7876225.6967699528 0 0 0 0 720638.58273100853 1429337.6089801788 0 1429337.6089801788 4781253.2413539886 0 0 0 0 1840956.6972430944 3504922.3127017021 0 3504922.3127017021 7374920.9601078033 0 0 0 0 3317656.568887949 3128589.884431839 0 3128589.884431839 3429669.1277217865 0 0 0 0 -154713.8449320849 184148.52653201018 0 184148.52653201018 1191403.6204610416 0 0 0 0 652314.80524799658 2030759.7121691045 0 2030759.7121691045 6391418.5923843384 0 0 0 0 2367704.7465858459 1117365.0523014069 0 1117365.0523014069 3090848.1812820435 0 0 0 0 -575143.59675835178 309843.35938939545 0 309843.35938939545 1706122.1505014582 0 0 0 0 -2882543.9099270701 4717835.1588230133 0 4717835.1588230133 3017647.8291654587 0 0 0 0 2034696.45530954 3192784.6307368279 0 3192784.6307368279 6505288.6500051022 0 0 0 0 -2210711.2354612849 4982781.5428138822 0 4982781.5428138822 350511.30192756653 0 0 0 0 -112540.3323328197 820475.3071436882 0 820475.3071436882 1942448.0254154205 0 0 0 0 -827759.74948913604 4459155.2651882172 0 4459155.2651882172 -4844931.6679449081 0 0 0 0 332473.96472361684 7444679.0926961899 0 7444679.0926961899 -3445116.4005191326 0 0 0 0 -1238625.2639267743 15458190.309520245 0 15458190.309520245 -15943080.68614769 0 0 0 0 -2879739.661813736 13841446.466983795 0 13841446.466983795 -15924658.305230618 0 0 0 0 2590049.5389309227 379490.21877479553 0 379490.21877479553 -9528608.4538149834 0 0 0 0 -2528433.4687210321 4668229.8056211472 0 4668229.8056211472 7432820.6671237946 0 0 0 0 -130934.26788271667 -1508.6531477656681 0 -1508.6531477656681 453019.46326315799 0 0 0 0 -2433470.3349446654 5959645.6174764633 0 5959645.6174764633 9072833.6735916138 0 0 0 0 2534287.0933754742 12327897.689899683 0 12327897.689899683 13685297.085453033 0 0 0 0 29924149.57492125 25687506.306947708 0 25687506.306947708 11253592.927571297 0 0 0 0 1655760.2278103828 3265623.1824512482 0 3265623.1824512482 7525717.3098669052 0 0 0 0 -2924268.761868 -7590879.0917701721 0 -7590879.0917701721 7970590.9201276302 0 0 0 0 -213213.94090531935 262648.79789996101 0 262648.79789996101 340400.66717078444 0 0 0 0 7550058.0618048906 25408388.175034463 0 25408388.175034463 29890011.355611801 0 0 0 0 -36168955.114156842 5375921.9764027596 0 5375921.9764027596 42515966.402124405 0 0 0 0 -277395.19427622319 23869.418128355406 0 23869.418128355406 575311.10680489475 0 0 0 0 2136773.880444169 5472970.5384795666 0 5472970.5384795666 -28167980.624059677 0 0 0 0 1657522.200201869 16870708.338807106 0 16870708.338807106 -24552328.034747601 0 0 0 0 15429891.54989019 15335277.829820156 0 15335277.829820156 -9343078.973906517 0 0 0 0 2597252.7497925758 -11639291.458090305 0 -11639291.458090305 -25201394.800734997 0 0 0 0 17167372.478809237 26153552.534815907 0 26153552.534815907 27414758.460681915 0 0 0 0 43315185.065124273 14660439.164577484 0 14660439.164577484 -52015254.865932465 0 0 0 0 -686171.36951694137 437462.50915283384 0 437462.50915283384 315648.22507827263 0 0 0 0 -2222686.540477097 753293.35850310326 0 753293.35850310326 4111318.2525110245 0 0 0 0 4256542.5908562616 6770829.89874053 0 6770829.89874053 2234030.2829914093 0 0 0 0 7464478.471381247 8871160.0421769619 0 8871160.0421769619 9901361.664100647 0 0 0 0 16338813.399940729 6469636.8075685501 0 6469636.8075685501 7863312.9058446884 0 0 0 0 -235631.54182546333 32402.920248109614 0 32402.920248109614 221910.57443988603 0 0 0 0 1228262.4714784622 316683.32340335846 0 316683.32340335846 -924286.17520904541 0 0 0 0 3467819.1314034462 4647639.5087305009 0 4647639.5087305009 1240725.7095546722 0 0 0 0 -406866.77117659064 893240.11525594327 0 893240.11525594327 333084.19390641898 0 0 0 0 -2900365.4340598583 -8960162.8113794327 0 -8960162.8113794327 2360252.3148107529 0 0 0 0 -584301.2109506405 238244.78738367488 0 238244.78738367488 607847.19292717427 0 0 0 0 2786102.3124164939 -2114734.8487684727 0 -2114734.8487684727 -3364252.3655538559 0 0 0 0 -4397581.0861237049 410892.02420341969 0 410892.02420341969 6012666.6650743484 0 0 0 0 17264425.356947295 2250749.1872132309 0 2250749.1872132309 4280272.1776566505 0 0 0 0 9217287.2417802811 5825669.2885220051 0 5825669.2885220051 -484305.31650543213 0 0 0 0 33611452.676881313 -673030.42396736145 0 -673030.42396736145 -169829.0929017067 0 0 0 0 17483298.239295244 -2990038.8370261192 0 -2990038.8370261192 2572194.3828496933 0 0 0 0 49634278.769279957 9940591.3908126354 0 9940591.3908126354 -5681963.6526622772 0 0 0 0 37620315.260854244 16748004.630926371 0 16748004.630926371 2109543.2957391739 0 0 0 0 24045560.506622076 9449088.7376964092 0 9449088.7376964092 -866641.94828724861 0 0 0 0 2428311.3793998361 -6947277.0743616819 0 -6947277.0743616819 -4593584.6493844986 0 0 0 0 21341004.48101759 -1032057.7372403145 0 -1032057.7372403145 -3748736.3795216084 0 0 0 0 -599475.48133044667 129463.89836652298 0 129463.89836652298 621685.84742853558 0 0 0 0 -4998141.889064312 6561523.489027977 0 6561523.489027977 7243000.8260650635 0 0 0 0 -647933.01111344527 314883.34196180338 0 314883.34196180338 364176.21794108395 0 0 0 0 13667261.496655941 16218530.729790688 0 16218530.729790688 -1114847.1843032837 0 0 0 0 8405281.6460375786 21137480.500196457 0 21137480.500196457 8276932.2562146187 0 0 0 0 10251169.000842929 -3552990.603355974 0 -3552990.603355974 -14979486.944048882 0 0 0 0 35336975.515295506 24709668.413925886 0 24709668.413925886 620963.2785282135 0 0 0 0 -331540.1893365538 48016.659593467368 0 48016.659593467368 343599.07619706355 0 0 0 0 -7958052.2190096378 -13655840.493762881 0 -13655840.493762881 -7828388.8090229034 0 0 0 0 35878946.931914806 26470586.875221014 0 26470586.875221014 -8768408.1636953354 0 0 0 0 6102227.2133898735 27311149.020531654 0 27311149.020531654 -8120550.9934148788 0 0 0 0 37635192.091023207 24545258.86057806 0 24545258.86057806 -8434538.2552747726 0 0 0 0 39764498.687152863 25948781.359792233 0 25948781.359792233 -16188117.495480061 0 0 0 0 40731107.912547112 21452817.666637897 0 21452817.666637897 -6960869.8614538908 0 0 0 0 39834566.317176819 23917812.724041939 0 23917812.724041939 -5073325.7717528939 0 0 0 0 35509988.453576803 26223135.050559998 0 26223135.050559998 -5213849.960609436 0 0 0 0 51843972.666233063 18130443.111054897 0 18130443.111054897 -6257656.4600663185 0 0 0 0 36691135.262464046 19524570.381654143 0 19524570.381654143 -6186908.4505720139 0 0 0 0 56590349.900432587 16025762.78840971 0 16025762.78840971 -5784899.4421741962 0 0 0 0 44344452.512007713 16340923.82347858 0 16340923.82347858 -2715344.6870422363 0 0 0 0 37805652.944840431 36248276.092305183 0 36248276.092305183 21776271.000410616 0 0 0 0 62198459.658275008 33460696.178656995 0 33460696.178656995 59601.780281066895 0 0 0 0 37428164.595948696 33860690.889671087 0 33860690.889671087 10606569.929943085 0 0 0 0 41136565.398965836 26527438.002001524 0 26527438.002001524 10566.892426490784 0 0 0 0 101272032.87499523 -49892760.092595577 0 -49892760.092595577 -23106905.866244316 0 0 0 0 79066795.028746605 -55107291.119197845 0 -55107291.119197845 -2018391.750743866 0 0 0 0 34128253.992860317 3379292.9216690063 0 3379292.9216690063 -45064925.644266129 0 0 0 0 96923044.412501335 24376952.536167145 0 24376952.536167145 -40165534.0210495 0 0 0 0 53478497.951425254 24087913.110637903 0 24087913.110637903 -3629718.4332771301 0 0 0 0 1167738.6556898234 -231776.50668706978 0 -231776.50668706978 -318101.61175384256 0 0 0 0 16339070.894969691 55464421.765506327 0 55464421.765506327 -85884378.618145943 0 0 0 0 129922241.59869325 -30229354.165505648 0 -30229354.165505648 -63190003.976764679 0 0 0 0 5584829.7010526657 -40246818.213444233 0 -40246818.213444233 2859075.8647127151 0 0 0 0 24347844.539226532 22423504.044691563 0 22423504.044691563 87026181.67915678 0 0 0 0 546157.26150396303 -212025.565734362 0 -212025.565734362 -220203.64156987146 0 0 0 0 49960866.358309746 26921720.212699413 0 26921720.212699413 -18276496.672627449 0 0 0 0 99059367.387847677 58066071.755550817 0 58066071.755550817 1466663.2819805145 0 0 0 0 43743002.514457107 44333192.675190926 0 44333192.675190926 -8416978.6220626831 0 0 0 0 9495937.6463558674 46818630.668926239 0 46818630.668926239 1097259.8406529427 0 0 0 0 18484500.997625887 -2702485.2462660074 0 -2702485.2462660074 -19992428.216563225 0 0 0 0 -7459887.2226536274 25489723.104930878 0 25489723.104930878 -5937868.2594108582 0 0 0 0 -26675194.798644781 -16432305.899720669 0 -16432305.899720669 37999433.425297737 0 0 0 0 -343720.33649765153 132616.95286849653 0 132616.95286849653 230891.97847922146 0 0 0 0 -23707543.793949127 22641972.607858658 0 22641972.607858658 9233147.1098239422 0 0 0 0 10883846.914210558 -176208.80155277252 0 -176208.80155277252 -5304986.3525512218 0 0 0 0 4388383.0887217522 -13160637.027392864 0 -13160637.027392864 -30334652.175898552 0 0 0 0 10967108.620859504 3102897.8466994762 0 3102897.8466994762 -1034164.052947998 0 0 0 0 11873196.64715457 9269288.3693547249 0 9269288.3693547249 -37320514.602213383 0 0 0 0 1419714.1220736492 -13215.265161727089 0 -13215.265161727089 -177203.64267419511 0 0 0 0 -2245758.9157521725 5559308.9154934883 0 5559308.9154934883 22272301.652934074 0 0 0 0 -31459252.39953351 50571437.074633121 0 50571437.074633121 -15220446.092185974 0 0 0 0 62167840.874053001 50772917.020412445 0 50772917.020412445 -17819304.936665535 0 0 0 0 -68027.337767171135 573001.28422178701 0 573001.28422178701 1253144.3062990671 0 0 0 0 -34070242.390133217 42590847.372769713 0 42590847.372769713 -25672010.951067924 0 0 0 0 -99363835.106883138 31653847.540187836 0 31653847.540187836 1692624.634645462 0 0 0 0 -47312764.011682719 -138256183.53199553 0 -138256183.53199553 281077744.52021217 0 0 0 0 848307.8042572866 16020.702261339407 0 16020.702261339407 92410.588407799369 0 0 0 0 123279079.56668578 117279069.13534307 0 117279069.13534307 -107386645.71091652 0 0 0 0 -54657989.279375553 69818128.31406498 0 69818128.31406498 116001834.96696472 0 0 0 0 354292.60603206302 5742.2424420458265 0 5742.2424420458265 18877.144096718635 0 0 0 0 15929502.32907315 -7682901.6143114567 0 -7682901.6143114567 332504.56814861298 0 0 0 0 15160701.933015466 -5304026.5564689636 0 -5304026.5564689636 2014139.9100942612 0 0 0 0 7129146.3340409994 9814030.0214748383 0 9814030.0214748383 -1333907.3909196854 0 0 0 0 17512.037957170513 512252.85849230946 0 512252.85849230946 458913.99260645639 0 0 0 0 12197623.046654463 -1483825.4409375191 0 -1483825.4409375191 -820788.86601686478 0 0 0 0 12430051.268409848 -1126808.1906781197 0 -1126808.1906781197 -18674981.709986687 0 0 0 0 -50932.468244564254 216046.04490445484 0 216046.04490445484 192004.40503825527 0 0 0 0 14295317.841511905 -708824.46945548058 0 -708824.46945548058 -18876517.721663475 0 0 0 0 -4880767.1888263524 15955691.705082178 0 15955691.705082178 -15131321.094675064 0 0 0 0 2521956.3990995288 9430007.290119648 0 9430007.290119648 -9720053.0508708954 0 0 0 0 25170000.90237093 12372440.57655549 0 12372440.57655549 -14205226.380570412 0 0 0 0 15029008.162808169 17251435.950762987 0 17251435.950762987 -25622813.194642067 0 0 0 0 23409180.841849208 1168930.5189495087 0 1168930.5189495087 -2179592.1692438126 0 0 0 0 3295609.1676323786 18474692.391896248 0 18474692.391896248 -11151743.966842949 0 0 0 0 97625.215093880892 20845985.584889412 0 20845985.584889412 -11330926.354389787 0 0 0 0 5564299.9994845986 17920707.371268272 0 17920707.371268272 -15644633.557315826 0 0 0 0 -8401488.1711225212 14654279.943402767 0 14654279.943402767 -7542845.6214923859 0 0 0 0 -24585419.033944011 25065143.711889267 0 25065143.711889267 -4744219.1710214615 0 0 0 0 -438322.91538903117 24592947.264322639 0 24592947.264322639 -6104570.6146039963 0 0 0 0 -95515319.74052164 41702085.203362465 0 41702085.203362465 2894926.3568325043 0 0 0 0 5338184.6255000085 65353078.928256392 0 65353078.928256392 -20939910.958490372 0 0 0 0 58395810.659340233 -8264495.4369182587 0 -8264495.4369182587 -13789574.00328064 0 0 0 0 91974866.373095334 52324670.335888624 0 52324670.335888624 -21557084.671369553 0 0 0 0 71963015.764176548 -43532873.541880608 0 -43532873.541880608 21417035.131603241 0 0 0 0 -186245351.61773461 24281913.602654457 0 24281913.602654457 109637176.54556656 0 0 0 0 57876841.83872398 -39498322.014468551 0 -39498322.014468551 -15430950.571818352 0 0 0 0 93166515.974010974 47138800.620499492 0 47138800.620499492 66342485.972249985 0 0 0 0 27378431.805872709 -36424118.25146246 0 -36424118.25146246 -1832946.7717022896 0 0 0 0 93276690.278078526 -91769784.567737818 0 -91769784.567737818 32312486.864400864 0 0 0 0 -171737435.93269181 -52087268.25309515 0 -52087268.25309515 38885906.933523178 0 0 0 0 142295153.03565139 -241010163.43679237 0 -241010163.43679237 99475452.614343643 0 0 0 0 57948558.449215353 21427801.48124969 0 21427801.48124969 -21207707.254480362 0 0 0 0 -116990014.17644681 -240476516.63046932 0 -240476516.63046932 943925518.50220203 0 0 0 0 112324246.75355504 -337494691.84507275 0 -337494691.84507275 428606221.61115074 0 0 0 0 -139466759.0574086 -29030042.615753531 0 -29030042.615753531 942084057.11703205 0 0 0 0 -133394468.31132014 -70185456.066452026 0 -70185456.066452026 476220892.23022175 0 0 0 0 -8586848.0960686505 -106688805.47042465 0 -106688805.47042465 160085570.02090549 0 0 0 0 -43647814.41461356 139511027.84485126 0 139511027.84485126 -129462995.63880348 0 0 0 0 -8953.7976534740192 -36986.974948199 0 -36986.974948199 1390376.0405434491 0 0 0 0 -66036485.998089805 152474963.10301685 0 152474963.10301685 209908663.61234367 0 0 0 0 -49683016.654188581 -313136234.21369362 0 -313136234.21369362 944843786.22892857 0 0 0 0 -57031270.928531937 -163675528.89002991 0 -163675528.89002991 375332220.47817612 0 0 0 0 -97235256.872059971 47646413.156434536 0 47646413.156434536 81055058.750833511 0 0 0 0 -43851326.253923833 -22206266.353573322 0 -22206266.353573322 41386570.069543839 0 0 0 0 -77030852.600910842 11520178.367340565 0 11520178.367340565 20330448.842924118 0 0 0 0 -56751435.072288074 -34932968.026145935 0 -34932968.026145935 66665207.046058655 0 0 0 0 22609441.703585401 -51109460.247426987 0 -51109460.247426987 50287472.152251244 0 0 0 0 -82681114.702851802 32411551.256361246 0 32411551.256361246 221757683.68140602 0 0 0 0 -59472079.960281372 -66178195.448266029 0 -66178195.448266029 166912300.96269798 0 0 0 0 -66166475.433182687 -101075404.94659042 0 -101075404.94659042 27147442.45599556 0 0 0 0 -105947.64813705784 14626.977473330451 0 14626.977473330451 768532.64894171152 0 0 0 0 313697600.53423399 363448356.59700108 0 363448356.59700108 15861064.796020508 0 0 0 0 -37452387.415045261 62023231.519961357 0 62023231.519961357 -27954050.656303406 0 0 0 0 -36106530.967823654 52463101.691517949 0 52463101.691517949 34749478.971942902 0 0 0 0 25886334.311782598 32234958.33482933 0 32234958.33482933 7338304.9785461426 0 0 0 0 33063871.094127417 18681326.3838377 0 18681326.3838377 132409202.58850861 0 0 0 0 47743567.267170191 88310517.862436295 0 88310517.862436295 141424007.78583908 0 0 0 0 -74767045.126051664 -60349335.308521271 0 -60349335.308521271 -58051480.116738796 0 0 0 0 -66807325.688613176 2776179.3953914642 0 2776179.3953914642 158484617.44836426 0 0 0 0 -181006578.16185558 -83914814.445058823 0 -83914814.445058823 243744856.61201477 0 0 0 0 -110034851.27366638 -73751495.627771378 0 -73751495.627771378 97202002.901000977 0 0 0 0 -68207736.404966116 34293504.318939209 0 34293504.318939209 326365629.58014297 0 0 0 0 -102207101.14329076 -149036671.93200111 0 -149036671.93200111 237924398.8111763 0 0 0 0 -117635371.43678057 -96164372.360630035 0 -96164372.360630035 64311716.955135345 0 0 0 0 168353155.24444619 200677448.87079191 0 200677448.87079191 138686185.90187836 0 0 0 0 -190722495.0453279 -137527230.57814789 0 -137527230.57814789 125691456.19224358 0 0 0 0 -192178.61613552202 -81625.491411897587 0 -81625.491411897587 2092155.8771148762 0 0 0 0 -176472.93474696818 280830.89707822306 0 280830.89707822306 761020.20942341816 0 0 0 0 -88507814.165706515 77085961.720824242 0 77085961.720824242 372952016.43698883 0 0 0 0 -86571730.838378489 -1449107.0548975468 0 -1449107.0548975468 10282565.976247787 0 0 0 0 -85707764.518779606 58889603.699083805 0 58889603.699083805 -17634961.84336853 0 0 0 0 69674.326870261619 111911.78728591325 0 111911.78728591325 1802495.2943246351 0 0 0 0 73936220.372684941 241656876.64072418 0 241656876.64072418 638819286.81195641 0 0 0 0 111677637.27306291 216191575.39472008 0 216191575.39472008 307276601.81430817 0 0 0 0 -69084701.695209861 37415222.460175037 0 37415222.460175037 943189183.43917084 0 0 0 0 297010263.46008974 -688026512.44954431 0 -688026512.44954431 488123009.81982803 0 0 0 0 245879.37177198427 308340.82983330195 0 308340.82983330195 1466337.3819006979 0 0 0 0 355530237.52611816 -286754662.7108717 0 -286754662.7108717 151991763.8769989 0 0 0 0 -114058595.88724667 386552954.51544571 0 386552954.51544571 -238028268.71222115 0 0 0 0 493904.94360715104 42818.132410982624 0 42818.132410982624 1072667.9343138267 0 0 0 0 209956343.22376287 219023993.90168953 0 219023993.90168953 69641969.533408463 0 0 0 0 -288460666.42283666 -97701453.796962976 0 -97701453.796962976 840347735.53714752 0 0 0 0 647038688.70090377 215501332.10245323 0 215501332.10245323 -480717226.12758827 0 0 0 0 220133434.75028944 -346234990.98124218 0 -346234990.98124218 581415773.8187418 0 0 0 0 550734923.84642267 -398350826.70679379 0 -398350826.70679379 776723796.70968437 0 0 0 0 182520120.43621698 -343861700.33683109 0 -343861700.33683109 942922871.07245719 0 0 0 0 137203590.40592471 -192873847.99182129 0 -192873847.99182129 771200826.38172531 0 0 0 0 -571686.1518458128 -223850517.08892822 0 -223850517.08892822 661158413.82748413 0 0 0 0 86788258.459915578 -298087143.26404953 0 -298087143.26404953 715355428.27101803 0 0 0 0 129286916.5327031 -195865476.84681797 0 -195865476.84681797 690218641.16629791 0 0 0 0 203144204.58608428 -266965603.93105221 0 -266965603.93105221 221777466.461586 0 0 0 0 103991317.08397521 -50063718.67432785 0 -50063718.67432785 30637830.609970093 0 0 0 0 635263901.20255327 54534188.278964996 0 54534188.278964996 -227686854.57262421 0 0 0 0 577379.50823752955 605821.10530189518 0 605821.10530189518 1092901.1399860736 0 0 0 0 521532.74030169909 117974.90140016377 0 117974.90140016377 300725.33784910804 0 0 0 0 -63117354.952623129 -53245303.09592104 0 -53245303.09592104 469029645.62386322 0 0 0 0 536025195.02176285 348728601.67007256 0 348728601.67007256 -434953356.06609821 0 0 0 0 174929738.78388119 214179437.19771576 0 214179437.19771576 395649424.32904148 0 0 0 0 220030241.11595154 190851646.06336594 0 190851646.06336594 306165376.97776031 0 0 0 0 243123838.04698181 -341371730.69687843 0 -341371730.69687843 63671354.360366821 0 0 0 0 526716304.79385078 63959137.27201128 0 63959137.27201128 46264003.463451385 0 0 0 0 121798310.35914326 -31135777.144935608 0 -31135777.144935608 29108223.401668072 0 0 0 0 198817198.26680064 28113152.304615021 0 28113152.304615021 -3535337.0725402832 0 0 0 0 150389070.26126623 -53076608.918154716 0 -53076608.918154716 -3340574.6639232635 0 0 0 0 -15283116.849689156 14724452.024358749 0 14724452.024358749 124144810.50334549 0 0 0 0 17258336.565009117 -48655107.181585312 0 -48655107.181585312 95581233.853900909 0 0 0 0 1313576.7909207554 1500119.8867279834 0 1500119.8867279834 2889587.3669317681 0 0 0 0 -122702702.74723691 -114300715.52473226 0 -114300715.52473226 -35213510.627004623 0 0 0 0 -97503347.34303093 -93630646.51168251 0 -93630646.51168251 -66547233.259322166 0 0 0 0 -141077.05374803871 -504571.72609103745 0 -504571.72609103745 1560854.6314150193 0 0 0 0 -58254964.055198729 -44181490.335310742 0 -44181490.335310742 -4636808.1005501747 0 0 0 0 -57900871.527536392 -7974789.1859910488 0 -7974789.1859910488 14669.592604637146 0 0 0 0 -85322178.66733551 -80403643.401477158 0 -80403643.401477158 -123793208.61450887 0 0 0 0 -26781515.688263416 -15600639.797610044 0 -15600639.797610044 8426093.6881685257 0 0 0 0 -38082162.696906567 -20972398.445732117 0 -20972398.445732117 190300.56338596344 0 0 0 0 -9923599.278927803 -9373148.7388010025 0 -9373148.7388010025 -2414707.8111231327 0 0 0 0 -19972121.969096899 3981751.5110806227 0 3981751.5110806227 19465423.57127285 0 0 0 0 -9967952.7282717228 -2567287.0992689133 0 -2567287.0992689133 1545336.8260946274 0 0 0 0 -5878018.2223957628 28493022.180406362 0 28493022.180406362 17559958.899209023 0 0 0 0 -8359266.5361961126 9656133.5344297886 0 9656133.5344297886 -3666674.5347828865 0 0 0 0 -24172183.826148272 6657701.8865443468 0 6657701.8865443468 -603884.74125957489 0 0 0 0 -41298222.889757156 -7024320.7539138794 0 -7024320.7539138794 2449173.7514965534 0 0 0 0 -34654147.133218288 -18094825.646836281 0 -18094825.646836281 -28519338.945047379 0 0 0 0 -38933854.277849913 -17176277.357271671 0 -17176277.357271671 -15920470.885682106 0 0 0 0 -72581587.492621899 -28768215.384224892 0 -28768215.384224892 -3247648.095489502 0 0 0 0 -33825456.628280729 12237861.96557796 0 12237861.96557796 5058477.2739210129 0 0 0 0 -44793456.171592236 -2879727.3373765945 0 -2879727.3373765945 -2849566.4952213764 0 0 0 0 -27311212.867085576 -24346807.515693009 0 -24346807.515693009 30836570.241680443 0 0 0 0 -100831787.05785847 438060.8634914346 0 438060.8634914346 110044509.47904021 0 0 0 0 -203796.39752113947 -839871.40318424301 0 -839871.40318424301 2431067.7875650288 0 0 0 0 -38396707.425095797 -5247925.4364571571 0 -5247925.4364571571 -23493275.610309601 0 0 0 0 -132864109.14967823 -25108012.857035697 0 -25108012.857035697 -69422945.588702083 0 0 0 0 49819369.780073166 4190045.9196336269 0 4190045.9196336269 -136867507.62143368 0 0 0 0 7996.3832310766447 -38652.967055928922 0 -38652.967055928922 35808.963458185608 0 0 0 0 -15066354.329770565 101654226.88568684 0 101654226.88568684 63750410.456719637 0 0 0 0 72317640.09781456 78575019.940256536 0 78575019.940256536 142723026.23381793 0 0 0 0 -9675341.718911171 14047908.487973511 0 14047908.487973511 109329919.52270693 0 0 0 0 19582439.14236927 -13158818.908795476 0 -13158818.908795476 52542408.910756171 0 0 0 0 -12441941.616252899 38274300.29750444 0 38274300.29750444 105610630.30364212 0 0 0 0 -544849.81468516774 263411.90636204887 0 263411.90636204887 74727.6603203704 0 0 0 0 16688777.892436981 6225795.5155332386 0 6225795.5155332386 31755605.027322352 0 0 0 0 -4272605.4102144241 4643620.4130793661 0 4643620.4130793661 92318944.186555594 0 0 0 0 1766325.8232941628 2183497.0906975456 0 2183497.0906975456 51486538.429375589 0 0 0 0 3817706.4368686676 14230587.691779494 0 14230587.691779494 60755067.856181175 0 0 0 0 995203.57747650146 1701483.5323919654 0 1701483.5323919654 65369589.387015089 0 0 0 0 356704.33537006378 4295738.4839952588 0 4295738.4839952588 25485500.587675735 0 0 0 0 5695496.6611099243 16237136.863838837 0 16237136.863838837 25143152.883203313 0 0 0 0 3848458.1110858917 12964717.713803947 0 12964717.713803947 47627312.291651055 0 0 0 0 -730555.82700490952 50149457.405215859 0 50149457.405215859 81727693.172977045 0 0 0 0 5556205.7071943283 3559759.4344784468 0 3559759.4344784468 92376923.199476659 0 0 0 0 -25421763.2281425 4619163.5900416095 0 4619163.5900416095 42586039.237836137 0 0 0 0 -8324545.6594228745 26478918.608318873 0 26478918.608318873 52568151.20131579 0 0 0 0 10369099.943144798 6671761.0101796389 0 6671761.0101796389 -6059458.5487811416 0 0 0 0 1558491.5025930405 34410971.950816959 0 34410971.950816959 12270898.81793128 0 0 0 0 23233262.890356064 44416799.510019377 0 44416799.510019377 42728444.682393268 0 0 0 0 20966221.901599616 -1052296.9622696773 0 -1052296.9622696773 41960149.305230543 0 0 0 0 -1915389.0708532333 -679327.66055542231 0 -679327.66055542231 611241.31086301804 0 0 0 0 -473736.67138147354 3411093.8079722524 0 3411093.8079722524 -3073554.6512219906 0 0 0 0 -2657132.1869001389 26710.798893809319 0 26710.798893809319 2535112.6572031975 0 0 0 0 -2063769.2199029922 327347.95807534456 0 327347.95807534456 1181329.769998908 0 0 0 0 101295.36055012059 -499037.70659051707 0 -499037.70659051707 756621.44741004065 0 0 0 0 -48251974.268053055 -205572056.10338855 0 -205572056.10338855 56438344.0747118 0 0 0 0 -247659893.61845016 68256431.539143801 0 68256431.539143801 -102645731.09306943 0 0 0 0 -125864.98511296022 -98957.387140154024 0 -98957.387140154024 563157.38443484833 0 0 0 0 -1582197.4092445374 -315691.00041431189 0 -315691.00041431189 -1816688.6617891788 0 0 0 0 -9206050.4437761307 -2005131.5600787401 0 -2005131.5600787401 -1654539.906915471 0 0 0 0 -2304757.4251232147 5535607.9648270607 0 5535607.9648270607 -1854002.3252304196 0 0 0 0 -6669494.2921552658 4231170.2380673885 0 4231170.2380673885 657164.72387111187 0 0 0 0 -8150193.9097776413 5012943.5450751781 0 5012943.5450751781 3079110.6398687363 0 0 0 0 -3796647.4479247332 6596963.9175890759 0 6596963.9175890759 2478073.5906975269 0 0 0 0 -7866115.9472293854 6104216.0653057098 0 6104216.0653057098 6644229.8513006568 0 0 0 0 -12590018.122104645 3337803.087490797 0 3337803.087490797 6372002.7157092094 0 0 0 0 -8190460.5519385338 4558281.7475813329 0 4558281.7475813329 2709754.7888913155 0 0 0 0 -8986333.5645122528 6325910.3772084713 0 6325910.3772084713 1080465.7567850051 0 0 0 0 -15628449.406520128 6932766.5229435563 0 6932766.5229435563 6570056.390529871 0 0 0 0 -4217872.0942325592 1764016.4366528988 0 1764016.4366528988 5177634.3501062393 0 0 0 0 -9733219.6728315353 6544312.8585928679 0 6544312.8585928679 6177420.1905660629 0 0 0 0 -5194940.7630672455 3491678.8433895111 0 3491678.8433895111 5712840.1859659553 0 0 0 0 -5646401.6664509773 -383448.01329949498 0 -383448.01329949498 12209048.884789467 0 0 0 0 -4719908.8590259552 4762406.4852406979 0 4762406.4852406979 8341496.9713141918 0 0 0 0 -17689954.550487995 110982.63667362928 0 110982.63667362928 5844732.3034522533 0 0 0 0 -9982530.4108044803 39737291.765062273 0 39737291.765062273 134098963.38071728 0 0 0 0 -148578994.49682045 -168417784.79207134 0 -168417784.79207134 257592479.79192734 0 0 0 0 53231.526054179762 -434562.24517673696 0 -434562.24517673696 1081065.4620680143 0 0 0 0 167298419.37723351 -226438086.54285336 0 -226438086.54285336 -320071479.84983736 0 0 0 0 55002436.867146015 -184911154.34875369 0 -184911154.34875369 178452269.15643787 0 0 0 0 -31454262.740847588 -16063487.204456091 0 -16063487.204456091 236753070.27838707 0 0 0 0 -16539608.951363564 1184887.9949865341 0 1184887.9949865341 102551886.35856509 0 0 0 0 -9866099.7841725349 16312433.570004463 0 16312433.570004463 115594182.8437767 0 0 0 0 14143625.288021564 39250740.815593481 0 39250740.815593481 60348127.914811254 0 0 0 0 -12584857.026845261 12175648.89702506 0 12175648.89702506 112436582.31212044 0 0 0 0 -26922001.47162962 27522146.686208963 0 27522146.686208963 99617887.427070856 0 0 0 0 -31457847.313225746 21601966.854443073 0 21601966.854443073 148003724.30769396 0 0 0 0 -32655472.308182657 -4122118.1034967601 0 -4122118.1034967601 118111540.22509909 0 0 0 0 -10016292.418702126 42090947.909595788 0 42090947.909595788 51668111.689156532 0 0 0 0 -11405804.283648491 45652389.946291924 0 45652389.946291924 41613123.115549088 0 0 0 0 -14889129.130477905 6515193.8433632851 0 6515193.8433632851 77698518.488862514 0 0 0 0 5145078.553255558 4316385.7811088562 0 4316385.7811088562 -5525440.5854225159 0 0 0 0 -10592513.083209515 -3401995.2791793346 0 -3401995.2791793346 14060944.356468201 0 0 0 0 -1450072.2631397247 35847251.923953533 0 35847251.923953533 -18482445.057952881 0 0 0 0 -10722455.388248444 -39811790.406604767 0 -39811790.406604767 -44893223.742085457 0 0 0 0 12614890.798526764 10350722.296250343 0 10350722.296250343 -53324673.664778709 0 0 0 0 13843857.918972254 19043875.553286314 0 19043875.553286314 20752081.796860695 0 0 0 0 10460708.426073879 35386965.017407656 0 35386965.017407656 61376312.985729694 0 0 0 0 18924459.523001671 11011565.559792519 0 11011565.559792519 17369873.942034662 0 0 0 0 -5672637.6753789186 2739843.2285369635 0 2739843.2285369635 47441945.429700375 0 0 0 0 3062842.5090658665 28898524.393328547 0 28898524.393328547 61690813.015036583 0 0 0 0 64744432.367798209 40867869.879433095 0 40867869.879433095 60270719.166565418 0 0 0 0 -2707340.9599807262 -1117360.3579573631 0 -1117360.3579573631 108514668.76762629 0 0 0 0 36845771.977884293 -9126966.662628293 0 -9126966.662628293 98764040.924891949 0 0 0 0 -12413561.508719809 17179615.451790225 0 17179615.451790225 150790340.30087376 0 0 0 0 25088497.200056434 67548714.910289407 0 67548714.910289407 127422350.47664165 0 0 0 0 10586028.771592617 33078865.00278306 0 33078865.00278306 95218106.839657307 0 0 0 0 -1054122.3768011332 38434601.87129879 0 38434601.87129879 92852290.589004278 0 0 0 0 7758017.1096901894 62204054.481755972 0 62204054.481755972 133949346.52361518 0 0 0 0 9543444.2199614346 -17286579.706245542 0 -17286579.706245542 22678307.855845928 0 0 0 0 -83985.537208556168 198876.63861120606 0 198876.63861120606 218344.49388453073 0 0 0 0 15969163.032874689 48694171.394285202 0 48694171.394285202 36446068.024381399 0 0 0 0 31939314.265095949 44105116.39658761 0 44105116.39658761 30783524.301230907 0 0 0 0 24216475.637815893 51139988.536469698 0 51139988.536469698 37086490.079319954 0 0 0 0 16843662.199340582 26109273.641353846 0 26109273.641353846 75745925.174458742 0 0 0 0 15189747.288275898 46565458.808535516 0 46565458.808535516 28425334.70531559 0 0 0 0 -21498536.752596021 6541844.8319526911 0 6541844.8319526911 16179323.945810795 0 0 0 0 -121163.04773313469 1078556.0826315694 0 1078556.0826315694 3480676.9549575876 0 0 0 0 -11140972.986456275 101544.31886994839 0 101544.31886994839 15119847.572018385 0 0 0 0 178882.28268405795 14268128.354085445 0 14268128.354085445 69460112.033946037 0 0 0 0 431742.03897860646 5777466.9337825775 0 5777466.9337825775 10302445.496381044 0 0 0 0 21031493.420699954 30395868.497167826 0 30395868.497167826 13745005.434897617 0 0 0 0 35031407.752580941 24267587.325962305 0 24267587.325962305 4470193.6168534756 0 0 0 0 -68553.184651390009 1013152.3717152684 0 1013152.3717152684 3416502.1942747859 0 0 0 0 12306974.282123771 25192885.966972083 0 25192885.966972083 12394928.320204735 0 0 0 0 13131957.842670187 39106344.55024004 0 39106344.55024004 9827964.409055233 0 0 0 0 43544816.601193815 46076792.229062855 0 46076792.229062855 11006231.734892368 0 0 0 0 79283614.5190835 24310221.764769316 0 24310221.764769316 -9892327.2366249561 0 0 0 0 -8109.0802168624168 811508.8333244659 0 811508.8333244659 3168259.1797187226 0 0 0 0 -19162907.120469093 39957837.848404884 0 39957837.848404884 15916506.598450184 0 0 0 0 16835412.23985219 31454606.612223864 0 31454606.612223864 13316327.495402336 0 0 0 0 10325340.539544988 53297596.616675824 0 53297596.616675824 21218729.122872829 0 0 0 0 21949286.710932516 39853380.421591282 0 39853380.421591282 29340364.269875765 0 0 0 0 8199802.1821551323 43771286.829866886 0 43771286.829866886 12872199.721794844 0 0 0 0 24800034.884614944 61793923.25890851 0 61793923.25890851 3037027.0620961189 0 0 0 0 26956479.662609935 51604876.781248808 0 51604876.781248808 5150308.7079380751 0 0 0 0 -42609666.705587149 39888565.660903931 0 39888565.660903931 11098846.126563072 0 0 0 0 9455990.1516689062 44756506.275984049 0 44756506.275984049 7829801.9579262733 0 0 0 0 -30652713.866318315 30650265.078758955 0 30650265.078758955 14392305.994431496 0 0 0 0 -87919548.730570376 10816067.152366161 0 10816067.152366161 13982521.170315742 0 0 0 0 16521098.881051823 66336942.984979868 0 66336942.984979868 2630938.8224663734 0 0 0 0 -52592935.154058211 71913342.277295232 0 71913342.277295232 21622657.922454357 0 0 0 0 -56430062.965568125 50088824.190472126 0 50088824.190472126 16863909.711483836 0 0 0 0 49352421.330133587 129564131.73009062 0 129564131.73009062 5969300.7520480156 0 0 0 0 -302782808.8618176 62163673.615032673 0 62163673.615032673 44607862.255357027 0 0 0 0 -148028802.41817692 -27975489.724731863 0 -27975489.724731863 10144844.202092648 0 0 0 0 -292540063.71821725 -153983498.03581601 0 -153983498.03581601 -65867254.2833004 0 0 0 0 -98082859.828289628 80876424.350022793 0 80876424.350022793 30465306.193042755 0 0 0 0 104913916.42492893 8218090.1363890171 0 8218090.1363890171 -145081.55437755585 0 0 0 0 87875242.066619247 73985471.794132471 0 73985471.794132471 -19882120.128479481 0 0 0 0 85385685.055622712 44559403.044595718 0 44559403.044595718 18673097.61764431 0 0 0 0 104223.85828479193 535869.88774616376 0 535869.88774616376 2580432.8043514318 0 0 0 0 122022684.35447145 24255688.650941372 0 24255688.650941372 14450441.564590931 0 0 0 0 210548603.71465772 598637.31532621384 0 598637.31532621384 -7514061.0694980621 0 0 0 0 203507645.58492455 157872266.44045246 0 157872266.44045246 125879542.20026112 0 0 0 0 20023101.030733407 37673912.468085289 0 37673912.468085289 411196849.69894028 0 0 0 0 -82307163.04738532 14463182.145948648 0 14463182.145948648 406104406.77282333 0 0 0 0 485941778.14513385 338060139.02259827 0 338060139.02259827 308938191.33108616 0 0 0 0 31631942.001338497 264493172.25364518 0 264493172.25364518 943325203.51296234 0 0 0 0 250251.99513201401 318074.38662727864 0 318074.38662727864 1094820.7104485603 0 0 0 0 -358142024.31861621 -16293502.461589336 0 -16293502.461589336 71233912.732755184 0 0 0 0 -139564998.28357595 -119069419.56860757 0 -119069419.56860757 -46608874.882633209 0 0 0 0 -979934.73380604968 347981.5126578029 0 347981.5126578029 1888558.2324214494 0 0 0 0 -109990572.73020831 21650580.570333719 0 21650580.570333719 248971926.81205416 0 0 0 0 -355276531.94354606 14981937.170657784 0 14981937.170657784 4396246.7369766235 0 0 0 0 -251812.84917976661 -53795.256064001005 0 -53795.256064001005 339795.12948802672 0 0 0 0 -89792872.501358747 56872864.883463383 0 56872864.883463383 -72049724.63609314 0 0 0 0 -87634030.791430652 32309753.273825169 0 32309753.273825169 164979028.62115431 0 0 0 0 27338525.02047804 13695551.514489651 0 13695551.514489651 132546174.29050779 0 0 0 0 -238878141.94533396 -71765754.508295417 0 -71765754.508295417 943735272.18838787 0 0 0 0 -230839648.60571474 -402348196.94548988 0 -402348196.94548988 456527990.3081001 0 0 0 0 -147068662.60788739 -66300380.975796342 0 -66300380.975796342 443094631.64977932 0 0 0 0 -679745.26099866547 255480.5526489378 0 255480.5526489378 1044581.6061434671 0 0 0 0 -805880.49685530527 369704424.45335245 0 369704424.45335245 944022929.35212088 0 0 0 0 -214551389.37862754 -426758799.04347777 0 -426758799.04347777 155956573.23522663 0 0 0 0 -65843239.986144133 20694619.678399801 0 20694619.678399801 247667336.88830614 0 0 0 0 -58376485.490408398 49945626.753038883 0 49945626.753038883 243243541.82115602 0 0 0 0 -67679184.023490027 -141646285.62096 0 -141646285.62096 942906237.79204798 0 0 0 0 140426319.57612464 -191467491.99365628 0 -191467491.99365628 130010564.46840286 0 0 0 0 -2727814.8315247297 26065254.198715329 0 26065254.198715329 127472273.48091793 0 0 0 0 88218471.957901895 -71362543.993568659 0 -71362543.993568659 -21534053.811468601 0 0 0 0 -92304283.384575322 46965559.81986165 0 46965559.81986165 243699073.83238223 0 0 0 0 -13942862.095115662 8911806.1770439819 0 8911806.1770439819 623497.42321035266 0 0 0 0 -1964821.5477957129 1347119.045051093 0 1347119.045051093 477884.5346527808 0 0 0 0 -114806272.65083373 -37893254.46540451 0 -37893254.46540451 1726007.8247673512 0 0 0 0 -557979.97537333425 -977869.27513231221 0 -977869.27513231221 3156587.2576068453 0 0 0 0 3871419.5226528645 -7751355.8395915041 0 -7751355.8395915041 -4637943.4877967387 0 0 0 0 1370241.2122003436 6484096.8797521917 0 6484096.8797521917 -10136817.711078703 0 0 0 0 3398330.0618194938 -4283020.4746258222 0 -4283020.4746258222 3909323.4669901133 0 0 0 0 2936568.3782110214 -9378047.4709993303 0 -9378047.4709993303 28904194.668637052 0 0 0 0 -58196967.995676756 -3525642.9294481277 0 -3525642.9294481277 -2143358.514922142 0 0 0 0 -67458075.328303337 -108805.20970439911 0 -108805.20970439911 5213992.1641163826 0 0 0 0 -2342486.0548189282 179324.25796298869 0 179324.25796298869 -1224773.2258324027 0 0 0 0 -31699576.704871893 -4349306.4752121307 0 -4349306.4752121307 6839685.828361094 0 0 0 0 -202624.15279526846 127502.54590172984 0 127502.54590172984 23730.218583782189 0 0 0 0 13155767.159929276 -8235244.4044627547 0 -8235244.4044627547 12886097.185240477 0 0 0 0 12282499.232731819 -6218118.9628768563 0 -6218118.9628768563 -6747746.5405629426 0 0 0 0 -2191342.8443890638 1510220.6841401204 0 1510220.6841401204 368350.30079792917 0 0 0 0 3510417.6539850235 7245610.8148351163 0 7245610.8148351163 -776873.42308756709 0 0 0 0 18392160.095252991 -536848.53955696523 0 -536848.53955696523 3543002.0926435292 0 0 0 0 -18553707.590665698 19433489.356052876 0 19433489.356052876 -19026204.848895431 0 0 0 0 -990793.40201750747 -670096.5349186653 0 -670096.5349186653 2749983.9134322805 0 0 0 0 -2660260.8509070575 -1148135.6128347814 0 -1148135.6128347814 2435554.2719660997 0 0 0 0 -1547025.5334215164 -907375.91870975494 0 -907375.91870975494 1774508.8159956932 0 0 0 0 -2883967.8406585455 -37072.16388630867 0 -37072.16388630867 3241598.5187445134 0 0 0 0 -605923.05862660252 -812361.75078584172 0 -812361.75078584172 2040114.5947406685 0 0 0 0 -70034312.245973051 -45809032.852195859 0 -45809032.852195859 109814211.52464962 0 0 0 0 7840651.1601702869 26715779.317683935 0 26715779.317683935 -20609072.91100812 0 0 0 0 69816142.626623094 -17054993.912924469 0 -17054993.912924469 -97637416.199043274 0 0 0 0 -994779.95979232923 -252985.46247972816 0 -252985.46247972816 -17498.434819649206 0 0 0 0 150137.93614746458 -124829.48422589421 0 -124829.48422589421 1731338.5824285038 0 0 0 0 -183015.08991684474 -341290.05344438553 0 -341290.05344438553 943698583.87232161 0 0 0 0 -1945862.6777462959 -526167.26171007752 0 -526167.26171007752 3245269.9686815143 0 0 0 0 -1131615.4010084306 -20518.33507658157 0 -20518.33507658157 1629530.4706860096 0 0 0 0 105038544.22240075 297442887.56030738 0 297442887.56030738 839775402.49945557 0 0 0 0 2703457.3993485211 169471541.35768515 0 169471541.35768515 943592103.77001297 0 0 0 0 -1122179.2231995394 -39517.294496821822 0 -39517.294496821822 1421593.4889859885 0 0 0 0 -377106.54655145109 77614913.492866397 0 77614913.492866397 661292704.88793719 0 0 0 0 66694460.692989431 334494342.15365982 0 334494342.15365982 944853685.89822543 0 0 0 0 -108818.65808819741 -55973.176621066465 0 -55973.176621066465 934658.89666469989 0 0 0 0 102067630.93351214 130314044.80900598 0 130314044.80900598 521843468.09175754 0 0 0 0 -423211.96262693405 688363.01835227013 0 688363.01835227013 4298448.0743905306 0 0 0 0 -1222603.8687369823 391723.13778680563 0 391723.13778680563 4673716.1160485148 0 0 0 0 -832166.26031982899 651970.48372216523 0 651970.48372216523 3056773.6078667045 0 0 0 0 -1875151.080862999 -779999.07929801941 0 -779999.07929801941 3930919.5784242749 0 0 0 0 -179057573.49653167 75022053.975002289 0 75022053.975002289 944578271.17870092 0 0 0 0 -173929188.86417019 -35271389.495914102 0 -35271389.495914102 854100020.89856291 0 0 0 0 -139904513.08071291 299180429.15980053 0 299180429.15980053 989585181.81022167 0 0 0 0 53758798.876243189 281148212.50970805 0 281148212.50970805 950277504.57995057 0 0 0 0 -53739.715426457427 -67377.705388030852 0 -67377.705388030852 477471.70242724824 0 0 0 0 -51448926.870828956 -7070301.741736412 0 -7070301.741736412 633982084.18040586 0 0 0 0 -9439922.211640738 187513038.61916184 0 187513038.61916184 663623301.31198931 0 0 0 0 -1685894.4041849375 -667113.14399799705 0 -667113.14399799705 6150502.8488419056 0 0 0 0 -1179956.765551226 -324043.16080832022 0 -324043.16080832022 1593066.062652105 0 0 0 0 76794.941174983978 -491961.38549381495 0 -491961.38549381495 5499224.1747215986 0 0 0 0 -1594312.7652367949 511685.65387029201 0 511685.65387029201 5099219.4313113093 0 0 0 0 161948387.35256454 -85658435.56627512 0 -85658435.56627512 420418456.80891347 0 0 0 0 -1375837.3224014654 -613166.78618228412 0 -613166.78618228412 2007916.7318166695 0 0 0 0 -1087422.5475279093 -389232.32862877846 0 -389232.32862877846 3489790.079092741 0 0 0 0 -309511.12234997749 1591195.4280532002 0 1591195.4280532002 1041500.9828976989 0 0 0 0 -1292967.8413820267 2145128.9895763993 0 2145128.9895763993 4128713.9359884858 0 0 0 0 -142423.61202120589 52046.587722886703 0 52046.587722886703 36141.300867752871 0 0 0 0 -1601960.0082492828 356483.86437231302 0 356483.86437231302 604371.94707638025 0 0 0 0 -436464.3035764916 127176.10923578078 0 127176.10923578078 92794.739480613498 0 0 0 0 -1414396.8443888426 -594833.7801220715 0 -594833.7801220715 382942.60192847252 0 0 0 0 -4229966.5445408821 1543010.5178397894 0 1543010.5178397894 1361898.1304802895 0 0 0 0 -937668.28237260319 -476429.3614171191 0 -476429.3614171191 1047570.7794904985 0 0 0 0 -4389928.1297857016 -7922438.8309718296 0 -7922438.8309718296 14328856.813304424 0 0 0 0 -1148890.2399535179 -1181839.5717092752 0 -1181839.5717092752 2060927.3839415312 0 0 0 0 -1332914.9897949696 -1323218.9600430727 0 -1323218.9600430727 5914710.3273346424 0 0 0 0 468379.99657851458 -2390305.9571110606 0 -2390305.9571110606 1231573.630027771 0 0 0 0 -445847.41560959816 -869556.20932281017 0 -869556.20932281017 174564.32333815098 0 0 0 0 -1040134.9003968239 -334439.14579224586 0 -334439.14579224586 435989.24282425642 0 0 0 0 -1455446.9119942188 -1207168.6779040694 0 -1207168.6779040694 2098275.6993781328 0 0 0 0 -1447959.4009866714 -1120121.3113211393 0 -1120121.3113211393 1277315.7351344824 0 0 0 0 -1316749.4364890112 -307004.75684733165 0 -307004.75684733165 1346912.5284988673 0 0 0 0 9824481.256819725 2201125.0210802592 0 2201125.0210802592 -974492.75663074479 0 0 0 0 -7492984.5302568674 9411088.4373004921 0 9411088.4373004921 41707842.729782276 0 0 0 0 -400752.51434226311 180964.02798195928 0 180964.02798195928 31999.657587623435 0 0 0 0 -809954.63642978668 4497109.2864153981 0 4497109.2864153981 -5523979.8339388371 0 0 0 0 19045407.297053337 23585164.433680326 0 23585164.433680326 34044613.930162862 0 0 0 0 -7074360.7407209873 21955887.877577975 0 21955887.877577975 87155615.717847899 0 0 0 0 -13647781.996352673 18586827.110759765 0 18586827.110759765 71722647.402807653 0 0 0 0 -9872721.908208847 26494803.287394941 0 26494803.287394941 49341045.401297003 0 0 0 0 1000628.522154808 16878437.888521306 0 16878437.888521306 23005689.744613811 0 0 0 0 16365105.585662484 -493156.98013448715 0 -493156.98013448715 41152030.277288377 0 0 0 0 -9886852.0345516205 11620475.131354332 0 11620475.131354332 51010688.402046859 0 0 0 0 -11126570.175803185 2561984.4903295189 0 2561984.4903295189 39233961.830074891 0 0 0 0 -3287861.4729862213 -2994676.4173070639 0 -2994676.4173070639 16680866.564088464 0 0 0 0 -3319323.1752958298 4311669.0317780375 0 4311669.0317780375 8625575.2361768484 0 0 0 0 -1171899.149882555 -782164.53396010399 0 -782164.53396010399 309043.87912136316 0 0 0 0 2415181.3663094044 -8281290.7833320443 0 -8281290.7833320443 15208258.496509105 0 0 0 0 -1209382.1078743767 -197518.23617594712 0 -197518.23617594712 1081320.157645276 0 0 0 0 -712577.72680473328 1063124.5331231058 0 1063124.5331231058 3037694.839912951 0 0 0 0 -130966.53123028623 -14505.603542214376 0 -14505.603542214376 122411.27514173894 0 0 0 0 -1363383.7696266174 -293387.34262394905 0 -293387.34262394905 97350.747540593147 0 0 0 0 -504935.25636386871 -198252.94458425045 0 -198252.94458425045 359454.93306517601 0 0 0 0 -3939444.5304632187 -3470808.6509519815 0 -3470808.6509519815 4810331.6688518524 0 0 0 0 -536270.22921275184 -485768.8009422886 0 -485768.8009422886 345752.29635579541 0 0 0 0 -575129.36758551758 -564784.13102534309 0 -564784.13102534309 528233.64752538595 0 0 0 0 2982780.9181423187 -3832602.1749954522 0 -3832602.1749954522 11060339.280344069 0 0 0 0 -786525.27837163745 -321121.24334948935 0 -321121.24334948935 744702.34873036749 0 0 0 0 12322536.308624268 -5910878.6178843975 0 -5910878.6178843975 -4137404.6517827511 0 0 0 0 10546066.57276237 -18580366.913865149 0 -18580366.913865149 2945073.7756006718 0 0 0 0 13639759.728599072 -9423248.2886523604 0 -9423248.2886523604 6253816.8691487312 0 0 0 0 20231088.354836702 -12855766.255797476 0 -12855766.255797476 2738656.1801371574 0 0 0 0 -189754.99329172168 -178478.36127258348 0 -178478.36127258348 209821.62281309324 0 0 0 0 17701918.542668819 -7753184.8978177011 0 -7753184.8978177011 -1246612.1051895618 0 0 0 0 -362187.13424478634 -236975.15307825035 0 -236975.15307825035 601351.09524785401 0 0 0 0 31821442.022943497 41860520.395578921 0 41860520.395578921 16718257.7204175 0 0 0 0 6777769.518163681 3227553.7881447673 0 3227553.7881447673 13925114.431038499 0 0 0 0 24581770.56475544 20450231.517940104 0 20450231.517940104 30092014.651977062 0 0 0 0 4858623.735906601 12313704.030166537 0 12313704.030166537 33965631.664520264 0 0 0 0 -12003549.365123749 33846592.772281229 0 33846592.772281229 29412696.41408658 0 0 0 0 87985283.203005075 49027269.306325138 0 49027269.306325138 29261934.786044598 0 0 0 0 3473151.2742516994 56960100.574505866 0 56960100.574505866 17383329.449722767 0 0 0 0 30524134.124629021 -30130380.494842112 0 -30130380.494842112 -28777977.546602756 0 0 0 0 -19118614.081796646 49881557.920307994 0 49881557.920307994 44427288.105498552 0 0 0 0 -91839.393535022973 -77210.167155476054 0 -77210.167155476054 176042.27263282367 0 0 0 0 82024424.957882881 -10094899.773409069 0 -10094899.773409069 -5954048.2292316556 0 0 0 0 33824122.287003621 -23164110.483277678 0 -23164110.483277678 -2151459.521335125 0 0 0 0 33704428.872344971 -2882559.6247903109 0 -2882559.6247903109 -13404.535327315331 0 0 0 0 24913377.187721729 38745240.162566125 0 38745240.162566125 98534481.346552789 0 0 0 0 48235595.623715162 -43582226.757278383 0 -43582226.757278383 21464733.140671253 0 0 0 0 -11369597.058329582 -2549521.5394467115 0 -2549521.5394467115 62036468.443866611 0 0 0 0 17330610.760460854 -20727638.135130405 0 -20727638.135130405 117565716.15883029 0 0 0 0 10476415.466173172 2304723.8281525373 0 2304723.8281525373 50464489.142268419 0 0 0 0 -12215693.17779541 -1448108.1633498669 0 -1448108.1633498669 52106496.799293995 0 0 0 0 -13437055.190153956 16482791.386913657 0 16482791.386913657 33293674.244151354 0 0 0 0 -9752951.2218418121 11587392.632689536 0 11587392.632689536 25035049.928566217 0 0 0 0 -11640884.430356026 19762558.810067594 0 19762558.810067594 16666395.030605733 0 0 0 0 -8199852.9546031952 2950793.4749827385 0 2950793.4749827385 26599601.774957299 0 0 0 0 -11617422.54112339 5576817.9707206488 0 5576817.9707206488 32450399.096445203 0 0 0 0 -9381262.9235391617 9026188.6968445778 0 9026188.6968445778 18888630.189709306 0 0 0 0 -4388351.7296962738 -3159221.1002031565 0 -3159221.1002031565 28234772.166165113 0 0 0 0 -5952936.3090782166 3364648.590585947 0 3364648.590585947 15876534.125323772 0 0 0 0 -3529247.4632751942 1336814.1883831918 0 1336814.1883831918 12829891.635788202 0 0 0 0 -2955848.9968166351 7783329.2437573671 0 7783329.2437573671 7881792.827401638 0 0 0 0 -3940275.9513506889 5833619.0440011621 0 5833619.0440011621 6390124.4692115784 0 0 0 0 -3176042.3917779922 9623569.145945549 0 9623569.145945549 8765759.3735271692 0 0 0 0 -3058354.6788360327 4551472.5902331881 0 4551472.5902331881 11011503.564142466 0 0 0 0 -1321372.5610480309 12511898.742255211 0 12511898.742255211 -9237574.6012910604 0 0 0 0 -1490490.6683473587 9893710.6584452987 0 9893710.6584452987 -777555.72337949276 0 0 0 0 -2280125.5119454861 5628160.0903654695 0 5628160.0903654695 -2475015.0667397976 0 0 0 0 -2386577.9643421173 6478465.5612163544 0 6478465.5612163544 -3663420.4401913881 0 0 0 0 -4610478.6097743511 2370816.3719092607 0 2370816.3719092607 -6526216.8612746 0 0 0 0 11083418.644832611 4961456.018817544 0 4961456.018817544 -57286852.141599774 0 0 0 0 -163586.42789370543 44690.923909994657 0 44690.923909994657 25852.000792823441 0 0 0 0 -2179393.9306669235 49652666.960663408 0 49652666.960663408 -21581473.70282805 0 0 0 0 -7583246.0337409973 -6157174.0295442343 0 -6157174.0295442343 2092872.3719240427 0 0 0 0 -15179286.912603855 -2441873.3684387207 0 -2441873.3684387207 9438891.8727564812 0 0 0 0 -11023214.38161087 -7912866.9566859007 0 -7912866.9566859007 9839716.0312243924 0 0 0 0 -21467113.550705433 -11625294.599321485 0 -11625294.599321485 9628768.2389504462 0 0 0 0 -6412945.2906219959 -21339819.377143458 0 -21339819.377143458 13665466.319912195 0 0 0 0 -78780.780461280199 -151059.46082120563 0 -151059.46082120563 295964.99370299885 0 0 0 0 -15614927.182210922 -3627880.4920592308 0 -3627880.4920592308 2973131.9272570014 0 0 0 0 -2397292.6528973579 -5292639.3810018301 0 -5292639.3810018301 350840.52875721455 0 0 0 0 14871176.719225883 4532461.2518050373 0 4532461.2518050373 -17835484.931621075 0 0 0 0 -62921148.8956182 -5085636.7360656261 0 -5085636.7360656261 42559252.091502905 0 0 0 0 4578554.1109233052 -5892308.728676632 0 -5892308.728676632 -5860271.134018898 0 0 0 0 3657961.8836870193 -17669377.436128736 0 -17669377.436128736 15225935.825035095 0 0 0 0 -82332.758531120897 -181384.10250259261 0 -181384.10250259261 247531.86461625376 0 0 0 0 -22852889.310099781 121647.95436473191 0 121647.95436473191 5956024.8640588522 0 0 0 0 9835362.9313001633 -23023904.956462264 0 -23023904.956462264 -4818314.8656343073 0 0 0 0 -10353080.648314714 -16642728.20178622 0 -16642728.20178622 6128198.5208058357 0 0 0 0 10383102.216219425 -18656687.377597809 0 -18656687.377597809 1222171.3536447287 0 0 0 0 11778132.348340988 -13586780.310613513 0 -13586780.310613513 5467502.3619710207 0 0 0 0 9179633.4076235294 -18700237.613849044 0 -18700237.613849044 5316834.3152105808 0 0 0 0 -40838.441988227307 -102585.1439575667 0 -102585.1439575667 101164.42260724027 0 0 0 0 34583877.978312731 -28965879.890174866 0 -28965879.890174866 12408800.050573349 0 0 0 0 -22307700.051965237 10225737.703895807 0 10225737.703895807 6344794.5044767857 0 0 0 0 -16085307.472123146 1696027.0195707083 0 1696027.0195707083 1640791.414234817 0 0 0 0 -1031156.6288089941 -959663.0833144614 0 -959663.0833144614 1590394.9778110373 0 0 0 0 -16338897.217798471 1572415.657982409 0 1572415.657982409 6015089.4662566185 0 0 0 0 -21214771.133017898 -65444.035168111324 0 -65444.035168111324 5587553.5826253891 0 0 0 0 -795247.40006113052 6960928.1295877695 0 6960928.1295877695 14007515.622665644 0 0 0 0 -578385.6131230446 506605.94765868969 0 506605.94765868969 1349101.7466866593 0 0 0 0 -21843186.519834757 1590328.9873748422 0 1590328.9873748422 24085446.494330168 0 0 0 0 -3670530.1674227715 -15816339.580561996 0 -15816339.580561996 19758421.576040298 0 0 0 0 -1726033.5057459241 -998012.67853678903 0 -998012.67853678903 2634399.4785006205 0 0 0 0 -11159979.604467034 -6696261.754409492 0 -6696261.754409492 9343664.1502456665 0 0 0 0 -2905093.9249396324 1893788.6835882664 0 1893788.6835882664 11134352.996779442 0 0 0 0 1445464.8206415176 -6704430.0548559427 0 -6704430.0548559427 3388614.9275095463 0 0 0 0 15810.745000362396 -15909551.528502345 0 -15909551.528502345 35624814.094449401 0 0 0 0 10537196.196054697 5577483.9878655672 0 5577483.9878655672 6439402.8607851267 0 0 0 0 130904.61789722741 -6201531.1250760518 0 -6201531.1250760518 -4847043.6421556473 0 0 0 0 -1628791.6584939361 -295621.71653637895 0 -295621.71653637895 2123093.6662263144 0 0 0 0 -568247.34341621399 10864294.011239886 0 10864294.011239886 144991.0594304502 0 0 0 0 86200163.713002309 -258305012.77705193 0 -258305012.77705193 556687551.15882087 0 0 0 0 178199064.46219769 -95475374.915270805 0 -95475374.915270805 -97301893.087986469 0 0 0 0 -2588398.2692299508 -920396.47620254662 0 -920396.47620254662 2614029.4013041602 0 0 0 0 -602915.94785662717 479907.83919466974 0 479907.83919466974 1809748.8135397052 0 0 0 0 311074035.53271878 122467200.09184742 0 122467200.09184742 1174675134.750567 0 0 0 0 245850000.0061745 142004976.03188038 0 142004976.03188038 57225546.937794924 0 0 0 0 80159772.267399728 -284096083.3778677 0 -284096083.3778677 933520651.08991623 0 0 0 0 5155595.1504132692 -169495971.4729867 0 -169495971.4729867 945271855.25623679 0 0 0 0 -119856805.58690284 -10467573.419271231 0 -10467573.419271231 775532190.36528492 0 0 0 0 -128743159.17204501 88247201.448682308 0 88247201.448682308 620015915.01686001 0 0 0 0 42444452.525501728 139738661.00947046 0 139738661.00947046 126088195.37681842 0 0 0 0 -71450074.070632786 118074956.36288881 0 118074956.36288881 359840740.99044228 0 0 0 0 435281291.35143691 119822091.40188551 0 119822091.40188551 945169816.02515316 0 0 0 0 -168859855.91872188 339730183.59957647 0 339730183.59957647 1003615333.2925935 0 0 0 0 249543591.89467192 478664054.11032474 0 478664054.11032474 520845562.64010239 0 0 0 0 -152769627.35319501 189504767.13895035 0 189504767.13895035 600698671.95253563 0 0 0 0 -174442789.29210684 141342423.3734901 0 141342423.3734901 944779482.71188831 0 0 0 0 -95794285.239762366 10818830.383759499 0 10818830.383759499 698852217.67877698 0 0 0 0 -107254420.76288456 146931574.3623302 0 146931574.3623302 625434304.57932949 0 0 0 0 51933205.748908684 -92046619.196932793 0 -92046619.196932793 147010923.86956882 0 0 0 0 98126751.176937327 117806496.24955058 0 117806496.24955058 110666796.40704346 0 0 0 0 -63196.719776415201 179832.09752090205 0 179832.09752090205 868625.45871365257 0 0 0 0 54487661.511205524 -171078947.48593855 0 -171078947.48593855 714001361.3908031 0 0 0 0 -69973809.525482267 74591749.489890575 0 74591749.489890575 822483591.78842735 0 0 0 0 -34284188.453796521 -183358803.15936661 0 -183358803.15936661 805577258.10976982 0 0 0 0 74567208.169309571 -59776079.623057365 0 -59776079.623057365 944734167.35108471 0 0 0 0 -124640418.37285334 -185154551.06839371 0 -185154551.06839371 810113106.73288012 0 0 0 0 -153635859.76313874 -177889219.55498743 0 -177889219.55498743 945053700.02907467 0 0 0 0 -124100250.07456325 -55109275.472673588 0 -55109275.472673588 683507344.62887764 0 0 0 0 -103021.14475898209 -33624.147242116276 0 -33624.147242116276 755495.17652071454 0 0 0 0 -14215745.466688506 -8526277.8933429718 0 -8526277.8933429718 209324.21979141235 0 0 0 0 -39787638.543899 -119783667.03741074 0 -119783667.03741074 253555813.58169174 0 0 0 0 -6067314.5653598607 -108825261.02434158 0 -108825261.02434158 131669953.99289322 0 0 0 0 -41686709.67536217 7560084.745554924 0 7560084.745554924 15229515.112781525 0 0 0 0 -112765643.65023485 119078907.45130539 0 119078907.45130539 638351068.66523457 0 0 0 0 -97841.464823866234 1787880.4300851459 0 1787880.4300851459 3798376.3774559014 0 0 0 0 -14603312.490772188 -54143670.643276691 0 -54143670.643276691 -2441326.6896495819 0 0 0 0 47270547.658646762 -35691573.088238716 0 -35691573.088238716 -95222532.146528244 0 0 0 0 -6413157.7330226302 46517763.38438797 0 46517763.38438797 226831106.25092387 0 0 0 0 139766902.23558262 52533605.570662498 0 52533605.570662498 -38009699.953783035 0 0 0 0 -72212814.526625782 42558052.74902916 0 42558052.74902916 -17372133.370774984 0 0 0 0 -47019.55598604909 55785.067988698371 0 55785.067988698371 288214.48200647463 0 0 0 0 19900195.178893507 24250425.164028168 0 24250425.164028168 -33393642.827322006 0 0 0 0 -26294128.89215672 90378103.951701164 0 90378103.951701164 8177523.0009965897 0 0 0 0 -309645.32937598822 1608813.6168719344 0 1608813.6168719344 3250212.9280060474 0 0 0 0 14489350.550695658 -2181608.489554882 0 -2181608.489554882 -14048275.730867386 0 0 0 0 -9350958.5358452499 8874173.5967850685 0 8874173.5967850685 10515760.680770874 0 0 0 0 2251816.5271977782 10971266.21193099 0 10971266.21193099 10356659.086452484 0 0 0 0 6291378.5429009199 938372.61030769348 0 938372.61030769348 -2118909.1905250549 0 0 0 0 236178.08251392641 60491.452984030358 0 60491.452984030358 -369312.58623124659 0 0 0 0 -4325375.9910515547 5704473.0976581573 0 5704473.0976581573 15018365.188714027 0 0 0 0 -4514724.132396847 6510679.8735809326 0 6510679.8735809326 12712513.573232651 0 0 0 0 -3475636.4933153391 6129348.1582689285 0 6129348.1582689285 9731242.3496516943 0 0 0 0 -7333739.0984447002 3607392.5321731567 0 3607392.5321731567 9948075.9429962635 0 0 0 0 -532147.15304040909 5434075.1349534988 0 5434075.1349534988 5921201.5209211111 0 0 0 0 -3723238.0314612389 1148620.4931821823 0 1148620.4931821823 10653878.23456955 0 0 0 0 -1261512.940346282 2051555.6034413627 0 2051555.6034413627 8052956.0871620905 0 0 0 0 -4021190.9540832043 1550922.8140602112 0 1550922.8140602112 11810976.131876469 0 0 0 0 -1309356.4762070733 -606963.04465435026 0 -606963.04465435026 3449921.4975034199 0 0 0 0 -2775993.4481674433 1615619.957810998 0 1615619.957810998 11642346.38069725 0 0 0 0 -1163832.5876822509 2406035.0078885681 0 2406035.0078885681 7671259.9788664747 0 0 0 0 -572881.91299707151 1903608.7185513107 0 1903608.7185513107 4405946.279487174 0 0 0 0 -1844873.7413556576 5621643.0542640686 0 5621643.0542640686 3420770.5127601624 0 0 0 0 -284710.62957353826 -156826.80306637101 0 -156826.80306637101 236103.48686206853 0 0 0 0 171885068.56563914 60031577.124497414 0 60031577.124497414 -25078970.256931305 0 0 0 0 -41544251.903174877 -39799114.518396378 0 -39799114.518396378 52788673.624267817 0 0 0 0 263928965.18333286 129039791.41607669 0 129039791.41607669 13518342.552654266 0 0 0 0 596553.56006894575 365153.78986525955 0 365153.78986525955 302455.31803015154 0 0 0 0 26074394.89808258 6880335.326905489 0 6880335.326905489 -1073755.9094429016 0 0 0 0 -20611137.205023639 -2691399.4458341599 0 -2691399.4458341599 940890306.93669367 0 0 0 0 -49708498.865274429 -17219810.816604614 0 -17219810.816604614 -3868997.5173835754 0 0 0 0 -45050671.538097382 -14549323.384857178 0 -14549323.384857178 -3152267.0917015076 0 0 0 0 -48982974.080726385 -18015943.000938416 0 -18015943.000938416 -3561490.618888855 0 0 0 0 759258.34713537071 1100656.1046201671 0 1100656.1046201671 1114383.9744324079 0 0 0 0 -235828.08158829808 993580.99551677704 0 993580.99551677704 18557.356670379639 0 0 0 0 -235155.33258873224 1026513.8601121902 0 1026513.8601121902 1170626.4887053967 0 0 0 0 199244656.7774024 -527632525.12641191 0 -527632525.12641191 944160355.92852211 0 0 0 0 -135599.89632442026 209130.08746267902 0 209130.08746267902 633656.09469111543 0 0 0 0 22609824.809543148 -253183379.85098362 0 -253183379.85098362 553536977.69120407 0 0 0 0 -24156631.655725896 -266971582.40625381 0 -266971582.40625381 802295362.69849968 0 0 0 0 34811185.799705803 -136549413.96623707 0 -136549413.96623707 557502742.99254251 0 0 0 0 34468385.12833564 -133184300.19044781 0 -133184300.19044781 535185212.10293865 0 0 0 0 396344.45768570132 719698.69614524022 0 719698.69614524022 528486.37878215034 0 0 0 0 -44606.976744790911 766757.95636906382 0 766757.95636906382 2280425.0336843124 0 0 0 0 -44315.592198922008 1254676.4391963012 0 1254676.4391963012 1449365.1991787441 0 0 0 0 1913237.5604145974 4216258.777765274 0 4216258.777765274 1711493.547121048 0 0 0 0 -803955.49830945581 478249.92768478394 0 478249.92768478394 6303702.4605951309 0 0 0 0 710011.2799987942 -312353.01708030701 0 -312353.01708030701 5715643.885969162 0 0 0 0 -75661.871646434069 112707.42696475983 0 112707.42696475983 1404141.290178299 0 0 0 0 -32201.504778646144 693063.57311003655 0 693063.57311003655 1692489.5268208212 0 0 0 0 178675.68738849828 -260883.79721273761 0 -260883.79721273761 1661830.0561125302 0 0 0 0 1044392.8593293801 159208.3523273468 0 159208.3523273468 7563601.5118284225 0 0 0 0 490132.77167936065 -508653.72087310441 0 -508653.72087310441 942732.2252393025 0 0 0 0 7500077.9445879459 -2753100.9875679016 0 -2753100.9875679016 -4975706.8842401505 0 0 0 0 -285150.96962663531 1917426.2851696014 0 1917426.2851696014 11450725.912525177 0 0 0 0 24401.245164781809 1453609.9973316193 0 1453609.9973316193 10570927.078323364 0 0 0 0 75975.656683057547 1453433.0856704712 0 1453433.0856704712 11111003.625675201 0 0 0 0 732444.82920511498 2429981.4199960902 0 2429981.4199960902 9950033.9354972839 0 0 0 0 227436.15738080442 676624.79674911499 0 676624.79674911499 10846269.311040878 0 0 0 0 174015.15928497154 53661.464766034391 0 53661.464766034391 -343605.25459419377 0 0 0 0 1535863.0767411143 445928.78763961792 0 445928.78763961792 -1437276.3563232422 0 0 0 0 -1544069.1394096105 210515.21336731687 0 210515.21336731687 2890134.8067740737 0 0 0 0 46179003.957473755 15773355.79989624 0 15773355.79989624 6635838.1944885254 0 0 0 0 1499721.1051950604 2712593.7678604126 0 2712593.7678604126 10653357.693489075 0 0 0 0 -198515.37717545027 -37204.609786417335 0 -37204.609786417335 982688.76182889985 0 0 0 0 -670311.09468004107 -971664.12621307373 0 -971664.12621307373 5415081.875825882 0 0 0 0 -842686.4287904948 2341523.8486356735 0 2341523.8486356735 13542861.886074066 0 0 0 0 -1355308.5900084823 576930.21574306488 0 576930.21574306488 13876090.036481857 0 0 0 0 -1025406.9803312568 11468.430704438128 0 11468.430704438128 912394.64020347665 0 0 0 0 -737320.70060287416 -1056646.2732143402 0 -1056646.2732143402 10874639.943868399 0 0 0 0 -1132171.1094803289 -653708.5291390419 0 -653708.5291390419 13212589.532829285 0 0 0 0 747841.19739667431 -657695.38508605771 0 -657695.38508605771 645174.85322429147 0 0 0 0 4694344.659302488 1392279.5582885742 0 1392279.5582885742 7074835.855430603 0 0 0 0 -1229275.144847272 1224340.7842780352 0 1224340.7842780352 6406053.8769378662 0 0 0 0 -6260213.0226945877 1638299.5849399567 0 1638299.5849399567 35291062.764686584 0 0 0 0 -8474762.0968497992 6262332.7470521927 0 6262332.7470521927 33575086.838279724 0 0 0 0 -10481075.293449879 6863078.6525554657 0 6863078.6525554657 31573293.201471329 0 0 0 0 -2374038.3253396153 349305.50293254852 0 349305.50293254852 6111811.7542095184 0 0 0 0 -5770285.8479870558 -3134412.3543848991 0 -3134412.3543848991 36984784.814805984 0 0 0 0 -1276612.9041799307 9927467.2634825706 0 9927467.2634825706 31861857.083568573 0 0 0 0 1025870.6138084531 8041173.1413564682 0 8041173.1413564682 32877578.601541519 0 0 0 0 9817483.2196074724 32374863.118507385 0 32374863.118507385 61840352.490153313 0 0 0 0 -986359.17907652259 -13524511.934547901 0 -13524511.934547901 51847449.069000244 0 0 0 0 21601260.4523772 14150963.058574677 0 14150963.058574677 -971286.49191045761 0 0 0 0 147410.48077072689 -100633.49049613345 0 -100633.49049613345 -221040.71728915907 0 0 0 0 12776212.356467947 -15864249.05620718 0 -15864249.05620718 5863488.5469741821 0 0 0 0 8530330.8366433382 -6656090.7367670536 0 -6656090.7367670536 -4639277.5747413635 0 0 0 0 949762.63230088353 -1975016.7678432465 0 -1975016.7678432465 4287067.7927742004 0 0 0 0 4047051.8060342073 -836670.03604888916 0 -836670.03604888916 -2351684.7528419495 0 0 0 0 -1118991.8397097772 -1205966.7592884344 0 -1205966.7592884344 2572077.7723505949 0 0 0 0 -802435.68852412701 -1120828.2849903107 0 -1120828.2849903107 1492868.3954443932 0 0 0 0 -609460.73578906059 -787201.35173368454 0 -787201.35173368454 853985.28065013885 0 0 0 0 2606491.5389676988 -871531.94672489166 0 -871531.94672489166 -6476335.4231853485 0 0 0 0 -3234844.4384198189 -142741.70997524261 0 -142741.70997524261 -2230951.0831413269 0 0 0 0 -1164437.2003540145 -1405713.6551215062 0 -1405713.6551215062 1976995.3604339948 0 0 0 0 -1457648.1370800883 -1748242.6703554392 0 -1748242.6703554392 1320645.5765800476 0 0 0 0 -1795287.5830136538 795643.67267608643 0 795643.67267608643 -3200124.0791549683 0 0 0 0 -1625799.2867577076 -1144998.5191116333 0 -1144998.5191116333 3344459.2619805336 0 0 0 0 -2076835.410949707 -651704.39542770386 0 -651704.39542770386 -1710485.6599159241 0 0 0 0 -5301171.0688276291 -534898.11964321136 0 -534898.11964321136 -1633146.0868029594 0 0 0 0 -3298872.0320972204 1633623.2027168274 0 1633623.2027168274 -800653.53337860107 0 0 0 0 2675025.2247636318 6806978.6623573303 0 6806978.6623573303 32103558.028690338 0 0 0 0 -2775176.9789271355 -3127687.3364396095 0 -3127687.3364396095 -2576137.4163589478 0 0 0 0 245373.91277718544 11151870.430865288 0 11151870.430865288 33903252.270956993 0 0 0 0 337824.58934176282 -378684.5432357532 0 -378684.5432357532 -686308.13046590146 0 0 0 0 -398415.73945822637 -194019.93642164022 0 -194019.93642164022 2531235.1360470112 0 0 0 0 -1142644.7481303078 -1119249.7091893102 0 -1119249.7091893102 2353936.6005971571 0 0 0 0 -1309684.1156472564 -1568221.560503602 0 -1568221.560503602 -2891452.5185317993 0 0 0 0 -1206983.8005187511 -1166289.5492992401 0 -1166289.5492992401 6450429.4775123596 0 0 0 0 511758.23303180933 -156699.41376495361 0 -156699.41376495361 -1204579.0987663269 0 0 0 0 1690.7855503044266 -196900.75834243841 0 -196900.75834243841 -46742.317818434909 0 0 0 0 -13287.365181902191 -62856.138716563582 0 -62856.138716563582 29878.04259292502 0 0 0 0 -217791.50290244818 -325774.05912876129 0 -325774.05912876129 441073.01141667366 0 0 0 0 -87892.795398265123 15433.810450553894 0 15433.810450553894 175796.34995365143 0 0 0 0 -57080.309984872991 -69295.342985934112 0 -69295.342985934112 195300.10822395142 0 0 0 0 -4315652.7233915329 305305.29964923859 0 305305.29964923859 33022297.665193558 0 0 0 0 -336245.65738389478 -468903.41370796971 0 -468903.41370796971 797742.31200718926 0 0 0 0 -1410725.3959357738 2262156.7492070198 0 2262156.7492070198 27955184.372909546 0 0 0 0 -7333926.9925917387 6998120.2063312531 0 6998120.2063312531 -3765142.8576104641 0 0 0 0 -3802783.2315891981 -1076203.5335464478 0 -1076203.5335464478 12226186.47587204 0 0 0 0 697454.09657770395 -14583798.762125015 0 -14583798.762125015 -6310883.3320355415 0 0 0 0 -139532.25834321976 -7338266.4325910807 0 -7338266.4325910807 5163969.7095974684 0 0 0 0 -15432319.454763055 542777.58395767212 0 542777.58395767212 11023238.054841995 0 0 0 0 -7803864.9837093353 158127.96476554871 0 158127.96476554871 10414186.098469734 0 0 0 0 -695982.99101527152 -1751362.5204779813 0 -1751362.5204779813 6370626.7124680076 0 0 0 0 -2852598.2347725034 2782657.9025325775 0 2782657.9025325775 9100508.7863407135 0 0 0 0 -11523027.8064643 5260353.29251194 0 5260353.29251194 14415748.78263092 0 0 0 0 -3310215.0090513229 741755.94491004944 0 741755.94491004944 22929643.761301994 0 0 0 0 -270825.12512124702 11355723.730688572 0 11355723.730688572 19966372.740509033 0 0 0 0 -2906976.9887792058 3428111.6475083828 0 3428111.6475083828 16496174.225025177 0 0 0 0 5565156.5613677353 14100291.014295578 0 14100291.014295578 9846338.3885490894 0 0 0 0 6207980.6642987095 23595246.184116364 0 23595246.184116364 33965216.96893692 0 0 0 0 -7086276.3830630928 748902.36231899261 0 748902.36231899261 60834054.107878685 0 0 0 0 2924195.0221702456 -22687321.041451454 0 -22687321.041451454 34753884.232645035 0 0 0 0 -6941666.8023412628 -1328259.7368534207 0 -1328259.7368534207 22233768.575897217 0 0 0 0 -1786173.0996266603 -1755180.3219795227 0 -1755180.3219795227 7269300.3614616394 0 0 0 0 -947458.69652146101 -5167211.4011001587 0 -5167211.4011001587 15788883.813483596 0 0 0 0 -3617557.5294795334 -5893881.3285903931 0 -5893881.3285903931 28155554.07541275 0 0 0 0 -5553035.4859141707 -15676397.11870575 0 -15676397.11870575 29208925.221318722 0 0 0 0 -4922067.8935080767 -16868232.237737656 0 -16868232.237737656 31448694.674385071 0 0 0 0 1676742.902256012 -19330904.66683197 0 -19330904.66683197 15994877.770152092 0 0 0 0 169095.22619290208 -324455.58403888159 0 -324455.58403888159 -843794.62977732811 0 0 0 0 -7052232.8815693352 -1085187.2923512459 0 -1085187.2923512459 12848892.790748596 0 0 0 0 -6108210.0962205008 -6378043.9971016645 0 -6378043.9971016645 31507324.589355469 0 0 0 0 -28913585.40274179 17434029.904378891 0 17434029.904378891 -37865543.608472824 0 0 0 0 24870.656263530254 -7455759.277097702 0 -7455759.277097702 11786915.067118645 0 0 0 0 -1476552.2767168581 -8516887.1289463043 0 -8516887.1289463043 11371047.083259583 0 0 0 0 -1158551.663666293 -15339461.701396942 0 -15339461.701396942 25105381.09910202 0 0 0 0 715537.80123385787 -3100145.8945884705 0 -3100145.8945884705 -4372987.4018630981 0 0 0 0 6254771.7482590675 -3832654.7687864304 0 -3832654.7687864304 -1452294.9388542175 0 0 0 0 -3083331.2296558022 -2452789.2734966278 0 -2452789.2734966278 -1486151.3246988654 0 0 0 0 676602.94932421693 -1034912.2031015796 0 -1034912.2031015796 -2890372.7191743348 0 0 0 0 -571410.83101278543 -9519482.3412322998 0 -9519482.3412322998 -4763278.6503430605 0 0 0 0 -11576430.639530152 -7158915.1350755692 0 -7158915.1350755692 -9941362.4741668701 0 0 0 0 -1558252.0183294832 -1504401.6024948177 0 -1504401.6024948177 6530471.9123367406 0 0 0 0 -524653.10507917404 -654080.92140388489 0 -654080.92140388489 1343737.342918396 0 0 0 0 134161.60291162785 -647871.41050322144 0 -647871.41050322144 654894.52398605773 0 0 0 0 544521.80656719208 -180685.30716705322 0 -180685.30716705322 -1044057.2762820721 0 0 0 0 239239.26329052984 -805022.97998065618 0 -805022.97998065618 -1562008.018453517 0 0 0 0 1245598.6040468216 -2374892.745295763 0 -2374892.745295763 7576965.1711177826 0 0 0 0 865111.93731355667 -1208171.1297674775 0 -1208171.1297674775 14452947.445233107 0 0 0 0 -816094.33193756314 -2368219.575790267 0 -2368219.575790267 4738934.7167975875 0 0 0 0 -2731219.4402568638 -20851905.901502609 0 -20851905.901502609 -13026335.999880791 0 0 0 0 -1162792.7813916206 679742.3541918993 0 679742.3541918993 11043264.015849113 0 0 0 0 855087.01365661621 4239088.6390857697 0 4239088.6390857697 4321488.4863893986 0 0 0 0 -148041.88787820493 -8511.0569210996618 0 -8511.0569210996618 468931.80981590156 0 0 0 0 62593.594770375639 1084441.3654095815 0 1084441.3654095815 4570064.6936800759 0 0 0 0 293487.19424629211 -2498433.2965921164 0 -2498433.2965921164 8842003.4569946527 0 0 0 0 -1288140.0911927223 -2983261.2662110329 0 -2983261.2662110329 13326612.686878443 0 0 0 0 -361412.8430622255 258265.60968902006 0 258265.60968902006 2220077.470266242 0 0 0 0 915640.82207226753 82730.461555719376 0 82730.461555719376 5485573.8204071522 0 0 0 0 -3069496.6549522877 -1987269.6858173013 0 -1987269.6858173013 4978154.5791722536 0 0 0 0 -6752833.0615082979 -44178170.14225769 0 -44178170.14225769 40255514.980377197 0 0 0 0 -655248.22215938359 -2093279.0506545713 0 -2093279.0506545713 5490470.6482138578 0 0 0 0 -3948201.628467083 -3449019.2543597221 0 -3449019.2543597221 6887740.072481513 0 0 0 0 -19919086.107419968 1511984.3374121189 0 1511984.3374121189 14822961.964298666 0 0 0 0 -2177538.8593182564 782044.39231908321 0 782044.39231908321 10026341.3863675 0 0 0 0 -2781624.7300696373 -5740809.5344438255 0 -5740809.5344438255 1966318.6047393084 0 0 0 0 -103031.86001785984 40950.575901642645 0 40950.575901642645 608271.26917819621 0 0 0 0 -7453649.0020736456 4632495.6616116911 0 4632495.6616116911 31707309.813457847 0 0 0 0 -10422192.340651274 -3823517.8190097511 0 -3823517.8190097511 22596185.232876897 0 0 0 0 755292.02676820755 -455722.70788836479 0 -455722.70788836479 13441920.780805945 0 0 0 0 -733021.80084371567 -3085195.0245796442 0 -3085195.0245796442 20905494.404355317 0 0 0 0 -404341.30487310886 -3151041.9491350055 0 -3151041.9491350055 15726510.359945059 0 0 0 0 -1937036.5029501915 -2209334.2828735113 0 -2209334.2828735113 12830764.100396395 0 0 0 0 1799628.8314795494 -1409209.5427354574 0 -1409209.5427354574 4993878.5267119408 0 0 0 0 -917999.58258724213 -250011.85752522945 0 -250011.85752522945 10298396.022444725 0 0 0 0 -1629797.07975173 -3409535.0980372131 0 -3409535.0980372131 6281109.3095126152 0 0 0 0 1896233.8444728851 -949168.78597664833 0 -949168.78597664833 10183904.073546052 0 0 0 0 245270.77703356743 -72553.322488307953 0 -72553.322488307953 -256647.6709022522 0 0 0 0 -413065.51484839246 -758225.84788172971 0 -758225.84788172971 1560618.2644583415 0 0 0 0 339396.18762960867 -338914.74114494072 0 -338914.74114494072 -856670.94288184959 0 0 0 0 428741.49164104462 -3473235.632815361 0 -3473235.632815361 -364780.71385908127 0 0 0 0 -936949.58004188538 1421560.5211929083 0 1421560.5211929083 6031801.4528183937 0 0 0 0 -3580350.8108119965 -931968.50270915031 0 -931968.50270915031 13277596.979779482 0 0 0 0 -725684.47744178772 -941122.76602435112 0 -941122.76602435112 13244325.945672899 0 0 0 0 -1546740.1019716263 -2675331.6489636898 0 -2675331.6489636898 14742662.889618635 0 0 0 0 936998.00363779068 -4442345.8475084305 0 -4442345.8475084305 15197894.7567873 0 0 0 0 -855847.68548667431 -544193.03313921392 0 -544193.03313921392 13960640.268402338 0 0 0 0 1843852.2832641602 -1592058.16223526 0 -1592058.16223526 15083846.887228131 0 0 0 0 971095.55525326729 754515.77917933464 0 754515.77917933464 10357792.755189419 0 0 0 0 -40208.503490686417 -853474.22530442476 0 -853474.22530442476 15716285.583253145 0 0 0 0 -605019.2302274704 -1487724.8914141655 0 -1487724.8914141655 16011937.06833148 0 0 0 0 -1769770.4262700081 1672883.3462350368 0 1672883.3462350368 20491166.736507893 0 0 0 0 -1352593.2698574066 1089950.8620694876 0 1089950.8620694876 17178742.297358871 0 0 0 0 839947.80755805969 -2495918.3939014673 0 -2495918.3939014673 15718368.890291452 0 0 0 0 -768342.99548912048 -2430233.3526039124 0 -2430233.3526039124 15141917.064577103 0 0 0 0 -1392491.9175491333 -326859.07997643948 0 -326859.07997643948 15149418.87099576 0 0 0 0 -569702.89633369446 -30311.429646611214 0 -30311.429646611214 19718572.988099977 0 0 0 0 -1360882.0763611794 -1969094.3745809793 0 -1969094.3745809793 19445230.856454134 0 0 0 0 -258537.96262741089 36318.09588932991 0 36318.09588932991 20060450.811774254 0 0 0 0 4460.2993054389954 -2806650.520873189 0 -2806650.520873189 24465605.397695661 0 0 0 0 449545.72116342187 2152002.5636680909 0 2152002.5636680909 28381065.920214653 0 0 0 0 -3849956.0751132965 1711660.6503694057 0 1711660.6503694057 32390303.419967055 0 0 0 0 -3471014.7287644148 2743940.7761293948 0 2743940.7761293948 20063794.654592276 0 0 0 0 -1424463.9723830223 -1260926.6933843493 0 -1260926.6933843493 21269226.79567647 0 0 0 0 -3376401.2714343071 2064064.7673521042 0 2064064.7673521042 24542657.05541575 0 0 0 0 -3829690.5909147263 1733483.3811283112 0 1733483.3811283112 25013733.035716772 0 0 0 0 -3936114.7611570358 4297637.139926374 0 4297637.139926374 28314170.789455771 0 0 0 0 -5673570.2025456429 4889828.416390121 0 4889828.416390121 28398688.227135658 0 0 0 0 -2218791.9090981483 3560447.0771966875 0 3560447.0771966875 48905108.46929121 0 0 0 0 -2287942.2025122643 5594382.9284519553 0 5594382.9284519553 29099777.403936386 0 0 0 0 414236.03746235371 -5632890.1393306404 0 -5632890.1393306404 34238803.896936834 0 0 0 0 9694289.8835110664 25518879.80709523 0 25518879.80709523 36853599.172434032 0 0 0 0 -445761.36445504747 1081566.6455316453 0 1081566.6455316453 518553.09098734451 0 0 0 0 -3992473.5114281178 9732381.5434159338 0 9732381.5434159338 40557853.388284087 0 0 0 0 -5538703.2329616547 9868199.7520246208 0 9868199.7520246208 45307459.476605535 0 0 0 0 -7148379.8643231392 11384854.064098284 0 11384854.064098284 40059286.849922419 0 0 0 0 -5802699.2170533836 3083845.9679912552 0 3083845.9679912552 31280623.558448195 0 0 0 0 6976910.6647906303 12595510.107702613 0 12595510.107702613 37772574.068478942 0 0 0 0 8911657.881893158 -2122689.7597865462 0 -2122689.7597865462 30490150.586856842 0 0 0 0 2305268.8796401024 5454552.900223732 0 5454552.900223732 26339166.441494524 0 0 0 0 -2360278.1647132635 -3280857.1676015854 0 -3280857.1676015854 5019420.7835941315 0 0 0 0 -2893570.8119651377 -2284518.7359242439 0 -2284518.7359242439 8124253.1536693573 0 0 0 0 -1476736.6881746054 1829065.9065151215 0 1829065.9065151215 8549962.8972530365 0 0 0 0 1091201.1934729218 105966.06252098083 0 105966.06252098083 7287138.8705501556 0 0 0 0 -1382561.2423129305 639280.77471494675 0 639280.77471494675 8297829.0658283234 0 0 0 0 -1060150.1635761559 -1080593.447466135 0 -1080593.447466135 4922217.4633598328 0 0 0 0 -322688.37084591389 -1397910.3624477386 0 -1397910.3624477386 1738865.7223434448 0 0 0 0 -1027931.8788945675 -545570.13235092163 0 -545570.13235092163 6194581.0992889404 0 0 0 0 -477937.65037441254 2957009.0337810516 0 2957009.0337810516 6488820.4702606201 0 0 0 0 650379.41945672035 2299036.2687101364 0 2299036.2687101364 3538584.8229026794 0 0 0 0 -1477519.9264861494 -2504735.6170527935 0 -2504735.6170527935 -739900.19473457336 0 0 0 0 -3212885.7342666388 -2648432.5610218048 0 -2648432.5610218048 5053056.2243213654 0 0 0 0 -1161233.4811570577 -2100576.7119687083 0 -2100576.7119687083 2376476.307745859 0 0 0 0 -2302243.225992322 -1405564.0705957413 0 -1405564.0705957413 6436649.5428276062 0 0 0 0 10147566.399893761 3013486.5181810856 0 3013486.5181810856 -5862911.7530884147 0 0 0 0 4672985.0302524567 -1269281.3369287252 0 -1269281.3369287252 14185234.98802352 0 0 0 0 -814640.63965702057 1120752.6449818611 0 1120752.6449818611 15379153.52826643 0 0 0 0 -586029.97130393982 -21543195.764746904 0 -21543195.764746904 -10451560.947804421 0 0 0 0 458228.51448583603 2081942.4357545674 0 2081942.4357545674 8233404.438580513 0 0 0 0 234825.76025518682 -236692.08064355317 0 -236692.08064355317 -807687.25008597784 0 0 0 0 -876286.4396201988 -1005110.292107427 0 -1005110.292107427 3947102.7990136421 0 0 0 0 -1211028.1166797876 -1605040.1536927223 0 -1605040.1536927223 1134263.5626888275 0 0 0 0 -1018694.3257258832 -2300122.2513725758 0 -2300122.2513725758 -459356.94730377197 0 0 0 0 -389187.5624287622 -580865.95915422123 0 -580865.95915422123 2447939.8432059013 0 0 0 0 -228666.12167862483 -1040175.6526870886 0 -1040175.6526870886 -375485.42298520403 0 0 0 0 1695985.9949579239 -12462253.194718122 0 -12462253.194718122 -5232175.0316753387 0 0 0 0 -986546.75666236877 -1870806.1404781342 0 -1870806.1404781342 802229.03155708313 0 0 0 0 905135.13760089874 -217087.45119667053 0 -217087.45119667053 -2057936.3693790436 0 0 0 0 -250030.46909352881 -1130244.8851073671 0 -1130244.8851073671 -195920.1962564867 0 0 0 0 -1300144.482840538 6553872.3964159489 0 6553872.3964159489 2343815.32930547 0 0 0 0 6812592.0836033821 -2825711.0159596205 0 -2825711.0159596205 11505247.77901721 0 0 0 0 -2868204.2340621948 1576334.6369146109 0 1576334.6369146109 15291956.124129534 0 0 0 0 -2760622.7839775085 -3092420.1310880184 0 -3092420.1310880184 7038840.4648087025 0 0 0 0 -1237778.9639024734 1528663.7304441929 0 1528663.7304441929 10797663.501570463 0 0 0 0 -8236558.5110230446 463881.7006547451 0 463881.7006547451 12008898.059000731 0 0 0 0 -3435062.9408307076 1097851.6703031063 0 1097851.6703031063 14606056.753103733 0 0 0 0 -1352926.6694364548 1556516.2599471807 0 1556516.2599471807 14351046.989529669 0 0 0 0 -1259246.0679125786 2292220.5287940502 0 2292220.5287940502 14868478.979543567 0 0 0 0 -1268120.7401609421 4898034.7639197111 0 4898034.7639197111 18688237.20971638 0 0 0 0 -2673950.7944598198 3057874.8127567768 0 3057874.8127567768 18935043.231183529 0 0 0 0 -1675077.2137691975 4118228.3757763505 0 4118228.3757763505 17331567.528277874 0 0 0 0 -3428961.5914444923 4824925.1365652084 0 4824925.1365652084 24586887.730728865 0 0 0 0 -4083579.6682846546 8314324.7280567288 0 8314324.7280567288 27595960.847796202 0 0 0 0 -5901997.7684103251 5908526.4356116354 0 5908526.4356116354 24416941.02053833 0 0 0 0 21922120.563801289 13960725.850441158 0 13960725.850441158 13467077.700854063 0 0 0 0 3929167.0907468796 5088867.6195119619 0 5088867.6195119619 10184656.035292149 0 0 0 0 4245222.1294970512 5988498.678771615 0 5988498.678771615 12209504.116537809 0 0 0 0 2126961.0276713371 3952294.5664775372 0 3952294.5664775372 15891875.485301733 0 0 0 0 3299596.837518692 10057101.865831256 0 10057101.865831256 20427350.459207058 0 0 0 0 948758.93000173569 3929367.7606492043 0 3929367.7606492043 16585799.636693001 0 0 0 0 706560.7239690721 1131250.8053398356 0 1131250.8053398356 12809330.327020645 0 0 0 0 895047.80108189583 4415535.9778724313 0 4415535.9778724313 10916535.888584733 0 0 0 0 -554372.49590152316 -2610660.7004536865 0 -2610660.7004536865 1203409.2947470159 0 0 0 0 -1371531.1638551652 -5980115.5110191107 0 -5980115.5110191107 546280.6490278244 0 0 0 0 -1229968.9997683931 -931836.59498583758 0 -931836.59498583758 4944309.9448101241 0 0 0 0 1992753.9544115067 3176289.6540900469 0 3176289.6540900469 12144012.999001741 0 0 0 0 -161862.64620552654 -710100.69282840227 0 -710100.69282840227 442219.04196140985 0 0 0 0 8187447.8685932159 -7210680.3855115175 0 -7210680.3855115175 3277878.4021845534 0 0 0 0 -6085792.2419219017 -19110594.541609526 0 -19110594.541609526 15286068.682079315 0 0 0 0 -3434434.9600305557 -5392382.1477160454 0 -5392382.1477160454 3270409.6204322856 0 0 0 0 -3812290.9359464478 -3943029.7846188843 0 -3943029.7846188843 9093016.3130927086 0 0 0 0 186033.90293085575 687776.9522228241 0 687776.9522228241 2547092.9420852661 0 0 0 0 -5713990.1595680714 6019300.2196378708 0 6019300.2196378708 -13223251.365516663 0 0 0 0 -207561.32036806084 4028966.7124337228 0 4028966.7124337228 5819732.549880554 0 0 0 0 -2471025.7568888664 2730614.4009838104 0 2730614.4009838104 -14498439.335224152 0 0 0 0 1043007.7355101283 937407.07796490565 0 937407.07796490565 -3390233.9259642698 0 0 0 0 2623321.039447946 2233044.4033751353 0 2233044.4033751353 -3012781.3419896998 0 0 0 0 -62073759.165033594 -26979716.250650682 0 -26979716.250650682 172550528.3324635 0 0 0 0 -62663850.974359274 43831408.482604027 0 43831408.482604027 19122027.055050373 0 0 0 0 -179918.57719232887 4475441.5186971184 0 4475441.5186971184 3918946.7380097397 0 0 0 0 -1014397.3839414716 2698408.0993051529 0 2698408.0993051529 1005989.0090198517 0 0 0 0 47932925.402562201 47110004.330999404 0 47110004.330999404 29562770.461892366 0 0 0 0 36869315.715738058 -23053784.256306767 0 -23053784.256306767 -2896838.0223280191 0 0 0 0 -33401854.669437408 -90165160.031321526 0 -90165160.031321526 257827173.50063801 0 0 0 0 -1414237.4442222118 3816746.6352467537 0 3816746.6352467537 4100211.5069129467 0 0 0 0 -2580097.2099599838 2034994.3873443604 0 2034994.3873443604 8488325.2295665741 0 0 0 0 -28019.230054361513 467361.42518917145 0 467361.42518917145 913539.76296945475 0 0 0 0 -111860.35168950539 3971055.7812809283 0 3971055.7812809283 5821790.3837591484 0 0 0 0 142526519.6231842 218962404.88027894 0 218962404.88027894 -340048865.08386171 0 0 0 0 234223.33174419403 395804.9300069809 0 395804.9300069809 -790899.30606079102 0 0 0 0 391472.74581829971 4202227.3813332701 0 4202227.3813332701 3200589.8892070302 0 0 0 0 -356991.33661563788 506286.00042433571 0 506286.00042433571 5308204.5087721674 0 0 0 0 9305341.1640024185 4339594.1309108734 0 4339594.1309108734 4966475.7186336517 0 0 0 0 -2481089.5858535767 1340391.4654273987 0 1340391.4654273987 10896994.130595803 0 0 0 0 -35262.646180894924 3881463.4743617726 0 3881463.4743617726 3813124.1991685457 0 0 0 0 -8943.5879881305154 142820.79945736006 0 142820.79945736006 285045.13169638615 0 0 0 0 -2116230.0868806839 1774164.3311872482 0 1774164.3311872482 17446236.536981583 0 0 0 0 -1117736.1052803993 2684411.4090328217 0 2684411.4090328217 8590675.0828151703 0 0 0 0 305395.01630401611 -37887.351043701172 0 -37887.351043701172 9627952.1448321342 0 0 0 0 -5034399.0029227734 20913489.40151307 0 20913489.40151307 40541803.31870687 0 0 0 0 13145526.119796276 -32984473.256857127 0 -32984473.256857127 -23152252.947356105 0 0 0 0 -5470318.4307551384 5501875.8756532669 0 5501875.8756532669 14734923.887506485 0 0 0 0 -4788620.4111187458 4509619.9132924676 0 4509619.9132924676 20942754.742376328 0 0 0 0 -13231234.573039293 5947692.7511507869 0 5947692.7511507869 27055641.084419459 0 0 0 0 -70883.601605480537 3767771.5282871788 0 3767771.5282871788 1633686.2371355176 0 0 0 0 -269019.98654985428 4405483.9923400879 0 4405483.9923400879 10413817.009916306 0 0 0 0 -812286.83435416222 2853200.5806849003 0 2853200.5806849003 9592426.7659282684 0 0 0 0 -630693.48140588403 1793453.9536306858 0 1793453.9536306858 5867339.4524326324 0 0 0 0 127281.69580459595 1456625.6894817352 0 1456625.6894817352 8221393.267868042 0 0 0 0 -310683.35808938742 3842601.6406217217 0 3842601.6406217217 5733482.956785202 0 0 0 0 -1394996.3518212619 1360155.3513637804 0 1360155.3513637804 5206731.7761696745 0 0 0 0 -1016362.7263183594 3191156.1592402458 0 3191156.1592402458 3767626.7826967239 0 0 0 0 -1006460.7048692703 2631416.1397609711 0 2631416.1397609711 4526265.8248023987 0 0 0 0 -1104693.8482575212 2969143.805766528 0 2969143.805766528 7683408.7918933993 0 0 0 0 -89815469.963409901 44366738.329654694 0 44366738.329654694 5491322.9797782898 0 0 0 0 -94141378.248783112 24406236.074104309 0 24406236.074104309 -17272341.333843231 0 0 0 0 -45374113.358921051 49744359.991413116 0 49744359.991413116 -46121182.095395088 0 0 0 0 -147316.72464033053 202862.04217986204 0 202862.04217986204 793719.53262909176 0 0 0 0 -1939118.7228540778 5477123.1592549086 0 5477123.1592549086 3964614.7037353516 0 0 0 0 -27138.788303136826 2111323.2504749298 0 2111323.2504749298 4212630.9300308228 0 0 0 0 -601341.22667598724 3778360.8642044067 0 3778360.8642044067 8639137.4154002666 0 0 0 0 43693741.945603371 66701295.456897736 0 66701295.456897736 -55622308.837257385 0 0 0 0 58462945.140189826 52673369.221728325 0 52673369.221728325 7038205.0575180054 0 0 0 0 71888244.187283516 -11406912.600532532 0 -11406912.600532532 -6782769.2865753174 0 0 0 0 -99623664.485321999 -9787477.3659858704 0 -9787477.3659858704 70444814.644699097 0 0 0 0 -99795142.393425941 33795954.241008759 0 33795954.241008759 42054242.673629761 0 0 0 0 -42436595.917098999 -84256390.873764038 0 -84256390.873764038 93365401.171379089 0 0 0 0 -4822670.5181455612 6885620.6024169922 0 6885620.6024169922 -4004678.6368255615 0 0 0 0 -5914839.6942782402 30755950.86561203 0 30755950.86561203 -22692670.980072021 0 0 0 0 -29792594.234596252 21416609.135925293 0 21416609.135925293 -4155282.3971176147 0 0 0 0 -29020705.883833885 31400238.683891296 0 31400238.683891296 -21594127.680137634 0 0 0 0 -56502714.208849907 47554543.833824158 0 47554543.833824158 -30470579.063446045 0 0 0 0 -21730427.276532173 24784486.152435303 0 24784486.152435303 -13296298.35042572 0 0 0 0 -27294084.20394516 10363015.063877106 0 10363015.063877106 -43983027.832633972 0 0 0 0 8725176.0773911476 26352738.444793701 0 26352738.444793701 -14446020.626609802 0 0 0 0 1411790.4292340279 12471658.777774811 0 12471658.777774811 -25955413.855145454 0 0 0 0 17225700.348927259 32780671.801754951 0 32780671.801754951 -7712538.8225860596 0 0 0 0 20159436.19876194 19673247.587665558 0 19673247.587665558 -21119667.750343323 0 0 0 0 -4307456.7726659775 14489343.02307725 0 14489343.02307725 -4620128.1264801025 0 0 0 0 21414553.516458511 30361038.551540375 0 30361038.551540375 -6382210.5548629761 0 0 0 0 23439085.626329422 40753420.081031799 0 40753420.081031799 6274672.1012191772 0 0 0 0 25083174.150488853 32048972.228034973 0 32048972.228034973 -16374059.07723999 0 0 0 0 18144197.924432993 29675242.392728806 0 29675242.392728806 -3392718.5818138123 0 0 0 0 21430247.474836111 27012183.774236679 0 27012183.774236679 -11929679.080596924 0 0 0 0 15689336.231879711 21995492.440767288 0 21995492.440767288 -15461922.325706482 0 0 0 0 25137163.886728764 20348178.183475494 0 20348178.183475494 -6892529.2083423734 0 0 0 0 13284954.919647574 23201582.203109741 0 23201582.203109741 -6915897.5562057495 0 0 0 0 10830115.016947031 18024161.51845932 0 18024161.51845932 4897772.6608448029 0 0 0 0 -3707816.4882695973 6692547.0453255177 0 6692547.0453255177 -3792307.8376235962 0 0 0 0 2660385.8909611702 10048954.347309113 0 10048954.347309113 -13025480.474060059 0 0 0 0 -5980161.8700277805 20494604.221773148 0 20494604.221773148 18867008.366618156 0 0 0 0 5103162.5561800003 34924095.026973724 0 34924095.026973724 34461730.59910202 0 0 0 0 209307.12433283264 348436.46102641616 0 348436.46102641616 -921154.38077242486 0 0 0 0 -6721885.1010274887 -789791.633893013 0 -789791.633893013 2756814.6554193497 0 0 0 0 -5823035.8255872726 -239986.0853497982 0 -239986.0853497982 2314305.0861363411 0 0 0 0 -2578650.6233320311 1479662.4869988156 0 1479662.4869988156 2182370.5996660222 0 0 0 0 -5774171.8267197609 955016.42258286476 0 955016.42258286476 4298522.7795244455 0 0 0 0 -2371386.7312716255 2001015.7414033883 0 2001015.7414033883 5795953.509763143 0 0 0 0 -112099.29817974521 3813626.7466614228 0 3813626.7466614228 1078252.145509175 0 0 0 0 4272096.9338622093 11530205.322443128 0 11530205.322443128 17978492.794754505 0 0 0 0 -2226270.4670324326 3484667.2890272141 0 3484667.2890272141 10787148.29531765 0 0 0 0 -1504958.5151562691 9366841.0887104273 0 9366841.0887104273 28108671.415005155 0 0 0 0 1371508.7229757309 4703639.0323328972 0 4703639.0323328972 8402556.7466392517 0 0 0 0 -420838.4157075882 6181492.8178358078 0 6181492.8178358078 12798446.754166603 0 0 0 0 -1517727.741724968 1511317.6825256348 0 1511317.6825256348 6726282.8923397064 0 0 0 0 -420628.23973178864 1635568.0424757004 0 1635568.0424757004 6706375.8180007935 0 0 0 0 -5187053.7972989082 756549.21368122101 0 756549.21368122101 7182888.3605237007 0 0 0 0 -2465401.3347136974 2671258.2119522095 0 2671258.2119522095 5327204.9624967575 0 0 0 0 -1626022.4550544336 1624938.5918590708 0 1624938.5918590708 4983875.0195169756 0 0 0 0 -2093794.0519646406 952640.1324057579 0 952640.1324057579 3484510.1999359131 0 0 0 0 -1254185.6935548782 2963344.2530117035 0 2963344.2530117035 4555076.5210065842 0 0 0 0 -1226.1943216323853 4097694.9656229019 0 4097694.9656229019 7780124.8020687103 0 0 0 0 -2066287.2343416214 1411428.7266254425 0 1411428.7266254425 3653350.5967946053 0 0 0 0 -2675173.8391983509 2037048.9659109116 0 2037048.9659109116 3010784.3773345947 0 0 0 0 -1602407.1991333147 2261139.7335466756 0 2261139.7335466756 4626974.8671282157 0 0 0 0 -15590733.261968613 1991529.5601742268 0 1991529.5601742268 14479589.819180489 0 0 0 0 -4865913.5898475647 695852.76944732666 0 695852.76944732666 3909011.6612315178 0 0 0 0 -11666682.810090065 -1244202.5346744061 0 -1244202.5346744061 3403433.4593214989 0 0 0 0 -10276985.328949928 -6783382.5058563948 0 -6783382.5058563948 24137478.30575943 0 0 0 0 -12304783.14610815 -3441566.7289741635 0 -3441566.7289741635 5051051.142056942 0 0 0 0 -5155044.2901740074 -1815705.606315732 0 -1815705.606315732 -952481.80580854416 0 0 0 0 -7015487.8811173439 -7207286.1434733868 0 -7207286.1434733868 1247281.825729847 0 0 0 0 -332737.87127931509 44561.12675275933 0 44561.12675275933 347124.52068477683 0 0 0 0 -8056568.252310276 36371993.329576969 0 36371993.329576969 37793656.880517006 0 0 0 0 -15783495.132900238 -577557.28556323051 0 -577557.28556323051 18963363.149384022 0 0 0 0 -2294965.3237857819 -9242451.5802345276 0 -9242451.5802345276 15692746.123768091 0 0 0 0 1916798.8098745346 -18269869.980920792 0 -18269869.980920792 13173323.929088593 0 0 0 0 -22068828.834010243 -16168635.318222314 0 -16168635.318222314 21934733.168883324 0 0 0 0 844077.65153121948 -12074356.79934597 0 -12074356.79934597 13346066.070958972 0 0 0 0 -6067382.3610305786 -8966981.5361220837 0 -8966981.5361220837 12675034.618670464 0 0 0 0 -19592947.891362429 -3196085.988621816 0 -3196085.988621816 17474111.009340763 0 0 0 0 -724867.08880249923 -15810.813424613327 0 -15810.813424613327 721641.85931752133 0 0 0 0 -6451866.2984199524 -2317237.7461832166 0 -2317237.7461832166 763436.40570020676 0 0 0 0 -11590601.979326248 -1499401.5225048065 0 -1499401.5225048065 17292722.952855363 0 0 0 0 -11484214.687119246 -2503484.2603911161 0 -2503484.2603911161 5001505.0679550171 0 0 0 0 -1379468.5508756638 -5686753.3430473804 0 -5686753.3430473804 -3132973.4223506451 0 0 0 0 -6860905.4045057297 -7872032.7622417808 0 -7872032.7622417808 -2384498.8149995804 0 0 0 0 -1191216.3887223988 -156331.42208563536 0 -156331.42208563536 1004135.0550324863 0 0 0 0 -3881450.9077630043 -855960.71410155296 0 -855960.71410155296 2531394.0099108219 0 0 0 0 -2258187.3826313019 -866020.60100626945 0 -866020.60100626945 374114.18698528409 0 0 0 0 -3082834.3241510391 -2547258.382270515 0 -2547258.382270515 -2831546.9089262187 0 0 0 0 4635303.8472156525 2124878.9675252438 0 2124878.9675252438 -914434.66382217407 0 0 0 0 52109.098541259766 -4193268.9641878605 0 -4193268.9641878605 -2359620.6129758358 0 0 0 0 -2240050.6433978081 -1425794.6620953083 0 -1425794.6620953083 -4810005.5382397771 0 0 0 0 5181547.9829201698 -444045.92107057571 0 -444045.92107057571 -309890.82857894897 0 0 0 0 -1978492.3074097633 -6828277.4605637789 0 -6828277.4605637789 2209783.35054636 0 0 0 0 2576849.5739803314 -4262091.5392484665 0 -4262091.5392484665 2894832.3063536882 0 0 0 0 7710484.2936935425 -2171253.2217917442 0 -2171253.2217917442 860542.80307912827 0 0 0 0 4085463.4505872726 1203491.4198372364 0 1203491.4198372364 878063.33075004816 0 0 0 0 5419418.8261632919 3277901.3145189285 0 3277901.3145189285 1556088.7637835741 0 0 0 0 6285177.4653921127 4468933.6951653957 0 4468933.6951653957 3176126.4891571999 0 0 0 0 3946054.0442171097 5669685.2354373932 0 5669685.2354373932 6964734.6524944305 0 0 0 0 -1536191.668844223 55261.635214924812 0 55261.635214924812 2464379.5745124817 0 0 0 0 9092092.6839570999 4646315.7579030991 0 4646315.7579030991 2968078.3101043701 0 0 0 0 8658075.1984367371 9418522.8976616859 0 9418522.8976616859 7640161.9597587585 0 0 0 0 15162796.500515938 7805288.5036249161 0 7805288.5036249161 3548419.7978038788 0 0 0 0 16079289.588089287 -1963458.3382371366 0 -1963458.3382371366 2692826.1847953796 0 0 0 0 28967303.189682007 11055580.851830244 0 11055580.851830244 7645992.5151002742 0 0 0 0 9848681.9400587082 -10078079.966234207 0 -10078079.966234207 7405237.7971367836 0 0 0 0 12368227.316243172 126846.94647240639 0 126846.94647240639 1989078.8560438156 0 0 0 0 37442165.222590446 61129.002826690674 0 61129.002826690674 2846499.8890002966 0 0 0 0 736109.10758876801 -9931433.2695364952 0 -9931433.2695364952 10161700.830702782 0 0 0 0 1910759.8929481506 -16386143.589488506 0 -16386143.589488506 30956603.967405796 0 0 0 0 29185096.302158833 -23717919.197360277 0 -23717919.197360277 13270902.162689209 0 0 0 0 39799318.627630234 -15646486.000450134 0 -15646486.000450134 -1000242.8284711838 0 0 0 0 30940994.714313507 -2088507.8450169563 0 -2088507.8450169563 18751112.363344669 0 0 0 0 23170469.207287788 -18528035.002481461 0 -18528035.002481461 16394397.866072655 0 0 0 0 15041453.286529541 11618696.745333433 0 11618696.745333433 11580334.589049339 0 0 0 0 -255521.56290042982 171017.15648496873 0 171017.15648496873 293210.65651553031 0 0 0 0 -259439.04142386164 16783.420830330579 0 16783.420830330579 327080.35354249924 0 0 0 0 32083892.05223465 5893752.1736078262 0 5893752.1736078262 13114740.267251015 0 0 0 0 34268421.972540647 14530689.535186395 0 14530689.535186395 8016235.0454082489 0 0 0 0 33521339.677264214 21757392.920312405 0 21757392.920312405 5485713.0384073257 0 0 0 0 24626777.844898224 17248625.558681011 0 17248625.558681011 3391256.7063970566 0 0 0 0 18350952.938732147 25108865.523681104 0 25108865.523681104 8566285.7578926086 0 0 0 0 29303217.11669302 18246237.126605988 0 18246237.126605988 5375851.6172800064 0 0 0 0 51617060.167123795 6279262.6897733212 0 6279262.6897733212 7203614.4483290613 0 0 0 0 123725.44393372518 389512.28030452598 0 389512.28030452598 96145.815764945466 0 0 0 0 -77874499.440270424 10037053.207040429 0 10037053.207040429 42304487.213201046 0 0 0 0 147897832.3930459 27806150.946641445 0 27806150.946641445 -29030780.310116291 0 0 0 0 1500688.4570763111 432848.43431162834 0 432848.43431162834 -1072304.8946294785 0 0 0 0 -421352.70850951411 312888.85288191843 0 312888.85288191843 513650.93462109286 0 0 0 0 -21528160.688275814 6064492.60820961 0 6064492.60820961 21771779.176955342 0 0 0 0 -462531.27348291175 15845.767030831194 0 15845.767030831194 657433.22303061374 0 0 0 0 4270776.5600601435 5003176.6649709344 0 5003176.6649709344 5177976.5149888992 0 0 0 0 38241972.967217445 25775336.031701803 0 25775336.031701803 1571024.816795826 0 0 0 0 -10420622.766850471 -2345363.6506180763 0 -2345363.6506180763 -7709329.1062440872 0 0 0 0 1213884.7287244797 17551510.193397522 0 17551510.193397522 17301987.42041558 0 0 0 0 -1041931.5604874492 -5382365.0132181644 0 -5382365.0132181644 11510865.120312214 0 0 0 0 -49461515.187670231 19649315.566710949 0 19649315.566710949 -2755596.685278371 0 0 0 0 -30117922.609665871 -9994316.7862586975 0 -9994316.7862586975 -2251747.9931934103 0 0 0 0 -63046338.008402824 -13020319.303121567 0 -13020319.303121567 24218063.215686321 0 0 0 0 -24913054.191344261 2428762.375135541 0 2428762.375135541 26527185.218202353 0 0 0 0 -12333476.620089054 -11509226.721048594 0 -11509226.721048594 22455644.724205315 0 0 0 0 -11844735.305202961 -2267379.4021310806 0 -2267379.4021310806 24388033.578747988 0 0 0 0 -28590624.399901628 3176339.7521321177 0 3176339.7521321177 31801390.491380692 0 0 0 0 -31057582.305685997 -1720453.3723241091 0 -1720453.3723241091 25376879.119576693 0 0 0 0 -44136214.120115757 12539706.963664174 0 12539706.963664174 29537909.529178143 0 0 0 0 -19757371.470413417 18347063.320843093 0 18347063.320843093 30712850.845071316 0 0 0 0 784632.7825012207 28621753.183866858 0 28621753.183866858 2387664.1350948811 0 0 0 0 -18677628.835865498 7239541.4788664877 0 7239541.4788664877 13455118.095341682 0 0 0 0 -963654.49207958579 -3756834.8584703058 0 -3756834.8584703058 5093922.4965186119 0 0 0 0 -5712161.6109662056 1909563.0375518799 0 1909563.0375518799 2266542.9829933643 0 0 0 0 -4672314.9699559212 -1461458.7827868462 0 -1461458.7827868462 10438279.238445103 0 0 0 0 -8771919.8540878296 -135063.5411850214 0 -135063.5411850214 10084029.793057442 0 0 0 0 -409768.65398006316 233507.74687633594 0 233507.74687633594 453876.73344550445 0 0 0 0 3316702.0715141296 2958117.2333421707 0 2958117.2333421707 3292362.6209516525 0 0 0 0 4567662.4535365105 5106686.9374919534 0 5106686.9374919534 5066786.2274985313 0 0 0 0 36740875.097612381 106419491.08489424 0 106419491.08489424 4806083.5299282074 0 0 0 0 7722357.3679418564 -21523602.720260143 0 -21523602.720260143 23775259.657689095 0 0 0 0 124692309.31497955 -52234958.562006712 0 -52234958.562006712 26166679.892934799 0 0 0 0 -30107661.704390526 37962831.136037588 0 37962831.136037588 57811335.196201563 0 0 0 0 -374185.47928228392 145665.84051601472 0 145665.84051601472 646904.03806354362 0 0 0 0 -792411.67208051682 -317036.5046646595 0 -317036.5046646595 366853.17168283463 0 0 0 0 -1295714.4871401787 -120999.39508104324 0 -120999.39508104324 293697.43379759789 0 0 0 0 9089971.8920607567 1418285.6906613111 0 1418285.6906613111 -3295642.1460285187 0 0 0 0 6063655.7656731606 5659449.8150186539 0 5659449.8150186539 2017967.2086288929 0 0 0 0 2403448.100631237 3425373.1159439981 0 3425373.1159439981 -5251494.4122934341 0 0 0 0 2482982.8018426895 48141.14371407032 0 48141.14371407032 3477567.7681665719 0 0 0 0 4637949.5846672058 -3148022.782951057 0 -3148022.782951057 -11505293.277857065 0 0 0 0 -66047.228236571886 -186642.02150647389 0 -186642.02150647389 194653.23167515674 0 0 0 0 -3089641.7142019272 -2548714.3067827225 0 -2548714.3067827225 -1236351.470656693 0 0 0 0 8096869.3656260371 9883693.4803656563 0 9883693.4803656563 -769063.06445527077 0 0 0 0 -224320.44345760532 132734.85144919041 0 132734.85144919041 237048.57551367162 0 0 0 0 -6352718.1305923462 9004229.0089899302 0 9004229.0089899302 6655430.866258502 0 0 0 0 -3014348.4703128338 -8332788.6316036284 0 -8332788.6316036284 37060519.248383641 0 0 0 0 12061262.728865147 -5051376.7435393929 0 -5051376.7435393929 -1581072.4155701995 0 0 0 0 3784537.7924208641 8309057.22185269 0 8309057.22185269 18800978.514356792 0 0 0 0 -1958391.148090601 -882993.73341232538 0 -882993.73341232538 875101.388245821 0 0 0 0 -1997605.4478440285 -588816.2854719162 0 -588816.2854719162 3750641.2138342261 0 0 0 0 -5227.7557306233793 324714.4915088102 0 324714.4915088102 268980.91792422137 0 0 0 0 -2072564.3334271908 1445482.4638541341 0 1445482.4638541341 -9375280.0153409094 0 0 0 0 6426119.582998991 2408673.2667150199 0 2408673.2667150199 -5426229.7158710659 0 0 0 0 -1295803.1569589023 -108878.52369340626 0 -108878.52369340626 -1363167.6619022489 0 0 0 0 751165.20470276056 -255110.27826132768 0 -255110.27826132768 1472.4185879422075 0 0 0 0 270579.65182209015 6008392.9738134444 0 6008392.9738134444 30952719.697135329 0 0 0 0 5478518.3492593765 -7030829.4413745999 0 -7030829.4413745999 7664877.8247699142 0 0 0 0 1275652.0153575563 -474812.24944727804 0 -474812.24944727804 200730.55249455577 0 0 0 0 172792.41035710881 236608.75579609419 0 236608.75579609419 -154234.14678200154 0 0 0 0 -141223158.23813391 -58957200.030481279 0 -58957200.030481279 215253150.09179729 0 0 0 0 -8130544.1739034653 20745664.732631683 0 20745664.732631683 91491068.970333695 0 0 0 0 1209665.2281813622 12311500.702134222 0 12311500.702134222 71352450.755848765 0 0 0 0 -6205712.8581371307 -7659227.6687654853 0 -7659227.6687654853 57620597.144530773 0 0 0 0 -13134540.768965721 -10007627.909063995 0 -10007627.909063995 91629219.040457487 0 0 0 0 -29313091.688057899 -15800442.460111082 0 -15800442.460111082 109856311.46605384 0 0 0 0 -8473662.6217634678 -12055794.446826607 0 -12055794.446826607 54016602.332921743 0 0 0 0 -1370483.0741820335 -10762344.550703287 0 -10762344.550703287 58499783.86898756 0 0 0 0 -5685389.7456693649 -6676597.8417190015 0 -6676597.8417190015 44949513.040887356 0 0 0 0 -10476460.78584528 -4909365.3716987967 0 -4909365.3716987967 51499478.052935481 0 0 0 0 -8098796.5819787979 -8023078.1054032445 0 -8023078.1054032445 42623289.589835823 0 0 0 0 -7870882.3445210457 -16295913.146510839 0 -16295913.146510839 54558610.932601333 0 0 0 0 -7222394.0584816933 -13458465.180463552 0 -13458465.180463552 42542192.868819952 0 0 0 0 -9964065.5186510086 -12040719.08583349 0 -12040719.08583349 54390187.99219358 0 0 0 0 -6963170.822555542 -10528664.880904734 0 -10528664.880904734 43278942.191819787 0 0 0 0 -8576525.6035603881 -1983814.7586586028 0 -1983814.7586586028 29812277.477540255 0 0 0 0 -2948852.0187625885 -6569528.4292011186 0 -6569528.4292011186 23178130.035500765 0 0 0 0 -4731561.5309028625 -6062941.5019792318 0 -6062941.5019792318 23995778.660089016 0 0 0 0 -4213667.5296844244 -14145970.417013161 0 -14145970.417013161 37846549.996520042 0 0 0 0 -4863735.5975217819 -17448030.381014466 0 -17448030.381014466 36747138.683321714 0 0 0 0 -8862171.1101074219 -17071272.211156487 0 -17071272.211156487 59261883.594407111 0 0 0 0 16647043.992703438 21685363.138280392 0 21685363.138280392 55371553.048719049 0 0 0 0 553206.40481853485 -7407122.6096941829 0 -7407122.6096941829 50803776.897731543 0 0 0 0 -3577245.7257518768 -1350598.6957592517 0 -1350598.6957592517 44403195.407050848 0 0 0 0 26502719.000407696 -17382650.886490405 0 -17382650.886490405 51182184.327008605 0 0 0 0 -7324239.8747630119 -7865930.1130314469 0 -7865930.1130314469 68027876.643659115 0 0 0 0 16956296.879498243 15888058.622583747 0 15888058.622583747 40423090.071122766 0 0 0 0 103987885.59397173 110656.76295638084 0 110656.76295638084 43163393.173335671 0 0 0 0 -34780.418381449592 -65888.7576872051 0 -65888.7576872051 147389.75152023754 0 0 0 0 -12204264.620799541 59758218.694255888 0 59758218.694255888 57067766.467064977 0 0 0 0 12234064.720809698 30392079.567694098 0 30392079.567694098 89649232.899357796 0 0 0 0 43543191.375840187 2531306.5891098976 0 2531306.5891098976 65062596.995873213 0 0 0 0 36575333.802921474 50926772.048105367 0 50926772.048105367 83639548.831182241 0 0 0 0 8540413.2108246088 17430835.793627843 0 17430835.793627843 58995618.976934314 0 0 0 0 26682116.058147907 56987355.255424857 0 56987355.255424857 90376265.164010406 0 0 0 0 -3364167.9254169464 10554541.323071957 0 10554541.323071957 107041675.75151205 0 0 0 0 -3049960.5564019904 -6108638.4910517568 0 -6108638.4910517568 60022062.869861364 0 0 0 0 1578550.6343829632 -26084916.940894052 0 -26084916.940894052 59025813.084186316 0 0 0 0 14140895.144691706 -25411062.910232127 0 -25411062.910232127 13853114.250603437 0 0 0 0 -7112932.6355051994 -4357887.1054512262 0 -4357887.1054512262 10393980.101508871 0 0 0 0 -7227907.3246426582 3523677.118113637 0 3523677.118113637 49028621.06458801 0 0 0 0 -30314519.300738811 -13735628.707313538 0 -13735628.707313538 21522150.483650148 0 0 0 0 -28338586.976541117 10934059.869610911 0 10934059.869610911 41630307.443413615 0 0 0 0 -5399786.9989871979 15166488.145196736 0 15166488.145196736 38510813.858277142 0 0 0 0 -7118521.3586544991 30565975.323759377 0 30565975.323759377 71137431.150759131 0 0 0 0 5560263.1561284065 19265945.88296029 0 19265945.88296029 37876071.606962144 0 0 0 0 -15215286.623429298 4120029.0851341486 0 4120029.0851341486 33651586.399108648 0 0 0 0 -15386111.728438377 16819335.554618895 0 16819335.554618895 44528170.287044466 0 0 0 0 -2026339.6853658417 675702.34783621307 0 675702.34783621307 1216779.3051041516 0 0 0 0 -4854120.032333374 12251677.98601488 0 12251677.98601488 33192938.953766823 0 0 0 0 947216.52538251877 -4221695.8434869051 0 -4221695.8434869051 -8986731.5919297338 0 0 0 0 -4336559.1189451218 2697178.6249743104 0 2697178.6249743104 -669653.79678584635 0 0 0 0 -955042.9919841392 -73550.80684691458 0 -73550.80684691458 471538.87839138933 0 0 0 0 -806723.96709968988 179528.2186749595 0 179528.2186749595 633534.78651152854 0 0 0 0 -3240692.7289834023 6103423.9204090536 0 6103423.9204090536 16756408.210562587 0 0 0 0 -3257447.9679564238 3993081.2607331723 0 3993081.2607331723 616163.28912055492 0 0 0 0 -8745372.5210136175 -12537108.280222774 0 -12537108.280222774 8060659.155451417 0 0 0 0 -8741160.4087095261 -11364642.066877723 0 -11364642.066877723 24350421.437575102 0 0 0 0 25416731.281868935 30336853.733863354 0 30336853.733863354 39963795.840673923 0 0 0 0 -167514.78596399562 25853.379775915993 0 25853.379775915993 122871.58764805668 0 0 0 0 6407921.8412100077 22305946.144687943 0 22305946.144687943 36796247.580701113 0 0 0 0 23334447.288413599 32856227.96387291 0 32856227.96387291 81482714.732917786 0 0 0 0 -16968200.292507581 -6218441.6760787964 0 -6218441.6760787964 26656910.582572937 0 0 0 0 -7449.954715439625 2636.8667967244983 0 2636.8667967244983 77352.387268677354 0 0 0 0 23301374.403186806 -9147445.317899704 0 -9147445.317899704 -14603390.715053558 0 0 0 0 30681414.995549757 34654214.896654129 0 34654214.896654129 11674069.945549965 0 0 0 0 23209.502659746951 10766959.797914505 0 10766959.797914505 25013722.193572998 0 0 0 0 5030985.5849425662 41809162.446035385 0 41809162.446035385 88147708.114627838 0 0 0 0 11568110.602411155 -7567234.2430534363 0 -7567234.2430534363 -102143.49362564087 0 0 0 0 -9460.0161107424956 8979.2860453194007 0 8979.2860453194007 123944.83985268325 0 0 0 0 13466209.112617638 3466832.9334089756 0 3466832.9334089756 -189600.66770935059 0 0 0 0 1022283.8252809807 -5289268.5861968994 0 -5289268.5861968994 3435555.42237854 0 0 0 0 1698770.666904212 5804263.5442619324 0 5804263.5442619324 3029143.5507774353 0 0 0 0 9854597.3637694065 14580853.82396698 0 14580853.82396698 7147114.9938049316 0 0 0 0 9507659.5692174695 11811479.439583063 0 11811479.439583063 9017554.3060455322 0 0 0 0 12428857.129096951 13815143.639127731 0 13815143.639127731 6470430.5037231445 0 0 0 0 11174356.770653613 15172111.430686951 0 15172111.430686951 5141357.521774292 0 0 0 0 10591134.228458788 13491421.393667221 0 13491421.393667221 8750733.9597930908 0 0 0 0 6838480.0891162157 11051603.055351257 0 11051603.055351257 10654412.688514709 0 0 0 0 13673960.648466676 7290433.6063842773 0 7290433.6063842773 12124895.681602478 0 0 0 0 -1068170.3389860988 4906256.5820503235 0 4906256.5820503235 9359793.542591095 0 0 0 0 -839931.42709682882 2035436.2547111511 0 2035436.2547111511 16051856.332208633 0 0 0 0 4343086.3733492047 4876753.6690864563 0 4876753.6690864563 16773654.865139008 0 0 0 0 2926199.4540082216 9950415.4625873566 0 9950415.4625873566 25973126.07661438 0 0 0 0 -2841417.0025081933 2252467.6206741333 0 2252467.6206741333 26096175.160770416 0 0 0 0 11262648.060346864 17411289.595737457 0 17411289.595737457 31420353.096903354 0 0 0 0 6484743.8462026864 19441599.216091156 0 19441599.216091156 52900122.377177238 0 0 0 0 11905466.80355382 4333020.2178459167 0 4333020.2178459167 10782721.502000809 0 0 0 0 13514800.193812437 -6623807.7392787933 0 -6623807.7392787933 40384186.896644592 0 0 0 0 5808668.4244561419 -38003.187648773193 0 -38003.187648773193 31509089.06489563 0 0 0 0 1463561.1791484896 -47957098.419216156 0 -47957098.419216156 42997823.434242249 0 0 0 0 -3885.6353345974294 43539.634183958173 0 43539.634183958173 161007.29563882202 0 0 0 0 39412593.629579097 53424716.170534134 0 53424716.170534134 21310301.217964172 0 0 0 0 10846254.459870279 12986718.706113815 0 12986718.706113815 18926187.078361511 0 0 0 0 9364923.5417702235 8816608.0529551506 0 8816608.0529551506 19291750.717575073 0 0 0 0 -1218659.4453957379 6540993.1025695801 0 6540993.1025695801 23336675.014572144 0 0 0 0 6145389.1125504076 6276185.9368076324 0 6276185.9368076324 17466008.848445892 0 0 0 0 10597204.979628831 34930454.006266594 0 34930454.006266594 136288105.09204865 0 0 0 0 -35578.425622919305 219855.39485602453 0 219855.39485602453 434933.98846307583 0 0 0 0 32038413.482471675 82089873.497207642 0 82089873.497207642 132890245.52059555 0 0 0 0 23804879.260784056 40960196.773698807 0 40960196.773698807 166105071.11053085 0 0 0 0 15040978.934355048 79424047.162942886 0 79424047.162942886 171042194.66430569 0 0 0 0 -4930171.8619017992 79879646.22094059 0 79879646.22094059 135050582.58428955 0 0 0 0 29511868.98166912 25422502.822811127 0 25422502.822811127 148171019.54724693 0 0 0 0 32884265.521250248 12595465.007856369 0 12595465.007856369 97437189.092750549 0 0 0 0 -5616.1018771532836 14178851.065599442 0 14178851.065599442 102318122.65052605 0 0 0 0 8007684.5017108396 47930256.91220665 0 47930256.91220665 186401558.13115311 0 0 0 0 47920448.66671022 90221698.354804993 0 90221698.354804993 195521457.12871218 0 0 0 0 246007.26071413272 43779810.553859711 0 43779810.553859711 314190367.87009239 0 0 0 0 39505796.662984423 29026771.360935926 0 29026771.360935926 230831107.6010704 0 0 0 0 112571294.5270706 96542495.819862843 0 96542495.819862843 262004931.51993561 0 0 0 0 -45854.435390227191 92750.019044484012 0 92750.019044484012 638464.73950769752 0 0 0 0 44466818.357357144 194187592.75575638 0 194187592.75575638 455900782.31385803 0 0 0 0 -82102771.497007102 254007267.79054308 0 254007267.79054308 942589842.50057697 0 0 0 0 454386.60867294681 42785160.514018118 0 42785160.514018118 418942865.5487709 0 0 0 0 189259543.80340338 378142049.09306145 0 378142049.09306145 42866901.430194855 0 0 0 0 335976.47198426386 527889.26146640256 0 527889.26146640256 353033.05843343586 0 0 0 0 171206079.0370115 464430981.80694389 0 464430981.80694389 283206201.42092514 0 0 0 0 -90388.548372700971 -10095.72003637813 0 -10095.72003637813 406469.76505091693 0 0 0 0 64787071.415992051 232758863.47693443 0 232758863.47693443 343243698.30187988 0 0 0 0 -204122519.00352788 -92595029.998321533 0 -92595029.998321533 186718999.02407646 0 0 0 0 96886967.743168026 141548411.41897202 0 141548411.41897202 -179932196.71952057 0 0 0 0 -41546571.199020565 54664453.573578835 0 54664453.573578835 286132538.74537659 0 0 0 0 -24768699.553345155 78360449.071810722 0 78360449.071810722 280544907.83044434 0 0 0 0 -157494913.24644601 79121133.296920776 0 79121133.296920776 301825776.56222153 0 0 0 0 34099706.494521573 50360086.427963257 0 50360086.427963257 285835359.15714073 0 0 0 0 1686788.1994506596 42313131.574344635 0 42313131.574344635 273396395.38812637 0 0 0 0 12768210.986936975 96029100.370613098 0 96029100.370613098 286457809.6187973 0 0 0 0 -3964571.082575947 63948472.341575623 0 63948472.341575623 243869871.93599319 0 0 0 0 -30233709.340383023 73282217.143981934 0 73282217.143981934 243637778.22262955 0 0 0 0 74753549.344161689 142597445.05894661 0 142597445.05894661 216173896.67757797 0 0 0 0 -22696659.578162849 107576708.240798 0 107576708.240798 296002165.10456848 0 0 0 0 -87608.201351694719 525798.97201558854 0 525798.97201558854 778484.4037590418 0 0 0 0 70852662.945753545 158936131.71169662 0 158936131.71169662 152604077.55229521 0 0 0 0 333289862.4292978 372355827.88341141 0 372355827.88341141 173607097.40578985 0 0 0 0 6532094.8981960416 13048358.410414696 0 13048358.410414696 10653509.830169678 0 0 0 0 -5179278.9639117718 81071.25760269165 0 81071.25760269165 10371611.907223344 0 0 0 0 104156867.09513676 117281180.52816916 0 117281180.52816916 151183599.22462463 0 0 0 0 -560196.87618513638 1117422.8535425253 0 1117422.8535425253 1550898.3605475873 0 0 0 0 -2804272.5380925536 6101305.006860733 0 6101305.006860733 10204826.351937652 0 0 0 0 72929817.833150864 121977877.69014359 0 121977877.69014359 653438033.82004547 0 0 0 0 92025387.048229456 408860071.54603958 0 408860071.54603958 170609527.99617767 0 0 0 0 288266298.56541812 232272646.40461957 0 232272646.40461957 118560709.47633362 0 0 0 0 89489846.832577974 497213231.09009933 0 497213231.09009933 18753257.566505432 0 0 0 0 -259979989.24453104 89329506.973604202 0 89329506.973604202 397416905.23827934 0 0 0 0 334493.45602376165 485991.10286751483 0 485991.10286751483 402604.21921432018 0 0 0 0 -84423234.302170992 254670337.56211853 0 254670337.56211853 489063489.2688942 0 0 0 0 208656517.53386712 93296201.127346039 0 93296201.127346039 -179131797.23482132 0 0 0 0 194443993.00479525 463100931.53639412 0 463100931.53639412 -88858873.820949554 0 0 0 0 275554872.22837913 387657231.98206711 0 387657231.98206711 -19825696.105731964 0 0 0 0 439169828.15163273 185188751.10640192 0 185188751.10640192 80941934.066925049 0 0 0 0 320670477.90961838 403585547.02690554 0 403585547.02690554 344411180.36608505 0 0 0 0 224094000.85742217 463180980.32192802 0 463180980.32192802 944052341.32024956 0 0 0 0 -175541526.47196129 20592767.136714935 0 20592767.136714935 461043427.32732773 0 0 0 0 -386580643.53695202 -144340159.47106934 0 -144340159.47106934 631268811.2583313 0 0 0 0 -239988221.80355898 177146275.98039818 0 177146275.98039818 943390748.53987181 0 0 0 0 -194612508.57396674 51716180.489307404 0 51716180.489307404 941602740.32523727 0 0 0 0 111564525.66029721 -133248940.19724369 0 -133248940.19724369 171113885.42124939 0 0 0 0 249600.40464866962 960152.24993902852 0 960152.24993902852 973683.62380811758 0 0 0 0 1050926559.8106395 550804280.60438347 0 550804280.60438347 293819693.5797348 0 0 0 0 107010454.77867238 -272575690.3980732 0 -272575690.3980732 368164975.65255547 0 0 0 0 41460.150291525992 1184453.516157438 0 1184453.516157438 2410081.4478656501 0 0 0 0 347015390.86784303 220763023.93982697 0 220763023.93982697 67210057.788042068 0 0 0 0 -5203533.1896061897 8857457.750453949 0 8857457.750453949 -3295841.6850776672 0 0 0 0 -566008.73242867202 585876.7036764333 0 585876.7036764333 1297629.7661305945 0 0 0 0 4724466.245662719 72271670.981719971 0 72271670.981719971 62460771.85956192 0 0 0 0 21071391.44529498 46977480.809835434 0 46977480.809835434 21999264.682507515 0 0 0 0 -135045.057702402 179805.95313094184 0 179805.95313094184 379118.46987150237 0 0 0 0 7801405.8917468786 -1486843.0409927368 0 -1486843.0409927368 -3726858.5879058838 0 0 0 0 12496552.016913384 -6142643.0835151672 0 -6142643.0835151672 521621.61325836182 0 0 0 0 15066373.656776667 -2317627.6987380981 0 -2317627.6987380981 -9148775.7237548828 0 0 0 0 18066469.476530164 -5691716.642993927 0 -5691716.642993927 -6141634.1019325256 0 0 0 0 20978001.490485877 7764499.8755643368 0 7764499.8755643368 2298572.2293624878 0 0 0 0 6774160.4282845855 -4108357.7412910461 0 -4108357.7412910461 2193019.3697967529 0 0 0 0 6830335.1682738774 -4980400.2689826488 0 -4980400.2689826488 6033199.4234771729 0 0 0 0 -3013668.4390773838 -14818363.098739624 0 -14818363.098739624 -2981701.5271644592 0 0 0 0 -808359.64409714937 4859139.3707523346 0 4859139.3707523346 7583620.0982666016 0 0 0 0 4555299.138297677 -2810207.9360408783 0 -2810207.9360408783 2954975.1338996887 0 0 0 0 -541948.81762620783 447983.43116617051 0 447983.43116617051 3650369.4529513754 0 0 0 0 7484943.2522084713 -2282811.545375824 0 -2282811.545375824 -2112500.6404895782 0 0 0 0 6968846.4717757702 -4631187.778465271 0 -4631187.778465271 4275839.1600761414 0 0 0 0 -349269.96149778366 1713062.0812301636 0 1713062.0812301636 5684900.1250238419 0 0 0 0 -3343476.4895243049 -1034289.8378372192 0 -1034289.8378372192 3192773.7098445892 0 0 0 0 1336179.4917610139 -5570337.9641208649 0 -5570337.9641208649 6140945.0126953125 0 0 0 0 9405634.0434403419 -341756.56116485596 0 -341756.56116485596 4888581.8975524902 0 0 0 0 4913372.5549430847 469765.42172622681 0 469765.42172622681 11029048.557144165 0 0 0 0 6737716.7136839032 -6770254.8010444641 0 -6770254.8010444641 -2307308.4021759033 0 0 0 0 138606.94658303799 -31991.683078221744 0 -31991.683078221744 19123.439992181957 0 0 0 0 1019184.1777496338 -8075564.6184959412 0 -8075564.6184959412 10058199.627296448 0 0 0 0 -2738166.5784098096 -6296548.5534172058 0 -6296548.5534172058 7373380.6563034058 0 0 0 0 2183219.2238743752 -6310632.3822898865 0 -6310632.3822898865 -823805.46689605713 0 0 0 0 -113188.77734320736 -106235.03263672814 0 -106235.03263672814 366889.61144215986 0 0 0 0 4225170.7678953409 -273111.57305526733 0 -273111.57305526733 3669952.4720954895 0 0 0 0 261894.22485539317 -3403219.9875946045 0 -3403219.9875946045 -1000887.9599215984 0 0 0 0 892893.48408398824 -953667.00450134277 0 -953667.00450134277 1139721.292098999 0 0 0 0 139663.41494337085 56411.006000454538 0 56411.006000454538 5897965.8533048695 0 0 0 0 2145740.3677004129 1039057.4821076393 0 1039057.4821076393 2211858.3191986084 0 0 0 0 -7476980.0173806548 7847394.0778203011 0 7847394.0778203011 3998168.3210906982 0 0 0 0 -326397.50232843129 822478.62711842405 0 822478.62711842405 4636061.9940981455 0 0 0 0 -2569300.7482644469 -270520.40276145935 0 -270520.40276145935 2172462.1860313416 0 0 0 0 -2074232.338244915 279990.51068115234 0 279990.51068115234 2784000.3882961273 0 0 0 0 -858268.4741957821 -873868.35701751709 0 -873868.35701751709 1576598.9609375 0 0 0 0 358880.42814402853 -544482.65220884047 0 -544482.65220884047 886538.88226661645 0 0 0 0 -2930167.1988864969 -987711.35784602165 0 -987711.35784602165 1996908.503036499 0 0 0 0 -2796047.0391876455 -27109.367488861084 0 -27109.367488861084 2093251.1865158081 0 0 0 0 -3240658.3610107303 8638738.0987091064 0 8638738.0987091064 2515645.2213745117 0 0 0 0 -6853957.2341624498 -1042864.6650695801 0 -1042864.6650695801 1255664.9810028076 0 0 0 0 -24889491.532362521 6301331.56498909 0 6301331.56498909 18945679.154949188 0 0 0 0 -556321.9860816584 -779616.4159194387 0 -779616.4159194387 4992348.6232421063 0 0 0 0 -6124447.8115891218 -3990193.398100853 0 -3990193.398100853 2586977.0768852234 0 0 0 0 -17139.63244301642 -30453.090216021985 0 -30453.090216021985 62785.617766988929 0 0 0 0 -9376590.5185863152 -3763816.7881202698 0 -3763816.7881202698 1854013.6778259277 0 0 0 0 2255928.7458145022 23573096.539873123 0 23573096.539873123 16887472.394763947 0 0 0 0 9686875.4701209068 7585220.1669082642 0 7585220.1669082642 -322192.47611618042 0 0 0 0 -4118834.2090553343 12373691.533745766 0 12373691.533745766 -956256.05480194092 0 0 0 0 21157.035100757173 983520.35223667161 0 983520.35223667161 110848.20154732838 0 0 0 0 -547483.92723846075 -66910.229645520099 0 -66910.229645520099 3508763.0404220689 0 0 0 0 -1458677.68627619 189284.20642232895 0 189284.20642232895 3641477.6035461426 0 0 0 0 -5420498.3508198485 -2036900.0724556446 0 -2036900.0724556446 6313191.8219299316 0 0 0 0 -2229153.1460832953 4547221.5310726166 0 4547221.5310726166 2466034.6576766968 0 0 0 0 83131.503698148998 1098288.0804867949 0 1098288.0804867949 4095457.2817933667 0 0 0 0 837609.11999678612 -385368.30949401855 0 -385368.30949401855 670218.94388008118 0 0 0 0 -16170848.929079123 8015451.0876817703 0 8015451.0876817703 12442014.21023941 0 0 0 0 259699.08675795794 -2478344.3709754944 0 -2478344.3709754944 1744957.8268699646 0 0 0 0 -3189197.0046991706 9058459.2551813126 0 9058459.2551813126 -6883076.6599884033 0 0 0 0 -4435.5196708512085 166763.37183068134 0 166763.37183068134 779173.65344320703 0 0 0 0 11822178.505732968 2800859.403470993 0 2800859.403470993 414274.82530593872 0 0 0 0 -9964781.5227751434 -7092993.7227993011 0 -7092993.7227993011 16541464.50091362 0 0 0 0 -1331722.5570747852 695418.13975524902 0 695418.13975524902 22354809.924606323 0 0 0 0 -14183581.020822972 2252302.2203979492 0 2252302.2203979492 17987299.959327698 0 0 0 0 3963631.3545018435 14724546.267368317 0 14724546.267368317 -2970763.2731552124 0 0 0 0 22742401.221709669 1055940.1334877014 0 1055940.1334877014 3751936.6478862762 0 0 0 0 4047987.0476908088 -12398175.05513382 0 -12398175.05513382 27932439.733499527 0 0 0 0 -10908612.279694796 -843915.43546485901 0 -843915.43546485901 39148906.987293243 0 0 0 0 -10484468.136930291 1614275.9682312012 0 1614275.9682312012 24781482.899757385 0 0 0 0 -8107398.5770657063 1940224.5587425232 0 1940224.5587425232 24702722.05762291 0 0 0 0 -5859513.846837014 -4202454.2979450226 0 -4202454.2979450226 -381883.93014526367 0 0 0 0 -7420610.8083641231 2223408.0855388641 0 2223408.0855388641 15442475.701859951 0 0 0 0 -3644598.9439160079 5633078.2234516144 0 5633078.2234516144 15938930.907188416 0 0 0 0 -7673550.016649425 9917837.5255451202 0 9917837.5255451202 24889054.698579788 0 0 0 0 -4681262.617618978 8117801.2529029846 0 8117801.2529029846 8909100.928565979 0 0 0 0 -72009.791387713791 -90415.023474663496 0 -90415.023474663496 63286.187165290117 0 0 0 0 1555528.910153687 599919.14884185791 0 599919.14884185791 -1657907.59522295 0 0 0 0 18277499.453560859 -10340704.606207848 0 -10340704.606207848 3760644.0430450439 0 0 0 0 -200275.02091688872 -129038.0675843592 0 -129038.0675843592 4461524.7206761371 0 0 0 0 -557750.42798072891 1246313.2726852354 0 1246313.2726852354 4954803.1174843274 0 0 0 0 -4222603.5822339654 811383.51980018616 0 811383.51980018616 2224946.4782209396 0 0 0 0 -21054242.6691131 -12131329.690896988 0 -12131329.690896988 19875441.086463928 0 0 0 0 -23764652.519087687 -8448144.127436161 0 -8448144.127436161 9662897.5668182373 0 0 0 0 -7568179.0145630985 2204362.6927032471 0 2204362.6927032471 3041610.8456249237 0 0 0 0 -943403.32918945805 2694908.4971209103 0 2694908.4971209103 5528197.2979679368 0 0 0 0 -10266491.876395762 -7854495.2767848969 0 -7854495.2767848969 47257333.658679962 0 0 0 0 -11362113.780496836 -700481.82464599609 0 -700481.82464599609 3447720.9040641785 0 0 0 0 -590535.03780400753 7007159.9545173645 0 7007159.9545173645 33032061.72644043 0 0 0 0 -379904.65272912383 2276439.0436105728 0 2276439.0436105728 22727169.32503891 0 0 0 0 -1452838.7425647974 -4475610.8171787262 0 -4475610.8171787262 23178578.289078474 0 0 0 0 2326944.3944470882 -6417354.1800079346 0 -6417354.1800079346 6934461.4548130035 0 0 0 0 -532510.67024753452 -1386185.4499988442 0 -1386185.4499988442 935150.93680085614 0 0 0 0 -3799382.14664042 1091112.4375867844 0 1091112.4375867844 10381428.086585999 0 0 0 0 2280913.2509988546 -7895619.3337831497 0 -7895619.3337831497 3009161.9108963013 0 0 0 0 -101803.54938960075 2538659.8441905975 0 2538659.8441905975 12544142.728530884 0 0 0 0 -4616913.5365105867 775157.75332450867 0 775157.75332450867 17738008.48156929 0 0 0 0 18409510.359978616 10494175.3405056 0 10494175.3405056 14468141.136203766 0 0 0 0 74693518.966584325 41393146.049163818 0 41393146.049163818 -7972780.4380607605 0 0 0 0 -117350.51141285883 -248953.57887879544 0 -248953.57887879544 259785.39565521851 0 0 0 0 29562839.213567674 -17904194.976192474 0 -17904194.976192474 -6023268.8464775085 0 0 0 0 -57323196.848120451 12274399.455253601 0 12274399.455253601 32941307.636559486 0 0 0 0 -17099971.854146421 -5846155.7002601624 0 -5846155.7002601624 -23551001.724873543 0 0 0 0 2700420.5325652659 28930282.653390884 0 28930282.653390884 24309549.238044739 0 0 0 0 -20336143.718791902 17632311.47435379 0 17632311.47435379 27731203.270486832 0 0 0 0 -16556423.794840202 -439359.55672645569 0 -439359.55672645569 46403529.441989899 0 0 0 0 -18790413.358666435 29097434.332042694 0 29097434.332042694 12606854.099275589 0 0 0 0 -45319426.086330548 2099313.3633327484 0 2099313.3633327484 83750494.75006485 0 0 0 0 -252675.29151749332 -77948.035641569644 0 -77948.035641569644 646741.65646638954 0 0 0 0 8594760.7282543182 33987657.817041397 0 33987657.817041397 -8502735.2061591148 0 0 0 0 96716727.118678808 -14526495.952270508 0 -14526495.952270508 -68321671.893625259 0 0 0 0 -33766565.016475722 -32594772.007497191 0 -32594772.007497191 24291592.375701904 0 0 0 0 -29281023.321280003 55353392.742630005 0 55353392.742630005 22576436.093153 0 0 0 0 8595181.6895101666 50763121.464918137 0 50763121.464918137 14688208.284158707 0 0 0 0 66685947.833529592 71367422.897041321 0 71367422.897041321 21037573.631658554 0 0 0 0 -2817969.1786160022 60114823.340988159 0 60114823.340988159 96371417.982362747 0 0 0 0 2300534.4793960452 -49388286.070884705 0 -49388286.070884705 77360860.629788637 0 0 0 0 9719082.2017485499 -6764498.2165489197 0 -6764498.2165489197 30296843.512800217 0 0 0 0 13819342.731551196 81043503.420687079 0 81043503.420687079 5482866.6068916321 0 0 0 0 154233.71462582168 -83361.199584566988 0 -83361.199584566988 303364.42878516112 0 0 0 0 -29433265.465872988 978763.29102706909 0 978763.29102706909 -8513767.9032945633 0 0 0 0 -28249732.220338523 -28619446.376578569 0 -28619446.376578569 -6298926.8900756836 0 0 0 0 -505498.26439816394 -726223.69694187865 0 -726223.69694187865 1991639.3610902329 0 0 0 0 -35383954.311189115 -34510157.364509583 0 -34510157.364509583 70136036.256783009 0 0 0 0 84501778.44488138 -3730649.6039867401 0 -3730649.6039867401 -50568716.241412163 0 0 0 0 356700.2910964879 -793586.59543698188 0 -793586.59543698188 1093357.9204627867 0 0 0 0 1569046.1167395562 4685851.0810770988 0 4685851.0810770988 1437236.2118091583 0 0 0 0 -4935547.7525924444 -1179265.9380950928 0 -1179265.9380950928 6035413.563706398 0 0 0 0 -1135743.8429268259 4172431.4420819283 0 4172431.4420819283 8263131.0450363159 0 0 0 0 -1353779.0438816249 -2337724.4104442596 0 -2337724.4104442596 2736262.0541496277 0 0 0 0 489320.29368841648 -841235.58002948761 0 -841235.58002948761 3937587.563999176 0 0 0 0 -771752.06924231118 -1063674.8071536147 0 -1063674.8071536147 2366107.5613321513 0 0 0 0 -61714.657347375207 -75404.390236716717 0 -75404.390236716717 751570.67831668747 0 0 0 0 -36037660.714929044 -2297788.957654953 0 -2297788.957654953 8111238.2672119141 0 0 0 0 -2435600.2574697733 54402.456960678101 0 54402.456960678101 6507777.8785905838 0 0 0 0 -109351.77417419835 -740114.24383725959 0 -740114.24383725959 103623.6131118834 0 0 0 0 -215463.50654832617 -236744.22917920724 0 -236744.22917920724 1665083.0575419338 0 0 0 0 -723786.99997623265 -901376.37579154968 0 -901376.37579154968 1945293.4667062759 0 0 0 0 -321350.03544091969 -1172103.3940853036 0 -1172103.3940853036 994595.49644461274 0 0 0 0 -743330.64533555508 -890728.90904998779 0 -890728.90904998779 538591.86161231995 0 0 0 0 -603981.56876890315 -60556.454729407094 0 -60556.454729407094 4449602.0341162132 0 0 0 0 2363569.4219052792 -3139154.5366325378 0 -3139154.5366325378 -4234601.1204566956 0 0 0 0 -283179.00381064898 -533224.04943462275 0 -533224.04943462275 2725063.9728921978 0 0 0 0 -455380.80568471609 -1218244.7971595898 0 -1218244.7971595898 2603511.6755010299 0 0 0 0 -981427.41548401117 -1020012.6378192902 0 -1020012.6378192902 1962908.2208099365 0 0 0 0 115773.85769375577 -216450.13483428955 0 -216450.13483428955 1607781.8943862915 0 0 0 0 -614796.3437929065 -1014973.8859708449 0 -1014973.8859708449 3241346.3838631772 0 0 0 0 -1119854.2103433609 -577713.24351501465 0 -577713.24351501465 1381506.5180664062 0 0 0 0 18404.994619831636 -1006291.7286522848 0 -1006291.7286522848 1422340.7109435461 0 0 0 0 -997627.53594610095 -956572.76412200928 0 -956572.76412200928 2250703.3850326538 0 0 0 0 -437370.18833034363 227753.58529569767 0 227753.58529569767 3688946.8755542384 0 0 0 0 -532262.21298498567 -910993.14965057373 0 -910993.14965057373 1113908.2255744934 0 0 0 0 235256.14028967946 146432.87355927192 0 146432.87355927192 3648543.013267966 0 0 0 0 -660424.13347482681 -156738.02237701416 0 -156738.02237701416 1635298.9828491211 0 0 0 0 12695.289654454678 -1059919.6789838555 0 -1059919.6789838555 1086191.766865693 0 0 0 0 -448561.3889052805 -441445.62627410889 0 -441445.62627410889 1565030.2757263184 0 0 0 0 -4777947.307209637 -3220856.9272918701 0 -3220856.9272918701 3573516.4217567444 0 0 0 0 -74868.939037193108 -748220.91982386296 0 -748220.91982386296 175210.3550526239 0 0 0 0 -5249744.1245527938 -8269878.6561467648 0 -8269878.6561467648 6503345.2977333069 0 0 0 0 -133327.49138199355 -21878.4065652024 0 -21878.4065652024 2162418.2808604222 0 0 0 0 -676425.76263839006 95309.113742828369 0 95309.113742828369 919750.65538454056 0 0 0 0 6572.0050912464503 98320.831197755411 0 98320.831197755411 2477502.8898443598 0 0 0 0 -852893.12946242094 887177.04658317566 0 887177.04658317566 5023436.8517074585 0 0 0 0 -1421414.3452233523 750336.97057151794 0 750336.97057151794 5378279.9877586365 0 0 0 0 -1279802.7348270118 1027358.2598638535 0 1027358.2598638535 5605867.17486763 0 0 0 0 -1028650.0879645944 577260.30627822876 0 577260.30627822876 4610392.2219734192 0 0 0 0 703524.70294845104 -3226267.9997243881 0 -3226267.9997243881 5455617.7955226898 0 0 0 0 -1930100.4643619061 -1813762.3876285553 0 -1813762.3876285553 11460222.662208557 0 0 0 0 118768.53277960265 -130663.46993962419 0 -130663.46993962419 3866181.8251224626 0 0 0 0 -5382708.9767339826 2367641.7488603592 0 2367641.7488603592 12922288.477844238 0 0 0 0 -38703997.681903318 -13815355.627058029 0 -13815355.627058029 2591202.3053779602 0 0 0 0 -5372767.3547204351 30609.354867935181 0 30609.354867935181 -2424129.3301315308 0 0 0 0 -382039.99192481197 636655.44335714076 0 636655.44335714076 528757.76722215861 0 0 0 0 -3990763.5916134119 -28551422.149757385 0 -28551422.149757385 -33278295.501831055 0 0 0 0 -1351579.9581496119 -2501375.7598428726 0 -2501375.7598428726 3846749.9463348389 0 0 0 0 29483299.540469237 30804233.307582855 0 30804233.307582855 -38689913.338053226 0 0 0 0 3327780.9738508463 749418.82247543335 0 749418.82247543335 -85499.127767562866 0 0 0 0 1130680.9187988043 860078.95861434937 0 860078.95861434937 10196080.366033554 0 0 0 0 910417.07693235576 -1012002.1632165909 0 -1012002.1632165909 3976596.6878852844 0 0 0 0 873402.54145026952 -1593701.5281319618 0 -1593701.5281319618 4026081.0446472168 0 0 0 0 8026266.1010281611 83787562.372286081 0 83787562.372286081 832866616.94362068 0 0 0 0 949600.40822643042 -1683277.2652215958 0 -1683277.2652215958 3512688.9421157837 0 0 0 0 369795.55755202333 -722103.60875612684 0 -722103.60875612684 1820385.5248605863 0 0 0 0 -13129833.079329519 -123455986.78791428 0 -123455986.78791428 943964539.46208441 0 0 0 0 -25818156.042853661 46859412.648582458 0 46859412.648582458 192066357.50325012 0 0 0 0 124399.89991610269 -421291.76068930095 0 -421291.76068930095 3496511.6472702287 0 0 0 0 279979801.46695811 428197148.32240677 0 428197148.32240677 79742842.360748291 0 0 0 0 678586.20628488553 -3077089.3244433738 0 -3077089.3244433738 959597.31642863341 0 0 0 0 -154047451.21118683 106102602.82078934 0 106102602.82078934 355241994.75134277 0 0 0 0 590220.70208398066 -1118224.1705442211 0 -1118224.1705442211 319336.72648215108 0 0 0 0 2493136.441566004 -2614118.6643891335 0 -2614118.6643891335 4213943.2140769958 0 0 0 0 232435379.59511921 -481114758.343606 0 -481114758.343606 549265778.840168 0 0 0 0 425021215.48610294 -94462365.557671547 0 -94462365.557671547 21898886.617258549 0 0 0 0 -660297.10862552852 2387776.3995727729 0 2387776.3995727729 -710653.32163505536 0 0 0 0 321829.36383128195 36735.30117514357 0 36735.30117514357 1228504.8130074444 0 0 0 0 2087995.03379336 -1525500.0887117386 0 -1525500.0887117386 1552695.7431025505 0 0 0 0 9044328.1080038715 97258996.512049913 0 97258996.512049913 951907437.57185173 0 0 0 0 965675.90087804198 -2810077.0850582123 0 -2810077.0850582123 8773383.007724762 0 0 0 0 1111242.0770115852 -2672479.9944477081 0 -2672479.9944477081 4218175.0629310608 0 0 0 0 5433797.1177492104 -9308299.1168563366 0 -9308299.1168563366 11019066.928474426 0 0 0 0 4320748.0265674591 -5789332.1270303726 0 -5789332.1270303726 7240293.2839622498 0 0 0 0 -1546395.2228365615 -2990611.6221044064 0 -2990611.6221044064 9465465.2477035522 0 0 0 0 -4272905.9853163362 -996116.55140686035 0 -996116.55140686035 8166365.0986375809 0 0 0 0 -3446177.8661199808 -3795045.3825969696 0 -3795045.3825969696 10452784.662163734 0 0 0 0 659569.32399442839 -5502084.984079361 0 -5502084.984079361 9660992.481842041 0 0 0 0 1131116.0056837015 -4581956.7842350006 0 -4581956.7842350006 9736808.4189109802 0 0 0 0 62751.8594496273 -131048.29860046599 0 -131048.29860046599 175348.06138737686 0 0 0 0 16275831.174191982 -22641068.731884956 0 -22641068.731884956 26777463.937757492 0 0 0 0 -9524650.5811043382 18447046.394012451 0 18447046.394012451 3230483.0744657516 0 0 0 0 39545150.265746951 5385931.272819519 0 5385931.272819519 5973623.1555786133 0 0 0 0 -24415923.641201347 52608248.063989639 0 52608248.063989639 32857902.701965332 0 0 0 0 36367580.189833909 -58517589.747926712 0 -58517589.747926712 19774622.904261947 0 0 0 0 254057.61898984044 -474396.29497714574 0 -474396.29497714574 419943.73210819624 0 0 0 0 166265086.39698648 -254702186.04886436 0 -254702186.04886436 97949045.933119297 0 0 0 0 -35597210.310495511 17071363.376326561 0 17071363.376326561 128806552.66207695 0 0 0 0 -10635307.830891073 28335480.044487 0 28335480.044487 353593133.58154106 0 0 0 0 -211460950.73997238 41227748.444248199 0 41227748.444248199 945219813.62053585 0 0 0 0 -123242647.50713632 -142767870.67067897 0 -142767870.67067897 413510910.28951454 0 0 0 0 -115679836.24207865 -192035241.96754193 0 -192035241.96754193 625615288.21841049 0 0 0 0 -92908798.279837951 -376882500.49052048 0 -376882500.49052048 943370125.12996101 0 0 0 0 261889178.13602495 419716966.61172473 0 419716966.61172473 402455270.63272476 0 0 0 0 -148252871.13459396 315704720.78805447 0 315704720.78805447 943213577.16594696 0 0 0 0 -188224915.77090377 113946165.73854446 0 113946165.73854446 486186424.15868759 0 0 0 0 -59906663.947162136 220554544.6798439 0 220554544.6798439 411469894.55509377 0 0 0 0 11544687.278090801 -15203893.9069767 0 -15203893.9069767 101041124.58308601 0 0 0 0 -55538232.115546793 25641335.198393822 0 25641335.198393822 177840176.96090126 0 0 0 0 -1275344.6493819058 -2191565.8419981003 0 -2191565.8419981003 2774726.5323190689 0 0 0 0 -7748258.796616137 19943549.35754776 0 19943549.35754776 67478106.615534782 0 0 0 0 9764611.7550579756 -22654692.449075699 0 -22654692.449075699 18580626.487846375 0 0 0 0 -2318862.7628603578 -21829239.443029404 0 -21829239.443029404 18645415.266976357 0 0 0 0 -44196.703587090728 7287.6318477848545 0 7287.6318477848545 252405.92144911317 0 0 0 0 7630963.4130782932 -11929490.356739044 0 -11929490.356739044 -14308299.061029434 0 0 0 0 -10979995.661686957 2843784.3389720917 0 2843784.3389720917 29407141.235959053 0 0 0 0 -9966468.9986807406 3481493.8969856501 0 3481493.8969856501 44300415.428871155 0 0 0 0 -18735779.028683186 -4988246.4660024643 0 -4988246.4660024643 37840296.066383362 0 0 0 0 -9179567.4595285654 -32382418.051917076 0 -32382418.051917076 109425656.35247779 0 0 0 0 -14619064.509795427 71014509.993288994 0 71014509.993288994 82990550.453622818 0 0 0 0 951954.45634600683 -757655.64708193578 0 -757655.64708193578 571663.4542976839 0 0 0 0 4555901.8364239931 31994896.183893204 0 31994896.183893204 -38505494.56511116 0 0 0 0 31080101.343574435 -3439720.2201147079 0 -3439720.2201147079 -24772735.760036469 0 0 0 0 68025356.435307741 -78870276.633523941 0 -78870276.633523941 -36444878.664504528 0 0 0 0 876244.0591331569 -822937.89599677827 0 -822937.89599677827 700056.66835161438 0 0 0 0 -16833201.088592395 4632760.4378318787 0 4632760.4378318787 31745374.14580965 0 0 0 0 -47116122.674948812 7267449.0219459534 0 7267449.0219459534 124756079.65534306 0 0 0 0 -14806.676071619615 -146214.42798434896 0 -146214.42798434896 160876.93410551362 0 0 0 0 12404854.287216067 71878945.821466446 0 71878945.821466446 80436852.486292362 0 0 0 0 25053863.239153624 -11374274.768554688 0 -11374274.768554688 4954889.2343940735 0 0 0 0 -1307774.6730759144 -1339335.197722435 0 -1339335.197722435 1139376.4605464935 0 0 0 0 -739625.13210315222 -542315.90819359012 0 -542315.90819359012 827856.0813328221 0 0 0 0 22497120.751143217 1541775.9513411522 0 1541775.9513411522 -1018546.7120113373 0 0 0 0 -902938.74732541514 -297182.23496258911 0 -297182.23496258911 1731540.6234235885 0 0 0 0 259224.07799917459 57169.309166705236 0 57169.309166705236 193830.8389040078 0 0 0 0 1202529.0312964916 -8450059.5635509491 0 -8450059.5635509491 9555001.7448234558 0 0 0 0 -1651406.953209132 -1896891.3579311371 0 -1896891.3579311371 -338195.59972465038 0 0 0 0 -1231936.4034157395 -1245135.2518882751 0 -1245135.2518882751 -377306.24465751648 0 0 0 0 -319203.20658743382 -768762.1876707077 0 -768762.1876707077 -334655.35351542756 0 0 0 0 -451168.53452724218 -519669.67860507965 0 -519669.67860507965 -335637.50399334356 0 0 0 0 -427149.52606827021 -627251.85653114319 0 -627251.85653114319 -135526.68312117457 0 0 0 0 -29247.356007575989 -655666.18865013123 0 -655666.18865013123 -555513.47478866577 0 0 0 0 -257638.45943683386 -894022.83975410461 0 -894022.83975410461 -142486.00470125675 0 0 0 0 -213044.37447029352 -235927.1890039444 0 -235927.1890039444 4431.9304647445679 0 0 0 0 -510956.77677351015 -545348.89743958786 0 -545348.89743958786 647021.98181979405 0 0 0 0 -5876849.7667608708 -9008119.4736853242 0 -9008119.4736853242 36824220.070430756 0 0 0 0 -430305.39798891544 -858836.58637619019 0 -858836.58637619019 952795.29557037354 0 0 0 0 3133808.7456960082 5137907.4439315796 0 5137907.4439315796 11311993.976028442 0 0 0 0 7233346.7918074131 -656359.78022623062 0 -656359.78022623062 7472064.415063858 0 0 0 0 -1012961.2184455395 -1108203.904088974 0 -1108203.904088974 9675036.6204147339 0 0 0 0 36553.411111414433 -2411654.0443105698 0 -2411654.0443105698 3138662.2411384583 0 0 0 0 -1591922.1549708843 -3923820.0964326859 0 -3923820.0964326859 13602859.486948013 0 0 0 0 -27739.879035522084 -23764.565967402421 0 -23764.565967402421 60799.494474055246 0 0 0 0 66902.513563811779 5034831.7710523605 0 5034831.7710523605 16881092.405779123 0 0 0 0 -14111.458730810089 -90148.54522669781 0 -90148.54522669781 65649.429766935995 0 0 0 0 2409192.265638113 -1310189.4505290985 0 -1310189.4505290985 705178.91222953796 0 0 0 0 -6438.8110299098189 -43320.685700757429 0 -43320.685700757429 24828.134178786539 0 0 0 0 -508075.69188503921 -1529063.5642495155 0 -1529063.5642495155 -2622805.3148612976 0 0 0 0 -2152148.6790758967 -2557648.8132224083 0 -2557648.8132224083 16134322.205690384 0 0 0 0 -1706615.7672072649 -1550570.0120677948 0 -1550570.0120677948 13469713.806168079 0 0 0 0 -1449897.5569281578 -2530279.9436950684 0 -2530279.9436950684 12657777.835618973 0 0 0 0 1083823.7969332933 -2472572.0324802399 0 -2472572.0324802399 7097185.4526786804 0 0 0 0 -1598929.1332160234 800619.06775093079 0 800619.06775093079 7811617.7796611786 0 0 0 0 -417472.52335570753 -260903.44950699806 0 -260903.44950699806 9683818.3129234314 0 0 0 0 -877921.43929433823 2261646.8063697815 0 2261646.8063697815 7945162.5566482544 0 0 0 0 -708819.7025077343 1491063.8244628906 0 1491063.8244628906 7671605.3360366821 0 0 0 0 -1073452.4992613792 2404247.6020278931 0 2404247.6020278931 6490772.7595100403 0 0 0 0 -791385.14377325773 1161666.7047247887 0 1161666.7047247887 6912742.7705497742 0 0 0 0 -1460316.8062750101 1761514.037946701 0 1761514.037946701 7338537.7125473022 0 0 0 0 -1278746.7696977258 1624852.1847839355 0 1624852.1847839355 6378803.8178939819 0 0 0 0 -1128921.3060283661 2452330.2790260315 0 2452330.2790260315 16698887.301136971 0 0 0 0 -1477965.0160073042 717335.31392288208 0 717335.31392288208 10963606.575614929 0 0 0 0 -1392762.3807213902 756552.53447246552 0 756552.53447246552 10572660.268440247 0 0 0 0 -778768.42515201867 1318326.3291084766 0 1318326.3291084766 10862578.498313904 0 0 0 0 531996.9225269556 3037141.770942688 0 3037141.770942688 8334554.0132484436 0 0 0 0 921186.45759856701 1486795.4167232513 0 1486795.4167232513 7192575.4714660645 0 0 0 0 1415756.0905524492 2767612.9139614105 0 2767612.9139614105 5925991.9234485626 0 0 0 0 -793774.56541579962 2592365.0532579422 0 2592365.0532579422 6097244.7633972168 0 0 0 0 57874.163041055202 1730640.5426883698 0 1730640.5426883698 6360108.5660438538 0 0 0 0 -1512642.944773972 1360784.9848995209 0 1360784.9848995209 3925706.2135543823 0 0 0 0 1087324.6887655556 1456245.5395178795 0 1456245.5395178795 3919391.7556972504 0 0 0 0 -1459391.5720229149 2253895.2622060776 0 2253895.2622060776 4710416.4268913269 0 0 0 0 -1684949.3370137215 2365059.7089061737 0 2365059.7089061737 5691556.4760742188 0 0 0 0 -899423.37267148495 2299856.9161872864 0 2299856.9161872864 5538850.5600013733 0 0 0 0 -1596403.1262313128 2882564.8623046875 0 2882564.8623046875 4944149.0181732178 0 0 0 0 -1380200.269239068 2017190.4673786163 0 2017190.4673786163 5874395.0915961266 0 0 0 0 -700156.55448901653 1695168.8188614845 0 1695168.8188614845 5813439.5707778931 0 0 0 0 -2159232.9342264533 1930617.7721004486 0 1930617.7721004486 4399437.4723353386 0 0 0 0 -75434.113535225391 2614905.8772220612 0 2614905.8772220612 4542581.5085296631 0 0 0 0 -1240298.4104642868 2738296.9101810455 0 2738296.9101810455 4315610.9247665405 0 0 0 0 -1591169.5984485 3245559.9304676056 0 3245559.9304676056 4028172.6116428375 0 0 0 0 209498.07655155659 5480319.8931951523 0 5480319.8931951523 2616848.0471038818 0 0 0 0 -5215611.3800885677 437362.20013618469 0 437362.20013618469 6765105.3111495972 0 0 0 0 -6841937.5020732433 8384631.8598256111 0 8384631.8598256111 1672504.2948684692 0 0 0 0 -654832.63725295104 1585070.3109415462 0 1585070.3109415462 3472136.4201231785 0 0 0 0 241996.29416668415 1771460.6752901077 0 1771460.6752901077 2629589.4340267181 0 0 0 0 -2040138.409113884 2505735.9693546295 0 2505735.9693546295 2524069.5658605099 0 0 0 0 -780753.61317802989 1707884.8579056999 0 1707884.8579056999 3480610.7834777124 0 0 0 0 -885660.06534962764 1533636.3336896203 0 1533636.3336896203 4214270.7399790045 0 0 0 0 -935922.47010761499 828637.17347669601 0 828637.17347669601 2700294.3806648254 0 0 0 0 -1477963.7547080517 2095994.5701532364 0 2095994.5701532364 3914393.7669010162 0 0 0 0 -1642785.6169697642 -185345.1681201458 0 -185345.1681201458 4159812.6704750061 0 0 0 0 -127862.17667520046 1219934.3222818375 0 1219934.3222818375 3103777.8599967957 0 0 0 0 -973604.40565435996 1723744.8153158529 0 1723744.8153158529 4329464.6771129267 0 0 0 0 -668889.69771754742 1236210.372303009 0 1236210.372303009 2930694.1819200516 0 0 0 0 -3319952.9065836668 -100003.8878326416 0 -100003.8878326416 4289316.3352508545 0 0 0 0 -2706119.7237095833 1190309.8526039124 0 1190309.8526039124 7128987.7681350708 0 0 0 0 944181.17228244245 -914948.72574281693 0 -914948.72574281693 3884010.901763916 0 0 0 0 -608333.82112431526 -4321133.0589866638 0 -4321133.0589866638 2436563.7011904716 0 0 0 0 -487374.95867512689 -1524679.7905633072 0 -1524679.7905633072 5361495.8668180211 0 0 0 0 -868668.64567017555 -5278221.6012694836 0 -5278221.6012694836 3576920.6121635437 0 0 0 0 -1378799.9939659834 -1943180.9621763229 0 -1943180.9621763229 1577133.235291481 0 0 0 0 -532409.95901467022 -297741.8684370867 0 -297741.8684370867 650940.50601210445 0 0 0 0 -1991477.3128828851 2692932.1878229734 0 2692932.1878229734 5950345.1253919387 0 0 0 0 -1975338.548380971 3323651.7816581726 0 3323651.7816581726 1828744.8941726685 0 0 0 0 -18055153.214938179 -3189373.1511595249 0 -3189373.1511595249 10223584.420863628 0 0 0 0 -406300.1590487957 2021689.4249343872 0 2021689.4249343872 1758913.8564828038 0 0 0 0 -2798762.480271697 2159995.1953697205 0 2159995.1953697205 11257089.226730347 0 0 0 0 -458114.51951885223 1710037.3149442673 0 1710037.3149442673 1823881.1642684937 0 0 0 0 -171577.76221656799 1520603.4470825195 0 1520603.4470825195 1948824.5042037964 0 0 0 0 71338.777461027843 2203129.9641024284 0 2203129.9641024284 1164870.5774881579 0 0 0 0 3577203.9931457937 1901905.4910869598 0 1901905.4910869598 -8743330.7652664185 0 0 0 0 -10652.458138058282 305330.33236170094 0 305330.33236170094 717259.94102798053 0 0 0 0 3405676.3657330871 6693043.4646892548 0 6693043.4646892548 -618733.90201997757 0 0 0 0 -1255385.1082162112 2106136.8305044174 0 2106136.8305044174 5532929.0974235535 0 0 0 0 -389858.79058707668 2286370.2323307544 0 2286370.2323307544 2416646.169520563 0 0 0 0 -60189.140684946557 984605.75863020681 0 984605.75863020681 4113520.975357431 0 0 0 0 316167.95229387283 822267.85342788696 0 822267.85342788696 2466373.1337680817 0 0 0 0 268067.11074202013 2517025.6659877924 0 2517025.6659877924 -2186003.474640958 0 0 0 0 82549.555737704039 3762172.1323394775 0 3762172.1323394775 -5073514.5269699097 0 0 0 0 12098091.018615484 2306230.0537109375 0 2306230.0537109375 -5068644.3924455643 0 0 0 0 -1169938.0590644479 1600357.7502536774 0 1600357.7502536774 -2723524.9558143616 0 0 0 0 -220914.55603120811 365732.64434202295 0 365732.64434202295 -1717.8189130276442 0 0 0 0 4395110.7184377909 433575.18400287628 0 433575.18400287628 -2494533.3485908508 0 0 0 0 3783213.8659215569 2115545.5607738495 0 2115545.5607738495 -414481.28476905823 0 0 0 0 10866400.97547859 -3344199.1634054184 0 -3344199.1634054184 -6548928.8260774612 0 0 0 0 315364.4784822464 88255.262642860413 0 88255.262642860413 -5543186.6783542633 0 0 0 0 445058.10254855861 687857.82593088783 0 687857.82593088783 -1213997.9594667666 0 0 0 0 918317.35455912352 4814358.197807312 0 4814358.197807312 -9269346.4285583496 0 0 0 0 -5748732.0772494674 9038705.1705818176 0 9038705.1705818176 8526943.6491069794 0 0 0 0 -3253744.5087486804 3072115.9339103699 0 3072115.9339103699 15505617.134542465 0 0 0 0 92228.37119251609 2115968.9669845905 0 2115968.9669845905 1193483.4764614706 0 0 0 0 1677258.9974633083 1296636.4787993431 0 1296636.4787993431 44800.430637359619 0 0 0 0 3070990.3190897405 6596212.7634506226 0 6596212.7634506226 723847.34516525269 0 0 0 0 275768.55077021936 2015845.0565921171 0 2015845.0565921171 728730.71260515321 0 0 0 0 -268083.91848748841 70127.199659531005 0 70127.199659531005 1046265.9877604675 0 0 0 0 1066302.2788350582 16922034.372684479 0 16922034.372684479 10725068.866438866 0 0 0 0 16557321.199277967 13071641.395968437 0 13071641.395968437 -8361292.8545379639 0 0 0 0 2896154.7554088254 3282949.6968530416 0 3282949.6968530416 3442474.6181488037 0 0 0 0 38292.721562528342 845415.40663484484 0 845415.40663484484 2300165.8405885212 0 0 0 0 -5362241.0391964316 -19219837.551368713 0 -19219837.551368713 18540855.09640789 0 0 0 0 2660785.6102125347 11905338.216587067 0 11905338.216587067 6741736.7940330505 0 0 0 0 -4077577.2869522572 6455865.8379859924 0 6455865.8379859924 4948864.3642463684 0 0 0 0 -318133.66177822649 -10121377.95119524 0 -10121377.95119524 22194663.795740128 0 0 0 0 574055.73644772498 276577.11134887673 0 276577.11134887673 -995385.55060576648 0 0 0 0 8249996.9255132079 1923164.3455018997 0 1923164.3455018997 -4652859.5159168243 0 0 0 0 3837448.1227697134 266617.8927230835 0 266617.8927230835 -4793480.1103110313 0 0 0 0 864208.33678212529 2015640.6306334473 0 2015640.6306334473 553933.13379717851 0 0 0 0 647705.09886527061 -121689.74719429016 0 -121689.74719429016 -625749.4770526886 0 0 0 0 -1560244.7657718658 12138017.795688629 0 12138017.795688629 -16174900.812927246 0 0 0 0 10545626.055461407 4765768.40766716 0 4765768.40766716 -11754413.740028381 0 0 0 0 1239343.8367338707 505747.83610466495 0 505747.83610466495 385280.51774648577 0 0 0 0 9114042.5755600929 29397911.299041748 0 29397911.299041748 -2100976.6505661011 0 0 0 0 -6029554.9340677261 17221501.625989914 0 17221501.625989914 -9856505.4490585327 0 0 0 0 1397150.784249126 1689515.6368172411 0 1689515.6368172411 1083146.4474161016 0 0 0 0 -2343450.1565988064 5495865.9354896545 0 5495865.9354896545 4131434.7233753204 0 0 0 0 1968719.6009120941 -1123218.4814243317 0 -1123218.4814243317 -2035201.4335365295 0 0 0 0 4443203.091506362 613869.5808134079 0 613869.5808134079 6777075.6889457703 0 0 0 0 1624207.4153610629 1615659.4422098864 0 1615659.4422098864 1343540.6348185632 0 0 0 0 -1369631.4254085124 319404.21674537659 0 319404.21674537659 757688.02663421631 0 0 0 0 185698.21998235458 425474.55788786663 0 425474.55788786663 2881184.8448137548 0 0 0 0 -9641457.6349283606 -2235694.7344026566 0 -2235694.7344026566 6473796.7226104736 0 0 0 0 -42113.730954289436 312470.86952018738 0 312470.86952018738 656974.55988311768 0 0 0 0 538423.09401043365 1703181.063456066 0 1703181.063456066 1963150.6237026434 0 0 0 0 6531865.5911512375 3553661.2969284058 0 3553661.2969284058 -18937495.75907135 0 0 0 0 6835205.7609424591 -409180.83232116699 0 -409180.83232116699 -39082804.574020386 0 0 0 0 1576723.2179702325 368790.12129931152 0 368790.12129931152 1599647.412536276 0 0 0 0 210153.49616970564 99888.824288851582 0 99888.824288851582 15194.437362268567 0 0 0 0 -5758820.6386059523 -2382504.7089729309 0 -2382504.7089729309 2072859.9543533325 0 0 0 0 -7348918.397826314 -5542421.514503479 0 -5542421.514503479 11204621.034580231 0 0 0 0 752227.34124316287 254613.61690141074 0 254613.61690141074 2204149.698520191 0 0 0 0 -35792147.83494699 7172640.3793487549 0 7172640.3793487549 5773195.0537261963 0 0 0 0 -483546.05907510582 -325567.21713842265 0 -325567.21713842265 660473.37427939102 0 0 0 0 368245.03795783862 879108.7845369475 0 879108.7845369475 3392409.7920134887 0 0 0 0 -3400265.8368762732 4443902.6543140411 0 4443902.6543140411 5060509.5394058228 0 0 0 0 952520.58077287674 2204478.8059597015 0 2204478.8059597015 3577321.2036161423 0 0 0 0 1705648.447650969 2497810.0525426865 0 2497810.0525426865 3351451.2622299194 0 0 0 0 2792052.6326751709 2515729.071685791 0 2515729.071685791 3424097.0989265442 0 0 0 0 726971.79149322282 1519480.1324615809 0 1519480.1324615809 4905154.3507536426 0 0 0 0 -92558.01398062706 2841649.9663953781 0 2841649.9663953781 4252468.114276886 0 0 0 0 -36327934.0716874 23531.079290390015 0 23531.079290390015 8929084.4063949585 0 0 0 0 1286892.4207494259 3362741.7993021011 0 3362741.7993021011 3970589.1007156372 0 0 0 0 -3381872.0778906345 4267143.3378000259 0 4267143.3378000259 5261574.3722963333 0 0 0 0 310351.58268237195 1901191.4935596923 0 1901191.4935596923 5703324.6241255961 0 0 0 0 1090781.8225547075 5796538.0940365791 0 5796538.0940365791 4783387.1938819885 0 0 0 0 -2586142.6504337788 1633606.4592037201 0 1633606.4592037201 5194092.4476890564 0 0 0 0 4595679.405166328 3063419.3732280731 0 3063419.3732280731 2815220.3753662109 0 0 0 0 5021042.4221863747 3964823.5379295349 0 3964823.5379295349 3986246.6656036377 0 0 0 0 5521034.9835410118 8570310.2170085907 0 8570310.2170085907 11104516.427589417 0 0 0 0 9701593.7153458595 3413700.5659790039 0 3413700.5659790039 3101961.9924201965 0 0 0 0 3750054.7213573456 5507507.8990592957 0 5507507.8990592957 5847335.3729076385 0 0 0 0 1003785.8058381081 5707224.3037166595 0 5707224.3037166595 5941635.3545284271 0 0 0 0 2721718.1269683838 3216596.4281768799 0 3216596.4281768799 2910538.6776046753 0 0 0 0 1405844.3774247169 2888844.3961334229 0 2888844.3961334229 3727315.470085144 0 0 0 0 1991748.4436350465 1417835.4333934784 0 1417835.4333934784 2830282.7912368774 0 0 0 0 3119140.5438034534 2599267.7252750397 0 2599267.7252750397 3482407.3859620094 0 0 0 0 -702872.87917372817 1434313.0736725074 0 1434313.0736725074 2385980.7633438818 0 0 0 0 -280402.70060932636 598086.55029678345 0 598086.55029678345 -7442766.5178768635 0 0 0 0 -25009.774304509163 3800874.7199258804 0 3800874.7199258804 2642557.5215797424 0 0 0 0 -1120316.2916562855 1571079.3386306763 0 1571079.3386306763 3890524.0797023773 0 0 0 0 -3046761.7019760609 2494489.8968200684 0 2494489.8968200684 4287530.9804048538 0 0 0 0 -216376.19791340129 117944.17441803589 0 117944.17441803589 324604.38187169284 0 0 0 0 -1726393.0280521065 2443861.3417553902 0 2443861.3417553902 5484087.2124900818 0 0 0 0 417897.7103221133 1827032.850064436 0 1827032.850064436 812882.82814023923 0 0 0 0 2219330.8274769783 2254151.0989894867 0 2254151.0989894867 2686044.4548883438 0 0 0 0 2984485.7266407013 -1781819.0072555542 0 -1781819.0072555542 1183198.8965454102 0 0 0 0 -2603638.6700667441 -81240.824750900269 0 -81240.824750900269 4018238.8175788522 0 0 0 0 19930684.673097827 -598855.97589588165 0 -598855.97589588165 3967601.279876709 0 0 0 0 10333151.990985466 13598421.38109827 0 13598421.38109827 18650187.221710205 0 0 0 0 -646874.36824320653 -998098.79159626691 0 -998098.79159626691 3144612.0673678536 0 0 0 0 -263760.76941016916 133342.56921643019 0 133342.56921643019 394536.49168496206 0 0 0 0 -98241.018458035542 -3201.1358316577971 0 -3201.1358316577971 242316.86184618808 0 0 0 0 17674660.63604033 7617450.4231262207 0 7617450.4231262207 13366241.473213196 0 0 0 0 10421074.503766418 11956495.435646057 0 11956495.435646057 23744513.809801102 0 0 0 0 -2200123.2545304 1048917.8494119644 0 1048917.8494119644 5541007.1728630066 0 0 0 0 -1434106.3464251906 2137718.1541523933 0 2137718.1541523933 5011807.3246002197 0 0 0 0 -1475598.9492334127 482466.13680076599 0 482466.13680076599 5712442.318365097 0 0 0 0 -2366756.4337674491 -4993098.4413791895 0 -4993098.4413791895 3657196.5457553864 0 0 0 0 -531859.74184513092 37607.100982666016 0 37607.100982666016 3257607.3091907501 0 0 0 0 19357311.506652176 16042894.880298615 0 16042894.880298615 20941730.871846199 0 0 0 0 -793240.74026010756 -615943.03780533839 0 -615943.03780533839 2455859.9766497258 0 0 0 0 10282551.071817756 7444961.9143257141 0 7444961.9143257141 13351637.999485016 0 0 0 0 6068187.3046381474 5418223.3555011749 0 5418223.3555011749 14392729.04964447 0 0 0 0 3108289.1545184851 12168155.156005859 0 12168155.156005859 21603073.146224976 0 0 0 0 759152.36959820986 7781315.1160011292 0 7781315.1160011292 20794857.498920441 0 0 0 0 -1151991.4408122599 1400755.0648398399 0 1400755.0648398399 15330180.821666718 0 0 0 0 5220853.1035132408 206786.82123184204 0 206786.82123184204 6840440.9905395508 0 0 0 0 -618614.88214580086 182462.2574334247 0 182462.2574334247 1921635.9298915826 0 0 0 0 8558355.9467582703 2918443.8009605408 0 2918443.8009605408 9815088.5568504333 0 0 0 0 268983.45247364044 3834940.2020339966 0 3834940.2020339966 10156589.748674393 0 0 0 0 -180086.36699390411 2700741.3830070496 0 2700741.3830070496 11936435.638749599 0 0 0 0 -5247202.0496487617 -499905.51597213745 0 -499905.51597213745 11625423.578169107 0 0 0 0 -1024710.2059051782 923408.66709139943 0 923408.66709139943 3720023.640156745 0 0 0 0 138667275.6676513 -10940380.703987122 0 -10940380.703987122 -27623708.740010262 0 0 0 0 -3107545.3904681206 -1629543.9353237152 0 -1629543.9353237152 5865669.0638046265 0 0 0 0 -61850458.550939679 -6912500.6335353851 0 -6912500.6335353851 45227095.753059387 0 0 0 0 -19902202.262726367 105519850.05458784 0 105519850.05458784 43047173.498214722 0 0 0 0 -2043934.0087351799 -575138.44904327393 0 -575138.44904327393 9147881.5360002518 0 0 0 0 -4552560.4016190767 -2855881.5751113892 0 -2855881.5751113892 10009029.187423706 0 0 0 0 -4252978.731430281 1972711.0359718204 0 1972711.0359718204 12783600.805416107 0 0 0 0 -6832172.2927060127 1896747.1224241257 0 1896747.1224241257 10052440.402355194 0 0 0 0 -4253209.3909235001 1933591.7490668148 0 1933591.7490668148 7200666.4920578003 0 0 0 0 -569531.00507378578 5397911.522228241 0 5397911.522228241 11781925.962985992 0 0 0 0 -114054.86817836761 2824906.216545105 0 2824906.216545105 9880936.9244117737 0 0 0 0 273409.02775144577 5001551.9818973541 0 5001551.9818973541 17323529.849342346 0 0 0 0 5908560.4907546043 5887055.6451721191 0 5887055.6451721191 10678838.578497887 0 0 0 0 20509782.095244288 11868045.862309456 0 11868045.862309456 9264975.1240615845 0 0 0 0 7146306.1055378914 9905468.8991737366 0 9905468.8991737366 22934579.115196228 0 0 0 0 5985026.7942962646 4370121.5027256012 0 4370121.5027256012 13176878.502655029 0 0 0 0 7777270.6683359146 757602.6078453064 0 757602.6078453064 20051008.06408596 0 0 0 0 297123.25233793259 1669870.2836952209 0 1669870.2836952209 14138573.493721008 0 0 0 0 15416.221440548947 1142097.8644256685 0 1142097.8644256685 1307690.8887428641 0 0 0 0 -3068561.9118617177 5231194.130777359 0 5231194.130777359 5077675.9079732895 0 0 0 0 -168489.06725128568 2144553.7578706369 0 2144553.7578706369 6491628.885339994 0 0 0 0 -2286959.102697432 -60668.974092483521 0 -60668.974092483521 2572763.861328125 0 0 0 0 -1737422.8800117075 384133.91785764694 0 384133.91785764694 2834404.8962097168 0 0 0 0 -73862.049804236085 1787401.44307453 0 1787401.44307453 4807268.5474853721 0 0 0 0 138840.29059307737 1619498.6964889776 0 1619498.6964889776 4496057.2471777759 0 0 0 0 -3985956.4418897927 -5198586.2113208771 0 -5198586.2113208771 -681388.61812734604 0 0 0 0 -260554.59540052153 284638.52777693793 0 284638.52777693793 3546682.4229387287 0 0 0 0 -10589749.49469468 -6194326.7313804626 0 -6194326.7313804626 2313653.2440395355 0 0 0 0 625975.44000226259 -1935013.1604614258 0 -1935013.1604614258 -408624.33891296387 0 0 0 0 -188422.01623444149 -482124.0365031478 0 -482124.0365031478 83831.555868536234 0 0 0 0 -9332144.9256239533 -11303843.635255814 0 -11303843.635255814 -9960303.8566627502 0 0 0 0 -65474.124925851887 91880.342848127708 0 91880.342848127708 346471.56639104895 0 0 0 0 -1440566.3693398945 2781601.6211681366 0 2781601.6211681366 4008190.8130378723 0 0 0 0 -61884.169936856269 787940.54719998967 0 787940.54719998967 2903718.839557712 0 0 0 0 6051137.0314666964 6280967.6683702469 0 6280967.6683702469 660883.74912261963 0 0 0 0 -17501.156566511658 524772.93003533408 0 524772.93003533408 331364.52164996788 0 0 0 0 -8998477.0581601337 -2638875.8080635071 0 -2638875.8080635071 9813959.9550514221 0 0 0 0 -1369789.4164385833 3442877.8425109386 0 3442877.8425109386 -2670649.3305358887 0 0 0 0 -7854518.6086948961 5945829.3958244324 0 5945829.3958244324 1919714.5093021393 0 0 0 0 2554964.4350153152 -11632389.602642536 0 -11632389.602642536 16235153.725269318 0 0 0 0 17143.945328066591 105962.99951995583 0 105962.99951995583 77463.53491852805 0 0 0 0 -4595576.8098259643 -7511539.1287536621 0 -7511539.1287536621 32653642.236265182 0 0 0 0 13118242.825326487 8968225.6434249878 0 8968225.6434249878 5204149.7997741699 0 0 0 0 22172170.879138149 16972231.87391758 0 16972231.87391758 -16731197.978431702 0 0 0 0 146772.9669913876 364610.53596800333 0 364610.53596800333 582531.84956965223 0 0 0 0 12098132.577709347 5511851.3436279297 0 5511851.3436279297 8239792.1644287109 0 0 0 0 10979632.321906686 11016391.818021774 0 11016391.818021774 9900178.5512313843 0 0 0 0 652770.61234229803 6656031.6453075409 0 6656031.6453075409 8478184.9035949707 0 0 0 0 3461352.3122576401 6617091.8336162567 0 6617091.8336162567 2492815.9655685425 0 0 0 0 11327446.937289119 5510006.5200214386 0 5510006.5200214386 452735.38759994507 0 0 0 0 3440817.2240034789 6664405.3695511818 0 6664405.3695511818 3097963.6792411804 0 0 0 0 -18309421.616492748 7407085.037279129 0 7407085.037279129 7306277.9601287842 0 0 0 0 459159.50640296936 13647657.48948288 0 13647657.48948288 3023905.0968761444 0 0 0 0 -36499045.026350982 1011956.6930193901 0 1011956.6930193901 23505550.798469543 0 0 0 0 -3661505.9754585028 -197666.47706985474 0 -197666.47706985474 434488.79273414612 0 0 0 0 3255604.5233051777 8680840.5614356995 0 8680840.5614356995 11559286.525291443 0 0 0 0 14966744.767635614 -4295772.0400333405 0 -4295772.0400333405 10653047.396751404 0 0 0 0 -12997514.651093066 15953548.191877365 0 15953548.191877365 25569694.199356079 0 0 0 0 4203636.0833348632 3169365.5331954956 0 3169365.5331954956 24471574.457458496 0 0 0 0 -5638696.0871074796 1458499.1658744812 0 1458499.1658744812 24195379.796836853 0 0 0 0 1248701.4739767462 -6910274.091003418 0 -6910274.091003418 34361762.694778442 0 0 0 0 -2088429.5350640826 15892713.412427902 0 15892713.412427902 54324285.717277527 0 0 0 0 -5178468.0855498016 -3334520.6939582825 0 -3334520.6939582825 25608957.650901794 0 0 0 0 339927.54174725711 -11777752.274215698 0 -11777752.274215698 38100028.909240723 0 0 0 0 -6388158.2196902037 -10438166.218093872 0 -10438166.218093872 14581942.383338928 0 0 0 0 -29835871.840144277 -12337269.342346191 0 -12337269.342346191 35776403.109337807 0 0 0 0 -21895147.31774497 7314812.5026721954 0 7314812.5026721954 -5706445.5087203979 0 0 0 0 3380529.7257157266 -17724529.37197876 0 -17724529.37197876 -1394405.5466117859 0 0 0 0 -36508093.752583563 -4289419.0787734985 0 -4289419.0787734985 26383893.562957764 0 0 0 0 36242913.863536835 -5656150.2803287506 0 -5656150.2803287506 -5829730.1190185547 0 0 0 0 293293.58237776137 -258677.091376903 0 -258677.091376903 -120200.4807318747 0 0 0 0 12922760.900512934 -28803856.135032654 0 -28803856.135032654 11943427.094605446 0 0 0 0 -21001799.902062416 -14090960.241615295 0 -14090960.241615295 10017195.668632507 0 0 0 0 13203305.58581841 -499316.8060836792 0 -499316.8060836792 -481508.23851513863 0 0 0 0 15991676.55844301 -18846584.263136387 0 -18846584.263136387 6106592.8187713623 0 0 0 0 -7829089.9311672449 -7875492.7924499512 0 -7875492.7924499512 3810362.3586120605 0 0 0 0 2316503.1628053007 145690.5014596926 0 145690.5014596926 2353076.1729695625 0 0 0 0 918843.0741713047 -3296054.6716766357 0 -3296054.6716766357 190592.39912414551 0 0 0 0 2656274.5508180857 -3216963.6097869873 0 -3216963.6097869873 193558.29001998901 0 0 0 0 4368077.3388226032 649676.93622207642 0 649676.93622207642 -27014304.99606514 0 0 0 0 3240735.0724260807 -7937399.6798095703 0 -7937399.6798095703 3686543.3466835022 0 0 0 0 4607332.249789089 -3198870.1712245941 0 -3198870.1712245941 -452627.65467071533 0 0 0 0 4942978.0482320786 -1599099.4588470459 0 -1599099.4588470459 -532910.61918020248 0 0 0 0 3678894.1230512857 -3982308.1694107056 0 -3982308.1694107056 -698775.82211303711 0 0 0 0 9956061.5435439348 -4552400.0643577576 0 -4552400.0643577576 -671116.89831542969 0 0 0 0 3161985.295579493 -2606518.8599147797 0 -2606518.8599147797 349149.14406204224 0 0 0 0 140158.98689931631 -30605485.33467865 0 -30605485.33467865 10521085.326148987 0 0 0 0 4471612.89963305 -20895851.534828186 0 -20895851.534828186 -22292914.604030609 0 0 0 0 1098840.6818032793 -1071801.2811898626 0 -1071801.2811898626 -587900.12984452769 0 0 0 0 -438344.6487839818 -21016657.075641632 0 -21016657.075641632 -7844412.5425567627 0 0 0 0 -3173866.5190280676 -19550201.844591141 0 -19550201.844591141 4244666.7305450439 0 0 0 0 -6414313.8650720716 -27510741.787696838 0 -27510741.787696838 -2438459.8477172852 0 0 0 0 -4071050.4939374924 -29538304.517017365 0 -29538304.517017365 -5684723.8523159027 0 0 0 0 -3331088.5657831859 4177558.0471161604 0 4177558.0471161604 -5664941.4188308716 0 0 0 0 761116.48951528396 -37231.059240510687 0 -37231.059240510687 -771157.54702278599 0 0 0 0 -21344498.359959126 -32725225.746179581 0 -32725225.746179581 -9233560.1968307495 0 0 0 0 14369345.368850708 -6158367.802154541 0 -6158367.802154541 -3854191.3297996521 0 0 0 0 1592998.3035119413 -520014.31252952758 0 -520014.31252952758 -1323809.4810317568 0 0 0 0 2618438.443391311 -1612547.6646773312 0 -1612547.6646773312 1747282.9675475042 0 0 0 0 122437.8365354538 80542.547542572021 0 80542.547542572021 -995689.53712463379 0 0 0 0 11262915.972996712 -2238917.3266429901 0 -2238917.3266429901 -17044126.042606354 0 0 0 0 18209064.349262476 -8675849.7494945526 0 -8675849.7494945526 -26484705.818378448 0 0 0 0 758262.22554354998 -669317.1739923656 0 -669317.1739923656 580872.67651166953 0 0 0 0 9243814.5818160847 3064878.6754570007 0 3064878.6754570007 -22031723.512580872 0 0 0 0 378029.11800551414 -609788.89354515076 0 -609788.89354515076 186925.00502681732 0 0 0 0 507613.6150309855 -873776.22830753401 0 -873776.22830753401 1284270.2295071781 0 0 0 0 705100.61474136729 -1017428.8020949727 0 -1017428.8020949727 966417.76513696508 0 0 0 0 343770.91030192375 -495435.11808776855 0 -495435.11808776855 114527.37990808487 0 0 0 0 1359211.8306082953 -1233826.3288378753 0 -1233826.3288378753 1470205.3974810056 0 0 0 0 3167005.0976085663 -9214107.4324831963 0 -9214107.4324831963 -3705523.798122406 0 0 0 0 13525240.448657125 -10774868.756000519 0 -10774868.756000519 -30447552.374423981 0 0 0 0 -5346899.5679192347 -5097089.4259383082 0 -5097089.4259383082 -9806092.045425415 0 0 0 0 25862088.840635017 -17901540.818649292 0 -17901540.818649292 -4583096.2033290863 0 0 0 0 22744522.281505473 1725936.6494026184 0 1725936.6494026184 -10098005.587188721 0 0 0 0 -3277651.0826602951 1638603.6047945023 0 1638603.6047945023 -9469158.9031982422 0 0 0 0 1155592.088820003 10585167.839374542 0 10585167.839374542 14554923.849906921 0 0 0 0 7257842.6038524956 1467549.1804332733 0 1467549.1804332733 13588158.44997406 0 0 0 0 19300886.22380548 22815956.303663254 0 22815956.303663254 51415876.055030823 0 0 0 0 1856608.2856712192 -15005903.569870949 0 -15005903.569870949 29959881.73890686 0 0 0 0 11858111.91947408 1516678.1859798431 0 1516678.1859798431 8682439.219745636 0 0 0 0 57167088.063931167 -7890692.007648468 0 -7890692.007648468 10556632.683727264 0 0 0 0 14426380.342622846 -23303011.282253265 0 -23303011.282253265 81226651.835090637 0 0 0 0 8655059.7267458141 -3776460.0399055481 0 -3776460.0399055481 23199693.344936371 0 0 0 0 30084140.778406519 37359733.420930862 0 37359733.420930862 51951945.612640381 0 0 0 0 7139254.1583440062 -29029577.306547165 0 -29029577.306547165 35483346.828796387 0 0 0 0 57380.261318973178 89075.256984092761 0 89075.256984092761 189078.84852671251 0 0 0 0 22375058.164297029 15336775.751026154 0 15336775.751026154 17155018.809234619 0 0 0 0 2768414.2494612336 -11269816.94940567 0 -11269816.94940567 34039295.078170776 0 0 0 0 9330139.7309758551 -22681740.913667679 0 -22681740.913667679 53865404.058403969 0 0 0 0 -8339501.1579155549 -23450577.46523571 0 -23450577.46523571 22022029.427074432 0 0 0 0 7256.6255188248761 -12682.295547947288 0 -12682.295547947288 13352.954711808823 0 0 0 0 -1868195.6444032341 -9706344.6786766052 0 -9706344.6786766052 -13432379.72728467 0 0 0 0 -8646947.4087913707 -9001348.0721035004 0 -9001348.0721035004 64024464.70688796 0 0 0 0 -2583572.7223176807 -831886.02040290833 0 -831886.02040290833 2045774.6297950745 0 0 0 0 -7685291.0666806549 1755030.0171718597 0 1755030.0171718597 1011171.814201355 0 0 0 0 -7735093.9644808099 642755.94263076782 0 642755.94263076782 9098060.0141296387 0 0 0 0 -1066761.2364047021 8664184.508934021 0 8664184.508934021 17594330.223324776 0 0 0 0 3195341.9368934054 9510978.9050974846 0 9510978.9050974846 -4563890.9992866516 0 0 0 0 -4372132.9983024374 7398811.6202545166 0 7398811.6202545166 -4849052.6150240898 0 0 0 0 304184.71252464782 -429778.54361368809 0 -429778.54361368809 674213.53048844635 0 0 0 0 197185.006115358 -246426.1186906267 0 -246426.1186906267 401981.74322413653 0 0 0 0 326760.52979424543 -1307923.8951659203 0 -1307923.8951659203 1752349.3154563904 0 0 0 0 288442.49144093104 -1349309.1280865669 0 -1349309.1280865669 2377824.8447952271 0 0 0 0 -103648.75174844133 -285526.4001172483 0 -285526.4001172483 352362.75578422472 0 0 0 0 -1201976.2240643529 -627367.03125762939 0 -627367.03125762939 6135296.8546380997 0 0 0 0 -1250231.9294648508 387801.43563652039 0 387801.43563652039 3253491.6236801147 0 0 0 0 9045.5247157864251 149022.02718734741 0 149022.02718734741 2581612.6321697235 0 0 0 0 -1220759.5637690374 -639581.17074012756 0 -639581.17074012756 4717372.6209793091 0 0 0 0 -62085.583341325633 -534087.79003334045 0 -534087.79003334045 2054237.1940526962 0 0 0 0 -174199.91135561845 -430999.53407669067 0 -430999.53407669067 2097459.6737251282 0 0 0 0 -3032.4660113740069 11941.201271057129 0 11941.201271057129 1020457.2773780823 0 0 0 0 16.775320562184788 -425022.5990152359 0 -425022.5990152359 1008922.6337051392 0 0 0 0 40937.501707182011 45525.696491241455 0 45525.696491241455 991332.7027746439 0 0 0 0 126140.2001596804 -175676.76639430597 0 -175676.76639430597 305737.00064706989 0 0 0 0 32233.930661356917 -35467.008904198185 0 -35467.008904198185 31156.687812865013 0 0 0 0 2177931.6879189312 -8691779.0705299377 0 -8691779.0705299377 30224059.280046701 0 0 0 0 -1728274.7761901394 -982091.49953460693 0 -982091.49953460693 -368590.75371551514 0 0 0 0 -9197.6582086400431 -83531.880151974037 0 -83531.880151974037 207022.2432006438 0 0 0 0 38868.795889369081 -234716.6028842926 0 -234716.6028842926 274021.20555877686 0 0 0 0 2830491.4192550369 -9207931.3317165375 0 -9207931.3317165375 21334350.746414185 0 0 0 0 224.01547428683133 -85894.763298034668 0 -85894.763298034668 170912.75339031219 0 0 0 0 84309.058250240589 -97620.593757718801 0 -97620.593757718801 105344.43331990205 0 0 0 0 2561913.5525807627 -11444059.353046417 0 -11444059.353046417 23709288.493747711 0 0 0 0 -9819.6581219820819 -13523003.275268555 0 -13523003.275268555 22376967.115008831 0 0 0 0 7630970.4054052867 -6988192.6202278137 0 -6988192.6202278137 25898108.490695953 0 0 0 0 95700.89636668461 -9076875.3900260925 0 -9076875.3900260925 30524398.768716812 0 0 0 0 4972754.9568289779 -12331782.114129066 0 -12331782.114129066 16114260.66116333 0 0 0 0 5293765.4470881969 -4696961.9456882477 0 -4696961.9456882477 21929456.324146271 0 0 0 0 2669418.5895178244 -12559938.519866943 0 -12559938.519866943 25935936.806522369 0 0 0 0 2932016.8303919509 -12780264.103302002 0 -12780264.103302002 24426947.478748322 0 0 0 0 231377.68366452307 -20973121.606519699 0 -20973121.606519699 26138924.649902344 0 0 0 0 -21509203.001636483 -10584270.65738678 0 -10584270.65738678 27047359.869533896 0 0 0 0 -635237.03772686422 -22027542.163912773 0 -22027542.163912773 6250848.963634491 0 0 0 0 -338575.93266645074 -13615289.866165161 0 -13615289.866165161 24286214.555831909 0 0 0 0 4599585.6329399645 7332371.8495521545 0 7332371.8495521545 5427072.7219657898 0 0 0 0 -13101115.033764467 10747270.928030014 0 10747270.928030014 5963232.6253623962 0 0 0 0 5321408.4253169969 -3337047.761680603 0 -3337047.761680603 -6930671.3688926697 0 0 0 0 -21941033.159980886 -4432524.8954696655 0 -4432524.8954696655 10377802.719406128 0 0 0 0 -8407363.9679658264 -2157730.5989360809 0 -2157730.5989360809 5842347.0929145813 0 0 0 0 4193590.8096283227 9127022.5775604248 0 9127022.5775604248 9998374.0524520874 0 0 0 0 -2279624.865466252 11660022.366249084 0 11660022.366249084 10109652.674812317 0 0 0 0 22193414.427680004 13286899.165317535 0 13286899.165317535 9866839.6444664001 0 0 0 0 10212030.919677924 15198412.274543762 0 15198412.274543762 12690813.622745514 0 0 0 0 13956780.913844829 13822265.01700592 0 13822265.01700592 8783157.8685779572 0 0 0 0 3605278.6293799719 7283292.4487400055 0 7283292.4487400055 12848078.09475708 0 0 0 0 12816145.91477444 10503867.481253147 0 10503867.481253147 9471357.2903594971 0 0 0 0 30237292.550491448 28847325.164563179 0 28847325.164563179 29595814.537330627 0 0 0 0 1009.768246378424 1140680.0846118927 0 1140680.0846118927 -1725260.5032939911 0 0 0 0 -9412.7636317152883 32056.842960636131 0 32056.842960636131 71982.408940128982 0 0 0 0 8984498.7139829975 8685649.424243927 0 8685649.424243927 46431746.874397278 0 0 0 0 7304068.9275291041 -1221332.9051895142 0 -1221332.9051895142 16659724.95595932 0 0 0 0 9320261.6444447264 15345332.156202316 0 15345332.156202316 24208207.532016754 0 0 0 0 -566036.86875569914 -2007214.8675308228 0 -2007214.8675308228 5780691.0718917847 0 0 0 0 -347599.96526124794 -1985123.9506931305 0 -1985123.9506931305 5614059.3337211609 0 0 0 0 -714433.54324692348 -2228888.1633672714 0 -2228888.1633672714 5990472.8983078003 0 0 0 0 -246495.24220412783 -2484826.5252037048 0 -2484826.5252037048 5827765.2217731476 0 0 0 0 -292604.07510031946 -2310084.4419822693 0 -2310084.4419822693 5266078.8941650391 0 0 0 0 -275910.19495264511 -1863588.6826162338 0 -1863588.6826162338 5757245.6237792969 0 0 0 0 -80.946770264285306 -1808686.8515968323 0 -1808686.8515968323 5299438.6491661072 0 0 0 0 -405223.81339462288 -1947687.0528659821 0 -1947687.0528659821 5801900.1054267883 0 0 0 0 -605516.07448774483 -1593401.2102680206 0 -1593401.2102680206 6116471.6453399658 0 0 0 0 -397608.49855902744 -1935171.1227493286 0 -1935171.1227493286 5811471.8888015747 0 0 0 0 -826397.28904103767 -1676641.4508132935 0 -1676641.4508132935 6245432.9865722656 0 0 0 0 -359721.6553768944 -1932129.1008262634 0 -1932129.1008262634 6310115.685377121 0 0 0 0 -1015344.5762286438 -1736692.7235336304 0 -1736692.7235336304 6238158.7781581879 0 0 0 0 -1554501.5358953662 -641265.03740310669 0 -641265.03740310669 5511380.1720733643 0 0 0 0 -1543817.2233976182 -2018276.9506244659 0 -2018276.9506244659 6212826.3960189819 0 0 0 0 -963443.97010330018 -1637709.0893707275 0 -1637709.0893707275 4585129.8380823135 0 0 0 0 -1379056.2864909898 -434517.3853225708 0 -434517.3853225708 6856363.7933387756 0 0 0 0 -1592243.9643596911 19236.704675654881 0 19236.704675654881 2367030.5315941237 0 0 0 0 -1414436.6885824562 764497.96019935608 0 764497.96019935608 3562833.0466423035 0 0 0 0 -434225.02428340912 -863433.30255126953 0 -863433.30255126953 2076830.0367794037 0 0 0 0 -1191413.2946155071 -1340065.2814893723 0 -1340065.2814893723 3553604.6861820221 0 0 0 0 -1893305.5242278588 -1437023.3758967202 0 -1437023.3758967202 3177687.7016797997 0 0 0 0 -509024.49329584709 -92250.865621274337 0 -92250.865621274337 547151.00519332662 0 0 0 0 -2620152.8073589429 -746681.47972488403 0 -746681.47972488403 6064967.8767166138 0 0 0 0 -290617.62926341221 -2933455.9470691681 0 -2933455.9470691681 4538976.255657196 0 0 0 0 1032137.4548740387 -631300.65311431885 0 -631300.65311431885 -4488729.9222564697 0 0 0 0 -890075.90710670687 -1695909.9590475503 0 -1695909.9590475503 1374556.3604250867 0 0 0 0 -3128609.2175507545 -3109244.877620697 0 -3109244.877620697 461418.79206848145 0 0 0 0 46202385.758595228 76168655.678096771 0 76168655.678096771 23085488.46855545 0 0 0 0 -57156.777145293774 -611050.11729065515 0 -611050.11729065515 -36564.48324099282 0 0 0 0 1259767.6703448296 -3391115.6319885254 0 -3391115.6319885254 -1272083.2181930542 0 0 0 0 -1214958.8853750229 -1097653.1923751831 0 -1097653.1923751831 -2676268.0604553223 0 0 0 0 -4057481.5811026096 -6808734.6944437027 0 -6808734.6944437027 -4521591.7343254089 0 0 0 0 -15472010.76912117 -6368565.7640342712 0 -6368565.7640342712 15835099.204589844 0 0 0 0 9973291.9695167542 -2186971.2302322388 0 -2186971.2302322388 -4165306.3240323067 0 0 0 0 -2412633.7078821212 -471717.73923358507 0 -471717.73923358507 3078839.3250705004 0 0 0 0 101176547.24793988 6511907.1091213822 0 6511907.1091213822 2919104.8344192505 0 0 0 0 64008.94516284694 438935.11051096581 0 438935.11051096581 1149643.8451335151 0 0 0 0 23621056.752599239 -88453534.578262329 0 -88453534.578262329 320872417.6108532 0 0 0 0 103757803.44563913 176235916.1839304 0 176235916.1839304 185524065.2223587 0 0 0 0 -60790781.013647079 75119977.86114502 0 75119977.86114502 260784409.46319741 0 0 0 0 -32278245.16646409 210544776.54178619 0 210544776.54178619 357726547.28752136 0 0 0 0 -65113124.666087151 142346300.46953201 0 142346300.46953201 262092834.44693315 0 0 0 0 -18415517.171501875 123021123.8922081 0 123021123.8922081 183632063.03747559 0 0 0 0 13067890.357311964 176941490.27810097 0 176941490.27810097 275977322.11103249 0 0 0 0 -61362550.101160526 75483996.553215027 0 75483996.553215027 343210073.62582779 0 0 0 0 -264462.44513207197 -1051707.5552617721 0 -1051707.5552617721 -102683.32296748174 0 0 0 0 -1468357.1105260849 1535203.8880395889 0 1535203.8880395889 1581243.6519966125 0 0 0 0 -10463225.852034271 -834690.20032310486 0 -834690.20032310486 165165535.28364563 0 0 0 0 -10563.400166210718 -1929484.872964859 0 -1929484.872964859 4933934.533033371 0 0 0 0 183120.03355669009 -1048585.8291927855 0 -1048585.8291927855 981903.79610582441 0 0 0 0 3352056.3570363522 -2647573.8598098755 0 -2647573.8598098755 -4228779.0582351685 0 0 0 0 -20425.820246242987 -1947153.1236791611 0 -1947153.1236791611 5051500.600151062 0 0 0 0 486784.05561576586 -749711.51951683685 0 -749711.51951683685 331615.03396676853 0 0 0 0 5707.1384821061101 -1276590.8601303101 0 -1276590.8601303101 604229.17431974411 0 0 0 0 23321.784636893743 -762669.76173109375 0 -762669.76173109375 453513.28030249407 0 0 0 0 539413795.88024187 159475095.56599808 0 159475095.56599808 114526585.6807251 0 0 0 0 -328695.62776656746 -67487584.898736954 0 -67487584.898736954 433311647.12360001 0 0 0 0 -28323861.257269859 277531517.24855995 0 277531517.24855995 548071782.68549538 0 0 0 0 22337.946897417678 -451342.02612342499 0 -451342.02612342499 920855.73439036123 0 0 0 0 -165279598.95153952 -89101908.980333328 0 -89101908.980333328 627315449.97751617 0 0 0 0 33861251.972224869 -31083647.508228302 0 -31083647.508228302 -7888874.0604705811 0 0 0 0 -11887104.701281905 -387892.36027145386 0 -387892.36027145386 16234252.020737648 0 0 0 0 551258.43574987259 -1327409.5364841213 0 -1327409.5364841213 1988880.5494139437 0 0 0 0 -13701261.273875192 -10484539.754744291 0 -10484539.754744291 -471024.28115463257 0 0 0 0 130151.2518000234 3793897.2754096985 0 3793897.2754096985 4359501.464132309 0 0 0 0 -1487083.6516288244 1781824.2863063812 0 1781824.2863063812 3238692.0755825043 0 0 0 0 -5067052.049639794 1464333.5880241394 0 1464333.5880241394 3482928.7649173737 0 0 0 0 -3770457.0335643589 -1453206.7893910408 0 -1453206.7893910408 2247145.212600708 0 0 0 0 -672538.93123599864 113576.90008926392 0 113576.90008926392 3922161.2171840668 0 0 0 0 -2882181.4019993767 -815223.53563451767 0 -815223.53563451767 3533288.2942733765 0 0 0 0 -37380.072808223427 847082.06347084045 0 847082.06347084045 3396255.0211257935 0 0 0 0 -831997.83735649241 -2628455.290626049 0 -2628455.290626049 2251216.2958450317 0 0 0 0 -473996.97337447619 -1667210.8001365662 0 -1667210.8001365662 2480213.0396976471 0 0 0 0 -105349.71733003296 -1603579.3689603806 0 -1603579.3689603806 2345003.7623062134 0 0 0 0 -2061531.5927189658 -2613019.2239627838 0 -2613019.2239627838 3893924.1464080811 0 0 0 0 -3089316.9776197211 -283315.75248336792 0 -283315.75248336792 3044743.4013519287 0 0 0 0 -2248968.7049053996 -3505227.8664689064 0 -3505227.8664689064 714265.07413864136 0 0 0 0 -5552022.0760607775 -4939494.2117080688 0 -4939494.2117080688 1154703.9220061302 0 0 0 0 -22581060.054747254 54670125.825744212 0 54670125.825744212 49269305.500648499 0 0 0 0 -11378608.643753424 -186852646.78272116 0 -186852646.78272116 -139088941.1845665 0 0 0 0 1302505.972049274 -1863655.4357854286 0 -1863655.4357854286 2150309.9684151858 0 0 0 0 -5311089.6588442354 -1427652.0235271454 0 -1427652.0235271454 2782294.4302558899 0 0 0 0 -134315671.11543274 -170556326.77808189 0 -170556326.77808189 124856749.01271439 0 0 0 0 -172720880.20056033 -85492290.552002907 0 -85492290.552002907 480765949.31856918 0 0 0 0 23744290.278818369 175040503.2028656 0 175040503.2028656 505731324.19681168 0 0 0 0 236322197.88517666 30495971.153093338 0 30495971.153093338 -123201344.8584739 0 0 0 0 -35928702.770769358 89013219.026112556 0 89013219.026112556 305488495.09347534 0 0 0 0 -1105009.7499842644 66686299.171678543 0 66686299.171678543 167519835.49302483 0 0 0 0 -34296781.533491135 97190642.532295227 0 97190642.532295227 342257949.97003174 0 0 0 0 -17640449.339841843 175434001.04731178 0 175434001.04731178 482891330.29915524 0 0 0 0 223708.95532783028 -287344.89657545462 0 -287344.89657545462 379237.42747653648 0 0 0 0 -9854586.8140163422 121579080.65807724 0 121579080.65807724 299824164.89767075 0 0 0 0 -15048819.125151992 -18538959.710743904 0 -18538959.710743904 175386183.76318359 0 0 0 0 -23381457.930353403 14154467.413704872 0 14154467.413704872 436516529.35445404 0 0 0 0 66840109.099723816 -32830501.389695168 0 -32830501.389695168 -38447026.909759521 0 0 0 0 31858132.549628735 -76903200.862879753 0 -76903200.862879753 212107487.54748535 0 0 0 0 -27407592.753835678 -6522208.7675628662 0 -6522208.7675628662 137421266.27651215 0 0 0 0 5620504.2033758163 -5600398.8660831451 0 -5600398.8660831451 167447668.9628458 0 0 0 0 17623246.992371559 -15570890.922401428 0 -15570890.922401428 27160051.636188507 0 0 0 0 1867357.622501092 -2032064.5209647147 0 -2032064.5209647147 1838800.4161531664 0 0 0 0 -12295631.578803062 -55011036.064052582 0 -55011036.064052582 -76044734.819927216 0 0 0 0 26134416.413071156 49644980.654741287 0 49644980.654741287 -40048856.035720825 0 0 0 0 29845662.363513947 -39397461.229776382 0 -39397461.229776382 -91979511.351430893 0 0 0 0 56655554.89474678 16407766.502673149 0 16407766.502673149 -65742116.229179382 0 0 0 0 101961.98401832581 -8947246.5700492859 0 -8947246.5700492859 -71023880.011143684 0 0 0 0 26347339.055110931 33128150.307788849 0 33128150.307788849 -52046241.049430847 0 0 0 0 6886531.072177887 27065406.469909668 0 27065406.469909668 -47626109.004314423 0 0 0 0 -1100992.935448885 -2066693.0375070572 0 -2066693.0375070572 -9463539.9566650391 0 0 0 0 -7400713.1874961853 -22952870.091911316 0 -22952870.091911316 -13788069.692720413 0 0 0 0 1811367.3094863892 21202540.832180023 0 21202540.832180023 -13300197.933513641 0 0 0 0 13537723.651288986 15584689.386281967 0 15584689.386281967 -29599752.656288147 0 0 0 0 2755454.8308596611 -9408276.3822212219 0 -9408276.3822212219 2158113.6283950806 0 0 0 0 -11502012.961696476 -1587372.1206586957 0 -1587372.1206586957 -54010075.792114258 0 0 0 0 104007.40730964439 -125507.70293930545 0 -125507.70293930545 138621.91538645513 0 0 0 0 36811980.550078869 -12539234.885990143 0 -12539234.885990143 -13766138.678600311 0 0 0 0 23689822.505063415 -1891421.2391290665 0 -1891421.2391290665 13097441.53263092 0 0 0 0 34471090.082167029 -25394592.732515335 0 -25394592.732515335 -16491339.541130066 0 0 0 0 419394.0138368461 -87131.775209242711 0 -87131.775209242711 -369495.76156582125 0 0 0 0 10358106.718528271 -38038403.996358871 0 -38038403.996358871 51975391.453325272 0 0 0 0 -57064661.382047176 -2518351.9294300079 0 -2518351.9294300079 36852250.002948761 0 0 0 0 93962059.310622692 25670487.616526604 0 25670487.616526604 9783513.3463020325 0 0 0 0 -56129487.615469217 180196084.35521984 0 180196084.35521984 71781475.904092789 0 0 0 0 23560030.62256813 93043078.056818008 0 93043078.056818008 43016887.560102105 0 0 0 0 122909310.74233961 155534052.82272339 0 155534052.82272339 79302100.311511993 0 0 0 0 -30745175.402749062 48549121.494565964 0 48549121.494565964 312746128.12131119 0 0 0 0 -29870093.827838421 10485415.420655727 0 10485415.420655727 -27139037.923610687 0 0 0 0 -12401825.469092906 -67083217.791439176 0 -67083217.791439176 63119810.694919586 0 0 0 0 -12948736.843075126 -62728681.517350793 0 -62728681.517350793 53148938.584213257 0 0 0 0 -21122794.210076332 -20048135.851818085 0 -20048135.851818085 35852916.274168253 0 0 0 0 36378729.508911133 -52870421.039779663 0 -52870421.039779663 32830341.787982702 0 0 0 0 115605812.09216499 -79088711.269140244 0 -79088711.269140244 7192641.2477493286 0 0 0 0 60985646.810201168 -151534758.20791245 0 -151534758.20791245 150081667.25273514 0 0 0 0 8018254.2233948708 -20331782.338082314 0 -20331782.338082314 23754707.224952698 0 0 0 0 81901568.821884155 -19543489.686351776 0 -19543489.686351776 -27028262.619480133 0 0 0 0 -29222317.088668026 4382343.4271321893 0 4382343.4271321893 14601074.611961365 0 0 0 0 -10932772.546526432 112902731.96146774 0 112902731.96146774 276694510.97809982 0 0 0 0 26759089.134736061 -72308428.918243408 0 -72308428.918243408 166933450.77787018 0 0 0 0 159917.9880375918 -889617.70983667765 0 -889617.70983667765 1413677.0650576577 0 0 0 0 -29473336.961294822 -22923289.243678659 0 -22923289.243678659 10464282.38312912 0 0 0 0 -1751607.2459697723 -1007029.9020729065 0 -1007029.9020729065 2241697.0322532654 0 0 0 0 -1639691.8487091064 48528.19665145874 0 48528.19665145874 2289147.6310195923 0 0 0 0 -1078992.9374080636 -921591.80668103136 0 -921591.80668103136 2792445.043424001 0 0 0 0 -3651008.0643019676 5506778.7734746933 0 5506778.7734746933 -115391.45252275467 0 0 0 0 -376493.32592924958 249885.68294347124 0 249885.68294347124 -34994.740761982277 0 0 0 0 -31026327.1173172 -332987.46007728577 0 -332987.46007728577 25193076.780864716 0 0 0 0 22139905.289125443 -87756.945381164551 0 -87756.945381164551 4618518.0096130371 0 0 0 0 -822551.10133981705 44605.449367523193 0 44605.449367523193 2134938.7643070221 0 0 0 0 -1184837.2031784381 -319767.12812543567 0 -319767.12812543567 3047732.7025146587 0 0 0 0 -1008019.6340146065 -633356.17038726807 0 -633356.17038726807 2675852.1243686676 0 0 0 0 -2317604.2174993614 911793.23206138611 0 911793.23206138611 4854846.6408939362 0 0 0 0 732233.07141917944 -4632422.4005465508 0 -4632422.4005465508 -9904747.3842926025 0 0 0 0 -135181.61205647956 -387649.27223864011 0 -387649.27223864011 663698.38003920764 0 0 0 0 -1655029.0359739088 208938.59244093252 0 208938.59244093252 2289970.7029895335 0 0 0 0 -38527161.983216763 23053080.913012505 0 23053080.913012505 5491498.3065986633 0 0 0 0 -27439336.072677612 4963957.507522583 0 4963957.507522583 10359245.545357227 0 0 0 0 -11402153.539861441 7928923.0707941055 0 7928923.0707941055 9903261.7639064789 0 0 0 0 -35422350.242788315 6850433.0700702667 0 6850433.0700702667 46621815.701673508 0 0 0 0 -24371526.213836193 -22917382.762987614 0 -22917382.762987614 95073986.391529083 0 0 0 0 -15494204.003391027 -23970333.888083935 0 -23970333.888083935 30346106.476539612 0 0 0 0 -3202100.2863111496 -10009959.491765022 0 -10009959.491765022 -1513944.0260810852 0 0 0 0 41429923.553932428 43718672.689008713 0 43718672.689008713 59152371.838295937 0 0 0 0 -15915108.853573799 3982540.3635969162 0 3982540.3635969162 172233360.19433975 0 0 0 0 -15790351.0230093 -12456849.759399414 0 -12456849.759399414 50000728.765306473 0 0 0 0 -11549506.833582878 14970823.439367294 0 14970823.439367294 59447409.686096191 0 0 0 0 11760264.234696865 14749684.055351257 0 14749684.055351257 50586434.403098106 0 0 0 0 23231641.756971836 -13503011.458944321 0 -13503011.458944321 22403401.064289093 0 0 0 0 12182440.088001966 22833090.958908081 0 22833090.958908081 54022294.040147781 0 0 0 0 21612525.660574764 7197337.1863017082 0 7197337.1863017082 11076095.82780838 0 0 0 0 39915259.416078806 -17475435.24581337 0 -17475435.24581337 96446860.388839722 0 0 0 0 -57407090.716279984 110411627.7289257 0 110411627.7289257 50606503.44499588 0 0 0 0 -15029126.704587609 44782971.290251255 0 44782971.290251255 115345613.57374573 0 0 0 0 -8116848.1036301851 53043673.842445374 0 53043673.842445374 117327195.46110868 0 0 0 0 14925429.480384737 30319449.450479269 0 30319449.450479269 123536870.3416481 0 0 0 0 8235742.2370736599 1163848.2581863403 0 1163848.2581863403 4775133.4594798088 0 0 0 0 26080094.959321737 -96913838.875566483 0 -96913838.875566483 139451749.10080338 0 0 0 0 -296331.56192889588 -81783.920738729648 0 -81783.920738729648 517571.57665095478 0 0 0 0 -4891221.9581730366 -46849632.098130226 0 -46849632.098130226 59280638.222629547 0 0 0 0 -25766802.886165142 -68931771.670789719 0 -68931771.670789719 72158290.202012062 0 0 0 0 -73322182.290435791 -68260070.31182766 0 -68260070.31182766 109725294.72467613 0 0 0 0 -96450655.897622585 4940163.0537672043 0 4940163.0537672043 47771126.73497057 0 0 0 0 -509284.76389162149 -97469.068324662745 0 -97469.068324662745 975740.16061987355 0 0 0 0 -63824898.935151935 -27961339.813032389 0 -27961339.813032389 88861764.985923767 0 0 0 0 -81309289.043115377 24834047.704251289 0 24834047.704251289 44646641.133766174 0 0 0 0 -21725755.438932896 -31123824.736345291 0 -31123824.736345291 55139927.30410552 0 0 0 0 -30581991.547218978 -43834170.480505466 0 -43834170.480505466 82907462.09312439 0 0 0 0 -283839.51825642539 -56799.428924505599 0 -56799.428924505599 531799.14014762081 0 0 0 0 -11116126.232914329 -67323965.177182198 0 -67323965.177182198 161672860.56135941 0 0 0 0 22275526.725947857 69837662.800142288 0 69837662.800142288 137241213.35115719 0 0 0 0 -4589390.80945611 759424.47873020172 0 759424.47873020172 16551137.191112518 0 0 0 0 -3076739.1764802933 11143608.187226772 0 11143608.187226772 68858057.904327393 0 0 0 0 41676368.290920258 25090990.470056534 0 25090990.470056534 850159.32648086548 0 0 0 0 1453598.4512435794 -4476000.038962841 0 -4476000.038962841 3849644.4695491791 0 0 0 0 -16629223.125075936 12349188.095638275 0 12349188.095638275 39478103.422805786 0 0 0 0 128859.33004651428 170398.54902034719 0 170398.54902034719 1023150.3656790406 0 0 0 0 508129.91419434547 -2572439.1109313965 0 -2572439.1109313965 101216.31806850433 0 0 0 0 -2485416.5111296177 -51681473.153359413 0 -51681473.153359413 82118791.128444672 0 0 0 0 -9404867.5907766819 -38683560.791536331 0 -38683560.791536331 80738904.908989906 0 0 0 0 -4029323.5456120819 -1673450.2652626038 0 -1673450.2652626038 3531863.1998920441 0 0 0 0 -201637.57671157259 24282.501916565932 0 24282.501916565932 931800.51726058125 0 0 0 0 1193523.7959885597 -34156210.667749405 0 -34156210.667749405 76891369.291600704 0 0 0 0 -2816756.7021547556 -44538003.494826317 0 -44538003.494826317 56288917.01048851 0 0 0 0 50344224.121591151 -102539549.54320145 0 -102539549.54320145 166713593.65834808 0 0 0 0 28774430.226438701 -3989378.7475833893 0 -3989378.7475833893 141591484.94925404 0 0 0 0 8988484.1465080082 46898166.192579269 0 46898166.192579269 117787317.23250771 0 0 0 0 44222969.647893831 42743243.856010437 0 42743243.856010437 14602825.512779236 0 0 0 0 -160217.62554012885 -27538.46855456382 0 -27538.46855456382 424432.01179012842 0 0 0 0 6870611.8711412251 -13761127.272115707 0 -13761127.272115707 16914124.829204082 0 0 0 0 26545504.946311012 23528233.757659435 0 23528233.757659435 30333282.476600647 0 0 0 0 -2479522.960422188 15041097.291419983 0 15041097.291419983 -10437801.630752563 0 0 0 0 613195.75444203615 -9657261.610326767 0 -9657261.610326767 3433503.7292556763 0 0 0 0 28958958.912706204 -4789344.5162904263 0 -4789344.5162904263 -1875230.0668983459 0 0 0 0 56405676.596231937 -1566689.302192688 0 -1566689.302192688 -1533174.1326384544 0 0 0 0 -175538.96703315142 122715.02487427182 0 122715.02487427182 150222.51745928265 0 0 0 0 -9479052.1276347488 37967924.001070142 0 37967924.001070142 39460425.166873932 0 0 0 0 27945774.869983673 37620562.93689537 0 37620562.93689537 38675330.718950272 0 0 0 0 -4296355.6447936296 7845565.0502710342 0 7845565.0502710342 114341600.4636116 0 0 0 0 175572.62626557203 185190.80585811008 0 185190.80585811008 -102634.45745639224 0 0 0 0 19858185.33002853 33294922.150923431 0 33294922.150923431 36405223.221448898 0 0 0 0 22740378.644627571 -4468912.3337669373 0 -4468912.3337669373 50366556.525502205 0 0 0 0 12546049.617988124 17957473.062875748 0 17957473.062875748 120328818.27161217 0 0 0 0 -10177328.130898893 -2592079.6164793968 0 -2592079.6164793968 116545521.65350533 0 0 0 0 -12623660.11201952 25698.005389451981 0 25698.005389451981 132615064.82433891 0 0 0 0 55127716.047364622 -71639657.350207329 0 -71639657.350207329 110067533.43488604 0 0 0 0 35982730.478173226 16937323.091188431 0 16937323.091188431 117040533.21938705 0 0 0 0 84576439.653653294 -12131743.022182465 0 -12131743.022182465 115662078.15532398 0 0 0 0 87089930.141998678 -7761249.4827890396 0 -7761249.4827890396 98704761.990949631 0 0 0 0 -236085.51156030525 -92555.225313239731 0 -92555.225313239731 397780.79656777717 0 0 0 0 13538948.612924948 61884649.203598976 0 61884649.203598976 50414201.879146576 0 0 0 0 3159798.2879986763 -8976010.870098114 0 -8976010.870098114 11514345.834071159 0 0 0 0 -4808155.4955613613 -3584290.2554512024 0 -3584290.2554512024 21725844.746969223 0 0 0 0 -16134518.994980216 -9110711.4632911682 0 -9110711.4632911682 16002136.593597412 0 0 0 0 -19309738.329679534 -2715369.9291341305 0 -2715369.9291341305 3258244.9889030457 0 0 0 0 -18442568.084051326 2449482.9193477631 0 2449482.9193477631 991451.93561553955 0 0 0 0 -389858.00186090928 -38070.695133229718 0 -38070.695133229718 727052.60193564557 0 0 0 0 23299005.611597061 -44121717.733253479 0 -44121717.733253479 75984732.13794136 0 0 0 0 21180763.0202654 -33940160.829798698 0 -33940160.829798698 42120316.89875707 0 0 0 0 36958484.378750801 -48600248.837582588 0 -48600248.837582588 24370654.656204224 0 0 0 0 4187154.1823952198 -30091618.684876442 0 -30091618.684876442 74800046.128479004 0 0 0 0 33467654.598730922 -25235457.367622375 0 -25235457.367622375 14044102.84172821 0 0 0 0 34447387.179814041 -30842222.385910034 0 -30842222.385910034 42017376.209373474 0 0 0 0 -5135495.3277001381 -3503099.3589687347 0 -3503099.3589687347 -1178751.3667984009 0 0 0 0 -2600154.8646430969 -6285167.6760177612 0 -6285167.6760177612 1504473.6312675476 0 0 0 0 1387260.0832649469 -4726759.660036087 0 -4726759.660036087 -861174.60774612427 0 0 0 0 -4427157.5496368408 -5131203.7081604004 0 -5131203.7081604004 3641169.4469909668 0 0 0 0 -1745587.2448077202 -4863298.7742233276 0 -4863298.7742233276 -5258562.8383636475 0 0 0 0 41708.514905137476 101121.57999498118 0 101121.57999498118 200835.48191370862 0 0 0 0 -1677919.6749429703 -4830762.1549072266 0 -4830762.1549072266 -7210194.2415161133 0 0 0 0 -4800755.1295800209 -4709935.5343408585 0 -4709935.5343408585 3166227.8081436157 0 0 0 0 -1368682.0671019957 -1422470.1941069448 0 -1422470.1941069448 442425.93379005045 0 0 0 0 -39453643.45819366 1940819.8704395294 0 1940819.8704395294 15601682.688706398 0 0 0 0 26082294.750354826 -25872294.270225525 0 -25872294.270225525 -2768470.7221107483 0 0 0 0 20604399.185370743 -76211950.691888809 0 -76211950.691888809 47363836.786739349 0 0 0 0 -16526031.726165175 -55033982.334202766 0 -55033982.334202766 36237213.285816193 0 0 0 0 46638613.723145932 -38699390.233292103 0 -38699390.233292103 3258529.2697792053 0 0 0 0 -6637.3242313631927 25053.423714371398 0 25053.423714371398 181184.57160903327 0 0 0 0 -5099966.7421761304 1060578.740732193 0 1060578.740732193 -1509391.5939483643 0 0 0 0 -2446820.4545326233 1674193.924156189 0 1674193.924156189 8105207.1850891113 0 0 0 0 -192448.05110615934 973486.17541749123 0 973486.17541749123 3098765.5592521187 0 0 0 0 -7315677.7413723469 -12441280.593539238 0 -12441280.593539238 -9795965.298210144 0 0 0 0 -12699169.04580915 -5136433.9113779068 0 -5136433.9113779068 2977268.9553604126 0 0 0 0 -10739912.120010138 -11290190.557508469 0 -11290190.557508469 870624.53010082245 0 0 0 0 -575769.01522803307 -8745956.6838684082 0 -8745956.6838684082 -560502.01389694214 0 0 0 0 -1854804.2440856695 168448.64692401886 0 168448.64692401886 -18305461.989471436 0 0 0 0 -5167688.9950122833 -8078889.6806144714 0 -8078889.6806144714 1760556.4028053284 0 0 0 0 -2700608.67923522 2347624.2574977875 0 2347624.2574977875 13094782.276411057 0 0 0 0 232719.84954658005 2024195.5461795703 0 2024195.5461795703 232137.46332135703 0 0 0 0 -1079592.7486509001 -945504.47350467928 0 -945504.47350467928 4538642.6135780849 0 0 0 0 -3697870.9496781826 -4622045.512793541 0 -4622045.512793541 207506.64587783813 0 0 0 0 -7728148.6186447144 -4216123.3630867004 0 -4216123.3630867004 6651899.6161117554 0 0 0 0 -7528957.922911644 -3224827.5005493164 0 -3224827.5005493164 6157906.5468482971 0 0 0 0 -3277422.9116231203 -5694436.0093002319 0 -5694436.0093002319 7038233.8550748825 0 0 0 0 -859116.56082957773 -1201235.9755328852 0 -1201235.9755328852 5298322.6141837798 0 0 0 0 6301197.2306373119 5489493.7827968597 0 5489493.7827968597 5979954.4020271301 0 0 0 0 -5690484.2445147038 -6846230.5214996338 0 -6846230.5214996338 8619898.5182571411 0 0 0 0 -4439802.8582878113 -4425752.5688171387 0 -4425752.5688171387 2042890.7198486328 0 0 0 0 -7272394.7084597349 -4898337.5374794006 0 -4898337.5374794006 5909602.4613304138 0 0 0 0 -6774986.5098563433 -3607908.8187570572 0 -3607908.8187570572 7346033.9889373779 0 0 0 0 -6753236.9352111816 -2887516.0417232513 0 -2887516.0417232513 4540157.8323783875 0 0 0 0 -22897.089372888135 -141232.24132041784 0 -141232.24132041784 17666.106981292367 0 0 0 0 -5566555.1121444702 -4729919.3041572571 0 -4729919.3041572571 8255329.6309318542 0 0 0 0 -6189560.3384923935 -3521425.3403396606 0 -3521425.3403396606 6223028.2303638458 0 0 0 0 -6724105.8907766342 -4796418.144329071 0 -4796418.144329071 6873691.2464752197 0 0 0 0 -6428243.3676333427 -3247011.6565074921 0 -3247011.6565074921 7761948.4969787598 0 0 0 0 -6599594.6701107025 -3150322.0877542496 0 -3150322.0877542496 7775888.0415039062 0 0 0 0 -6147067.7111334801 -2142918.5182628632 0 -2142918.5182628632 9696620.7214069366 0 0 0 0 -4073357.0521068573 -2574437.3133392334 0 -2574437.3133392334 7968128.7574863434 0 0 0 0 -792845.24607181549 -4944241.5901527405 0 -4944241.5901527405 9645960.1075763702 0 0 0 0 -3612891.0103492737 -6679091.8603954315 0 -6679091.8603954315 6791523.3953304291 0 0 0 0 645049.30541849136 -3568506.0871472359 0 -3568506.0871472359 3584715.820186615 0 0 0 0 -644781.06023054558 -657073.65467626881 0 -657073.65467626881 110620.42585867457 0 0 0 0 6181570.9131443501 -9287368.9846611023 0 -9287368.9846611023 8531452.3317184448 0 0 0 0 -750865.3196311295 -4589418.8139041662 0 -4589418.8139041662 12580152.870853424 0 0 0 0 439967.08659815788 -4830881.1884288788 0 -4830881.1884288788 12566140.357147217 0 0 0 0 -3787223.9756059647 -2542856.0983581543 0 -2542856.0983581543 21132887.618162155 0 0 0 0 -4291055.7781028748 -416903.9325761795 0 -416903.9325761795 12250606.237221718 0 0 0 0 -5131902.9685647488 -985936.88324451447 0 -985936.88324451447 12768150.234737396 0 0 0 0 -5018897.1954728365 -2116391.2094299793 0 -2116391.2094299793 13660939.445774078 0 0 0 0 -4154596.0449445248 6099199.8420190811 0 6099199.8420190811 20531087.250980377 0 0 0 0 -4172376.8562544417 3564329.0368465558 0 3564329.0368465558 13184266.950374603 0 0 0 0 -7776766.1203606129 2865807.8172016144 0 2865807.8172016144 17698042.836328506 0 0 0 0 -9076590.6567982435 4741185.9803931713 0 4741185.9803931713 35235291.977558136 0 0 0 0 -9139449.45571208 12829696.482661247 0 12829696.482661247 -7465525.0295543671 0 0 0 0 -519697.86934368173 -24081.872362169437 0 -24081.872362169437 1121459.8826191435 0 0 0 0 5011897.9117321968 13860822.514139175 0 13860822.514139175 17265673.134840488 0 0 0 0 -669341.51221494342 1000308.8022245467 0 1000308.8022245467 884663.64343383163 0 0 0 0 -3619001.9757061005 6053875.2836456299 0 6053875.2836456299 15589700.823202133 0 0 0 0 -169202.90506482124 7534291.8079452515 0 7534291.8079452515 9540568.18400383 0 0 0 0 -25571071.702267647 529913.34705924988 0 529913.34705924988 18333393.386951447 0 0 0 0 -3190651.5227595111 3472898.9052040037 0 3472898.9052040037 1812570.6096332939 0 0 0 0 -47146434.374847651 -90708514.168697119 0 -90708514.168697119 188086634.09990311 0 0 0 0 -45305993.249012947 16604789.641841888 0 16604789.641841888 5689954.8861656189 0 0 0 0 -1547787.8522083666 -1241099.3406508677 0 -1241099.3406508677 7237559.514375627 0 0 0 0 126085855.74857283 33391057.200229645 0 33391057.200229645 -138005217.34793472 0 0 0 0 354353628.44399643 3082236.1291656494 0 3082236.1291656494 126734347.58459473 0 0 0 0 -2014620.4438247681 182033642.8162365 0 182033642.8162365 62501353.119066238 0 0 0 0 3077216.0549039841 7812203.2542648315 0 7812203.2542648315 3016872.6776351929 0 0 0 0 -2727283.8876118483 4133057.643072037 0 4133057.643072037 1971711.4792098589 0 0 0 0 5020548.9182883799 11412073.384212554 0 11412073.384212554 -11250941.737487793 0 0 0 0 5075683.7463331223 9870428.498714447 0 9870428.498714447 -11499133.126968384 0 0 0 0 -5574611.0673556328 3315512.7483253479 0 3315512.7483253479 11569042.650857449 0 0 0 0 -3192673.8692758679 5082940.5736224651 0 5082940.5736224651 11321217.022258759 0 0 0 0 -6775738.3520499468 4117486.998688221 0 4117486.998688221 11679857.731109619 0 0 0 0 -1646631.1190548781 1711856.7552222223 0 1711856.7552222223 6982107.4129337333 0 0 0 0 -5296149.7870733738 2211952.2940406799 0 2211952.2940406799 7713672.8870239258 0 0 0 0 -7875149.472648859 -1539786.3515129089 0 -1539786.3515129089 10043361.066879272 0 0 0 0 -5774921.6435399055 2201620.2597637177 0 2201620.2597637177 13344769.870073318 0 0 0 0 -4624591.9808907509 3388361.6270389557 0 3388361.6270389557 13987390.454195023 0 0 0 0 -5916105.3679893017 -140395.34526634216 0 -140395.34526634216 11856981.497650146 0 0 0 0 -5963126.366846405 -1176054.9862307906 0 -1176054.9862307906 9246372.4522094727 0 0 0 0 -7336965.7809755802 -1684436.294254303 0 -1684436.294254303 10130226.553825378 0 0 0 0 -5073479.7996928394 -2586907.0743739605 0 -2586907.0743739605 9720859.8224029541 0 0 0 0 -1134791.2434556717 237642.70786760803 0 237642.70786760803 6664439.635788342 0 0 0 0 -8279454.981533438 -935059.10601520538 0 -935059.10601520538 9184654.2444801331 0 0 0 0 -7329285.6825380325 -1084289.1215686798 0 -1084289.1215686798 7171526.0298376083 0 0 0 0 -7419446.2079439163 -1383047.6903419495 0 -1383047.6903419495 6332334.8848018646 0 0 0 0 -6010481.2842949629 3108934.7490615845 0 3108934.7490615845 10794097.983322144 0 0 0 0 -1178835.6857161818 1108178.0347004896 0 1108178.0347004896 2216693.9023886267 0 0 0 0 -7207623.7927303314 21115182.976829529 0 21115182.976829529 2073558.8962182999 0 0 0 0 -10450167.481270909 6942452.56291008 0 6942452.56291008 2764914.5102024078 0 0 0 0 -29311227.062631369 1025676.749797821 0 1025676.749797821 956444.46789169312 0 0 0 0 -83304924.426465988 -15054521.531772614 0 -15054521.531772614 13652281.981349945 0 0 0 0 -37230629.231281221 32686773.886898518 0 32686773.886898518 7837967.751663208 0 0 0 0 -53660598.806981325 39548596.091629028 0 39548596.091629028 27507456.871002197 0 0 0 0 1413867.526083231 24870720.652534485 0 24870720.652534485 6551091.7071685791 0 0 0 0 -308147.57356613799 332999.29680829868 0 332999.29680829868 607158.40290850215 0 0 0 0 -49921940.414692879 41599952.081785202 0 41599952.081785202 6755516.0202243626 0 0 0 0 -44509982.691420302 -7526023.3301062584 0 -7526023.3301062584 5245596.0511856079 0 0 0 0 759608.8371219635 4545964.4248161316 0 4545964.4248161316 6343353.6947402954 0 0 0 0 -29864125.989048243 7746510.1011123657 0 7746510.1011123657 6653317.9876189232 0 0 0 0 -9902520.6192300767 -2259626.483222723 0 -2259626.483222723 2955671.3389930725 0 0 0 0 -79102861.738485217 -2497888.2773838043 0 -2497888.2773838043 28412854.854864359 0 0 0 0 -28061421.785771012 18323787.856768131 0 18323787.856768131 31529169.555152893 0 0 0 0 -9890155.2063410282 -46140100.175252914 0 -46140100.175252914 -29651816.140098572 0 0 0 0 -53887616.269943982 94362149.187206745 0 94362149.187206745 17543015.51159668 0 0 0 0 -42112414.69110465 30154642.83530426 0 30154642.83530426 -7706537.4183607101 0 0 0 0 -87683.418975684675 795374.03640409559 0 795374.03640409559 763185.7105813222 0 0 0 0 -35764353.973671675 -21597895.525996208 0 -21597895.525996208 -9644394.6035766602 0 0 0 0 33292705.533849955 22484317.038043976 0 22484317.038043976 12714629.921813965 0 0 0 0 19043473.656066775 -8964013.0206832886 0 -8964013.0206832886 -7654680.0846061707 0 0 0 0 -2960.3521720489953 95992.244825136848 0 95992.244825136848 179996.50049420074 0 0 0 0 180482729.1800046 59345027.095781326 0 59345027.095781326 -55344193.226043701 0 0 0 0 -18611.376208000271 67026.382999967318 0 67026.382999967318 194880.68313771486 0 0 0 0 -29508968.609322906 13119497.459915161 0 13119497.459915161 37280502.215953827 0 0 0 0 36097792.991417408 39242518.640727997 0 39242518.640727997 14196900.757240295 0 0 0 0 45093033.61698091 -4054081.1583480835 0 -4054081.1583480835 41015097.831062317 0 0 0 0 987347.03984075785 -2664744.9219312668 0 -2664744.9219312668 -9424080.3819885254 0 0 0 0 -1877371.2575436831 2163278.2842540741 0 2163278.2842540741 494803.29396629333 0 0 0 0 -514776.698589921 3786570.5017471313 0 3786570.5017471313 -2216094.2202148438 0 0 0 0 414970.27195776778 683373.64128146973 0 683373.64128146973 -214436.79179605655 0 0 0 0 8396765.2276515961 -4268537.2167778015 0 -4268537.2167778015 -22643971.787479401 0 0 0 0 -113280.61901921791 339037.74866447132 0 339037.74866447132 654715.92358608916 0 0 0 0 77052955.366359472 14628696.331478119 0 14628696.331478119 -23203135.650215149 0 0 0 0 56462.162525309599 26993.669345319271 0 26993.669345319271 -1402.7409545462579 0 0 0 0 43331454.975295067 8182772.6500434875 0 8182772.6500434875 -29523431.216403961 0 0 0 0 50272959.672773361 30571348.893447876 0 30571348.893447876 36916272.744598389 0 0 0 0 17696249.405968189 10135908.287714005 0 10135908.287714005 -4725363.0626220703 0 0 0 0 -53097056.531997576 -26301818.772174716 0 -26301818.772174716 26391351.532424927 0 0 0 0 245874.79662960611 519758.75943712285 0 519758.75943712285 -299545.14273327217 0 0 0 0 50895159.959918499 -11638885.128356934 0 -11638885.128356934 -7185852.8213043213 0 0 0 0 21676164.146640778 46179196.007675171 0 46179196.007675171 8909845.0461540222 0 0 0 0 45399951.045295238 -95051517.626651764 0 -95051517.626651764 35641818.535415649 0 0 0 0 5907618.1552371979 22073458.414222717 0 22073458.414222717 2114985.1492004395 0 0 0 0 10390006.44813633 8413693.2678527832 0 8413693.2678527832 -556650.25479125977 0 0 0 0 3999524.9679441452 12105381.850002289 0 12105381.850002289 12162933.089759827 0 0 0 0 4487902.3569930792 11495531.606625557 0 11495531.606625557 4501744.8580932617 0 0 0 0 6918745.9576025009 7193967.8799667358 0 7193967.8799667358 -15485788.773937225 0 0 0 0 15552355.984395981 1180248.5941848755 0 1180248.5941848755 -11360816.532424927 0 0 0 0 12017246.548438072 21362953.342544556 0 21362953.342544556 20627545.596847534 0 0 0 0 40365164.732419491 20450335.100269318 0 20450335.100269318 986295.28931427002 0 0 0 0 -1177341.5441396236 2862560.0165233612 0 2862560.0165233612 22170455.488591909 0 0 0 0 27050579.346906722 -9640713.2371189594 0 -9640713.2371189594 -2956273.1505661011 0 0 0 0 15424449.353602648 21460683.156794071 0 21460683.156794071 12435190.097412109 0 0 0 0 -425391.91916272533 441988.57229125127 0 441988.57229125127 227881.11472767405 0 0 0 0 -6821892.3615479469 8984102.7880363464 0 8984102.7880363464 -3258360.4273328781 0 0 0 0 -3277997.8407674348 2680056.026815366 0 2680056.026815366 1057873.4117696374 0 0 0 0 -2394458.7172641754 12232714.067390442 0 12232714.067390442 -1913812.8566703796 0 0 0 0 -31685180.619381368 -30877532.900274277 0 -30877532.900274277 26693839.61523819 0 0 0 0 7923543.7755413055 -3149971.6638526917 0 -3149971.6638526917 -32480614.979131699 0 0 0 0 -7389488.8429965973 5236821.7620601654 0 5236821.7620601654 -11248699.458751678 0 0 0 0 -38395634.665453672 8411193.8458557129 0 8411193.8458557129 -702859.116355896 0 0 0 0 -9948344.639742136 19658599.63611412 0 19658599.63611412 -4508349.0065422058 0 0 0 0 -23973718.180396333 16050092.162045836 0 16050092.162045836 2198077.4265213013 0 0 0 0 71636.573574996117 190921.02237999009 0 190921.02237999009 -62672.520450495183 0 0 0 0 23152692.384865761 22878065.653905869 0 22878065.653905869 -51726548.465927124 0 0 0 0 44153867.647546768 61503310.612943649 0 61503310.612943649 -30544580.553936005 0 0 0 0 -3135312.788166523 8312057.5926856995 0 8312057.5926856995 -552229.12049198151 0 0 0 0 -9144353.4048334956 6474757.534945488 0 6474757.534945488 11070453.58814621 0 0 0 0 424693.45011353493 5818153.3452663422 0 5818153.3452663422 1532169.2136337161 0 0 0 0 -20646530.22467047 11610455.930276871 0 11610455.930276871 1466240.4747695923 0 0 0 0 -7883998.5207370147 -5331913.9508560896 0 -5331913.9508560896 1105472.1748924255 0 0 0 0 -13461473.458835363 -4149661.1344242096 0 -4149661.1344242096 1078611.6511497498 0 0 0 0 -7866972.1598278284 -710059.39906311035 0 -710059.39906311035 11010518.85093689 0 0 0 0 724410.52332770824 -1825233.5391693115 0 -1825233.5391693115 151946.13746070862 0 0 0 0 -4399256.2590072155 -2480060.2920742035 0 -2480060.2920742035 21125730.989997864 0 0 0 0 -5168056.4837434888 7468432.4859495163 0 7468432.4859495163 26471242.321857452 0 0 0 0 1012553.9289728403 928567.6062297821 0 928567.6062297821 10106239.267173767 0 0 0 0 -1996034.2836019809 2589423.1208252236 0 2589423.1208252236 -111890.83907002676 0 0 0 0 15412599.189373374 8600212.4119701385 0 8600212.4119701385 11254415.589607239 0 0 0 0 -18404358.104545116 15107876.15296936 0 15107876.15296936 45360464.693393707 0 0 0 0 17259067.455459833 8719225.3972349167 0 8719225.3972349167 -29405270.131851196 0 0 0 0 -15601563.007565618 -1904655.2070293427 0 -1904655.2070293427 -13165598.332029343 0 0 0 0 -894378.3913355188 2218475.4360559545 0 2218475.4360559545 -237044.1668886086 0 0 0 0 10571115.141098261 -16372440.543087006 0 -16372440.543087006 -36407901.636918068 0 0 0 0 6316787.2594232559 -14389172.806192398 0 -14389172.806192398 -375215.72992134094 0 0 0 0 7218374.5229054689 4824813.0806512833 0 4824813.0806512833 5721208.2641334534 0 0 0 0 38601089.536738634 12549401.558768749 0 12549401.558768749 4457812.9996261597 0 0 0 0 23282684.912547588 -4345968.4019145966 0 -4345968.4019145966 -13418913.271139145 0 0 0 0 4037163.844881773 9411133.3148908615 0 9411133.3148908615 4578253.1919364929 0 0 0 0 2035834.5406928062 21236989.824737549 0 21236989.824737549 8056616.4620141983 0 0 0 0 17660636.742747903 13864002.91628027 0 13864002.91628027 5913422.8295440674 0 0 0 0 -122107.29175019264 15437891.414587021 0 15437891.414587021 -4675780.488735199 0 0 0 0 -9495823.911716938 16748617.821294785 0 16748617.821294785 -4129854.7072677612 0 0 0 0 -366517.88056993484 18780076.002918243 0 18780076.002918243 -5922178.8789100647 0 0 0 0 355529.25345230103 9259866.2402153015 0 9259866.2402153015 -12513303.68289566 0 0 0 0 8898056.7635278702 12714054.470848083 0 12714054.470848083 -13193489.960659027 0 0 0 0 19825110.686130524 13322315.103034973 0 13322315.103034973 -13427831.998012543 0 0 0 0 -11332617.941011429 -5966931.8798332214 0 -5966931.8798332214 10080609.61655426 0 0 0 0 -28607697.759059906 3592744.8818645477 0 3592744.8818645477 12675945.467437744 0 0 0 0 -1559293.6810498238 1903258.4868154526 0 1903258.4868154526 6524202.613445282 0 0 0 0 -3354583.4697284698 -4397062.6181716919 0 -4397062.6181716919 9684144.6298542023 0 0 0 0 -2880102.8824558258 4323164.3509941101 0 4323164.3509941101 5364555.3093166351 0 0 0 0 -28280595.505834579 21527258.723712921 0 21527258.723712921 3381387.1053199768 0 0 0 0 -8057393.4054298401 12476992.676828384 0 12476992.676828384 7380145.956905365 0 0 0 0 -4409192.1527788639 26767870.68775034 0 26767870.68775034 -12152120.755645752 0 0 0 0 -36809940.560731888 1442454.5467567444 0 1442454.5467567444 10281966.222227097 0 0 0 0 -41217931.373356819 31340930.375871658 0 31340930.375871658 3815152.3541564941 0 0 0 0 -44487.771389920264 -367534.76822238136 0 -367534.76822238136 1146073.8393470291 0 0 0 0 -29236467.491089821 33519300.945390701 0 33519300.945390701 -3151476.2557263374 0 0 0 0 -2429959.0246839523 -5755398.8435840607 0 -5755398.8435840607 10004031.507434845 0 0 0 0 3321607.6129002571 -2843534.7257299423 0 -2843534.7257299423 5936217.6075515747 0 0 0 0 -2040744.0336905196 -2029043.0998296738 0 -2029043.0998296738 8647880.0020599365 0 0 0 0 -2539874.1337120635 -142667.23559023789 0 -142667.23559023789 5298410.9156255294 0 0 0 0 -133787.12879153574 -1045698.8225650787 0 -1045698.8225650787 5329003.2079200745 0 0 0 0 -2699734.4373871209 1276804.9203739166 0 1276804.9203739166 6111794.9188613892 0 0 0 0 -2304002.8361843508 228226.24478912354 0 228226.24478912354 8786580.4124984741 0 0 0 0 -94879.160053678774 -253141.6972851418 0 -253141.6972851418 832963.39275346138 0 0 0 0 -2269454.0117812688 1116574.2526531219 0 1116574.2526531219 3589178.6275024414 0 0 0 0 -330662.93209713697 -959834.7825012207 0 -959834.7825012207 3997183.3884010315 0 0 0 0 -16202.676698054998 469573.79777941597 0 469573.79777941597 -83010.415863648057 0 0 0 0 -2263421.5423889291 -1311473.4560852051 0 -1311473.4560852051 4111569.4255161285 0 0 0 0 1295247.571046815 4795443.581597805 0 4795443.581597805 -811880.60479354858 0 0 0 0 -5301.7433657080855 2251.1900296658278 0 2251.1900296658278 5403.1512570846826 0 0 0 0 132657.84174146876 5719800.00157547 0 5719800.00157547 -762846.25850892067 0 0 0 0 -1632513.9686839534 3713788.10445261 0 3713788.10445261 5265809.6944885254 0 0 0 0 -2344405.9489439065 -1453245.8490524292 0 -1453245.8490524292 5866283.899887085 0 0 0 0 -611687.17746798694 1775923.1595573425 0 1775923.1595573425 5374417.2539215088 0 0 0 0 -2133964.3999392688 1854791.7718505859 0 1854791.7718505859 5957152.0707244873 0 0 0 0 -3428808.323396489 2025458.4538879395 0 2025458.4538879395 6497503.1205177307 0 0 0 0 2382542.1145043597 -3400094.7332744598 0 -3400094.7332744598 7176111.7838134766 0 0 0 0 451686.57663684152 -6069249.4855175018 0 -6069249.4855175018 10027762.517570496 0 0 0 0 -6535244.788115561 -25572.475471496582 0 -25572.475471496582 7171051.0247802734 0 0 0 0 -2817117.8666650653 -187158.47357177734 0 -187158.47357177734 6141864.447101593 0 0 0 0 -241754.85757929832 -3406005.9226799011 0 -3406005.9226799011 6634308.9076080322 0 0 0 0 -500381.10744429589 683495.68796396255 0 683495.68796396255 5069712.4558563232 0 0 0 0 -3605822.8794675469 -3255014.8299026489 0 -3255014.8299026489 4674747.6428833008 0 0 0 0 -2914860.890774399 -1641740.552614212 0 -1641740.552614212 7917864.405090332 0 0 0 0 -471785.98023364227 -398458.62275362015 0 -398458.62275362015 2112600.6030883789 0 0 0 0 -117188.99130248193 -38830.202123569325 0 -38830.202123569325 151834.40381618217 0 0 0 0 -16699710.207477957 5153634.231803894 0 5153634.231803894 4444228.1621551514 0 0 0 0 -7855796.0598926693 -3032043.3327140808 0 -3032043.3327140808 1035024.8747558594 0 0 0 0 -2652.9179276958093 21018.539142984897 0 21018.539142984897 94738.781562032178 0 0 0 0 -5087543.7934743948 981397.3306312561 0 981397.3306312561 5081481.3974456787 0 0 0 0 -7197249.4892291129 5427137.7769985199 0 5427137.7769985199 3648886.3782043457 0 0 0 0 -7296179.9664866552 9274541.611289978 0 9274541.611289978 -5396554.2695465088 0 0 0 0 -2946096.4098136127 4095297.9921913147 0 4095297.9921913147 693477.75250244141 0 0 0 0 -287968.49664969929 -952035.48946380615 0 -952035.48946380615 9640633.700504303 0 0 0 0 269573.22408861481 -2663863.8572788239 0 -2663863.8572788239 9675024.3019790649 0 0 0 0 -1484797.6152877808 1336090.5983200073 0 1336090.5983200073 1317390.8079624176 0 0 0 0 -783718.8932469273 -332361.90567962825 0 -332361.90567962825 1041403.5914964937 0 0 0 0 -1342473.8488276601 -4950751.8845062256 0 -4950751.8845062256 13870863.076820374 0 0 0 0 -969009.27925845236 2103785.3020553589 0 2103785.3020553589 13093402.488563538 0 0 0 0 -985231.2727740258 -2607709.4870986938 0 -2607709.4870986938 10703558.512184143 0 0 0 0 -1742534.4922091961 -172914.23456573486 0 -172914.23456573486 2544192.9688186646 0 0 0 0 -600978.50507584517 1996279.1350741386 0 1996279.1350741386 5213884.3960189819 0 0 0 0 -1162735.1840752782 -683455.86253381334 0 -683455.86253381334 1727963.3962261528 0 0 0 0 -1921654.2959532738 472969.89964294434 0 472969.89964294434 3164431.0931549072 0 0 0 0 -1528737.8073080978 -855910.7316608429 0 -855910.7316608429 5613832.1479797363 0 0 0 0 -4904890.1318550995 3498193.3348808289 0 3498193.3348808289 3057269.7527694702 0 0 0 0 -2507663.821502896 1573762.3677833881 0 1573762.3677833881 3971614.90976936 0 0 0 0 -475992.39408411877 1222249.0491981506 0 1222249.0491981506 3853435.3095626831 0 0 0 0 -3562929.063744545 3079156.7224807739 0 3079156.7224807739 6818434.9835829735 0 0 0 0 -14645697.4432621 8989365.4057407379 0 8989365.4057407379 5558184.9007873535 0 0 0 0 -2687191.7246563206 2330082.0862423601 0 2330082.0862423601 3505342.8702309448 0 0 0 0 -2258221.3607676029 -193463.81541633606 0 -193463.81541633606 3678224.6558113098 0 0 0 0 -2332030.9970202446 -740255.55370521545 0 -740255.55370521545 13650702.898193359 0 0 0 0 -2386120.462477684 260814.5001411438 0 260814.5001411438 4809018.9283981323 0 0 0 0 -1154091.053563118 4458560.5744132996 0 4458560.5744132996 6245622.7900619507 0 0 0 0 -1354279.1175183058 2928081.2014703751 0 2928081.2014703751 -493859.22324371338 0 0 0 0 -1264975.1900620461 841837.81069564819 0 841837.81069564819 2398539.7567825317 0 0 0 0 -1969042.8438575268 1837530.7939586639 0 1837530.7939586639 2724455.8872947693 0 0 0 0 475310.89681593626 1076078.9661067221 0 1076078.9661067221 801566.09677529894 0 0 0 0 441023.58533304371 3785053.2526969314 0 3785053.2526969314 -306021.0401763916 0 0 0 0 1066810.5784757137 5674223.086602211 0 5674223.086602211 -1559335.6493721008 0 0 0 0 474559.72017717361 2264634.6512050629 0 2264634.6512050629 -4573899.8619651794 0 0 0 0 652618.1301210185 791643.97484721337 0 791643.97484721337 -138819.31956861075 0 0 0 0 -98698.669781923294 -65235.807861328125 0 -65235.807861328125 -587720.74556159973 0 0 0 0 262137.82501942769 254853.27558868285 0 254853.27558868285 90399.409364903346 0 0 0 0 299741.27403579 307489.24513388798 0 307489.24513388798 226868.67556804232 0 0 0 0 -3721102.8376971781 548363.6866569519 0 548363.6866569519 997879.69339179993 0 0 0 0 -13084888.326773256 6683503.483291626 0 6683503.483291626 21276702.652517319 0 0 0 0 37367738.689858839 -56319713.738730192 0 -56319713.738730192 -42860565.015060425 0 0 0 0 -3347600.0608808324 81487284.349848747 0 81487284.349848747 -21200057.174217224 0 0 0 0 -35299047.543388009 -50188402.614175797 0 -50188402.614175797 8334062.8873372078 0 0 0 0 106760.46156674951 65617.720324169844 0 65617.720324169844 81624.098467011005 0 0 0 0 10105285.960950915 -971668.20227432251 0 -971668.20227432251 -5344564.4749069214 0 0 0 0 -14333368.416840948 -53474428.624822617 0 -53474428.624822617 69865761.38716507 0 0 0 0 -3743895.9242542535 107161.46054840088 0 107161.46054840088 7904767.715839386 0 0 0 0 18633366.772242006 -14612475.340341568 0 -14612475.340341568 8717284.4555206299 0 0 0 0 183031.85221260181 -315163.96767520905 0 -315163.96767520905 8915076.0009536743 0 0 0 0 801036.30672965199 481752.57506942749 0 481752.57506942749 5002692.7652511597 0 0 0 0 1373720.0875284523 415402.89482498169 0 415402.89482498169 1223267.2256774902 0 0 0 0 -3256655.1034598351 6425576.3102455139 0 6425576.3102455139 -831798.73130226135 0 0 0 0 -1955899.4642298222 2096604.2105064392 0 2096604.2105064392 1830040.8587188721 0 0 0 0 -4580507.530712232 6411241.1503944397 0 6411241.1503944397 -556491.453125 0 0 0 0 281790.20019258349 1046522.808623055 0 1046522.808623055 893576.232974777 0 0 0 0 1157691.5814673901 751624.98114395142 0 751624.98114395142 -917637.81401824951 0 0 0 0 -2223806.585695575 -1175307.4071321487 0 -1175307.4071321487 4303136.1297683716 0 0 0 0 -381869.27834197506 3398425.3201656342 0 3398425.3201656342 -287376.52755737305 0 0 0 0 -9392686.8099007681 5201195.6478309631 0 5201195.6478309631 1203119.8682193756 0 0 0 0 -4484558.7799097756 6933744.8776679039 0 6933744.8776679039 -8972500.1283721924 0 0 0 0 -5083914.3592833802 -1263937.6395626068 0 -1263937.6395626068 -6711830.4961547852 0 0 0 0 -3843962.2012007702 1780662.6489620209 0 1780662.6489620209 703517.67049407959 0 0 0 0 529069.28323170915 1697400.3504753113 0 1697400.3504753113 -3161132.673866272 0 0 0 0 253114.8296662569 1147262.9802246094 0 1147262.9802246094 2434201.4221191406 0 0 0 0 2637758.6152026467 -92587.620594024658 0 -92587.620594024658 484009.4264831543 0 0 0 0 137643.80775116757 -800504.99495697021 0 -800504.99495697021 4407275.0451812744 0 0 0 0 2826579.7745832698 -917316.1500415802 0 -917316.1500415802 3850148.9288482666 0 0 0 0 1966301.1389137537 -2053257.1467285156 0 -2053257.1467285156 6835329.2626419067 0 0 0 0 2898566.4113754695 -7232285.0465006828 0 -7232285.0465006828 12603764.335842133 0 0 0 0 4790289.2594225667 -4620117.2166118622 0 -4620117.2166118622 6837922.2792232726 0 0 0 0 5532942.6794147473 -10024427.999221802 0 -10024427.999221802 12746230.914434433 0 0 0 0 5257480.0136751737 -3271604.1307296753 0 -3271604.1307296753 3193742.659532547 0 0 0 0 2860113.3024050053 -4550800.974187851 0 -4550800.974187851 10448449.369316101 0 0 0 0 8068639.3170452155 -3681744.3632011414 0 -3681744.3632011414 5777319.7658014297 0 0 0 0 3653958.149068166 -7473360.8311252594 0 -7473360.8311252594 16100846.174381256 0 0 0 0 8461598.491633188 -23608265.295675278 0 -23608265.295675278 34324966.303329468 0 0 0 0 1872130.3062560549 -12113317.633999825 0 -12113317.633999825 25968651.456981659 0 0 0 0 -3751164.2737837057 -8886674.1651878357 0 -8886674.1651878357 39020297.80921936 0 0 0 0 -721193.50144317001 -6246284.6714801788 0 -6246284.6714801788 29063207.485462189 0 0 0 0 -4131006.425279473 -8414620.5408000946 0 -8414620.5408000946 55781981.502944946 0 0 0 0 -2515871.7487032879 -4364679.9657459259 0 -4364679.9657459259 37393811.791900635 0 0 0 0 -2500602.8315274036 -4747950.6477031708 0 -4747950.6477031708 26975547.896764517 0 0 0 0 -9692.6931123436862 118213.96772289276 0 118213.96772289276 35758601.71125412 0 0 0 0 -365445.77831665147 -6958035.6250686646 0 -6958035.6250686646 27235167.811513186 0 0 0 0 6603.0410493648751 -1919452.2523040771 0 -1919452.2523040771 15262232.356636047 0 0 0 0 -166582.03335785586 -4391604.8964691162 0 -4391604.8964691162 16377755.746393204 0 0 0 0 2348501.8487300016 -2220766.8606724739 0 -2220766.8606724739 6694252.6132316589 0 0 0 0 1700467.1470026572 -3097566.1030883789 0 -3097566.1030883789 10496881.999482155 0 0 0 0 972314.39040143229 -4843220.4372901917 0 -4843220.4372901917 13733220.550847054 0 0 0 0 -990.47195874696365 -1323771.6311489781 0 -1323771.6311489781 7849278.0324707031 0 0 0 0 1297425.4974988124 -1982861.0180797577 0 -1982861.0180797577 5986318.6524858475 0 0 0 0 -142181.29168542684 -336873.63969039917 0 -336873.63969039917 3202182.6868839264 0 0 0 0 -70.824601560866313 -236.30796783789992 0 -236.30796783789992 3634.2596776275896 0 0 0 0 -319190.70438633114 566903.25954627991 0 566903.25954627991 4853236.4753608704 0 0 0 0 363310.33950563695 -1582529.4632644653 0 -1582529.4632644653 7021879.5572395325 0 0 0 0 413003.08620959148 1076578.404668808 0 1076578.404668808 3687552.6252746582 0 0 0 0 454650.4952293653 462415.44465255737 0 462415.44465255737 4269163.9095153809 0 0 0 0 -64521.243142759427 845138.44269752502 0 845138.44269752502 3638161.5810089111 0 0 0 0 1866012.818655686 -103083.2295589447 0 -103083.2295589447 3495960.8724441528 0 0 0 0 -412764.64371489733 120932.56016159058 0 120932.56016159058 3507660.1589789391 0 0 0 0 -532913.55204303563 2978358.7894515991 0 2978358.7894515991 2199640.4593582153 0 0 0 0 -2574869.8327521514 5053030.0799312592 0 5053030.0799312592 244835.54043579102 0 0 0 0 -96122.511586923152 3232815.8349189758 0 3232815.8349189758 865723.02822113037 0 0 0 0 1256837.4341440462 1192462.4804019928 0 1192462.4804019928 3300419.7189331055 0 0 0 0 -1029102.4417134505 2506275.3254737854 0 2506275.3254737854 2680960.950302124 0 0 0 0 -1660583.3403713265 2432884.6753501892 0 2432884.6753501892 4441144.6472625732 0 0 0 0 -3131731.3591528796 4068415.103066206 0 4068415.103066206 3659843.2540664673 0 0 0 0 -1742092.036283873 2513707.1725006104 0 2513707.1725006104 5022793.385925293 0 0 0 0 -1462314.8926868672 -568619.34610557556 0 -568619.34610557556 6625127.3862228394 0 0 0 0 -10944.783825887667 6604.2739699166268 0 6604.2739699166268 12012.4050944224 0 0 0 0 -1969729.4514511954 504009.36835861206 0 504009.36835861206 5801466.0539274216 0 0 0 0 -1593506.4266757723 1964208.5587692261 0 1964208.5587692261 4137312.4094467163 0 0 0 0 -1704697.7800743543 2005733.4964332581 0 2005733.4964332581 4733630.6298370361 0 0 0 0 -1652379.1252707466 1431649.2982559204 0 1431649.2982559204 4670923.1189117432 0 0 0 0 -1580643.1211062726 1429800.7878189087 0 1429800.7878189087 2674164.7201385498 0 0 0 0 -1145758.175973136 -375392.73078155518 0 -375392.73078155518 3410315.718334198 0 0 0 0 -2130506.6551038306 1534828.0693359375 0 1534828.0693359375 2811097.8097457886 0 0 0 0 -1034134.961560864 -674229.0011138916 0 -674229.0011138916 663129.271484375 0 0 0 0 1395069.3081126742 635932.64353752136 0 635932.64353752136 1670010.7609977722 0 0 0 0 426.05125551400943 854.55028445087373 0 854.55028445087373 1186.0893547870219 0 0 0 0 -2341468.2625027872 2960548.8090209961 0 2960548.8090209961 2336628.4814033508 0 0 0 0 269685.81429478899 -410192.75929641724 0 -410192.75929641724 1293266.4271602631 0 0 0 0 -2158079.183559685 641997.34716796875 0 641997.34716796875 3124248.8239974976 0 0 0 0 -131102.89493952505 1184396.669128418 0 1184396.669128418 3216460.4821853638 0 0 0 0 1616700.6649064906 -2132552.1888885498 0 -2132552.1888885498 -1474189.215461731 0 0 0 0 -3041116.1199446954 747263.79071044922 0 747263.79071044922 3183908.2320861816 0 0 0 0 -376685.07202178892 3545753.3699226379 0 3545753.3699226379 -2067589.1837654114 0 0 0 0 -4906.437812247701 3521.9124004915357 0 3521.9124004915357 6300.3364092344418 0 0 0 0 -929570.68734383816 -3861951.1612453461 0 -3861951.1612453461 13303320.243965149 0 0 0 0 -1883328.6222320823 -375287.63396453857 0 -375287.63396453857 9536033.9902191162 0 0 0 0 -348926.47877915669 324259.22145462036 0 324259.22145462036 6298618.3172721863 0 0 0 0 1491355.3181481599 -2910181.3650398254 0 -2910181.3650398254 9223771.7777709961 0 0 0 0 254145.96513747098 -457019.77410888672 0 -457019.77410888672 7212092.8848648071 0 0 0 0 -2308762.0399203887 -755157.18057632446 0 -755157.18057632446 9727451.5105524063 0 0 0 0 -1202503.8121292531 -1450202.194152832 0 -1450202.194152832 7359859.0297241211 0 0 0 0 -1324284.064565883 -521011.65672683716 0 -521011.65672683716 11561009.437011719 0 0 0 0 -34546.823038339615 -2000821.945063591 0 -2000821.945063591 7881532.9736785889 0 0 0 0 -1023412.647343073 -680377.53534317017 0 -680377.53534317017 9112072.3688062429 0 0 0 0 -982526.1843453804 -1119949.0144500732 0 -1119949.0144500732 7563150.5470962524 0 0 0 0 -761937.46754644718 -1802407.5231800079 0 -1802407.5231800079 7323329.6774330139 0 0 0 0 -777173.20857560728 -58757.291088104248 0 -58757.291088104248 6983543.651040554 0 0 0 0 -1194.8142662959308 -1238103.9784314726 0 -1238103.9784314726 5855694.3620796204 0 0 0 0 -658272.45029719267 -476821.98631477356 0 -476821.98631477356 5332940.890958786 0 0 0 0 -277.48570306077551 -824792.85956340795 0 -824792.85956340795 4303999.5667190552 0 0 0 0 -1968199.3538869172 4048387.5341129303 0 4048387.5341129303 726057.77018737793 0 0 0 0 -1082383.7115754003 -302210.45528793335 0 -302210.45528793335 4785310.720954895 0 0 0 0 -563911.6477182284 -784570.6678571701 0 -784570.6678571701 5093016.7402801514 0 0 0 0 -8503544.2997480631 -113958220.62287724 0 -113958220.62287724 -41687478.55714035 0 0 0 0 -23240444.210067749 -9070375.1413917542 0 -9070375.1413917542 20572881.114830017 0 0 0 0 -499916.98921031272 270376.53302204655 0 270376.53302204655 1349087.7474780306 0 0 0 0 33667573.728523731 20459639.073280811 0 20459639.073280811 50378797.39512825 0 0 0 0 118424973.60795498 -37024430.031452179 0 -37024430.031452179 -73500383.260952234 0 0 0 0 135739650.24434161 26367182.893165827 0 26367182.893165827 -59947414.624078751 0 0 0 0 141546160.59520054 8486579.122381568 0 8486579.122381568 -38386446.354513168 0 0 0 0 176377903.3125205 -5165395.6914405823 0 -5165395.6914405823 -46677111.863195658 0 0 0 0 128991588.58228111 -3293292.4667701721 0 -3293292.4667701721 -37162583.118505836 0 0 0 0 -22383376.398442268 -6502287.6216206551 0 -6502287.6216206551 28119216.311662674 0 0 0 0 -8297090.8343372345 -9632848.0381603241 0 -9632848.0381603241 15942736.649074554 0 0 0 0 2891919.1158370972 -38364191.086603642 0 -38364191.086603642 45798470.476490021 0 0 0 0 -32543410.465223312 1627645.7462587357 0 1627645.7462587357 12990970.99998188 0 0 0 0 4441326.4063951075 -160890.30324666947 0 -160890.30324666947 11760168.212012291 0 0 0 0 -43282243.022378922 5131002.5363817215 0 5131002.5363817215 -844178.87941622734 0 0 0 0 -4700883.9408330917 2855066.6532974243 0 2855066.6532974243 -1930859.8873414993 0 0 0 0 -14216921.792989731 -15472013.327429771 0 -15472013.327429771 20891769.077210426 0 0 0 0 -20572916.517982483 -2432071.2785463333 0 -2432071.2785463333 2644661.4221506119 0 0 0 0 -9255385.2583068609 -12450661.853866696 0 -12450661.853866696 -7188245.6895332336 0 0 0 0 -8747601.6714463234 -9970580.6876382828 0 -9970580.6876382828 3599115.041516304 0 0 0 0 -645590.86030264129 389028.44279842591 0 389028.44279842591 1605740.4316815259 0 0 0 0 -46035922.203027368 30805213.426148981 0 30805213.426148981 -19756146.873212814 0 0 0 0 -51769628.149381757 -17260435.268932045 0 -17260435.268932045 47636598.691698074 0 0 0 0 -103085800.41828442 13236010.1387254 0 13236010.1387254 147607783.71788406 0 0 0 0 -113027281.9975884 -46789302.048705578 0 -46789302.048705578 34203650.522157669 0 0 0 0 129095602.87323999 -9024033.4548006058 0 -9024033.4548006058 -28480856.576211929 0 0 0 0 134970214.33983898 -117082750.49831867 0 -117082750.49831867 551036651.81442261 0 0 0 0 105015781.56966329 68313794.119148016 0 68313794.119148016 -119981506.61147881 0 0 0 0 -171606009.55734777 -156946710.92935944 0 -156946710.92935944 161997560.58387613 0 0 0 0 109243950.04742837 30792917.039272308 0 30792917.039272308 78187116.001976013 0 0 0 0 119272299.5269537 43829514.513510227 0 43829514.513510227 94077487.720230103 0 0 0 0 169492940.77169895 58116123.139619827 0 58116123.139619827 -53775089.624923944 0 0 0 0 178544071.4864049 4221217.7597513199 0 4221217.7597513199 84485887.324422836 0 0 0 0 226052014.84626913 126187935.93414974 0 126187935.93414974 100350864.72614288 0 0 0 0 482369956.85108948 185876150.883214 0 185876150.883214 170254635.81213951 0 0 0 0 88178171.186405182 264488943.46658039 0 264488943.46658039 740471418.92307663 0 0 0 0 15236037.357809067 82940312.955300331 0 82940312.955300331 306224738.30058098 0 0 0 0 -44612126.298374027 -5726842.5208428502 0 -5726842.5208428502 257739811.13552856 0 0 0 0 -45688229.364974022 21563837.197062492 0 21563837.197062492 465365408.73330307 0 0 0 0 32569623.072080135 120428381.14125252 0 120428381.14125252 331112868.22714472 0 0 0 0 -38244495.526585579 51791823.044413567 0 51791823.044413567 308932350.9303894 0 0 0 0 -60167346.54544735 6025807.843416214 0 6025807.843416214 302274813.72334647 0 0 0 0 -9477197.6212412119 -5152232.1827120781 0 -5152232.1827120781 275692492.4635334 0 0 0 0 -55967285.109479904 8532032.8938322067 0 8532032.8938322067 296391403.02786255 0 0 0 0 -47607524.600325227 26178607.77573061 0 26178607.77573061 252662155.04159164 0 0 0 0 -37985757.461931705 35808130.367907524 0 35808130.367907524 217209344.63824463 0 0 0 0 -10718193.907552004 45331603.746535301 0 45331603.746535301 117058247.08735514 0 0 0 0 -44702881.446724892 30151540.417075157 0 30151540.417075157 215886921.00474334 0 0 0 0 94994002.248837471 -5984779.3704621792 0 -5984779.3704621792 -7032715.9058494568 0 0 0 0 -34270531.559851646 -7454184.1464996338 0 -7454184.1464996338 163312484.09331393 0 0 0 0 19908255.775696933 66013776.363919497 0 66013776.363919497 203040664.28901672 0 0 0 0 -31286523.440583229 86207542.600178719 0 86207542.600178719 458077326.09329319 0 0 0 0 -909797.39659976959 54657204.33595562 0 54657204.33595562 429140958.60683632 0 0 0 0 14630139.652705669 79111381.305008888 0 79111381.305008888 378259267.40354538 0 0 0 0 33149497.527578749 59170953.769707382 0 59170953.769707382 396677810.1430397 0 0 0 0 -29747993.184910774 77996631.497774124 0 77996631.497774124 420750790.04188728 0 0 0 0 50334030.621800423 57707543.711511612 0 57707543.711511612 264846932.10791135 0 0 0 0 2918753.6005988121 74148866.229824066 0 74148866.229824066 313623611.59310246 0 0 0 0 14656533.359193325 115225997.92446756 0 115225997.92446756 399438860.04938507 0 0 0 0 -16338964.203330517 -18201663.130540848 0 -18201663.130540848 236585190.88547277 0 0 0 0 -24649435.867936611 -18498198.883218765 0 -18498198.883218765 173845615.5286355 0 0 0 0 -50768077.556642532 13632458.59752655 0 13632458.59752655 83574329.759002686 0 0 0 0 -62193424.491224289 -42461832.103683472 0 -42461832.103683472 178394625.89971638 0 0 0 0 -63308469.670082092 14811467.75390625 0 14811467.75390625 194588477.57435608 0 0 0 0 -25539006.116253376 20641026.746904373 0 20641026.746904373 304511705.45309186 0 0 0 0 -1215183.8675646186 40546783.535732985 0 40546783.535732985 234357476.28531647 0 0 0 0 26945588.383028388 -11084878.303046703 0 -11084878.303046703 252500497.28557014 0 0 0 0 757572.3389275216 88729.678168389481 0 88729.678168389481 59380.860494825523 0 0 0 0 18619242.896490574 20438030.363021851 0 20438030.363021851 198363195.17461824 0 0 0 0 45106073.304752827 27591137.972661972 0 27591137.972661972 196277338.87500286 0 0 0 0 11626656.450383663 48123556.072329044 0 48123556.072329044 263274151.20857239 0 0 0 0 -2516604.6082708836 18774803.550261497 0 18774803.550261497 259612062.45712662 0 0 0 0 -1466313.4601913691 41595093.156885624 0 41595093.156885624 209722764.10196686 0 0 0 0 -29979693.010635376 -23825002.485645294 0 -23825002.485645294 158969178.09268951 0 0 0 0 -58082861.986461639 5393151.165807724 0 5393151.165807724 209022095.41286469 0 0 0 0 -12523812.028970718 25323356.402540207 0 25323356.402540207 372911303.47837639 0 0 0 0 -33911545.890049219 38204609.272027016 0 38204609.272027016 -19683894.083309174 0 0 0 0 -10868941.274161816 27572070.870094776 0 27572070.870094776 -19316916.778141022 0 0 0 0 -16099936.026901484 -10693761.687850952 0 -10693761.687850952 -6816765.0844964981 0 0 0 0 -8785599.9964635372 -11033388.959895611 0 -11033388.959895611 -15200152.923420906 0 0 0 0 26212556.782988667 -5851945.5384027958 0 -5851945.5384027958 39600094.17557478 0 0 0 0 265269.72425946896 879715.93530442915 0 879715.93530442915 698070.99261813704 0 0 0 0 19448805.89408493 -47437509.620384216 0 -47437509.620384216 -57746088.797454834 0 0 0 0 22493.368521281867 31520.204100440489 0 31520.204100440489 -21892.484746403992 0 0 0 0 -4871899.506816864 -10837538.488642216 0 -10837538.488642216 -23738524.018829346 0 0 0 0 -14068454.886040449 -15426342.92982626 0 -15426342.92982626 3501742.2625694275 0 0 0 0 -66145123.614160538 -48592789.419560432 0 -48592789.419560432 20679961.860658646 0 0 0 0 -56693803.467335701 -55055117.508253098 0 -55055117.508253098 -1040524.0498352051 0 0 0 0 18902226.281825066 21337675.572376728 0 21337675.572376728 232126.69585466385 0 0 0 0 -187913.35123120033 358357.74601716548 0 358357.74601716548 155360.58885595668 0 0 0 0 -68055475.291255355 36260332.749834061 0 36260332.749834061 -17930771.060088158 0 0 0 0 -105972780.35588074 8453645.4681634903 0 8453645.4681634903 11137091.621311188 0 0 0 0 -39401554.505756378 26805041.008276939 0 26805041.008276939 -14770874.10386467 0 0 0 0 67104710.818041801 31824755.299882889 0 31824755.299882889 -27896226.399899006 0 0 0 0 131273881.41894233 -7476902.0898873806 0 -7476902.0898873806 -9885745.7231521606 0 0 0 0 270544.67542041047 -251589.23966765776 0 -251589.23966765776 99.914672287646681 0 0 0 0 321858.70344901481 -234696.78043746622 0 -234696.78043746622 310326.71034882066 0 0 0 0 -6992837.3513240814 -15494475.715382099 0 -15494475.715382099 -11287180.500331879 0 0 0 0 13983035.809617996 2074893.2365021706 0 2074893.2365021706 10795878.232872747 0 0 0 0 -9293727.0498023033 -17171076.162567139 0 -17171076.162567139 10494390.007674217 0 0 0 0 -24012817.870995998 3676165.3350257874 0 3676165.3350257874 -2899200.327167511 0 0 0 0 50120019.330343723 -12984392.833837509 0 -12984392.833837509 111478672.09280109 0 0 0 0 66800962.085402727 -2727144.2811205387 0 -2727144.2811205387 8611210.2490348816 0 0 0 0 36102546.947025776 21773465.398396969 0 21773465.398396969 39682981.93509376 0 0 0 0 55595992.604994655 -32082018.375045419 0 -32082018.375045419 30572233.359212875 0 0 0 0 -16667539.046907663 -17735956.563288212 0 -17735956.563288212 28921638.555194855 0 0 0 0 -4476431.1922125816 14702973.435294151 0 14702973.435294151 25965740.959356487 0 0 0 0 4766491.9815135002 19439075.362231255 0 19439075.362231255 -14665602.916411638 0 0 0 0 -32391450.565894127 -15743500.701515198 0 -15743500.701515198 5647264.6290531158 0 0 0 0 8382837.6464357376 33227950.940931797 0 33227950.940931797 30766421.883499622 0 0 0 0 55125391.910454631 12598397.174788594 0 12598397.174788594 2827740.0032281876 0 0 0 0 11540882.731682062 -3530387.4638156891 0 -3530387.4638156891 18544563.536925316 0 0 0 0 -896598.2683532238 2891930.1127972603 0 2891930.1127972603 -6020498.0153503418 0 0 0 0 -75627843.034406513 -7204127.2587566078 0 -7204127.2587566078 7182931.6525945663 0 0 0 0 -212627.21554245614 -22983.484356514644 0 -22983.484356514644 180643.05028899573 0 0 0 0 265220.2187440173 985250.89996970748 0 985250.89996970748 641106.6198170539 0 0 0 0 -86105257.794250488 66632461.119277 0 66632461.119277 -11293925.255728006 0 0 0 0 -56254750.676562071 33840961.746485472 0 33840961.746485472 258849.01375007629 0 0 0 0 -60364125.491469622 4552195.2540287971 0 4552195.2540287971 29259302.608595848 0 0 0 0 -40559417.613117456 25622325.975446939 0 25622325.975446939 -18924094.862431049 0 0 0 0 -22902928.268678665 -504332.47656393051 0 -504332.47656393051 3039360.1779088974 0 0 0 0 -17598497.321552277 366142.20029234886 0 366142.20029234886 3471205.3275179863 0 0 0 0 101650.67113295547 -86303.803114962531 0 -86303.803114962531 -26689.001581432996 0 0 0 0 -16529953.206854582 2191961.774125576 0 2191961.774125576 -6950800.0264723301 0 0 0 0 257273.52649811283 986554.0455069131 0 986554.0455069131 595535.7539412044 0 0 0 0 -85792810.527761698 36231524.313816786 0 36231524.313816786 21002776.737035751 0 0 0 0 -39601298.217832804 -13780590.198134542 0 -13780590.198134542 -5736631.4655284882 0 0 0 0 -101988547.54449439 11077272.331405878 0 11077272.331405878 18654360.077541351 0 0 0 0 -3950619.3303363323 21193360.205943346 0 21193360.205943346 -681054.44374799728 0 0 0 0 1788110.9267027378 10531417.987226009 0 10531417.987226009 18917062.553185463 0 0 0 0 60452190.943356633 23938067.073274732 0 23938067.073274732 -9090857.2881479263 0 0 0 0 27722432.131913185 26107587.774050236 0 26107587.774050236 -2356194.2635772228 0 0 0 0 19251676.229699612 4208419.7128136158 0 4208419.7128136158 -12237028.008582592 0 0 0 0 -34295127.875458002 27357880.088355303 0 27357880.088355303 12213575.104061127 0 0 0 0 231208.63623354482 824113.79344333883 0 824113.79344333883 372011.39746254589 0 0 0 0 27952176.995663404 22086187.044973135 0 22086187.044973135 -4486956.8451938629 0 0 0 0 36427648.165113449 20356194.792916059 0 20356194.792916059 -9916816.6908779144 0 0 0 0 53119952.356350899 15612621.349953651 0 15612621.349953651 -10712242.162003517 0 0 0 0 43674908.069237232 9497579.4143285751 0 9497579.4143285751 6139342.8881654739 0 0 0 0 51271708.609677792 8110822.8965234756 0 8110822.8965234756 -14598856.426233292 0 0 0 0 43734139.787665367 4118026.2501041889 0 4118026.2501041889 -13035336.705030441 0 0 0 0 50735042.106705427 -2701604.0916692019 0 -2701604.0916692019 -8402506.9292545319 0 0 0 0 51863088.225780487 -8164809.0639033318 0 -8164809.0639033318 3762182.5081481934 0 0 0 0 33090104.509641647 -371543.83069038391 0 -371543.83069038391 -16155590.673063278 0 0 0 0 970365.91762959957 -23569064.758054495 0 -23569064.758054495 3358242.3691034317 0 0 0 0 42898820.012744904 -14401368.194969654 0 -14401368.194969654 -25714103.185918331 0 0 0 0 75355972.254279137 17379949.743056297 0 17379949.743056297 -13313718.268913746 0 0 0 0 65674660.673723221 -16380543.760881901 0 -16380543.760881901 -20776010.329886436 0 0 0 0 119580006.81879282 52771213.039796352 0 52771213.039796352 27222183.990197182 0 0 0 0 104826452.78843164 -58622179.107193947 0 -58622179.107193947 45209697.554158211 0 0 0 0 16319943.029262543 -4097122.726228714 0 -4097122.726228714 17370172.117558956 0 0 0 0 15769008.821700335 2352580.6254217029 0 2352580.6254217029 6368843.2149295807 0 0 0 0 -53097919.773039103 15283480.786701798 0 15283480.786701798 103132905.56737328 0 0 0 0 -30494757.932196617 48287993.292878509 0 48287993.292878509 20289235.585362434 0 0 0 0 -237498.77376720333 164768.24089388037 0 164768.24089388037 563636.82195428573 0 0 0 0 -2709218.6576738358 14196978.345983982 0 14196978.345983982 -27636655.92433548 0 0 0 0 172093402.93720198 -36812626.680716515 0 -36812626.680716515 -13867945.577562332 0 0 0 0 114501350.84433222 -61967593.632560492 0 -61967593.632560492 64280677.828041077 0 0 0 0 -10771461.209617853 -37624488.871869087 0 -37624488.871869087 45906495.65000391 0 0 0 0 -21161114.24134922 -3886895.8563594818 0 -3886895.8563594818 38548532.371195674 0 0 0 0 385456.30658086343 -322768.01509779715 0 -322768.01509779715 -472295.10687165894 0 0 0 0 -43646063.002453804 5478737.7194838524 0 5478737.7194838524 45671496.348577261 0 0 0 0 579441.52235309687 -555829.47366628947 0 -555829.47366628947 -775310.8983762241 0 0 0 0 -10867943.414388657 -21782545.727742672 0 -21782545.727742672 42111979.305926919 0 0 0 0 -84256829.752035379 -19451853.990445852 0 -19451853.990445852 44076611.15977478 0 0 0 0 24091142.289149523 -21104839.319407344 0 -21104839.319407344 -58672930.384643078 0 0 0 0 -13096984.183602333 36719872.474443913 0 36719872.474443913 -26925915.359835625 0 0 0 0 -47688235.206613541 -43648718.627432823 0 -43648718.627432823 -7664102.8753600121 0 0 0 0 -68753836.763998508 10487862.9775033 0 10487862.9775033 18221513.009067059 0 0 0 0 -18439920.32926178 23173632.042749405 0 23173632.042749405 -40482197.504123688 0 0 0 0 -146644.95975088701 -375860.85376174515 0 -375860.85376174515 485307.68717809371 0 0 0 0 1295350.5727081299 -15726166.532167912 0 -15726166.532167912 4517221.7190899849 0 0 0 0 29353478.170476913 -1084973.8676190376 0 -1084973.8676190376 -43470113.741649389 0 0 0 0 13046456.954545975 -47819159.91349268 0 -47819159.91349268 26063586.3901577 0 0 0 0 379259.84160928987 -341273.11576295656 0 -341273.11576295656 -490291.17851686035 0 0 0 0 -416913.85351467133 16568631.290735483 0 16568631.290735483 -10360305.500500679 0 0 0 0 -21581821.161914825 -21294433.668466091 0 -21294433.668466091 10001616.113509655 0 0 0 0 7150995.6238594055 34397612.210076332 0 34397612.210076332 21563930.370417297 0 0 0 0 -1276509.0988193098 456359.84496979602 0 456359.84496979602 2709106.1298719109 0 0 0 0 -211032.06165885925 2902261.3247203827 0 2902261.3247203827 4351235.5275249481 0 0 0 0 -2768436.7342157364 626194.71450805664 0 626194.71450805664 8131000.2959370613 0 0 0 0 -1873890.6230268478 1649035.6027806746 0 1649035.6027806746 5127674.6578271724 0 0 0 0 -3100157.6484594345 1096281.6849927902 0 1096281.6849927902 3643190.6266403198 0 0 0 0 17775992.600557804 20447146.803004265 0 20447146.803004265 -29489670.21175766 0 0 0 0 -60376543.908553123 -16523594.551546097 0 -16523594.551546097 28688029.142924309 0 0 0 0 -1143182.2504257639 1920642.4204672859 0 1920642.4204672859 5954756.723437299 0 0 0 0 -14121588.042330265 -905336.85232019424 0 -905336.85232019424 13245472.911273956 0 0 0 0 -37937674.162982941 10560410.025201797 0 10560410.025201797 7967462.9814140797 0 0 0 0 -613982.16628955561 3570059.8668543296 0 3570059.8668543296 5223734.3067767834 0 0 0 0 -5142065.2278056145 4444506.9220476151 0 4444506.9220476151 2201334.7097806931 0 0 0 0 -2079308.0417028666 1300517.5064621696 0 1300517.5064621696 7923888.2308431938 0 0 0 0 -46483701.750255585 13970690.274921417 0 13970690.274921417 27880609.034812927 0 0 0 0 254648.60234598815 2461108.5646517044 0 2461108.5646517044 7409178.1463841591 0 0 0 0 -15622324.457792759 -13550801.089466095 0 -13550801.089466095 1156803.5917320251 0 0 0 0 -76532535.552544594 -8998629.8515453339 0 -8998629.8515453339 21610057.957179546 0 0 0 0 -1324836.4787778407 595687.30865888833 0 595687.30865888833 4047559.4406973859 0 0 0 0 -37755995.776438713 8363369.8949613571 0 8363369.8949613571 19130873.164945602 0 0 0 0 -24718954.012351036 13884005.244681835 0 13884005.244681835 17438474.666760445 0 0 0 0 -406136.95973396301 -9202923.0862216949 0 -9202923.0862216949 22061126.495692253 0 0 0 0 -47823366.410131454 20191828.918322563 0 20191828.918322563 10182612.940778732 0 0 0 0 -16920778.644397259 13553146.360887408 0 13553146.360887408 11593254.661803246 0 0 0 0 5161335.7714780569 2263883.1831769943 0 2263883.1831769943 37033372.830694199 0 0 0 0 2816806.6169142723 -3476525.2216663361 0 -3476525.2216663361 68231859.073194504 0 0 0 0 47471170.07124427 36471612.281740904 0 36471612.281740904 26406734.020767212 0 0 0 0 20789765.564923286 14668249.844676971 0 14668249.844676971 9127678.3822250366 0 0 0 0 32514762.328844875 24563702.604985714 0 24563702.604985714 -5477680.7561798096 0 0 0 0 13550427.363769054 18989560.850532532 0 18989560.850532532 -1421147.8183898926 0 0 0 0 21979025.592281818 15610076.190330505 0 15610076.190330505 -4374668.3981781006 0 0 0 0 11363955.070706367 24387829.350272179 0 24387829.350272179 5048323.0718994141 0 0 0 0 -5128743.5839886665 15940321.446563721 0 15940321.446563721 721686.53221130371 0 0 0 0 13410878.422888279 17344120.928758144 0 17344120.928758144 -17928758.377792358 0 0 0 0 -7230423.5244679451 9749771.122428894 0 9749771.122428894 -16822477.748059273 0 0 0 0 -30524356.913883209 33501930.54370594 0 33501930.54370594 -1977787.4708023071 0 0 0 0 4263032.8431329578 24445118.40053013 0 24445118.40053013 7246645.6644821167 0 0 0 0 3489988.517603159 -1607859.8207054138 0 -1607859.8207054138 31490109.985925674 0 0 0 0 -5569192.9733967781 -9134396.9446125031 0 -9134396.9446125031 5467160.8579387665 0 0 0 0 -30464851.569788456 32567710.358181 0 32567710.358181 38142026.849372864 0 0 0 0 162273.20576211135 201654.71697049029 0 201654.71697049029 -121962.82309179194 0 0 0 0 -48375508.297305107 5412809.5484390259 0 5412809.5484390259 20441740.621723175 0 0 0 0 238211.06546894554 3220054.8641419681 0 3220054.8641419681 4429416.1024525398 0 0 0 0 -27715202.895506382 15793604.508552551 0 15793604.508552551 8258347.4672241211 0 0 0 0 -46239268.931616187 47404087.594163418 0 47404087.594163418 -12315515.678283691 0 0 0 0 -65231389.87874794 21281716.742259979 0 21281716.742259979 -2338386.2390098572 0 0 0 0 -28494001.858203411 30423101.784910202 0 30423101.784910202 -30169642.788139343 0 0 0 0 -33579073.656117916 41585231.523863792 0 41585231.523863792 5243105.2496032715 0 0 0 0 -4191697.6582307816 3282204.6234359741 0 3282204.6234359741 5609565.0180654526 0 0 0 0 -71067.278312444687 2314004.128054142 0 2314004.128054142 2091271.9604988098 0 0 0 0 -646524.64347089874 2305010.7938912371 0 2305010.7938912371 6052735.4185905959 0 0 0 0 -54598703.122437954 49228407.426179886 0 49228407.426179886 8731525.8675689697 0 0 0 0 -6401634.8066504002 6052641.9488422871 0 6052641.9488422871 3144244.9412021637 0 0 0 0 -41549361.17680645 -2816639.3109436035 0 -2816639.3109436035 -6592428.384809494 0 0 0 0 -37733191.630572319 35147780.28830719 0 35147780.28830719 -13976938.172130585 0 0 0 0 -39359658.074036479 34732837.097949028 0 34732837.097949028 5587354.6716957092 0 0 0 0 -45312746.625556946 18700594.589010239 0 18700594.589010239 1211421.644618988 0 0 0 0 -46886996.795826435 19948551.425398827 0 19948551.425398827 24848660.264690399 0 0 0 0 26663363.778491974 32710293.927713394 0 32710293.927713394 24581635.781059265 0 0 0 0 -88765556.175178051 41088923.658386469 0 41088923.658386469 71853606.289405823 0 0 0 0 83250580.531509876 100733814.59973526 0 100733814.59973526 33066774.856460571 0 0 0 0 6616569.554983139 -16733820.612644196 0 -16733820.612644196 56643111.108892366 0 0 0 0 150087890.3270483 -76054761.70552063 0 -76054761.70552063 57031831.801478088 0 0 0 0 -37830504.308088601 -84344148.468915701 0 -84344148.468915701 198338988.93938828 0 0 0 0 11318601.410852551 2964730.2973585129 0 2964730.2973585129 13456088.445991516 0 0 0 0 -5818916.8277422786 -18951213.799938679 0 -18951213.799938679 85315459.694885254 0 0 0 0 -45976738.507639885 -19257084.490592957 0 -19257084.490592957 148814950.93463135 0 0 0 0 -10362634.954032898 4439236.9286003113 0 4439236.9286003113 99788934.080870628 0 0 0 0 -11157913.44917655 -8300907.9501132965 0 -8300907.9501132965 113392380.89879036 0 0 0 0 -7221866.1560602188 16549635.006717682 0 16549635.006717682 89476252.182798386 0 0 0 0 286284.16608233703 309834.27068919688 0 309834.27068919688 -179474.3157975208 0 0 0 0 7387225.5872074366 -14564242.610785484 0 -14564242.610785484 43077598.748474121 0 0 0 0 -57738644.315717459 52006033.564884186 0 52006033.564884186 63464683.743104935 0 0 0 0 1380426.4589128494 -44094480.383424282 0 -44094480.383424282 31561259.034166336 0 0 0 0 -64396.005456633284 -279427.77535512194 0 -279427.77535512194 168247.90809510089 0 0 0 0 -15012013.107480764 -55740857.413639069 0 -55740857.413639069 127642045.36309481 0 0 0 0 -47071252.419033051 -1075697.8246183395 0 -1075697.8246183395 8217002.5020284653 0 0 0 0 -38737697.606559277 1918576.864481926 0 1918576.864481926 5157120.0656280518 0 0 0 0 -47279150.139477253 -4104670.0998048782 0 -4104670.0998048782 -22531962.845470428 0 0 0 0 -135358143.22154665 31208277.939736366 0 31208277.939736366 54890123.764972687 0 0 0 0 -86674992.095500946 -50357939.784936428 0 -50357939.784936428 182934746.42972946 0 0 0 0 93298338.212589502 -236012033.76536942 0 -236012033.76536942 108842003.85237503 0 0 0 0 -51860783.976392746 -237374648.50827217 0 -237374648.50827217 252199967.59079266 0 0 0 0 -38828213.125053912 -17128660.852464378 0 -17128660.852464378 51774667.323562622 0 0 0 0 198012279.94641829 -104876832.79314518 0 -104876832.79314518 63043469.501228333 0 0 0 0 -237015.57591011468 -359465.02500043157 0 -359465.02500043157 848915.61401906796 0 0 0 0 89018566.188106298 -228691284.29631615 0 -228691284.29631615 113285465.52581024 0 0 0 0 205692261.65191078 -256378824.77267075 0 -256378824.77267075 61481199.750991821 0 0 0 0 -72722469.495137691 143797833.80663109 0 143797833.80663109 118203508.31871414 0 0 0 0 -71323853.118192911 -9528818.2258734703 0 -9528818.2258734703 1216726.0469856262 0 0 0 0 -363454.46904690593 -413887.58389188536 0 -413887.58389188536 1636307.7687571328 0 0 0 0 -51137946.715206385 1266394.5187416077 0 1266394.5187416077 5731604.6830177307 0 0 0 0 -43474990.055954218 -9096093.0843572617 0 -9096093.0843572617 -6888617.990858078 0 0 0 0 -119525.15118273204 -507066.63565809035 0 -507066.63565809035 312871.37215746008 0 0 0 0 -49667607.876619339 -10298296.712229729 0 -10298296.712229729 -3312054.6072483063 0 0 0 0 8203526.2199130058 -33686504.086338043 0 -33686504.086338043 -6508573.603181839 0 0 0 0 -89351656.807863355 -11214724.799672127 0 -11214724.799672127 41151579.785358429 0 0 0 0 1701543.8443982601 -37958926.749334931 0 -37958926.749334931 1348931.6733818054 0 0 0 0 -56166102.861831665 30259329.882633209 0 30259329.882633209 -2088407.1899551153 0 0 0 0 497812.38210966252 805236.24789192388 0 805236.24789192388 1038932.8646227894 0 0 0 0 -21406706.479409218 9258008.5159349442 0 9258008.5159349442 -20856478.504649162 0 0 0 0 -30271710.291813374 1962223.7088019848 0 1962223.7088019848 -8118770.6550731659 0 0 0 0 -22108602.821539879 9781629.715211153 0 9781629.715211153 -428032.08967876434 0 0 0 0 -7965918.797867775 -4066838.411883831 0 -4066838.411883831 11569765.493920326 0 0 0 0 -1656035.6796531379 -407870.98283867305 0 -407870.98283867305 1849780.2171528116 0 0 0 0 346757036.03229761 -159664659.6297493 0 -159664659.6297493 15079371.240112305 0 0 0 0 147379.27950987802 679004.17716412246 0 679004.17716412246 814838.93092612922 0 0 0 0 2102761.9116768837 5579438.6761238575 0 5579438.6761238575 125670791.2212429 0 0 0 0 -12713861.367803574 16592331.397118092 0 16592331.397118092 6853054.042159915 0 0 0 0 1181136.4102581209 2476327.8357542506 0 2476327.8357542506 4499307.5232222062 0 0 0 0 54598480.345637798 -99934155.103792191 0 -99934155.103792191 55601474.838777542 0 0 0 0 38307345.556796551 -117022688.17086601 0 -117022688.17086601 124301971.95135275 0 0 0 0 78287795.004918575 -129712483.32402039 0 -129712483.32402039 31595546.608428955 0 0 0 0 71690153.011230469 -84545893.101742744 0 -84545893.101742744 -25602249.795162201 0 0 0 0 55000446.882779121 -113471979.25254631 0 -113471979.25254631 47325738.178314209 0 0 0 0 73534158.578111649 -114141721.02070999 0 -114141721.02070999 21285819.976211548 0 0 0 0 93082353.651220322 -83553557.350614548 0 -83553557.350614548 40058216.865702152 0 0 0 0 1522663.5729407822 2293879.2629897529 0 2293879.2629897529 3410676.9816200063 0 0 0 0 -1626107.9895067215 81836414.939838409 0 81836414.939838409 30637246.567777634 0 0 0 0 57565472.040541887 -85218961.048199773 0 -85218961.048199773 39993311.506025314 0 0 0 0 387363.54549207306 341387.00624498958 0 341387.00624498958 78286.824073384516 0 0 0 0 -91626247.655340672 62173292.270318747 0 62173292.270318747 28617887.360374928 0 0 0 0 1426024.8654395072 1856923.17236835 0 1856923.17236835 2459926.508651128 0 0 0 0 -156279527.31322479 217049460.99920273 0 217049460.99920273 182370784.88529682 0 0 0 0 -2633110.1339797974 -86371856.707558632 0 -86371856.707558632 -117132991.80600262 0 0 0 0 80525969.38079834 -7543679.8789043427 0 -7543679.8789043427 144394458.55608368 0 0 0 0 128310376.12153244 34595026.757946014 0 34595026.757946014 72542971.385753632 0 0 0 0 109725234.0533185 -28346653.383994341 0 -28346653.383994341 149410094.06622696 0 0 0 0 123598546.70887399 44454156.669699192 0 44454156.669699192 462343020.68839264 0 0 0 0 -23601163.36850214 127360270.44776535 0 127360270.44776535 569797027.36045456 0 0 0 0 211110225.8000226 149670998.83110619 0 149670998.83110619 352575521.75565338 0 0 0 0 63335727.938000798 21229951.270780087 0 21229951.270780087 309934461.20175743 0 0 0 0 197104928.44442272 -17967076.247284889 0 -17967076.247284889 137536568.71056843 0 0 0 0 98433718.783766031 -92022514.19611907 0 -92022514.19611907 51377317.350639343 0 0 0 0 64942734.888305187 -46557086.634410858 0 -46557086.634410858 173388088.84705544 0 0 0 0 -4031590.3361597061 -82968458.657487392 0 -82968458.657487392 79168339.855997086 0 0 0 0 69729326.746880531 -34400574.263154984 0 -34400574.263154984 31775409.923321962 0 0 0 0 -127706225.66119862 34925652.987752914 0 34925652.987752914 12985026.635874271 0 0 0 0 63327022.089453697 45986898.314660072 0 45986898.314660072 -11667650.025828362 0 0 0 0 27089369.473153591 149301056.36887074 0 149301056.36887074 173526860.53835869 0 0 0 0 1433972.428483963 189258745.9576664 0 189258745.9576664 115562786.64997864 0 0 0 0 -108991.54607357294 -102315.14164680336 0 -102315.14164680336 632916.06131041609 0 0 0 0 23724151.71527338 53445909.294614792 0 53445909.294614792 214839195.26014519 0 0 0 0 40690111.256874561 55726428.328288078 0 55726428.328288078 36918794.511817932 0 0 0 0 26053473.669692039 78111593.746379852 0 78111593.746379852 95897102.224491119 0 0 0 0 111423209.12842178 148026904.44582939 0 148026904.44582939 95105801.385426581 0 0 0 0 43470426.572189331 80458028.638885498 0 80458028.638885498 43738990.340351105 0 0 0 0 63636358.921798468 44626955.356351852 0 44626955.356351852 -25224323.291778564 0 0 0 0 20298819.541851044 -14643137.506910324 0 -14643137.506910324 -15860000.900093555 0 0 0 0 646774.17448727996 187810.99885775289 0 187810.99885775289 47166.465023143217 0 0 0 0 59639057.515152931 7197019.366569519 0 7197019.366569519 -3650645.8603172302 0 0 0 0 -17825054.545755863 14273331.073210716 0 14273331.073210716 23938411.199728012 0 0 0 0 53834123.359492302 -4549024.4782714844 0 -4549024.4782714844 -1880969.8939609528 0 0 0 0 -799688.9256478548 -33876721.45101428 0 -33876721.45101428 59587890.513038635 0 0 0 0 605534.24548844108 -94839.518117704429 0 -94839.518117704429 672535.88754486293 0 0 0 0 163450310.35669518 -14739479.678161621 0 -14739479.678161621 -16909664.560640335 0 0 0 0 93100188.826397896 228254529.78699112 0 228254529.78699112 225605788.35880184 0 0 0 0 30939445.503112316 154817715.97266197 0 154817715.97266197 162917403.62869644 0 0 0 0 56635714.585821152 70470139.76880455 0 70470139.76880455 50563673.418167114 0 0 0 0 244367394.79868841 165001098.54540014 0 165001098.54540014 72389899.44475174 0 0 0 0 -33345684.802222252 -23906530.249221802 0 -23906530.249221802 57903608.938380122 0 0 0 0 -15229550.494122028 -32248113.641586781 0 -32248113.641586781 14093479.164968491 0 0 0 0 13822646.679646969 -69331808.961783409 0 -69331808.961783409 41494347.185504913 0 0 0 0 -4223963.5325059891 -71727161.72729063 0 -71727161.72729063 52356277.324567795 0 0 0 0 -69319.422958799347 -319926.04011061101 0 -319926.04011061101 158939.57594943792 0 0 0 0 -80569874.23282665 -1334031.5079337358 0 -1334031.5079337358 23030820.820045471 0 0 0 0 -5077295.104123354 -59928476.322991371 0 -59928476.322991371 41474990.003314972 0 0 0 0 -51973477.603694439 -35066712.205004692 0 -35066712.205004692 62366050.424473763 0 0 0 0 -32845986.370957851 -6544497.4018726349 0 -6544497.4018726349 7881310.196811676 0 0 0 0 -277706.14467600337 -253058.7673447415 0 -253058.7673447415 1467968.9863427393 0 0 0 0 -27931835.920395911 -18717146.600987911 0 -18717146.600987911 32733552.551704407 0 0 0 0 35326995.626144946 -87879409.727493763 0 -87879409.727493763 113913377.83924675 0 0 0 0 31500801.16744709 86843602.708551407 0 86843602.708551407 201114369.80480194 0 0 0 0 -10058675.708199024 -19449721.775303841 0 -19449721.775303841 32046575.268657684 0 0 0 0 -23422105.550868988 772781.97223353386 0 772781.97223353386 74073836.813650131 0 0 0 0 -7607449.8042530492 -44935213.09710592 0 -44935213.09710592 28586710.01410675 0 0 0 0 -43522806.657523155 -39946737.485301018 0 -39946737.485301018 43635955.977324486 0 0 0 0 -32922331.29436779 26124348.14661026 0 26124348.14661026 9797294.8413248062 0 0 0 0 -98468871.05491364 22467094.705818176 0 22467094.705818176 19201661.362894058 0 0 0 0 -59931315.520007133 -31717754.298296928 0 -31717754.298296928 56841829.394508362 0 0 0 0 -50213783.319614887 -26305161.321631432 0 -26305161.321631432 25544866.801515579 0 0 0 0 17485599.698649883 -28971954.681162834 0 -28971954.681162834 24324520.318809509 0 0 0 0 -251808.61251021957 -223171.0851697207 0 -223171.0851697207 83821.879551917315 0 0 0 0 -162084628.67568159 34432288.147464752 0 34432288.147464752 43192587.229728699 0 0 0 0 -331548.89066457748 86945212.553536415 0 86945212.553536415 52915322.357357025 0 0 0 0 8725462.5746212006 24753810.804562569 0 24753810.804562569 -8007352.1024999619 0 0 0 0 22134582.675861895 79315149.249315023 0 79315149.249315023 61413495.959251404 0 0 0 0 71542399.837969303 77763616.701284409 0 77763616.701284409 47152529.765539169 0 0 0 0 58456207.480881691 97616805.052936554 0 97616805.052936554 67929530.304897189 0 0 0 0 88455882.926387072 87159541.590395451 0 87159541.590395451 39857395.340499878 0 0 0 0 48329255.585492611 70858736.686868668 0 70858736.686868668 69480753.372312546 0 0 0 0 74730160.951078415 82150256.266729355 0 82150256.266729355 38146385.919827461 0 0 0 0 2619852.40485413 -953630.10362283979 0 -953630.10362283979 -111903.16714093182 0 0 0 0 60875701.897422791 96275903.315267563 0 96275903.315267563 85422413.185182571 0 0 0 0 16493542.34581852 -4906393.7472934723 0 -4906393.7472934723 -47447959.271893978 0 0 0 0 12550561.797742009 30406301.73486495 0 30406301.73486495 -7703843.1099433899 0 0 0 0 21380793.947562397 9158540.8862609863 0 9158540.8862609863 -17842456.58065033 0 0 0 0 34268961.859347105 44986559.032175064 0 44986559.032175064 20673881.066165924 0 0 0 0 9942975.1915531158 25595510.35423851 0 25595510.35423851 -34802349.581176758 0 0 0 0 12316871.457809269 -37809454.94931221 0 -37809454.94931221 -82080656.666484833 0 0 0 0 -21755885.023100376 -29725055.046815872 0 -29725055.046815872 -17935324.353743553 0 0 0 0 55838165.692724705 -16045816.430076599 0 -16045816.430076599 -25708652.994722366 0 0 0 0 40851876.273153663 42112178.324805737 0 42112178.324805737 97740871.011981964 0 0 0 0 80102716.465147495 89373952.785132408 0 89373952.785132408 53065060.628969193 0 0 0 0 88621111.067078114 191477993.25144863 0 191477993.25144863 214671975.68416309 0 0 0 0 1201169.0183629009 -534363.94680404849 0 -534363.94680404849 144979.93238463812 0 0 0 0 -23049796.000396907 35431009.317089081 0 35431009.317089081 -60324550.329275131 0 0 0 0 179627993.66729546 -108736521.22547531 0 -108736521.22547531 -33930154.765628815 0 0 0 0 129508.77442746423 -297336.84971757419 0 -297336.84971757419 243684.87024852913 0 0 0 0 -262576043.38985538 -50249855.96023941 0 -50249855.96023941 367006797.39355946 0 0 0 0 -62320814.690760612 282841364.79730225 0 282841364.79730225 423530677.89645791 0 0 0 0 174663593.27533281 19130854.669741631 0 19130854.669741631 -67399898.691696167 0 0 0 0 -82544327.645407677 21463853.067591667 0 21463853.067591667 32723029.867204666 0 0 0 0 -90446325.632870674 -18446501.909540176 0 -18446501.909540176 78530848.313426971 0 0 0 0 -984956.9361051321 14377384.085419953 0 14377384.085419953 17933831.882453918 0 0 0 0 -220265.34594583511 -6520100.4098265171 0 -6520100.4098265171 21755103.368476868 0 0 0 0 18822919.360565186 8208599.7601318359 0 8208599.7601318359 6454192.9652481079 0 0 0 0 -266959.16014105082 1670880.5725507736 0 1670880.5725507736 5470980.0946059227 0 0 0 0 1812101.8261479787 1736567.0676088268 0 1736567.0676088268 1380581.4291385822 0 0 0 0 2297383.5771583389 1837017.7276016923 0 1837017.7276016923 5449227.4062519483 0 0 0 0 5666295.7132141944 -114896.88965648925 0 -114896.88965648925 -663136.16987065785 0 0 0 0 -23627829.209621429 -30178257.906932831 0 -30178257.906932831 -5628126.4592285156 0 0 0 0 20911456.507762909 8567914.0714416504 0 8567914.0714416504 2984245.1428527832 0 0 0 0 15679581.119350433 14817387.185062408 0 14817387.185062408 10105456.052297592 0 0 0 0 -234621.88240389712 -306549.89538025297 0 -306549.89538025297 -16117.985402961262 0 0 0 0 -366645.22785711288 1248744.9039745331 0 1248744.9039745331 6917374.8233203888 0 0 0 0 540815.39400815964 1528741.6401958466 0 1528741.6401958466 8659200.3518218994 0 0 0 0 1702978.8031201363 -315407.78781318665 0 -315407.78781318665 4917952.6531448364 0 0 0 0 1659521.138681531 -435617.05328941345 0 -435617.05328941345 4971886.427696228 0 0 0 0 1033896.1865772009 251587.52708435059 0 251587.52708435059 4246917.9690132141 0 0 0 0 22167727.147017479 -159102.69033813477 0 -159102.69033813477 -14262275.304927826 0 0 0 0 3238329.8051282079 -322898.08941297559 0 -322898.08941297559 3251390.7649289845 0 0 0 0 1588061.8746409416 -446237.92851924896 0 -446237.92851924896 4517511.7856826782 0 0 0 0 1634961.4777648523 -586226.02183103561 0 -586226.02183103561 4887849.2452659607 0 0 0 0 1573086.1623644829 -9356952.1164274216 0 -9356952.1164274216 -11222657.727268219 0 0 0 0 2767025.8836641856 332841.50507122977 0 332841.50507122977 -367093.76395625062 0 0 0 0 889583.00844492437 115583.32526992657 0 115583.32526992657 -329413.84427432157 0 0 0 0 -42066448.297532082 -2599343.7464447021 0 -2599343.7464447021 9245944.4734992981 0 0 0 0 -16789895.784774065 54192169.360374451 0 54192169.360374451 61395610.817337036 0 0 0 0 53676554.024730682 36645317.918827057 0 36645317.918827057 37346165.001285553 0 0 0 0 14324463.029526711 -34473083.309371948 0 -34473083.309371948 4031929.5561161041 0 0 0 0 66656067.415201187 21935360.357274055 0 21935360.357274055 -1434870.4308128357 0 0 0 0 155932918.92470694 108132667.37361526 0 108132667.37361526 58160372.425273895 0 0 0 0 151167515.60633469 1227050.4013128281 0 1227050.4013128281 48758025.151409149 0 0 0 0 76803960.571126461 67144548.851532936 0 67144548.851532936 37425191.587375641 0 0 0 0 103012477.58312416 57486269.56489563 0 57486269.56489563 30309154.879234314 0 0 0 0 69906038.938732624 4443376.7955513 0 4443376.7955513 7178633.4659461975 0 0 0 0 14417760.469957352 20408829.989234924 0 20408829.989234924 28132938.60210073 0 0 0 0 57514535.216459751 -2823752.0003623962 0 -2823752.0003623962 -11930075.19675827 0 0 0 0 3581284.9870016924 -1821251.1778057534 0 -1821251.1778057534 -331282.84216650855 0 0 0 0 40607813.725685596 21367674.789247513 0 21367674.789247513 -1891392.8014335632 0 0 0 0 -18743222.510786057 -1454263.175945282 0 -1454263.175945282 8187076.6624631882 0 0 0 0 18461222.883419991 6205547.9380073547 0 6205547.9380073547 11124612.730127335 0 0 0 0 528693.18784129666 547746.49099848978 0 547746.49099848978 455558.97483734973 0 0 0 0 2125261.566411959 1728984.336854761 0 1728984.336854761 -1343966.8225753754 0 0 0 0 13969818.637582779 9895834.3007621765 0 9895834.3007621765 8843191.6074867249 0 0 0 0 -24119746.590456009 -11372435.18901825 0 -11372435.18901825 19169022.46405983 0 0 0 0 18721173.616254807 3807464.9352645874 0 3807464.9352645874 -18407073.34936142 0 0 0 0 11062068.184344292 22501002.703748703 0 22501002.703748703 33735997.434745789 0 0 0 0 11501721.259462357 19142051.173461914 0 19142051.173461914 24181574.413524628 0 0 0 0 1113637.6065441659 938440.72627725638 0 938440.72627725638 -875090.61399359629 0 0 0 0 28948788.283386707 25454762.34044838 0 25454762.34044838 17651037.490987778 0 0 0 0 6599480.6763763428 201320.53488922119 0 201320.53488922119 13847513.129738331 0 0 0 0 -1135088.0225791335 -5207057.0120749474 0 -5207057.0120749474 -5660875.4151954651 0 0 0 0 -1662367.9663047791 6763882.6239185333 0 6763882.6239185333 41090055.851786613 0 0 0 0 -2520637.7870430355 -722679.26802394446 0 -722679.26802394446 5627625.048499357 0 0 0 0 19735512.52450943 20025814.911491871 0 20025814.911491871 2441227.6568222046 0 0 0 0 27477048.160446167 32524529.445144653 0 32524529.445144653 20773489.389487267 0 0 0 0 21246350.219798803 15014113.079139709 0 15014113.079139709 2792994.0155487061 0 0 0 0 -5816165.7345466614 10940086.358787537 0 10940086.358787537 13324911.42024231 0 0 0 0 -1979904.1474189498 210806.6353454534 0 210806.6353454534 2204096.0477369465 0 0 0 0 26123439.944676399 13585683.064421654 0 13585683.064421654 2208955.5393867493 0 0 0 0 24917624.251811504 19938697.390693665 0 19938697.390693665 196506.97185516357 0 0 0 0 1738421.5510624647 3725749.1288909912 0 3725749.1288909912 8979499.0088157654 0 0 0 0 82248.740796178579 586346.44786024094 0 586346.44786024094 7509191.710899353 0 0 0 0 -2791881.4130711555 -639656.04373168945 0 -639656.04373168945 2589596.3053588867 0 0 0 0 -1411779.3736556778 1165118.6613033838 0 1165118.6613033838 5829855.1740040295 0 0 0 0 -1368961.2296859066 -114771.33865994914 0 -114771.33865994914 4587745.2490074411 0 0 0 0 -654340.19438918482 240210.18327170564 0 240210.18327170564 2546517.5995085379 0 0 0 0 3490072.8850852251 3445398.647819519 0 3445398.647819519 1016415.6751174927 0 0 0 0 -2846772.0852552056 -599311.58618688583 0 -599311.58618688583 2942952.5071783066 0 0 0 0 -2887791.815089196 -602953.21175670624 0 -602953.21175670624 2955599.8178882599 0 0 0 0 -1296074.2716194799 -1665613.6498518321 0 -1665613.6498518321 4694557.8851608653 0 0 0 0 -1359431.7965800364 -2088330.2408850749 0 -2088330.2408850749 723729.01695402246 0 0 0 0 -10295520.174366325 -6577231.976760149 0 -6577231.976760149 5461981.0080503225 0 0 0 0 -3350475.7214575112 -866150.0223493576 0 -866150.0223493576 2704568.5071678162 0 0 0 0 6133237.0987796187 4650748.9172328711 0 4650748.9172328711 -1852499.5083012581 0 0 0 0 1036473.7866255641 14375072.209284782 0 14375072.209284782 8957347.9527053833 0 0 0 0 -9449141.6783351898 -609250.0637254715 0 -609250.0637254715 46593502.68148756 0 0 0 0 13264298.432182342 -15328770.320013046 0 -15328770.320013046 -9561582.3443031311 0 0 0 0 -3858861.5766452551 -4966484.5921421051 0 -4966484.5921421051 1740547.0938339233 0 0 0 0 1024159.9879682958 911641.43342590332 0 911641.43342590332 2129688.8702230453 0 0 0 0 5780284.572750628 -5852587.108745575 0 -5852587.108745575 -2768347.4053955078 0 0 0 0 -512755.21879967401 -495781.38116966537 0 -495781.38116966537 5655033.3276929082 0 0 0 0 175837.92589973085 199248.95925381733 0 199248.95925381733 275041.00260630902 0 0 0 0 -41497886.901837111 -18590028.610210896 0 -18590028.610210896 48979184.31546545 0 0 0 0 7032525.40330863 -21762409.282444 0 -21762409.282444 30797506.958515644 0 0 0 0 2091221.5423443317 -8850018.4291629791 0 -8850018.4291629791 42115090.059424162 0 0 0 0 161666.5071094663 230794.56471646973 0 230794.56471646973 -380941.3417299646 0 0 0 0 -41164.621966794672 415562.63502604165 0 415562.63502604165 -7696.5184787274338 0 0 0 0 -273878.82789516449 -23008654.290328979 0 -23008654.290328979 3143086.9660921097 0 0 0 0 7600163.2435437292 -397012.09365230799 0 -397012.09365230799 46291910.014240265 0 0 0 0 -39436077.369889438 56533907.38349098 0 56533907.38349098 -67871298.703854561 0 0 0 0 -70368215.489933372 -12188556.802265048 0 -12188556.802265048 -7386292.3431854248 0 0 0 0 6719111.8213785887 22389987.101798773 0 22389987.101798773 -6121782.820595026 0 0 0 0 -14166801.987982988 -8645096.5543560982 0 -8645096.5543560982 -10781240.108011246 0 0 0 0 -135290666.54741555 99653448.95933634 0 99653448.95933634 -44545213.892861366 0 0 0 0 -118079728.43350269 30415886.394337118 0 30415886.394337118 -469401.14962005615 0 0 0 0 17218453.70767802 5715839.1984195709 0 5715839.1984195709 -24165452.295109987 0 0 0 0 -14944678.48431332 5156292.1988453194 0 5156292.1988453194 11357454.812825203 0 0 0 0 3328340.6184209585 10027432.286742926 0 10027432.286742926 5624053.6020669937 0 0 0 0 -17830461.763081312 7454240.580539465 0 7454240.580539465 11690222.996598721 0 0 0 0 2648454.4163938761 -821339.02964687347 0 -821339.02964687347 4442809.7950992584 0 0 0 0 1884770.4576427937 -1161178.5125217438 0 -1161178.5125217438 6246501.6742553711 0 0 0 0 385554.72363579273 919215.09047889709 0 919215.09047889709 10659445.953151703 0 0 0 0 1846395.589731276 -1538185.8000965118 0 -1538185.8000965118 9000701.2867059708 0 0 0 0 13554936.07199496 -3691501.000980854 0 -3691501.000980854 -9879888.5580550209 0 0 0 0 -188813.05946344422 -975318.80177642033 0 -975318.80177642033 5342102.237030128 0 0 0 0 -8168923.8885002956 1025074.1706290245 0 1025074.1706290245 13481031.125133514 0 0 0 0 -65850.394492979758 -1280249.1053239815 0 -1280249.1053239815 5203724.7074378598 0 0 0 0 -566677.69216237962 -494070.68833112717 0 -494070.68833112717 4257126.137090683 0 0 0 0 2372599.8399918377 -283548.85033226013 0 -283548.85033226013 3812322.0909738988 0 0 0 0 1283852.9375905991 475191.35574913025 0 475191.35574913025 4080158.2977848053 0 0 0 0 1390753.9500934631 152923.59456062317 0 152923.59456062317 3807764.577746436 0 0 0 0 2338584.5728388815 -854243.83997409279 0 -854243.83997409279 3218556.5256644646 0 0 0 0 14210426.493495941 -31181171.333032131 0 -31181171.333032131 -4755755.2558135986 0 0 0 0 45962179.193030119 -36751808.960057259 0 -36751808.960057259 3459857.540763855 0 0 0 0 -23300100.478504181 2137436.9989032745 0 2137436.9989032745 21570441.900253296 0 0 0 0 21221501.577646255 -11342474.781535149 0 -11342474.781535149 -12217380.318080902 0 0 0 0 -11232426.752766609 -29343326.400081635 0 -29343326.400081635 47895847.742546082 0 0 0 0 1038576.5772336572 -1169665.3642654419 0 -1169665.3642654419 3478268.744366169 0 0 0 0 -19834305.037753582 3150656.3720712662 0 3150656.3720712662 7161604.878911972 0 0 0 0 1727515.5489111377 -831285.79369820841 0 -831285.79369820841 3879057.9929259503 0 0 0 0 1320878.8369864225 -527652.52443212271 0 -527652.52443212271 3811476.7900466919 0 0 0 0 -8420816.2052772641 -1490410.9535548687 0 -1490410.9535548687 17457621.671969891 0 0 0 0 -2062740.9974942207 -6646435.1835644245 0 -6646435.1835644245 11973812.474921942 0 0 0 0 -4182857.160731256 -11245045.663143277 0 -11245045.663143277 10722043.138839722 0 0 0 0 2166294.2412503958 -4581970.1233667135 0 -4581970.1233667135 1927799.86521101 0 0 0 0 -1993471.1212428808 -5152923.9314603806 0 -5152923.9314603806 10865338.743967414 0 0 0 0 1003394.1585889459 -1368764.7182133198 0 -1368764.7182133198 2395791.2674407959 0 0 0 0 463115.48724803422 -2076302.4400993041 0 -2076302.4400993041 4594249.9756619744 0 0 0 0 189720.57901211083 -3445385.1310195923 0 -3445385.1310195923 3328476.3008499146 0 0 0 0 -645598.41772824526 -1264679.9489679337 0 -1264679.9489679337 699286.21757954359 0 0 0 0 325536.55180250935 -1846651.9839129364 0 -1846651.9839129364 5372361.8397870651 0 0 0 0 -262991645.37563515 3654816.0025148392 0 3654816.0025148392 141360055.40151978 0 0 0 0 958675.24182231748 -1390359.8871597415 0 -1390359.8871597415 2918329.9252473367 0 0 0 0 737320.65820560255 -1883300.042857107 0 -1883300.042857107 3778505.8213220397 0 0 0 0 1817993.6031750739 -936716.44995498657 0 -936716.44995498657 344619.28293526173 0 0 0 0 -18575305.78067112 13210088.837373734 0 13210088.837373734 43596328.329948425 0 0 0 0 -3149111.0804524571 -815663.14471340179 0 -815663.14471340179 5926412.0535678864 0 0 0 0 1754529.7073881379 -1098229.0331625398 0 -1098229.0331625398 1357713.5281671127 0 0 0 0 92265.956145302072 -10854.416355103254 0 -10854.416355103254 -22933.879106574692 0 0 0 0 -4853123.8944473267 -92711328.417472839 0 -92711328.417472839 -12151942.882240295 0 0 0 0 33033270.768051147 3219184.4415588379 0 3219184.4415588379 14503932.938878059 0 0 0 0 28295692.934720993 -31828583.70580864 0 -31828583.70580864 43653687.363700867 0 0 0 0 106544.04395602131 62080.751781907864 0 62080.751781907864 -63957.075714061037 0 0 0 0 582222.96195085428 350608.34648725716 0 350608.34648725716 567341.79644525796 0 0 0 0 425364664.44879103 357472189.50712013 0 357472189.50712013 171370659.76485443 0 0 0 0 256807640.32714081 -179596858.0752697 0 -179596858.0752697 129014002.51154327 0 0 0 0 18384250.223333359 -185183525.37157822 0 -185183525.37157822 584461779.07473707 0 0 0 0 33473231.918980122 -123253427.09504318 0 -123253427.09504318 124097426.79390717 0 0 0 0 -48100869.353851318 261209942.53401566 0 261209942.53401566 335473739.95078373 0 0 0 0 271407560.25428295 217740040.36218643 0 217740040.36218643 66969246.954868317 0 0 0 0 -20379790.630731106 209273186.77951431 0 209273186.77951431 321971432.62155914 0 0 0 0 131309930.69454384 395613895.82012177 0 395613895.82012177 550744274.08369136 0 0 0 0 108465146.92745304 19444182.498023033 0 19444182.498023033 -96300213.652659416 0 0 0 0 -3304190.5260412693 304060150.39287376 0 304060150.39287376 203956374.34147644 0 0 0 0 -434017.81946716341 348726.35994500061 0 348726.35994500061 883385.35940420255 0 0 0 0 161216757.64688492 393043471.61878204 0 393043471.61878204 202749329.89907646 0 0 0 0 18557071.688975334 -167684081.80600071 0 -167684081.80600071 -418575008.05606461 0 0 0 0 -336991338.29821968 -160335580.15944672 0 -160335580.15944672 66191499.914199829 0 0 0 0 137159533.45585346 -123508629.09911919 0 -123508629.09911919 141068402.96424294 0 0 0 0 -214504711.18533111 -312340275.52007461 0 -312340275.52007461 753704711.27248955 0 0 0 0 279417136.05899811 406734148.65854645 0 406734148.65854645 56553733.126743317 0 0 0 0 -12468287.483241558 -390778973.35839415 0 -390778973.35839415 649582935.58486557 0 0 0 0 781238.75544743286 759704.65817698906 0 759704.65817698906 867224.18812746368 0 0 0 0 153174122.79230976 -217310099.81635284 0 -217310099.81635284 506155737.88813019 0 0 0 0 -151601287.23371124 26495043.970188141 0 26495043.970188141 490322907.28631878 0 0 0 0 -288583604.44790077 -130859253.77712631 0 -130859253.77712631 624192347.26071167 0 0 0 0 -335319034.12004638 375016238.42140913 0 375016238.42140913 476434137.26704407 0 0 0 0 1207790.8492680229 -1126158.1863391157 0 -1126158.1863391157 2221060.6519624419 0 0 0 0 1103648911.8850403 397169295.40485382 0 397169295.40485382 384476001.82533288 0 0 0 0 21473532.730888367 787592248.36166382 0 787592248.36166382 820009111.90079117 0 0 0 0 229102860.60495663 388897223.70800018 0 388897223.70800018 172326643.71642303 0 0 0 0 -153173127.05589342 -136833055.21163177 0 -136833055.21163177 -25319260.758268833 0 0 0 0 -106798609.74991488 -165130502.58950734 0 -165130502.58950734 -109830653.05444241 0 0 0 0 -2761044.4076852798 -31907549.148282051 0 -31907549.148282051 33855044.953959227 0 0 0 0 2079172.1906969731 -2135152.3108480591 0 -2135152.3108480591 1694855.8859290474 0 0 0 0 -84113339.641170979 -66770537.387256145 0 -66770537.387256145 -89759756.42160213 0 0 0 0 -127629570.91566467 -44452319.554853439 0 -44452319.554853439 73528145.726355076 0 0 0 0 129697858.86377382 12875324.943002701 0 12875324.943002701 -5120658.1246609688 0 0 0 0 -122140665.83845019 1230161.398273468 0 1230161.398273468 135811740.17397642 0 0 0 0 320662.56532778812 -326699.77331481781 0 -326699.77331481781 346475.34415351914 0 0 0 0 -7651005.5574069023 5208984.9126734734 0 5208984.9126734734 -2197404.2224721909 0 0 0 0 1887805.3957316454 -1335797.445304736 0 -1335797.445304736 947682.73527709255 0 0 0 0 93756833.428400278 -225969084.74894136 0 -225969084.74894136 -230526699.04197121 0 0 0 0 87063148.056614876 78478002.112809658 0 78478002.112809658 46461990.306858063 0 0 0 0 -37927950.529462814 76884042.582807541 0 76884042.582807541 261589841.79934978 0 0 0 0 -43845445.307098389 -3397314.6588935852 0 -3397314.6588935852 227896943.1509304 0 0 0 0 -22075226.893688679 21495445.410614014 0 21495445.410614014 142210802.60303473 0 0 0 0 -14219086.749755383 36719099.874796867 0 36719099.874796867 144980922.02741814 0 0 0 0 14053922.34313035 -144820857.49322796 0 -144820857.49322796 209605053.92103577 0 0 0 0 -38415001.997431278 9254843.8736534119 0 9254843.8736534119 235830799.55450058 0 0 0 0 -608637.28665447235 7899980.1745853424 0 7899980.1745853424 119172788.40910149 0 0 0 0 -1330636.9058151245 -53422627.510591507 0 -53422627.510591507 167324819.16418648 0 0 0 0 26454932.781742096 -31394358.910425186 0 -31394358.910425186 94772720.319122314 0 0 0 0 -7329941.2381057739 -10817737.345113754 0 -10817737.345113754 98402837.273322582 0 0 0 0 16402854.719536781 -55918388.562283516 0 -55918388.562283516 175418951.05382156 0 0 0 0 29015877.683305979 641611.13442516327 0 641611.13442516327 -32597782.047800064 0 0 0 0 3276796.434897529 -2048732.494498271 0 -2048732.494498271 1223701.1198507245 0 0 0 0 24128941.530237198 4675904.7455844879 0 4675904.7455844879 42700879.42827034 0 0 0 0 -74684.270799398422 -24954915.125990629 0 -24954915.125990629 27540805.692914963 0 0 0 0 18672012.365259886 40104195.915776253 0 40104195.915776253 37219168.173641205 0 0 0 0 -5368624.2651538849 15443640.904045105 0 15443640.904045105 42647944.93874073 0 0 0 0 6089676.3066636324 1268357.7474048138 0 1268357.7474048138 46112498.357803345 0 0 0 0 -66843303.344989777 -67296723.914498806 0 -67296723.914498806 -46372907.44860363 0 0 0 0 -2071100.9432458878 -32836835.628222525 0 -32836835.628222525 -46327183.790622711 0 0 0 0 2302515.8923239131 -2477128.9686264577 0 -2477128.9686264577 1898114.0537618464 0 0 0 0 -89316393.045578957 -37329692.886594296 0 -37329692.886594296 5392973.6106071472 0 0 0 0 -64815825.546620131 -33445408.305378199 0 -33445408.305378199 2222522.0532808304 0 0 0 0 -37968720.238147259 -35860778.539033175 0 -35860778.539033175 963121.35636615753 0 0 0 0 -38301309.263258457 -29969124.219615936 0 -29969124.219615936 1955471.8581075668 0 0 0 0 744120.09463391663 233276.55381490581 0 233276.55381490581 -822494.98108676169 0 0 0 0 -62100435.706693172 -26021963.197542191 0 -26021963.197542191 18573470.605139732 0 0 0 0 -12372381.626596928 -3960412.3031642437 0 -3960412.3031642437 4020185.0417785645 0 0 0 0 9745698.8733577728 -5463900.9652404785 0 -5463900.9652404785 -1242477.035418123 0 0 0 0 605945.85983006982 -2334608.8807945447 0 -2334608.8807945447 586935.49904030934 0 0 0 0 7363424.2283661366 -11562522.395639181 0 -11562522.395639181 8492830.5034580231 0 0 0 0 -7972950.7074739933 -14175940.63777566 0 -14175940.63777566 -4268073.5134363174 0 0 0 0 -47893781.338678837 -3842161.6659739017 0 -3842161.6659739017 2275961.2848734856 0 0 0 0 -82245494.868956327 5949673.2883250713 0 5949673.2883250713 15964658.886279345 0 0 0 0 -67506365.451094627 -21782614.164091587 0 -21782614.164091587 17595260.935106158 0 0 0 0 -71224003.618870258 -17893837.448728085 0 -17893837.448728085 27809743.77477932 0 0 0 0 -49232700.407516479 1868022.2536559105 0 1868022.2536559105 26025376.235063076 0 0 0 0 -52844769.533204556 -4751638.3185482025 0 -4751638.3185482025 16032793.653378487 0 0 0 0 -65187178.462717295 -8028219.3326642513 0 -8028219.3326642513 43068594.258662224 0 0 0 0 -79190268.492662907 -30121457.738879204 0 -30121457.738879204 31188133.356541634 0 0 0 0 -32960051.046616554 914159.77240991592 0 914159.77240991592 28051690.283430338 0 0 0 0 -31875318.129757166 -9828801.5906331539 0 -9828801.5906331539 49576825.606462479 0 0 0 0 -36822202.525160551 -21604794.246698618 0 -21604794.246698618 33077372.199585438 0 0 0 0 30836563.555916309 -8720459.5536806583 0 -8720459.5536806583 15913686.576255322 0 0 0 0 2013057.8368263096 -10849037.289007902 0 -10849037.289007902 12484099.848406315 0 0 0 0 -90083628.700642824 28828309.018020272 0 28828309.018020272 -4816583.5204429626 0 0 0 0 -40779064.106337309 -16220217.738257527 0 -16220217.738257527 -9794024.9196491241 0 0 0 0 -117934539.21284294 -18090608.39423418 0 -18090608.39423418 20352342.208600044 0 0 0 0 -35333863.990726233 409708.00632095337 0 409708.00632095337 32420201.898212194 0 0 0 0 -122567.65681684017 -1940575.4846116304 0 -1940575.4846116304 15432304.383635998 0 0 0 0 34896046.490466714 -29044036.419895172 0 -29044036.419895172 15547840.950703144 0 0 0 0 -11692527.179012597 -26484854.753030166 0 -26484854.753030166 33680298.709046841 0 0 0 0 505941.88164940849 -822863.65844095452 0 -822863.65844095452 -97022.597167347558 0 0 0 0 -68393244.693094015 -10812237.571882248 0 -10812237.571882248 14567989.434548378 0 0 0 0 176185.57137476275 -196183.7592630384 0 -196183.7592630384 -70615.686087368522 0 0 0 0 -158090822.30837607 34102037.126023531 0 34102037.126023531 22091458.373282909 0 0 0 0 65384792.792867661 -46817198.126265764 0 -46817198.126265764 55493271.398957253 0 0 0 0 -5322.7988208438037 -25733.464310661191 0 -25733.464310661191 -75974.832817385439 0 0 0 0 98201341.848335266 -80953054.077250957 0 -80953054.077250957 46531602.80955559 0 0 0 0 -87421046.711633086 84688605.940147877 0 84688605.940147877 673214.61252593994 0 0 0 0 -89533260.538486123 24675750.679831028 0 24675750.679831028 1803755.4484028816 0 0 0 0 -169162.01215140615 -121254.82440941618 0 -121254.82440941618 -95834.354720668402 0 0 0 0 -27909362.21116364 20274079.131018996 0 20274079.131018996 31614455.694766045 0 0 0 0 50575929.549498081 -120097744.02156591 0 -120097744.02156591 44405079.463149428 0 0 0 0 -273584.23971795081 -143198.58101471583 0 -143198.58101471583 -75383.935106143355 0 0 0 0 -59070113.962710619 70038072.046236515 0 70038072.046236515 -8097292.906206131 0 0 0 0 -57431045.430808902 64555480.190613747 0 64555480.190613747 2118448.2744188309 0 0 0 0 -15009376.630969912 46521301.046587229 0 46521301.046587229 -260290.82507514954 0 0 0 0 -48394450.406718969 60926950.724620819 0 60926950.724620819 -8989589.6437015533 0 0 0 0 -54684273.066403627 40082423.325305939 0 40082423.325305939 34958548.064134598 0 0 0 0 -20475430.756624699 24740069.948869705 0 24740069.948869705 29684088.489303589 0 0 0 0 -15060430.976229668 -5818091.201084137 0 -5818091.201084137 1626189.2524337769 0 0 0 0 -33710427.888311982 3441679.0026240349 0 3441679.0026240349 27501957.881022453 0 0 0 0 -23717573.558778286 -8079048.2528352737 0 -8079048.2528352737 66360440.30807066 0 0 0 0 -24741890.434948921 15344222.390650749 0 15344222.390650749 36010451.659144402 0 0 0 0 4837384.6244373322 -32530883.552183628 0 -32530883.552183628 57847223.699991584 0 0 0 0 -13846759.555552244 15233686.883275032 0 15233686.883275032 27289887.076758862 0 0 0 0 4542676.9721646309 13193074.400111198 0 13193074.400111198 18997878.614139557 0 0 0 0 -14588501.506808996 4602613.5968952179 0 4602613.5968952179 45591998.177743435 0 0 0 0 -105256.07048273087 2517172.5581173897 0 2517172.5581173897 11877736.703520298 0 0 0 0 -122486.93692217767 62695.7095918376 0 62695.7095918376 9602030.5145359039 0 0 0 0 406495.12744140625 -8079037.6183357239 0 -8079037.6183357239 21390859.347460747 0 0 0 0 70452.918801277876 54869501.868234515 0 54869501.868234515 1729843.7782821655 0 0 0 0 -15358122.515997887 10985406.616594315 0 10985406.616594315 -1365524.8640103936 0 0 0 0 14922847.380849957 -766721.72420555353 0 -766721.72420555353 -2942647.3883695602 0 0 0 0 -152549.58946479356 30217.547177118482 0 30217.547177118482 -27940.547115638386 0 0 0 0 -496129.60339856567 339867.78900702531 0 339867.78900702531 126473.28554584924 0 0 0 0 -391426.89548590325 79681.619153461885 0 79681.619153461885 432440.97996647097 0 0 0 0 16372940.015552789 -15375617.888987601 0 -15375617.888987601 5712571.3747634888 0 0 0 0 -15484071.70885396 22388267.829569817 0 22388267.829569817 -38782692.833974838 0 0 0 0 -80068570.413759589 -44248245.646089554 0 -44248245.646089554 -21631540.805284023 0 0 0 0 -108518700.29111314 -80871013.342603207 0 -80871013.342603207 -49743874.292301178 0 0 0 0 -51265945.983422399 68249223.125501156 0 68249223.125501156 -18428570.864969254 0 0 0 0 -151495089.91607714 -18362361.816118956 0 -18362361.816118956 28623101.045690536 0 0 0 0 -124522476.64929843 83492183.275822163 0 83492183.275822163 32230297.833566904 0 0 0 0 -84582546.931115389 19183876.244709492 0 19183876.244709492 19868278.752871513 0 0 0 0 -68812703.161809325 20395720.866156578 0 20395720.866156578 19492273.061919928 0 0 0 0 -73988578.888924181 6571378.6590414047 0 6571378.6590414047 25282271.016386986 0 0 0 0 -92656055.951490253 -13238506.134548664 0 -13238506.134548664 8302187.5532360077 0 0 0 0 -7313398.3647190332 -16629694.29791832 0 -16629694.29791832 -15973980.702728271 0 0 0 0 15155727.27871488 -10661673.280556679 0 -10661673.280556679 -26027734.469632149 0 0 0 0 -480622.39471989375 698922.11514180806 0 698922.11514180806 788233.62766346801 0 0 0 0 -27821004.84036094 15603535.847978592 0 15603535.847978592 8719663.2640352249 0 0 0 0 -51848927.014440298 -593677.93891525269 0 -593677.93891525269 12176906.366416454 0 0 0 0 -53209110.337011278 6215876.7083115578 0 6215876.7083115578 6199752.6787278652 0 0 0 0 -296043.56423818314 1028187.8406912163 0 1028187.8406912163 342979.72532069869 0 0 0 0 -835933.3476664573 944183.35017216206 0 944183.35017216206 582907.47966957092 0 0 0 0 -2660816.2031529546 -1386712.7011899948 0 -1386712.7011899948 1279235.1329441071 0 0 0 0 -6458.2598727622681 129491.54246567376 0 129491.54246567376 435105.76912195003 0 0 0 0 -65342019.277749419 25237828.417599201 0 25237828.417599201 -19633594.9481287 0 0 0 0 -53143267.584105432 6547587.6134357452 0 6547587.6134357452 3131859.6524548531 0 0 0 0 -74880010.455873132 10301507.847513199 0 10301507.847513199 11450093.716518402 0 0 0 0 -8507824.4345411658 -12898836.40913105 0 -12898836.40913105 6658761.0289802551 0 0 0 0 314695.34208823694 208165.77403611713 0 208165.77403611713 30934.771051377989 0 0 0 0 -118146414.85460341 80621863.592388153 0 80621863.592388153 10005400.758148909 0 0 0 0 -8427768.5602038503 -6495124.1473660469 0 -6495124.1473660469 -1987846.9788560867 0 0 0 0 -244231.73412474539 626829.44491901714 0 626829.44491901714 1713505.3873464251 0 0 0 0 -255348.83723653876 -334275.28972016834 0 -334275.28972016834 139272.71300268779 0 0 0 0 3779718.5532847792 4349721.6497893333 0 4349721.6497893333 495802.55639076233 0 0 0 0 -11601910.9531425 6169365.2876989841 0 6169365.2876989841 5137620.7632923126 0 0 0 0 396662.41052341461 32434059.112180233 0 32434059.112180233 42340937.516661167 0 0 0 0 73334549.224526882 26536751.461173058 0 26536751.461173058 32453624.400056839 0 0 0 0 75627.066448568134 35729.899662187556 0 35729.899662187556 -127476.53766254522 0 0 0 0 3836797.0128249526 16346045.991669714 0 16346045.991669714 33559217.382263184 0 0 0 0 505884.41275350749 -19525820.794369847 0 -19525820.794369847 18722055.27671051 0 0 0 0 -488729.09899954859 55277.547394713387 0 55277.547394713387 508885.15912361722 0 0 0 0 -31935826.721346617 -4203180.1058387756 0 -4203180.1058387756 6253849.849571228 0 0 0 0 -217505.9527605953 30499.555157341063 0 30499.555157341063 226269.95846357243 0 0 0 0 -90156921.024227858 -99108.462250232697 0 -99108.462250232697 6325851.9744286686 0 0 0 0 988960.26360213757 34039171.962579846 0 34039171.962579846 41813500.479513168 0 0 0 0 -89183719.141287804 -6234343.827855587 0 -6234343.827855587 -26874751.678386688 0 0 0 0 13288113.639726162 27250926.093548298 0 27250926.093548298 -48728887.493108749 0 0 0 0 -42627948.976708412 53112097.720082283 0 53112097.720082283 44787888.229386806 0 0 0 0 132999120.01578593 139996706.99904346 0 139996706.99904346 63204332.26164341 0 0 0 0 28171712.119261265 76583031.289153099 0 76583031.289153099 76791864.976611137 0 0 0 0 23861468.318864584 18612849.564720154 0 18612849.564720154 38138117.970320702 0 0 0 0 34468324.549987793 41192005.097074986 0 41192005.097074986 157370550.12719917 0 0 0 0 33706204.93589735 57265123.918076038 0 57265123.918076038 105195354.39964962 0 0 0 0 6021281.2867354155 53714433.771681309 0 53714433.771681309 60570038.096349716 0 0 0 0 118144423.70518893 70280210.314829111 0 70280210.314829111 -27516792.880260468 0 0 0 0 -339252.25584531127 -85045.881457047071 0 -85045.881457047071 1175368.7198856738 0 0 0 0 2676572.6558836699 3608167.6426951885 0 3608167.6426951885 -1430087.6601457596 0 0 0 0 7971022.5479100943 27217194.196849823 0 27217194.196849823 80549903.682990551 0 0 0 0 17879251.719218612 80216769.797214508 0 80216769.797214508 102256552.38928127 0 0 0 0 -93261389.002285004 40605335.753726959 0 40605335.753726959 234756786.95886993 0 0 0 0 -65084143.173569143 11904695.071978569 0 11904695.071978569 102084425.92870712 0 0 0 0 -38635205.864418983 -55209793.673993111 0 -55209793.673993111 81507680.91999054 0 0 0 0 -23452895.432135105 126277467.16898155 0 126277467.16898155 18020111.884850979 0 0 0 0 235321.69203930307 118866.16523826472 0 118866.16523826472 -82997.332949108444 0 0 0 0 -16784792.808961868 126832211.53838801 0 126832211.53838801 -84025734.173269272 0 0 0 0 102767.08000057866 -128359.58648040076 0 -128359.58648040076 -139847.87782373792 0 0 0 0 11605029.26285243 15842619.721682549 0 15842619.721682549 51229837.58716774 0 0 0 0 48724064.731605768 -7491599.2052021027 0 -7491599.2052021027 6704078.6319541931 0 0 0 0 3383793.2994946837 -13075153.760513425 0 -13075153.760513425 1249549.1594133377 0 0 0 0 67855240.721424669 93221506.944060326 0 93221506.944060326 111304790.84160137 0 0 0 0 -50018.12509762733 245010.62080511425 0 245010.62080511425 624962.5085724378 0 0 0 0 -321154.91701102257 -45710277.38880527 0 -45710277.38880527 159787987.30821609 0 0 0 0 33854436.480725825 34853428.641319275 0 34853428.641319275 23630904.709572792 0 0 0 0 22936538.812934637 65107155.09753418 0 65107155.09753418 90993285.243419647 0 0 0 0 -6546925.1555678844 30890095.747411728 0 30890095.747411728 52021142.535957098 0 0 0 0 -32953428.946539521 36616938.730384827 0 36616938.730384827 146409670.49512735 0 0 0 0 -35194646.176230609 48536418.298268318 0 48536418.298268318 146726000.76743698 0 0 0 0 -17395366.573771119 -62248739.960216522 0 -62248739.960216522 132072246.03486991 0 0 0 0 -36269505.647131383 26522416.511571884 0 26522416.511571884 125418596.95974541 0 0 0 0 -38713476.341764979 22038588.421799183 0 22038588.421799183 302333175.68735886 0 0 0 0 39524137.524416238 -162452480.76730156 0 -162452480.76730156 226656558.10099411 0 0 0 0 23868684.549562871 -91873409.190327883 0 -91873409.190327883 -6288192.3358078003 0 0 0 0 8596209.6475049257 -50720236.223907471 0 -50720236.223907471 23490233.513307571 0 0 0 0 2502371.5423775911 -26791922.693080902 0 -26791922.693080902 7063105.1748847961 0 0 0 0 10850742.594551504 -40261061.494075298 0 -40261061.494075298 1997214.6581668854 0 0 0 0 -90041951.003605142 48668021.434811592 0 48668021.434811592 201247617.17794991 0 0 0 0 -87601776.754256278 93860323.134235382 0 93860323.134235382 298535362.31271935 0 0 0 0 148570845.44099534 127332181.08886147 0 127332181.08886147 95429831.39012146 0 0 0 0 218927268.28396541 -101439985.98262405 0 -101439985.98262405 -23117826.459667206 0 0 0 0 42878700.499299347 -26658222.318413734 0 -26658222.318413734 -31086376.799606323 0 0 0 0 66866665.211872026 -5536786.9864835739 0 -5536786.9864835739 -186671054.28009033 0 0 0 0 97684054.563349307 -70172918.900453568 0 -70172918.900453568 -270400489.53819275 0 0 0 0 -69599451.53465724 -21635648.133962631 0 -21635648.133962631 -2527216.2108459473 0 0 0 0 -27747856.195837379 45209621.897074699 0 45209621.897074699 -113224785.28626633 0 0 0 0 162513.70951288153 -145814.11134397611 0 -145814.11134397611 544381.03597533796 0 0 0 0 4071344.1602301598 5746491.595916748 0 5746491.595916748 -119638512.29705369 0 0 0 0 6297931.665942505 -4940387.7201852798 0 -4940387.7201852798 2090610.041929245 0 0 0 0 -1002586.6616129875 -728277.64979171753 0 -728277.64979171753 1274771.2500553131 0 0 0 0 23425.872415954702 -186109.53540092334 0 -186109.53540092334 13210.454890264664 0 0 0 0 60484632.209385931 94457066.819583893 0 94457066.819583893 -287665231.29380345 0 0 0 0 -405510.91035970201 -362232.78733350686 0 -362232.78733350686 1246150.0014123688 0 0 0 0 -409815.49511027336 -836664.66270256042 0 -836664.66270256042 765817.30770492554 0 0 0 0 1517661.0491906404 165039.28438091278 0 165039.28438091278 -35326553.607198715 0 0 0 0 -9456349.8760143518 -8253113.3855957985 0 -8253113.3855957985 -35519518.571457863 0 0 0 0 389609.60722128756 -1148978.2596905264 0 -1148978.2596905264 336597.9411025513 0 0 0 0 -33640384.374531984 5886375.7731513977 0 5886375.7731513977 -77405464.029085159 0 0 0 0 -7452256.0025314689 69611792.696460724 0 69611792.696460724 -65095003.062206268 0 0 0 0 21421557.880241081 -33919698.826485157 0 -33919698.826485157 -81604480.628574371 0 0 0 0 -29836349.45887813 63232399.061687469 0 63232399.061687469 -147529957.29645538 0 0 0 0 -52751177.102102131 -36475843.573682785 0 -36475843.573682785 -168211098.49153137 0 0 0 0 80519.044202546705 -34550.259465675568 0 -34550.259465675568 -95290.824710765854 0 0 0 0 -683775.96634536982 -1280682.4230318069 0 -1280682.4230318069 937067.02630233765 0 0 0 0 3261494.6591837406 255600.821641922 0 255600.821641922 -587468.20980167389 0 0 0 0 -128031.99331771536 -697604.37652770081 0 -697604.37652770081 1321193.1219544262 0 0 0 0 -11858048.786259055 -25432080.650212765 0 -25432080.650212765 -3214766.7646484375 0 0 0 0 -1149524.584277153 -3481387.3768129349 0 -3481387.3768129349 588766.15707492828 0 0 0 0 -6666470.9947042465 36684829.062927008 0 36684829.062927008 34221754.967219353 0 0 0 0 -4708618.8298621178 -38110203.954669952 0 -38110203.954669952 8356918.1187610626 0 0 0 0 -13693678.971725881 25372547.933103085 0 25372547.933103085 18406487.911342621 0 0 0 0 54290094.917277813 -55074423.370012283 0 -55074423.370012283 -65086984.147865295 0 0 0 0 -69587179.3437289 21926322.09759903 0 21926322.09759903 184058382.67938137 0 0 0 0 -8369957.8710001707 -41418401.769618511 0 -41418401.769618511 -62400662.429332733 0 0 0 0 71013.871716668364 -150309.08985871868 0 -150309.08985871868 181611.78034837078 0 0 0 0 13908523.794142753 64484172.811591625 0 64484172.811591625 73602440.136479378 0 0 0 0 -1167596.736174494 41841406.867632389 0 41841406.867632389 40630727.865650177 0 0 0 0 -11296028.698461294 22927077.607869148 0 22927077.607869148 16614462.139775276 0 0 0 0 13955002.713939011 -5200466.7879757881 0 -5200466.7879757881 -4327981.962392807 0 0 0 0 7196703.0725984573 -6970536.2710132599 0 -6970536.2710132599 6101973.5437164307 0 0 0 0 63830.750487995407 -17066.151693630498 0 -17066.151693630498 197683.72434371337 0 0 0 0 5688551.4376232326 43802660.887285233 0 43802660.887285233 59227967.361970901 0 0 0 0 104251385.25085819 27040209.547499657 0 27040209.547499657 15004048.332706451 0 0 0 0 42651538.254119813 -5999831.5581016541 0 -5999831.5581016541 -2256855.3406934738 0 0 0 0 53177932.995496392 54644361.649273634 0 54644361.649273634 31896290.208961487 0 0 0 0 -17787316.231556274 46115861.091360569 0 46115861.091360569 44203473.427171707 0 0 0 0 5792184.2310530841 48154404.374030113 0 48154404.374030113 30263579.134539604 0 0 0 0 -62209034.438613832 38304299.417929173 0 38304299.417929173 70773199.140109062 0 0 0 0 14305551.36651668 -13058256.6335783 0 -13058256.6335783 -8618808.7841815948 0 0 0 0 27065031.50447005 -53034608.406462669 0 -53034608.406462669 116246347.62983239 0 0 0 0 60558033.26131621 95795868.278074265 0 95795868.278074265 108217223.77881432 0 0 0 0 72795266.680528328 -31669615.32067585 0 -31669615.32067585 -24631.4724817276 0 0 0 0 -970223.43567156047 9685698.223865509 0 9685698.223865509 1899304.3493346572 0 0 0 0 -85092583.687443197 -63562540.168979645 0 -63562540.168979645 45587340.243886471 0 0 0 0 -6118619.3776254654 13158054.626224995 0 13158054.626224995 -8130108.3338813782 0 0 0 0 109541.74442337063 -318807.31726336014 0 -318807.31726336014 506788.00598326139 0 0 0 0 -18725618.914375365 48738542.840500832 0 48738542.840500832 17208464.739725113 0 0 0 0 -85939838.642954677 6552294.479683876 0 6552294.479683876 28140997.338132858 0 0 0 0 -34960550.84272933 40106646.917756081 0 40106646.917756081 49054046.976938248 0 0 0 0 -102482844.99055959 -76766443.953466892 0 -76766443.953466892 30458108.422574997 0 0 0 0 109275.02872638826 -320505.39317134302 0 -320505.39317134302 493530.4103778014 0 0 0 0 -87990713.72328788 -7472887.1621646881 0 -7472887.1621646881 46690651.789275646 0 0 0 0 -49356042.113071859 217847.42560005188 0 217847.42560005188 41247872.621614456 0 0 0 0 -26474018.16755411 -58242612.478802681 0 -58242612.478802681 187298635.50453568 0 0 0 0 80737789.16535753 127845942.40369892 0 127845942.40369892 118861475.0363636 0 0 0 0 1206942.368040204 37159911.466043472 0 37159911.466043472 15789738.551151276 0 0 0 0 1209517.7539869547 37114030.240318298 0 37114030.240318298 11449731.667514801 0 0 0 0 2402139.369037509 28651006.429721832 0 28651006.429721832 34031987.422136307 0 0 0 0 -14310842.52674675 47068866.420692444 0 47068866.420692444 14891334.886229515 0 0 0 0 3348233.6908708811 35982404.252771378 0 35982404.252771378 16388367.260845184 0 0 0 0 -14299470.846465215 22834092.814783096 0 22834092.814783096 43534015.075176239 0 0 0 0 18296564.456976682 10439630.587152481 0 10439630.587152481 16348254.569677353 0 0 0 0 15972347.982598193 10926060.90271616 0 10926060.90271616 9460708.4610939026 0 0 0 0 -35164.152422217136 -95849.775893557817 0 -95849.775893557817 85713.135977709666 0 0 0 0 -24630752.611903191 13229619.06136322 0 13229619.06136322 56444003.579608917 0 0 0 0 -10903609.16920507 72976288.863505363 0 72976288.863505363 57330978.307874203 0 0 0 0 -27478051.577662885 30411498.47313118 0 30411498.47313118 58794251.058317184 0 0 0 0 -12733462.220342636 3746468.6231002808 0 3746468.6231002808 36123699.21043396 0 0 0 0 57903.523542296418 -51601.018802779261 0 -51601.018802779261 51284.831232146826 0 0 0 0 49455170.081288755 65998966.151847839 0 65998966.151847839 -6483600.0931745768 0 0 0 0 -34200237.342426717 -7230842.8229706287 0 -7230842.8229706287 32872223.200553894 0 0 0 0 -28109958.379356489 8955459.042016983 0 8955459.042016983 22799707.589021683 0 0 0 0 -453376.46099436283 -10500173.638431549 0 -10500173.638431549 55730156.011777878 0 0 0 0 19223504.738806725 9683607.6425685883 0 9683607.6425685883 32308992.38949585 0 0 0 0 36337289.537364617 34823175.866483331 0 34823175.866483331 64845704.408752441 0 0 0 0 35354849.968086526 2910145.0648044944 0 2910145.0648044944 51114648.664642334 0 0 0 0 -17627327.051873505 -11447386.786766052 0 -11447386.786766052 60812322.493656158 0 0 0 0 -11123209.223186851 6846573.8380317688 0 6846573.8380317688 53120432.000585556 0 0 0 0 7467045.2140679359 -36050402.24798584 0 -36050402.24798584 27666425.910553217 0 0 0 0 14441998.01944536 337274.63516426086 0 337274.63516426086 -38918685.747209549 0 0 0 0 -7395667.5867158771 -15947371.183743954 0 -15947371.183743954 -11159981.964580536 0 0 0 0 -245507.33330887556 976738.67545604706 0 976738.67545604706 4957272.9946470261 0 0 0 0 -16750.204195863305 -16234.436147298664 0 -16234.436147298664 683424.47943133488 0 0 0 0 6559162.5230155587 14181422.181097031 0 14181422.181097031 8336027.1935491562 0 0 0 0 11689150.591226868 4462911.6793009043 0 4462911.6793009043 -3075262.9811897278 0 0 0 0 -25941.6338185438 77362.37414624088 0 77362.37414624088 89012.365265016444 0 0 0 0 -814622.68344849348 252192.3789730072 0 252192.3789730072 -455764.32885146141 0 0 0 0 30106791.950370476 57709111.708550215 0 57709111.708550215 125942478.28897095 0 0 0 0 -25652416.470836401 -26963882.560403824 0 -26963882.560403824 -42519203.176141739 0 0 0 0 62952.408062487106 -141712.00076136808 0 -141712.00076136808 202525.51241624076 0 0 0 0 62723277.477388635 -51267405.860340357 0 -51267405.860340357 -54777664.849708557 0 0 0 0 -21874731.080178738 12000010.38260746 0 12000010.38260746 234540917.35053253 0 0 0 0 -8050039.7933427589 42282969.187647924 0 42282969.187647924 149205043.326437 0 0 0 0 14090477.508375645 65165630.625561237 0 65165630.625561237 123941163.82764435 0 0 0 0 44899196.693921566 36348589.807500839 0 36348589.807500839 54420382.14598465 0 0 0 0 -6746928.0153226852 -80603.071449279785 0 -80603.071449279785 63714153.466373324 0 0 0 0 15591884.224518776 -16592878.922180653 0 -16592878.922180653 52160110.65851593 0 0 0 0 19121986.434230328 -112214940.49649048 0 -112214940.49649048 19573963.339726448 0 0 0 0 -71474489.992016077 -38683821.036762238 0 -38683821.036762238 176031048.84526825 0 0 0 0 26235252.73742336 -155716621.24005508 0 -155716621.24005508 27071315.252750397 0 0 0 0 7994897.6975308657 -31075549.75012207 0 -31075549.75012207 -158706441.65537643 0 0 0 0 -630578.77528393269 1002873.3112692833 0 1002873.3112692833 169941.55239868164 0 0 0 0 -53087.010536342859 3968118.3910136223 0 3968118.3910136223 -1466604.8942152262 0 0 0 0 -27009.963612724445 777082.14641182765 0 777082.14641182765 185055.26600548346 0 0 0 0 -151176.35590969463 269213.15039806487 0 269213.15039806487 1585629.6709877434 0 0 0 0 -407530.65864264965 289495.95488798618 0 289495.95488798618 211845.10858726501 0 0 0 0 -485953.45608834835 733232.168123879 0 733232.168123879 1332546.2712939444 0 0 0 0 -219824.17871534554 243256.79987028008 0 243256.79987028008 603105.3218591488 0 0 0 0 -540719.20326244831 576420.55730056763 0 576420.55730056763 336544.38443374634 0 0 0 0 -702256.47833514214 508142.7778673172 0 508142.7778673172 352281.03916931152 0 0 0 0 -500968.15905161202 791522.78517568111 0 791522.78517568111 621138.5289516449 0 0 0 0 -330757.4645398478 668285.84897531848 0 668285.84897531848 2226052.3033753783 0 0 0 0 106022.04582380128 614826.87564380141 0 614826.87564380141 2657366.7458899589 0 0 0 0 -1911705.7002527714 2134507.7288255692 0 2134507.7288255692 -362410.24967575073 0 0 0 0 -961899.49128502398 1112141.9910883165 0 1112141.9910883165 2809516.0714136832 0 0 0 0 -198118.1005513072 535480.65691709518 0 535480.65691709518 213229.41718673706 0 0 0 0 -336723.73229354725 1329500.2220978858 0 1329500.2220978858 152018.36361309793 0 0 0 0 -20255903.088826656 59372724.721273422 0 59372724.721273422 -188477684.10564613 0 0 0 0 588678.19883910986 371526.74761626218 0 371526.74761626218 850663.39960644767 0 0 0 0 -13193699.267825842 -12430854.042556763 0 -12430854.042556763 -71895732.263713837 0 0 0 0 -1740709.6471515596 3914554.6098284572 0 3914554.6098284572 -2745552.1121730804 0 0 0 0 -675816.3739079833 3214974.1084601879 0 3214974.1084601879 -3206594.9601583481 0 0 0 0 11367.743169013644 1489860.3331377904 0 1489860.3331377904 -1045371.548079459 0 0 0 0 194877.69467672706 2384058.3100475073 0 2384058.3100475073 -2817815.8906841278 0 0 0 0 35449.946826279585 453408.28892445704 0 453408.28892445704 -53066.045522999484 0 0 0 0 4121281.8173164129 5342713.4769643545 0 5342713.4769643545 4259734.5630054474 0 0 0 0 -50458.174158096313 966257.51614713669 0 966257.51614713669 -116847.94116163254 0 0 0 0 25877.567286491394 7299150.4163408279 0 7299150.4163408279 9799335.7321839333 0 0 0 0 -370489.47458958626 3372487.0861897469 0 3372487.0861897469 7763446.4311389923 0 0 0 0 235258.19863421231 713377.96338883182 0 713377.96338883182 78162.32159565296 0 0 0 0 551341.40872097015 -1135039.6573009491 0 -1135039.6573009491 -4327125.137093544 0 0 0 0 13905.595345497131 750144.6443157196 0 750144.6443157196 3009169.3150405884 0 0 0 0 -102312.11591442674 196744.0349394083 0 196744.0349394083 3794250.4940376282 0 0 0 0 -34429.214919507504 67597.450222969055 0 67597.450222969055 4285171.0934066772 0 0 0 0 24915563.637023211 -46300737.422003746 0 -46300737.422003746 -52408354.709916115 0 0 0 0 61804.255949127953 513501.83749675751 0 513501.83749675751 3549821.5718169212 0 0 0 0 -128450.37125806656 53461.645117972046 0 53461.645117972046 1429388.5508715855 0 0 0 0 165595.04180807993 901770.65826797485 0 901770.65826797485 3679606.7223615646 0 0 0 0 520106.11777278595 715291.33848714828 0 715291.33848714828 3124345.7964477539 0 0 0 0 -12791.094447141048 114780.43198204041 0 114780.43198204041 2944253.3442921638 0 0 0 0 -4176438.6675566435 1813386.9350347519 0 1813386.9350347519 -2534937.3881597519 0 0 0 0 344291.87783294916 558075.24421787262 0 558075.24421787262 1415801.0676059723 0 0 0 0 -103654.85885460189 417432.48390111024 0 417432.48390111024 3742421.4712311793 0 0 0 0 -234290.95941448212 482504.29497718811 0 482504.29497718811 1422737.7746238708 0 0 0 0 -214218.10925215483 227193.03957557678 0 227193.03957557678 2792054.6621861458 0 0 0 0 -56360.856046983085 -95479.851804562844 0 -95479.851804562844 93598.89979633037 0 0 0 0 -333639.98650485277 832599.94598484039 0 832599.94598484039 1344577.9213256836 0 0 0 0 -520756.77159644663 -147173.50143384933 0 -147173.50143384933 1012640.2920570374 0 0 0 0 70681.069013296365 275692.42781426571 0 275692.42781426571 1311701.4340411276 0 0 0 0 -2223079.073124975 -3370965.6794919968 0 -3370965.6794919968 -1041054.3036270142 0 0 0 0 798850.18967247009 621086.59258031845 0 621086.59258031845 2420651.0899658203 0 0 0 0 70411.650851809289 -133646.65399736958 0 -133646.65399736958 -126304.78477264941 0 0 0 0 2393861.7139883041 -1015416.2872457504 0 -1015416.2872457504 -2311017.0883045197 0 0 0 0 7295983.5538358688 419375.19459342957 0 419375.19459342957 112779.72234773636 0 0 0 0 -509945.06357508898 -3441231.5060176849 0 -3441231.5060176849 -388483.3803371191 0 0 0 0 -1773771.7702714652 -2277326.8973144293 0 -2277326.8973144293 -1268862.1998596191 0 0 0 0 13902223.410956383 14386732.303565979 0 14386732.303565979 16506055.128299117 0 0 0 0 -3024565.9838586487 -1316861.5154818948 0 -1316861.5154818948 5685616.3846668415 0 0 0 0 14661614.272711605 21106413.094150782 0 21106413.094150782 28255526.868518829 0 0 0 0 -3076454.9356030701 -1589964.1820219699 0 -1589964.1820219699 5725619.7168982886 0 0 0 0 -4165370.786728844 -12311392.763029516 0 -12311392.763029516 -6320678.7755384445 0 0 0 0 -5508255.0584213734 -3318411.4388532639 0 -3318411.4388532639 -607572.13578033447 0 0 0 0 5298029.4459685683 -11033911.632035255 0 -11033911.632035255 4794986.2349309921 0 0 0 0 -11491967.473545671 -15098279.178979516 0 -15098279.178979516 -3121103.1991376877 0 0 0 0 -5108875.3684255481 -4048581.243429184 0 -4048581.243429184 -1883474.5403909683 0 0 0 0 991529.05468356609 4150618.4146852493 0 4150618.4146852493 7675099.9985508919 0 0 0 0 -6945994.6145066619 -4956356.513669014 0 -4956356.513669014 5116759.0036144257 0 0 0 0 -4161370.2179210782 1499087.4467418194 0 1499087.4467418194 18063083.569990158 0 0 0 0 5433760.1948794127 -7016057.6533994675 0 -7016057.6533994675 20946008.043477058 0 0 0 0 6031211.8914238214 8539800.2770404816 0 8539800.2770404816 9294530.4635076523 0 0 0 0 3357836.3513485193 -7374778.2638549805 0 -7374778.2638549805 21210007.402597427 0 0 0 0 -15920613.690452218 7774889.1614532471 0 7774889.1614532471 21393513.665697098 0 0 0 0 2203654.6732538939 -6217031.0433664322 0 -6217031.0433664322 22234861.10472393 0 0 0 0 -27767.520471724565 -214738.74742273055 0 -214738.74742273055 172657.19547991827 0 0 0 0 12915744.248841748 -2415562.072173357 0 -2415562.072173357 19077822.85994339 0 0 0 0 -1787448.2726280689 -6158756.844575882 0 -6158756.844575882 22270302.912014008 0 0 0 0 -23660.974228830513 -40840.099629838951 0 -40840.099629838951 230219.47406317713 0 0 0 0 5304585.7486569881 3958967.5649719238 0 3958967.5649719238 6250354.88879776 0 0 0 0 -3884146.0794543624 -7008011.4269332886 0 -7008011.4269332886 21303557.749528646 0 0 0 0 -9515028.7566162944 4679199.2976036072 0 4679199.2976036072 16860809.043417931 0 0 0 0 531738.29379624128 785657.1790561676 0 785657.1790561676 3730575.7045445442 0 0 0 0 795873.76876115799 1368655.4143028259 0 1368655.4143028259 5014700.9120960236 0 0 0 0 9622186.738265276 2304841.0660161972 0 2304841.0660161972 1636456.1408786774 0 0 0 0 4642064.6844483614 21173511.745288849 0 21173511.745288849 7354555.6958389282 0 0 0 0 15371554.714369297 -13630450.861503601 0 -13630450.861503601 18356841.432837486 0 0 0 0 -686221.58184337616 -4838676.5906448364 0 -4838676.5906448364 14504762.348640442 0 0 0 0 -507309.84045168012 -398403.13068122324 0 -398403.13068122324 1264289.910043912 0 0 0 0 -17569967.405284882 -17737027.982050896 0 -17737027.982050896 17859797.746273041 0 0 0 0 10398164.426929414 -29250728.260989189 0 -29250728.260989189 1728630.2785110474 0 0 0 0 34829206.537035644 -29225806.473560333 0 -29225806.473560333 -3386692.1294593811 0 0 0 0 -49277077.777792215 -57954474.798627853 0 -57954474.798627853 -8909788.7541046143 0 0 0 0 5920592.0038160682 -512300.05135154724 0 -512300.05135154724 8987731.9000759125 0 0 0 0 -23233876.327223659 42328058.976885796 0 42328058.976885796 28900348.701028824 0 0 0 0 -84233459.881407619 24128508.544114113 0 24128508.544114113 2920098.1485023499 0 0 0 0 22129357.944595382 34946028.837138414 0 34946028.837138414 43199064.93132019 0 0 0 0 18049160.90139401 -31714.371065139771 0 -31714.371065139771 33848564.018141747 0 0 0 0 1230456.4380468791 105666.66495287139 0 105666.66495287139 -608830.05910622887 0 0 0 0 14341681.496953934 24466286.191366315 0 24466286.191366315 32826397.816864014 0 0 0 0 23028671.92791605 22034705.320013046 0 22034705.320013046 30277598.640369177 0 0 0 0 -402602.74776305538 -198748.33746749256 0 -198748.33746749256 626493.32105764281 0 0 0 0 -7567677.1141302586 -18283903.295604706 0 -18283903.295604706 28852229.448823929 0 0 0 0 1034530.8322894069 453838.19113573385 0 453838.19113573385 -736278.22217191383 0 0 0 0 31878255.131961823 9841859.924041748 0 9841859.924041748 55861589.510398865 0 0 0 0 12167402.659141064 39160326.423583984 0 39160326.423583984 12505615.277474403 0 0 0 0 18970479.497313499 26112621.815517426 0 26112621.815517426 30905259.529045105 0 0 0 0 19241928.9165802 21075130.936485291 0 21075130.936485291 24492080.423266649 0 0 0 0 14941499.473079205 17540236.564533234 0 17540236.564533234 27716405.216440678 0 0 0 0 -10122585.229189157 -3924705.48767519 0 -3924705.48767519 4350828.835477829 0 0 0 0 -9485495.7492679358 -12384460.327161789 0 -12384460.327161789 -5810983.6749572754 0 0 0 0 -2967708.4997535357 -1681008.6976326955 0 -1681008.6976326955 5881791.3345111031 0 0 0 0 14774292.550090313 14408799.823497772 0 14408799.823497772 31160978.094268799 0 0 0 0 12968510.61831367 22826794.599602342 0 22826794.599602342 41629037.305057526 0 0 0 0 30686171.592484951 28985868.28619957 0 28985868.28619957 30855697.559152842 0 0 0 0 -2046690.1200876236 8960940.285194397 0 8960940.285194397 32144090.567709804 0 0 0 0 19955759.978107333 51650304.500824451 0 51650304.500824451 55599466.850799561 0 0 0 0 18421006.140624046 31806029.996768951 0 31806029.996768951 46770594.265078545 0 0 0 0 7831729.8646628857 -1781430.4003295898 0 -1781430.4003295898 13885563.77304697 0 0 0 0 1517461.8246738771 -167263.94755022507 0 -167263.94755022507 -440700.92156154104 0 0 0 0 -14345874.917273283 -17955884.719561338 0 -17955884.719561338 14426746.558468819 0 0 0 0 -2185932.1806526873 -1090676.7470949274 0 -1090676.7470949274 6723626.7588349152 0 0 0 0 269395.69124490023 40295455.772991061 0 40295455.772991061 43932447.942512512 0 0 0 0 12983663.680417061 16766505.92572403 0 16766505.92572403 3557573.1041717529 0 0 0 0 -2709664.1322756847 -1571766.0792564489 0 -1571766.0792564489 6185161.2456668951 0 0 0 0 -8434775.2668459415 -14763885.968657494 0 -14763885.968657494 -8143510.3941049576 0 0 0 0 -1235491.1377120018 -6999506.5741701126 0 -6999506.5741701126 -4594610.8835330009 0 0 0 0 -8989547.67157197 6225681.4069070816 0 6225681.4069070816 56709853.778381348 0 0 0 0 -58724.713231453206 -154566.15495351888 0 -154566.15495351888 124977.46358337812 0 0 0 0 -6391069.4029157162 -3815321.7363290787 0 -3815321.7363290787 1194731.5988583565 0 0 0 0 -668980.66717934608 -6368459.0777978897 0 -6368459.0777978897 -2041809.7714910507 0 0 0 0 -10378048.271151111 -5150678.3135772347 0 -5150678.3135772347 386824.24771118164 0 0 0 0 -4467596.7962343395 2133061.112699151 0 2133061.112699151 8222470.1487874985 0 0 0 0 -47368.862167493207 -273536.31865061447 0 -273536.31865061447 211562.47195111495 0 0 0 0 -3023244.1177853346 23944311.992373943 0 23944311.992373943 64232442.63170433 0 0 0 0 -8491861.6565448046 15655914.771054268 0 15655914.771054268 51837912.818735123 0 0 0 0 4731849.5371713638 23229234.198056221 0 23229234.198056221 50770281.018211365 0 0 0 0 5203770.8860218525 28607993.40682888 0 28607993.40682888 36632939.049102783 0 0 0 0 -608588.88731428981 15925162.099109173 0 15925162.099109173 42471890.977910995 0 0 0 0 -355858.49424646038 470002.51940634474 0 470002.51940634474 606964.18202921841 0 0 0 0 -36027943.871348023 -645973.85021591187 0 -645973.85021591187 10703253.297805786 0 0 0 0 21282520.736858606 21124528.569641113 0 21124528.569641113 14261967.819575787 0 0 0 0 40880617.206608772 34400378.376106262 0 34400378.376106262 18516845.542980194 0 0 0 0 11392668.361595154 26403028.927089691 0 26403028.927089691 35013431.658460617 0 0 0 0 15919030.5997926 20489338.473359585 0 20489338.473359585 27439058.849727631 0 0 0 0 9774778.8061060905 13483805.437147141 0 13483805.437147141 21088207.579048157 0 0 0 0 10186757.816657066 12293897.946054459 0 12293897.946054459 9168894.954750061 0 0 0 0 2896874.7014253139 6269277.8356471062 0 6269277.8356471062 22408192.770627975 0 0 0 0 -7722053.317538783 9530460.7320564389 0 9530460.7320564389 45950476.684011459 0 0 0 0 711451.43097257614 14936886.656009674 0 14936886.656009674 33874375.501664162 0 0 0 0 2351785.2269906998 10190898.716396332 0 10190898.716396332 45959484.80314827 0 0 0 0 -856621.78348302841 -4373494.0105791092 0 -4373494.0105791092 43521406.497974396 0 0 0 0 -1028466.52328372 10290517.586850166 0 10290517.586850166 23831733.00377059 0 0 0 0 1584221.8675760031 15408590.523081183 0 15408590.523081183 6091269.135017395 0 0 0 0 -24268933.430882692 6732916.4715628624 0 6732916.4715628624 21467205.390153885 0 0 0 0 120253.49141052365 -896895.57169061899 0 -896895.57169061899 12015946.476165771 0 0 0 0 -21178100.947608843 -61175340.868019104 0 -61175340.868019104 16153381.900793076 0 0 0 0 -13285177.833224319 21094891.822374344 0 21094891.822374344 54364991.301231384 0 0 0 0 -2216838.9763942957 67055379.755786896 0 67055379.755786896 138443899.73860645 0 0 0 0 -58625982.43371135 -50721394.986771584 0 -50721394.986771584 166746052.90920043 0 0 0 0 100935820.87855422 -11517767.096948624 0 -11517767.096948624 -78161577.880765915 0 0 0 0 172142.0040754895 -188881.22122207703 0 -188881.22122207703 154220.2538961838 0 0 0 0 18153998.032753825 2595739.8545751572 0 2595739.8545751572 3177220.9356384277 0 0 0 0 193343918.23379886 48876722.109118462 0 48876722.109118462 -70116105.295276642 0 0 0 0 76032.512933768856 -275266.33736992162 0 -275266.33736992162 264955.25143405609 0 0 0 0 -15618989.324212909 11960000.292939186 0 11960000.292939186 18960026.261832714 0 0 0 0 960577.38201189041 4516766.5900011063 0 4516766.5900011063 6384627.2929778099 0 0 0 0 16924811.729286075 -2536682.2061100006 0 -2536682.2061100006 -4301249.3885393143 0 0 0 0 -6096.5478383977897 -268406.67826656904 0 -268406.67826656904 203351.26591848116 0 0 0 0 -2807150.4261268377 -3393867.9341802597 0 -3393867.9341802597 1667792.6191654205 0 0 0 0 -10191418.048070282 15659390.918292761 0 15659390.918292761 17959422.165136337 0 0 0 0 17849051.945914388 -19852865.852140427 0 -19852865.852140427 20137531.959846973 0 0 0 0 -14984083.000862539 14920510.307660103 0 14920510.307660103 95916949.277296066 0 0 0 0 -46132.298403238761 -144255.72303057648 0 -144255.72303057648 168583.23120065499 0 0 0 0 -15268004.64730447 21351179.007778168 0 21351179.007778168 63082163.017831802 0 0 0 0 -6453224.6110668406 19210787.342017174 0 19210787.342017174 63601888.944252014 0 0 0 0 28655084.126685977 21269171.579995155 0 21269171.579995155 43073894.74792099 0 0 0 0 12765746.483795881 -10031899.92764473 0 -10031899.92764473 60201739.482131958 0 0 0 0 -2392150.0481920242 6408208.7372131348 0 6408208.7372131348 51805562.894049644 0 0 0 0 -8940088.5466871262 21637370.351072311 0 21637370.351072311 28998220.036364555 0 0 0 0 3987206.7661471367 22653255.98493576 0 22653255.98493576 29035005.985294342 0 0 0 0 10177598.323542774 8163723.1720404625 0 8163723.1720404625 25145122.174858093 0 0 0 0 -6256116.2091400623 5879930.1681118011 0 5879930.1681118011 24827998.886254311 0 0 0 0 512139.84930089116 12426547.044920683 0 12426547.044920683 12533726.196479797 0 0 0 0 -14941124.48956275 11683000.246732712 0 11683000.246732712 14189952.130393028 0 0 0 0 -10605431.596860886 18535797.818907738 0 18535797.818907738 5628251.2072851658 0 0 0 0 1766995.706430763 9015468.7550621033 0 9015468.7550621033 28577440.124259949 0 0 0 0 -467037.09604668617 5986089.6007490158 0 5986089.6007490158 42145139.415155411 0 0 0 0 4746048.1022750884 12007909.585964203 0 12007909.585964203 18621607.769020081 0 0 0 0 -2217162.4701417536 2071699.5440654755 0 2071699.5440654755 24045042.629455566 0 0 0 0 1108358.022632122 12501618.721136093 0 12501618.721136093 13292699.195329666 0 0 0 0 3475542.4559371471 5740820.1558876038 0 5740820.1558876038 14802211.216744423 0 0 0 0 16904138.381093055 15441867.195519447 0 15441867.195519447 10706497.031305313 0 0 0 0 4585077.057115972 12928200.504053354 0 12928200.504053354 32790080.711597443 0 0 0 0 -4798581.6835157797 22584429.172570229 0 22584429.172570229 35052522.890733242 0 0 0 0 8227500.9832648244 43125887.500360966 0 43125887.500360966 66641375.734033585 0 0 0 0 -22082880.937826991 23845404.628682613 0 23845404.628682613 66782128.619089127 0 0 0 0 -88472.343337323284 131878.53752770077 0 131878.53752770077 603254.49360976927 0 0 0 0 64198807.126092672 -81817825.919785023 0 -81817825.919785023 6224798.8955526352 0 0 0 0 75112376.010433078 61757821.263988495 0 61757821.263988495 44665306.754068375 0 0 0 0 33286011.604494452 21139182.138170481 0 21139182.138170481 5219758.9491500854 0 0 0 0 10243958.252782434 -1067502.7404756546 0 -1067502.7404756546 2811335.4986076355 0 0 0 0 -1934902.7352900505 -458892.19485855103 0 -458892.19485855103 8421672.1587677002 0 0 0 0 -5399063.61793226 4367738.3950128555 0 4367738.3950128555 3831487.5998458862 0 0 0 0 -347474.55457880651 585232.09788920602 0 585232.09788920602 1617119.3784759082 0 0 0 0 2670002.888038516 301801.39115285873 0 301801.39115285873 -1597696.1718559265 0 0 0 0 -4034858.8811042309 1354076.6998968124 0 1354076.6998968124 -804318.69293117523 0 0 0 0 -1949150.7634921968 3912401.1756334305 0 3912401.1756334305 -1522730.1723930836 0 0 0 0 4141909.1027752832 3893638.020825386 0 3893638.020825386 -1578496.3563508987 0 0 0 0 8201924.5377363265 5699530.6419692039 0 5699530.6419692039 -333990.50339698792 0 0 0 0 1024190.8702013986 3712896.7037360668 0 3712896.7037360668 462268.94538116455 0 0 0 0 5941698.5603659675 4315218.6490545273 0 4315218.6490545273 6686117.5187244415 0 0 0 0 7417190.1588935554 11319544.442990422 0 11319544.442990422 5414127.3537368774 0 0 0 0 2747024.0488590002 6488303.9943027496 0 6488303.9943027496 1268298.2058620453 0 0 0 0 -1594878.9491168559 14915930.954485178 0 14915930.954485178 -312126.32744216919 0 0 0 0 -6789531.2297224998 13803261.338003159 0 13803261.338003159 -2758092.6764659882 0 0 0 0 -1990911.4860510826 4925666.3970050812 0 4925666.3970050812 3955286.4256782532 0 0 0 0 -18402861.124539852 10013441.521772385 0 10013441.521772385 3301946.3856296539 0 0 0 0 -324691.9715501903 1242469.1528981058 0 1242469.1528981058 425090.68143707141 0 0 0 0 -952738.91486567259 2876261.7181568146 0 2876261.7181568146 -554441.72362136841 0 0 0 0 -497011.20162619604 3162406.0171583816 0 3162406.0171583816 1830496.6168884616 0 0 0 0 -3649328.1780853271 8807666.3328256607 0 8807666.3328256607 3377921.169485569 0 0 0 0 148952.27849695086 2481167.4628038406 0 2481167.4628038406 1242320.0250015259 0 0 0 0 16723.424571461212 3453290.4737582728 0 3453290.4737582728 500299.0718977116 0 0 0 0 -3376617.0414797068 6868856.7589464188 0 6868856.7589464188 -233457.46898174286 0 0 0 0 2081749.8317357749 8966160.0268316269 0 8966160.0268316269 79836.938781738281 0 0 0 0 471589.40029659867 5952855.4572877884 0 5952855.4572877884 -739964.79673576355 0 0 0 0 3019189.5414352417 4312813.7086868286 0 4312813.7086868286 -8858127.5483970642 0 0 0 0 -1517031.5013021536 3321786.0529196979 0 3321786.0529196979 4386246.2415655889 0 0 0 0 92993.232851950219 1789779.9310293682 0 1789779.9310293682 -1461169.39685761 0 0 0 0 -1212699.1077766418 3505817.5220031738 0 3505817.5220031738 -3162798.1719779968 0 0 0 0 -338223.77917460713 2224199.5887024584 0 2224199.5887024584 1083951.057989683 0 0 0 0 1872112.1673269272 6549956.755698204 0 6549956.755698204 -1836139.9952812195 0 0 0 0 -657631.00123509509 2266690.4097498683 0 2266690.4097498683 2237000.842187007 0 0 0 0 2055581.5986640453 2622208.3714313507 0 2622208.3714313507 672043.26325130463 0 0 0 0 -4730216.9551383853 10460120.22192049 0 10460120.22192049 -824193.79082107544 0 0 0 0 2740369.4827458858 8986074.6607608795 0 8986074.6607608795 -4212052.8777580261 0 0 0 0 -1679263.6597995758 9600658.5848140717 0 9600658.5848140717 -7516616.0757474899 0 0 0 0 -28599568.301205158 21492173.781540871 0 21492173.781540871 2870519.442779541 0 0 0 0 -2226511.1092616762 2932841.8470095256 0 2932841.8470095256 5046428.1789100654 0 0 0 0 -631697.88299486041 2477599.0060007572 0 2477599.0060007572 -2472116.0054569244 0 0 0 0 -2765658.8995990753 9959083.3933010101 0 9959083.3933010101 -3122765.744468689 0 0 0 0 416130.66444497847 4136683.8601784706 0 4136683.8601784706 6757682.04816496 0 0 0 0 167426.07366219943 3304254.287406309 0 3304254.287406309 7769186.7475010725 0 0 0 0 -22706979.584281445 15442753.518093109 0 15442753.518093109 11486682.272325516 0 0 0 0 4429141.3948180676 11424872.110200882 0 11424872.110200882 2834570.1964187622 0 0 0 0 4541075.7035853267 11974085.251885414 0 11974085.251885414 5010413.548286438 0 0 0 0 -3006048.9118556976 15684015.445417881 0 15684015.445417881 2701982.2410742193 0 0 0 0 2368596.1219286919 10058930.973250389 0 10058930.973250389 1965414.3344583511 0 0 0 0 190323.26021601571 3146377.4426128734 0 3146377.4426128734 -1225577.4509217441 0 0 0 0 13714452.173656657 14395928.15242976 0 14395928.15242976 3118284.7928619385 0 0 0 0 9993120.8095703125 11550144.142810822 0 11550144.142810822 2786669.8211660385 0 0 0 0 52952.036472216016 -147819.38088722527 0 -147819.38088722527 -382276.5093515357 0 0 0 0 13677348.660372257 14024848.500230789 0 14024848.500230789 2096229.6969985962 0 0 0 0 11280918.665923119 15409603.117938995 0 15409603.117938995 2951260.5718002319 0 0 0 0 12078753.996447563 15171255.618127823 0 15171255.618127823 2610056.2441864014 0 0 0 0 11726224.421831846 16731302.433369637 0 16731302.433369637 8041663.9937210083 0 0 0 0 20162078.722670555 16968196.654939651 0 16968196.654939651 8485577.9053611755 0 0 0 0 11731648.535433361 12455540.713230472 0 12455540.713230472 6104527.8152961731 0 0 0 0 -702679.91329932213 5246706.1113901138 0 5246706.1113901138 2393209.8097686768 0 0 0 0 -1497320.183005929 2601608.5336093903 0 2601608.5336093903 149605.35469818115 0 0 0 0 -192485.43043050187 2613917.7905460317 0 2613917.7905460317 2009482.7563139312 0 0 0 0 600449.79623208079 2331434.6913931221 0 2331434.6913931221 -2389685.026073765 0 0 0 0 -1643482.7343220711 1746342.8754386902 0 1746342.8754386902 2180892.9761037827 0 0 0 0 -1879775.2916610241 3458519.4782714844 0 3458519.4782714844 783946.83101463318 0 0 0 0 -2079398.3557137251 1868254.934419632 0 1868254.934419632 2148107.3213272095 0 0 0 0 75359.09739352006 2849546.9981739949 0 2849546.9981739949 21734.442048936617 0 0 0 0 3377305.8114976883 4480951.4752988815 0 4480951.4752988815 -257611.68541717529 0 0 0 0 -41682.043397115893 110173.4534812402 0 110173.4534812402 374559.72811465431 0 0 0 0 -6014623.4500009585 6344566.141720295 0 6344566.141720295 5554555.3256874084 0 0 0 0 432548.45571063459 5949347.4979553223 0 5949347.4979553223 3206709.5646762848 0 0 0 0 -2540338.7122135609 3977176.8146114349 0 3977176.8146114349 2993949.0563640594 0 0 0 0 -3350782.897608459 9454268.7820358276 0 9454268.7820358276 11089620.398582458 0 0 0 0 8944518.3391093016 7644181.7749195099 0 7644181.7749195099 3896133.5195198059 0 0 0 0 -197126.94791476883 2534978.6178124365 0 2534978.6178124365 2117775.0276714265 0 0 0 0 2216147.4800893366 8802884.3389101028 0 8802884.3389101028 4089005.0288391113 0 0 0 0 1494027.9110581204 3300581.0577132343 0 3300581.0577132343 -3522726.4212393872 0 0 0 0 962555.55709779263 15507267.377541542 0 15507267.377541542 9071681.8354606628 0 0 0 0 6494565.3766646385 9453257.6191015244 0 9453257.6191015244 19571.182696580887 0 0 0 0 24130651.177583694 11676462.533164978 0 11676462.533164978 8598894.3073654175 0 0 0 0 15743679.127157092 18164309.602368355 0 18164309.602368355 9857842.4764823914 0 0 0 0 -6217750.0922222137 -16409442.666334152 0 -16409442.666334152 25024288.682647705 0 0 0 0 563868.72654394829 821008.97827162687 0 821008.97827162687 311156.64217415079 0 0 0 0 319827.15622410644 888599.32094524056 0 888599.32094524056 651807.21186298504 0 0 0 0 -1001710.4283819199 28640746.026227951 0 28640746.026227951 -25229668.549602509 0 0 0 0 14897224.920865059 -5755088.995010376 0 -5755088.995010376 49156593.486923218 0 0 0 0 17403664.126422882 23036902.02354908 0 23036902.02354908 -23662548.626464844 0 0 0 0 -52383174.243345499 -3110300.3398637772 0 -3110300.3398637772 7746529.8113059998 0 0 0 0 315851.61876509851 385641.18973582285 0 385641.18973582285 -257540.05095098913 0 0 0 0 -75805401.412700891 13112818.016832352 0 13112818.016832352 39481139.747955322 0 0 0 0 16151750.844133377 -17191263.217967987 0 -17191263.217967987 21969159.606510282 0 0 0 0 -48463330.257568359 85391974.526409149 0 85391974.526409149 26305736.498295188 0 0 0 0 -8512247.9679963589 35508614.940830231 0 35508614.940830231 -6333133.7043800354 0 0 0 0 317257.66683242231 153512.94759767409 0 153512.94759767409 -73798.751743854955 0 0 0 0 -37824236.7534554 72732334.289877892 0 72732334.289877892 -41309695.556648254 0 0 0 0 -115090480.4067831 41177225.122226715 0 41177225.122226715 9888598.4216804504 0 0 0 0 34728416.618968368 40546521.151571274 0 40546521.151571274 6658435.6703491211 0 0 0 0 4486871.2165671587 10238828.451040268 0 10238828.451040268 18760513.450860977 0 0 0 0 18800661.585752517 5253242.0882773399 0 5253242.0882773399 9910388.288230896 0 0 0 0 -3573634.6065129042 9833090.5020141602 0 9833090.5020141602 13917092.101711273 0 0 0 0 -50357081.05413866 35711070.247808456 0 35711070.247808456 13898657.403753281 0 0 0 0 -6612415.1386669353 5657814.6861839294 0 5657814.6861839294 9215033.3050765991 0 0 0 0 -12104908.565503359 42569552.905357361 0 42569552.905357361 10328689.712217331 0 0 0 0 -24799141.448879242 14635722.209480286 0 14635722.209480286 5642126.5186157227 0 0 0 0 -10590630.541134059 5086392.2782115936 0 5086392.2782115936 12353264.065426826 0 0 0 0 -12016162.332017601 1292702.2368774414 0 1292702.2368774414 3043408.9053649902 0 0 0 0 -6873057.9901789874 -2372487.852394104 0 -2372487.852394104 9027961.9878492355 0 0 0 0 -2639225.1838562456 -1339700.1748547554 0 -1339700.1748547554 5272221.1887664795 0 0 0 0 4864872.588927269 6533361.4113330841 0 6533361.4113330841 5735633.1470298767 0 0 0 0 -5078448.3426198885 4879639.6847648621 0 4879639.6847648621 12170014.260864258 0 0 0 0 -5177504.236600358 2770861.4621546268 0 2770861.4621546268 -1566270.2964782715 0 0 0 0 142429.14056304874 194730.53869220079 0 194730.53869220079 272952.04496634938 0 0 0 0 -18320971.697861671 2887468.022939682 0 2887468.022939682 7687811.4357719421 0 0 0 0 -22010082.007140458 -9656440.770734787 0 -9656440.770734787 15154316.461277008 0 0 0 0 112429.18035113745 -140898.62558496697 0 -140898.62558496697 26800.036135938019 0 0 0 0 -7534302.9253512621 -6824924.0989992619 0 -6824924.0989992619 -864327.80111694336 0 0 0 0 18134963.409972806 26974972.430535078 0 26974972.430535078 21835370.303348541 0 0 0 0 11366120.902053118 -5960134.3853261471 0 -5960134.3853261471 10931743.58486557 0 0 0 0 11818.896928203936 372619.07112366799 0 372619.07112366799 12774.844528677757 0 0 0 0 -4115173.1680188775 18935986.814002991 0 18935986.814002991 -49887328.163445711 0 0 0 0 -1940865.1705592573 25220542.761890411 0 25220542.761890411 31836135.214606047 0 0 0 0 -46982941.52986788 10938475.095705986 0 10938475.095705986 -36109321.413841248 0 0 0 0 -17738618.797508717 36261760.29142189 0 36261760.29142189 -6709505.0037536621 0 0 0 0 -17128143.02240476 2828413.6204795837 0 2828413.6204795837 34265449.673412323 0 0 0 0 4311475.450987339 34406538.653146744 0 34406538.653146744 22298573.211063385 0 0 0 0 -17746741.717981517 29528533.577022552 0 29528533.577022552 32964488.099254608 0 0 0 0 -27067327.424257755 23640225.8072052 0 23640225.8072052 14880123.083530426 0 0 0 0 -37008817.058466434 30548763.454437256 0 30548763.454437256 -21279068.348468781 0 0 0 0 -33633816.67794013 3347651.5600852966 0 3347651.5600852966 -578894.19403839111 0 0 0 0 -32380775.356760502 23137421.308546066 0 23137421.308546066 -29700121.598842621 0 0 0 0 -19439482.639261723 5824416.6396789551 0 5824416.6396789551 -9309846.7027435303 0 0 0 0 -62224633.01712656 704989.37298774719 0 704989.37298774719 564452.76091003418 0 0 0 0 -22396552.033989191 36374621.296737671 0 36374621.296737671 -12624472.839975595 0 0 0 0 -27346451.753947735 20561131.668010712 0 20561131.668010712 -13453844.614273071 0 0 0 0 -19630357.561689019 31492589.979766846 0 31492589.979766846 -17477506.11680603 0 0 0 0 -32004214.81422019 56962252.369310379 0 56962252.369310379 20947673.502746582 0 0 0 0 19802688.004240155 -8511168.5935163498 0 -8511168.5935163498 41919518.360546112 0 0 0 0 -29795095.145457506 52811078.449045181 0 52811078.449045181 -6423975.6612873077 0 0 0 0 -655151.84814355825 -16343.727223683149 0 -16343.727223683149 783665.73428168707 0 0 0 0 21413764.72244978 -30769374.397705078 0 -30769374.397705078 50270021.052749634 0 0 0 0 2894613.2503638268 -48419154.679046631 0 -48419154.679046631 48492376.288360596 0 0 0 0 25050713.147094727 -35089386.686828613 0 -35089386.686828613 -34644842.197296143 0 0 0 0 25070711.454906464 -36690083.027008057 0 -36690083.027008057 30775313.633945465 0 0 0 0 43273484.245538235 -54978534.826702118 0 -54978534.826702118 38306830.274356842 0 0 0 0 18337264.90190506 -60828774.421867371 0 -60828774.421867371 38558041.069152832 0 0 0 0 18495641.833709717 -59383524.313362122 0 -59383524.313362122 4190680.9720611572 0 0 0 0 61403496.703954697 -61023725.305484772 0 -61023725.305484772 47017644.012170792 0 0 0 0 23375900.524801254 -54711111.548534393 0 -54711111.548534393 54184127.90019989 0 0 0 0 63228064.74890542 -60459499.733371735 0 -60459499.733371735 52251263.062774658 0 0 0 0 45218195.571485758 -64170034.344257355 0 -64170034.344257355 54702237.189247131 0 0 0 0 56262281.422878742 -47574018.098163605 0 -47574018.098163605 41152882.323246002 0 0 0 0 -6345887.9510416985 -344395.30394363403 0 -344395.30394363403 657012.77827072144 0 0 0 0 19492485.814951897 9002761.1868839264 0 9002761.1868839264 -18086795.968708038 0 0 0 0 -790203.19196747593 -93970.709727751091 0 -93970.709727751091 732405.18955464289 0 0 0 0 -175550.28325020522 70320.643046660349 0 70320.643046660349 159618.64213881083 0 0 0 0 -29652956.539747596 -9673807.2639446259 0 -9673807.2639446259 -844392.10375976562 0 0 0 0 37283191.386953354 -28477837.244800568 0 -28477837.244800568 44885130.395576477 0 0 0 0 46250307.692342281 -51055965.615980148 0 -51055965.615980148 39946341.03824234 0 0 0 0 -239430.67710814485 102825.83987404127 0 102825.83987404127 278102.20765285566 0 0 0 0 -30902018.270088673 -7783033.2626552582 0 -7783033.2626552582 2862696.7770118713 0 0 0 0 -11525403.305787802 26012706.819923401 0 26012706.819923401 51442192.656820774 0 0 0 0 -8751064.2255055904 -34872152.466331005 0 -34872152.466331005 -9404832.5648231506 0 0 0 0 -71718278.734887123 9223744.5450620651 0 9223744.5450620651 66644852.577222824 0 0 0 0 17849709.833153605 31138955.492476702 0 31138955.492476702 -11717785.390777588 0 0 0 0 -331646.57645389671 323019.46266283095 0 323019.46266283095 16087.290835496038 0 0 0 0 28056892.162983894 -2640031.0263433456 0 -2640031.0263433456 -5621138.0751149654 0 0 0 0 -8651806.3899171352 -105102.2260389328 0 -105102.2260389328 40049139.250999451 0 0 0 0 -7301493.1476857662 -3271843.9637355804 0 -3271843.9637355804 9279689.3742790222 0 0 0 0 -2149080.8834877014 14136062.764772892 0 14136062.764772892 33507467.630313873 0 0 0 0 -2755059.4098958969 9733998.0772800446 0 9733998.0772800446 11779014.503052711 0 0 0 0 11351082.128131509 10924006.821438789 0 10924006.821438789 8072743.3328094482 0 0 0 0 32216399.297323138 31477752.413587809 0 31477752.413587809 25174697.576301575 0 0 0 0 -11351429.995989561 23670964.077575684 0 23670964.077575684 24619284.038555145 0 0 0 0 -13501393.648051023 5484160.7071685791 0 5484160.7071685791 6241219.0414390564 0 0 0 0 -391588.32269203663 15837903.442116737 0 15837903.442116737 4779745.821685791 0 0 0 0 -7336493.6225631237 14488492.419721603 0 14488492.419721603 40464984.168502808 0 0 0 0 18666.541256556055 619247.37062976137 0 619247.37062976137 21482.716602816537 0 0 0 0 11072330.988529086 20002909.108398438 0 20002909.108398438 -1239935.8872990012 0 0 0 0 11375002.045352221 7608623.7935647964 0 7608623.7935647964 -13273909.77207756 0 0 0 0 1895.7677217605524 357487.21773263998 0 357487.21773263998 13095.326399414858 0 0 0 0 -33444647.637889385 -2299426.2233543396 0 -2299426.2233543396 30697526.063000202 0 0 0 0 -32991548.636528969 6368023.3136558533 0 6368023.3136558533 -7986455.9251022339 0 0 0 0 6129123.027878046 16046887.084065437 0 16046887.084065437 -38466574.662914276 0 0 0 0 24921406.900515795 16272132.739168167 0 16272132.739168167 -9200300.4080467224 0 0 0 0 -59067629.409370303 -33394659.358882427 0 -33394659.358882427 4373502.0998725891 0 0 0 0 -37862981.056246758 3757134.4485664368 0 3757134.4485664368 -9372637.6095424891 0 0 0 0 -41383123.636583805 9330211.7046899796 0 9330211.7046899796 -2703197.661605835 0 0 0 0 -40940647.739050388 9873104.1784133911 0 9873104.1784133911 -2049563.8831291199 0 0 0 0 -5338508.6716551781 719976.30462646484 0 719976.30462646484 2698247.0495033264 0 0 0 0 -19971905.080089092 -9806284.2082958221 0 -9806284.2082958221 34632363.59671402 0 0 0 0 -856521.89369927277 -1459015.9767509918 0 -1459015.9767509918 4031506.8399998136 0 0 0 0 -4134546.3672332764 1738352.0125694275 0 1738352.0125694275 2982613.2603263855 0 0 0 0 -4407944.1351566315 1444715.06291008 0 1444715.06291008 2793558.0220565796 0 0 0 0 -2769218.8165707588 325178.21011161804 0 325178.21011161804 1568543.7532482147 0 0 0 0 -311104.89909613621 -452172.65052944247 0 -452172.65052944247 1857469.4583065901 0 0 0 0 -2688779.271589756 209528.58598327637 0 209528.58598327637 1454469.895986557 0 0 0 0 -433137.25582305691 -384626.14965369902 0 -384626.14965369902 1877010.6370133571 0 0 0 0 -3261054.3134269714 1003421.5754051208 0 1003421.5754051208 1761280.7606163025 0 0 0 0 -1419593.6626173421 1223718.4450417692 0 1223718.4450417692 2005074.5598566625 0 0 0 0 -4143625.520116806 938346.4961566925 0 938346.4961566925 2185961.1683578491 0 0 0 0 -3011280.268748045 -1520429.1489934921 0 -1520429.1489934921 5273394.201839447 0 0 0 0 -3549974.814822197 1335226.7143802643 0 1335226.7143802643 2316349.8817596436 0 0 0 0 -136707.90604270552 -142150.12974418048 0 -142150.12974418048 205038.26083860546 0 0 0 0 -1102191.902711723 561658.60113509605 0 561658.60113509605 2393953.0196597073 0 0 0 0 -3658697.3301281929 300713.41497421265 0 300713.41497421265 2767294.9805755615 0 0 0 0 -835756.36384635931 -756483.89696209109 0 -756483.89696209109 4253036.4593849964 0 0 0 0 -7250967.3864458203 -250973.49277639389 0 -250973.49277639389 3853420.705242157 0 0 0 0 405971.48223638535 14392479.438592911 0 14392479.438592911 3766601.7307510376 0 0 0 0 -912805.94540913869 1086281.7632923834 0 1086281.7632923834 1450860.3287459705 0 0 0 0 -5233686.5399298668 -2469041.2721157074 0 -2469041.2721157074 5014446.7368888855 0 0 0 0 -8933215.1590554714 1709805.0311441422 0 1709805.0311441422 2845804.5682067871 0 0 0 0 -1915071.9525058365 2588929.4463789407 0 2588929.4463789407 3389010.515397286 0 0 0 0 -1164708.9415297667 -433067.37271907483 0 -433067.37271907483 4196710.7243131194 0 0 0 0 -5198440.0203995705 -124382.82707595825 0 -124382.82707595825 3479997.5558481216 0 0 0 0 -5223282.9983787537 275349.93290233612 0 275349.93290233612 2911984.7123727798 0 0 0 0 -2981974.7500211298 -213370.41815948486 0 -213370.41815948486 2271608.4783000946 0 0 0 0 -648613.36674945394 -572353.27047547279 0 -572353.27047547279 2373966.8216931224 0 0 0 0 -2338946.1683533192 1618991.6268463135 0 1618991.6268463135 2014001.6816825867 0 0 0 0 -1950025.898853302 1184721.4547615051 0 1184721.4547615051 2432647.6233941317 0 0 0 0 -1186871.5157874718 1358330.1117275739 0 1358330.1117275739 2555559.645165097 0 0 0 0 -7937792.3085689545 809594.1507358551 0 809594.1507358551 1438526.0823707581 0 0 0 0 -602690.82665568264 470135.08445310919 0 470135.08445310919 1747885.3028900139 0 0 0 0 -696561.13769888878 962919.22272443771 0 962919.22272443771 2176838.0598201752 0 0 0 0 -756254.21945434809 1192854.5059723258 0 1192854.5059723258 4113540.4605045319 0 0 0 0 -1833784.1848720312 47193.500061035156 0 47193.500061035156 3459569.2371311188 0 0 0 0 -1099955.9209414909 654554.40142646525 0 654554.40142646525 2319871.2227574475 0 0 0 0 -2339153.8471620679 1326155.4011516571 0 1326155.4011516571 3136719.7428703308 0 0 0 0 -1864186.8126384616 323676.07962107658 0 323676.07962107658 3179398.9412260056 0 0 0 0 -1099957.9316661302 916977.06621563248 0 916977.06621563248 2555527.0939958859 0 0 0 0 -729020.1658693254 151798.03826668626 0 151798.03826668626 2468054.0080497945 0 0 0 0 -1742920.4147822857 735914.72527980804 0 735914.72527980804 3092825.1826145649 0 0 0 0 -1038298.2023331174 353660.20337471087 0 353660.20337471087 3129588.6513729487 0 0 0 0 -156768.65861821175 967682.65463161469 0 967682.65463161469 4203324.0752687454 0 0 0 0 -205064.4460208416 290540.87539991736 0 290540.87539991736 3020198.9733839035 0 0 0 0 -689674.58218463033 -58318.098314919276 0 -58318.098314919276 3271530.2358310674 0 0 0 0 -8160677.4619480371 -11505268.798386335 0 -11505268.798386335 3624299.9158172607 0 0 0 0 311574.23402380641 109437.05176647648 0 109437.05176647648 845976.44831283065 0 0 0 0 -2279367.2403663695 16595814.675891906 0 16595814.675891906 32268898.169736862 0 0 0 0 13814409.79398489 -30275415.924697876 0 -30275415.924697876 5337071.8703808784 0 0 0 0 -1885100.6294718385 -373468.45348930359 0 -373468.45348930359 3480706.2149486542 0 0 0 0 8276404.381026268 718700.75518977642 0 718700.75518977642 5332345.0314912796 0 0 0 0 7382854.8154424429 -623881.71993911266 0 -623881.71993911266 4464489.7675819397 0 0 0 0 2154863.2703968287 -4131649.6007244587 0 -4131649.6007244587 1924090.3042474091 0 0 0 0 8422492.6159820557 -1342200.1511693001 0 -1342200.1511693001 2364173.2353539467 0 0 0 0 1664504.925516963 1119159.491155386 0 1119159.491155386 1821500.246134758 0 0 0 0 25614243.709621906 -24348760.339426279 0 -24348760.339426279 -18765763.322784424 0 0 0 0 196942.62402477686 19882.401105836965 0 19882.401105836965 137589.47205772903 0 0 0 0 31218409.619192362 -666742.61082744598 0 -666742.61082744598 -1040428.2807805538 0 0 0 0 14252889.788944244 -8291681.3346660733 0 -8291681.3346660733 6045385.1573400497 0 0 0 0 11708246.987096071 954868.99873065948 0 954868.99873065948 -338949.53272247314 0 0 0 0 117615295.44893074 -31034475.8139925 0 -31034475.8139925 9131035.9131575897 0 0 0 0 -5617912.6452403069 -6428880.838572979 0 -6428880.838572979 -1553287.7827663422 0 0 0 0 -224935.52242433443 71162.511027086293 0 71162.511027086293 498894.49605284655 0 0 0 0 23088576.264808714 -22498043.414873242 0 -22498043.414873242 9290964.9292545319 0 0 0 0 -33203975.176911831 113597892.24001598 0 113597892.24001598 8459532.5923681259 0 0 0 0 -24664997.087331682 -1432464.200804472 0 -1432464.200804472 8734441.9720983505 0 0 0 0 19450488.783989191 -6602527.136803627 0 -6602527.136803627 -38463541.145063877 0 0 0 0 -16605805.674335212 22330743.792730391 0 22330743.792730391 1471077.1212148666 0 0 0 0 7581433.7746760845 16786378.999662399 0 16786378.999662399 2176492.2344396114 0 0 0 0 -621914.31723093987 -2357583.9974708557 0 -2357583.9974708557 8745829.4015067592 0 0 0 0 2368775.872448802 562127.70582771301 0 562127.70582771301 2478455.9012820721 0 0 0 0 -8086136.1458508968 -2134703.9118692875 0 -2134703.9118692875 16167374.552703381 0 0 0 0 -342681.93690395355 1188450.2003998756 0 1188450.2003998756 3466006.7252473347 0 0 0 0 -729305.33170608175 74807.402393839788 0 74807.402393839788 2641539.7698018407 0 0 0 0 11932419.577765226 -15963495.44812727 0 -15963495.44812727 -10937247.850420475 0 0 0 0 -1355559.0138652325 -26487.825774669647 0 -26487.825774669647 2726026.202665329 0 0 0 0 -501779.75859363377 613745.75332671404 0 613745.75332671404 2144352.067440033 0 0 0 0 -472177.72650264204 856916.90161705017 0 856916.90161705017 2798522.020331651 0 0 0 0 -889051.69129166356 344542.60799787892 0 344542.60799787892 2764104.253103998 0 0 0 0 -940440.38489037147 283319.21440644597 0 283319.21440644597 2093158.7790603214 0 0 0 0 190875.51288545132 1239163.7266054153 0 1239163.7266054153 4216503.4495449066 0 0 0 0 74129.006653487682 449777.71269798279 0 449777.71269798279 2425601.2673254013 0 0 0 0 -135327.17402784183 -118639.96509767557 0 -118639.96509767557 2873909.5798194748 0 0 0 0 393929.415543437 3893355.8108992577 0 3893355.8108992577 1662951.170977354 0 0 0 0 -104220.28896925563 982439.30885722185 0 982439.30885722185 3708781.0417466485 0 0 0 0 843503.65921280533 -7613043.2508466691 0 -7613043.2508466691 6216215.7698411942 0 0 0 0 -1892163.2300599813 -70432.275315284729 0 -70432.275315284729 8742123.5463104248 0 0 0 0 -2138724.5253011584 848706.7332971096 0 848706.7332971096 5694590.7643585205 0 0 0 0 -3085355.9254434705 1036061.4455308914 0 1036061.4455308914 5771223.3225593567 0 0 0 0 -1157416.5833137035 -1457227.9376108646 0 -1457227.9376108646 10267270.605361104 0 0 0 0 -1218497.9303144775 50736.451193741523 0 50736.451193741523 2561556.2811484439 0 0 0 0 -1915781.7864849567 -1657658.1161243916 0 -1657658.1161243916 10934099.759187937 0 0 0 0 -694894.98120498657 -4867953.6715145111 0 -4867953.6715145111 12343017.172791958 0 0 0 0 -814634.75970824936 -767870.51641034032 0 -767870.51641034032 3646775.5224856618 0 0 0 0 2329518.2628793716 -5807944.1287380457 0 -5807944.1287380457 14827406.484191895 0 0 0 0 -428666.79049198865 534151.15513174224 0 534151.15513174224 521303.8598763966 0 0 0 0 1222232.4955072403 4199399.5758886337 0 4199399.5758886337 552090.71649599075 0 0 0 0 300470.54444253445 4271296.4445800781 0 4271296.4445800781 3759621.3788104057 0 0 0 0 -3907424.4626911581 5846744.3906856179 0 5846744.3906856179 11977278.804599762 0 0 0 0 -1183960.7345974445 1184418.7164566517 0 1184418.7164566517 -610586.8609919548 0 0 0 0 -1188267.3098678887 846820.37205436826 0 846820.37205436826 6414215.6735725403 0 0 0 0 -581962.48962402344 -2791039.8128628731 0 -2791039.8128628731 2931704.5420074463 0 0 0 0 -1720518.3157172203 -1221500.4150836468 0 -1221500.4150836468 10416568.969090462 0 0 0 0 -516968.96792584518 -932568.76309420099 0 -932568.76309420099 3273482.2437764294 0 0 0 0 -1662269.5217890739 -3535746.1901729107 0 -3535746.1901729107 4163613.7778806686 0 0 0 0 -1456828.9701703191 -2769873.2601727843 0 -2769873.2601727843 4473270.2775697708 0 0 0 0 -1366208.8821558952 -3697633.4863400459 0 -3697633.4863400459 2444979.5679311752 0 0 0 0 -2467085.8058964014 -198413.00283336639 0 -198413.00283336639 3874104.1377325058 0 0 0 0 -2091061.6875191331 2338841.8436794877 0 2338841.8436794877 2491734.4039993286 0 0 0 0 1599756.3667695522 314304.12773609161 0 314304.12773609161 3347114.860159874 0 0 0 0 -275649.85030186176 896512.77364349365 0 896512.77364349365 4849387.0963096619 0 0 0 0 -651119.15945792198 172290.33761072159 0 172290.33761072159 3821958.2493577003 0 0 0 0 -2998955.8510150909 -5704655.5734596252 0 -5704655.5734596252 418153.62668609619 0 0 0 0 -229900.06535120541 -923395.84204342915 0 -923395.84204342915 2362864.2472264618 0 0 0 0 -5293827.8183484077 -3204841.5608634949 0 -3204841.5608634949 3031214.8377585411 0 0 0 0 -77523.741625344555 47981.882840660051 0 47981.882840660051 65522.548808749765 0 0 0 0 -1192113.0429899693 -4021146.6032142639 0 -4021146.6032142639 -5209080.2181739807 0 0 0 0 -199668.86145227915 154363.65117763495 0 154363.65117763495 640336.85753463674 0 0 0 0 1963990.5749959946 -388751.75964355469 0 -388751.75964355469 6074815.2043132782 0 0 0 0 -1361460.174613052 -405193.92725878628 0 -405193.92725878628 4042504.3370453282 0 0 0 0 1015258.2823524475 -1500502.100507021 0 -1500502.100507021 735303.16230773926 0 0 0 0 -793277.93508360535 -1961932.8206253052 0 -1961932.8206253052 1040272.1075229645 0 0 0 0 1733291.688318193 3241332.0881884098 0 3241332.0881884098 650519.88559055328 0 0 0 0 2961426.6410505772 -4743427.9179682732 0 -4743427.9179682732 6138457.9546070099 0 0 0 0 50553.763232580968 -14854.780973869143 0 -14854.780973869143 24295.066225526854 0 0 0 0 1887355.8676942587 1289532.1069841385 0 1289532.1069841385 -865568.47698974609 0 0 0 0 -3138032.5393637419 659128.41225361824 0 659128.41225361824 2245026.1051082611 0 0 0 0 -2419509.3939056396 -1049401.7912340164 0 -1049401.7912340164 4936254.441198349 0 0 0 0 1902337.279193759 -1543208.4893493652 0 -1543208.4893493652 981146.25820541382 0 0 0 0 3666497.8063878119 6363730.6560277939 0 6363730.6560277939 -1298387.8251109123 0 0 0 0 -40449.184190100656 -260643.05344864866 0 -260643.05344864866 277594.48975742701 0 0 0 0 -140721.71074662043 -110321.52205298329 0 -110321.52205298329 1281111.7698626984 0 0 0 0 8270622.3553506136 -2163176.5623130798 0 -2163176.5623130798 4234730.0971107483 0 0 0 0 2831606.6380617917 9608255.3403635025 0 9608255.3403635025 -4617350.9712014198 0 0 0 0 7696295.0546355508 3181387.3745954633 0 3181387.3745954633 -11094004.516399384 0 0 0 0 -6093752.3659135997 -2547529.2093648911 0 -2547529.2093648911 3039499.4330615997 0 0 0 0 -5400446.3165600896 -1132035.1507606506 0 -1132035.1507606506 6601226.3412389755 0 0 0 0 -7542047.3829553425 -2403100.5189979076 0 -2403100.5189979076 12225325.397140503 0 0 0 0 -90493.836268746032 199190.56777473213 0 199190.56777473213 132139.78500938974 0 0 0 0 -8015474.339849025 -3650036.3095664978 0 -3650036.3095664978 9305578.6594867706 0 0 0 0 -9342080.9953661561 -15375546.024424076 0 -15375546.024424076 109267093.56374621 0 0 0 0 -4754388.8828452826 321849.73552322388 0 321849.73552322388 9742782.9350166321 0 0 0 0 37054933.653008401 -48892088.348875999 0 -48892088.348875999 -30834573.48561573 0 0 0 0 -17857637.972243011 21677207.861936092 0 21677207.861936092 -12511150.4503479 0 0 0 0 -672872.42691163579 2339911.5209744996 0 2339911.5209744996 2102179.8177459585 0 0 0 0 4507591.4871407747 19468413.874750137 0 19468413.874750137 -36184700.360948086 0 0 0 0 15421784.263468623 -10202838.573469162 0 -10202838.573469162 -4254833.7018671036 0 0 0 0 20760254.370977074 3562762.8998818398 0 3562762.8998818398 -22226194.373550415 0 0 0 0 -91883.795577645302 3297856.0169984102 0 3297856.0169984102 577540.34635543823 0 0 0 0 -953595.5386828715 863629.36033986229 0 863629.36033986229 4635912.4360867748 0 0 0 0 -1467825.5117631853 -448697.10707521439 0 -448697.10707521439 -9440410.1143493652 0 0 0 0 -9994937.3179698586 13070479.307726383 0 13070479.307726383 -7064360.5520663261 0 0 0 0 -822305.45393146749 326004.88028776576 0 326004.88028776576 1356357.033480823 0 0 0 0 -1747654.9664101601 206843.39987468719 0 206843.39987468719 2900914.2271203995 0 0 0 0 -1452535.5956110335 2265079.8383408366 0 2265079.8383408366 4950226.0988085233 0 0 0 0 -10992375.221660972 3880231.962842226 0 3880231.962842226 1134548.6775970459 0 0 0 0 -921521.22192072868 835774.91141319275 0 835774.91141319275 1766717.9632453918 0 0 0 0 -2134877.3578103781 811101.05106210709 0 811101.05106210709 3511779.5172863007 0 0 0 0 -1213616.0029654768 964666.48321158066 0 964666.48321158066 2800755.6933910046 0 0 0 0 -2221718.7636360452 373607.80573666096 0 373607.80573666096 2973281.2656021118 0 0 0 0 -653233.63505182927 253405.46687831869 0 253405.46687831869 3715375.4030076736 0 0 0 0 -1336855.493309617 226153.12481498718 0 226153.12481498718 2094203.630241394 0 0 0 0 284391.55738711357 1873241.9614124298 0 1873241.9614124298 939011.29165649414 0 0 0 0 -198801.27590604441 735540.7187936902 0 735540.7187936902 2197992.2715516244 0 0 0 0 -167418.74001860083 99810.207046180032 0 99810.207046180032 198820.71739942767 0 0 0 0 -513267.28405277373 -267954.13316975394 0 -267954.13316975394 2687829.5673071374 0 0 0 0 -1031312.8770130873 867683.49224853516 0 867683.49224853516 2834226.3591852188 0 0 0 0 -1836650.7558708191 593119.80970954895 0 593119.80970954895 4400898.6656889915 0 0 0 0 573574.18297964334 2076515.15807724 0 2076515.15807724 -831914.11021757126 0 0 0 0 -3157278.8732706308 678256.70103502274 0 678256.70103502274 5690645.6967315674 0 0 0 0 -104999.61098217964 -1457106.4301280975 0 -1457106.4301280975 6546029.9054946899 0 0 0 0 -1596281.3724661469 -1148443.4509067535 0 -1148443.4509067535 4454833.9980735779 0 0 0 0 -185914.22829864651 242765.03899632883 0 242765.03899632883 225374.17875249963 0 0 0 0 -575311.89222186978 293636.37428590376 0 293636.37428590376 1676402.3679442778 0 0 0 0 -686348.10685563262 1018106.3529196435 0 1018106.3529196435 850548.05625958741 0 0 0 0 -1568057.822738871 570794.57319879532 0 570794.57319879532 3332090.8746833801 0 0 0 0 -639518.12388697267 4412278.7247653008 0 4412278.7247653008 3912588.8008176088 0 0 0 0 741178.65347127244 4096320.2314062119 0 4096320.2314062119 10831093.491356373 0 0 0 0 1137.9655442561534 1581989.3321676254 0 1581989.3321676254 6412754.0462684631 0 0 0 0 -132660.580141874 -241851.29690689314 0 -241851.29690689314 996019.01800238062 0 0 0 0 1353323.2914956417 763665.86388766766 0 763665.86388766766 4265429.9618492126 0 0 0 0 117767.1036052422 431885.0216026511 0 431885.0216026511 706467.51147444453 0 0 0 0 412451.73726847768 996429.48941421509 0 996429.48941421509 3683185.5564918518 0 0 0 0 2423.3882173075758 -262007.00947283208 0 -262007.00947283208 1153376.5043894406 0 0 0 0 39894.107968434691 287288.96671104431 0 287288.96671104431 2807691.4187355042 0 0 0 0 1226821.1454533748 -377805.67320680618 0 -377805.67320680618 4138811.9179039001 0 0 0 0 -34276.935921612217 1721773.1965560913 0 1721773.1965560913 8020450.2560348511 0 0 0 0 914201.60211149091 3605568.3389720917 0 3605568.3389720917 13806030.061162949 0 0 0 0 3491383.5246442975 5856282.8584098816 0 5856282.8584098816 8676000.8888614178 0 0 0 0 2884926.7820182703 1668889.7974594831 0 1668889.7974594831 3002702.4660644531 0 0 0 0 -44993.45870953249 14583.909993490204 0 14583.909993490204 365713.72282839008 0 0 0 0 6275467.7263345588 6130074.0579690933 0 6130074.0579690933 11534078.194232941 0 0 0 0 2651190.9828764312 9148891.6465797424 0 9148891.6465797424 19003744.340417862 0 0 0 0 428119.89064360876 6845765.8264439106 0 6845765.8264439106 20128661.222446442 0 0 0 0 6220.063580037584 2021691.9390945435 0 2021691.9390945435 11429946.181595325 0 0 0 0 -5826.6180320224303 2702384.5694990158 0 2702384.5694990158 30082876.925754547 0 0 0 0 988676.02423933614 7184108.9741592407 0 7184108.9741592407 20093895.412283897 0 0 0 0 -974.95048151357946 131599.26950931549 0 131599.26950931549 35759741.518184662 0 0 0 0 -3348709.2166544106 4201242.6593532562 0 4201242.6593532562 30855022.402051926 0 0 0 0 -3510557.9318044404 3639279.6901988983 0 3639279.6901988983 40312832.372612 0 0 0 0 -1628709.8062009888 -8019711.415222168 0 -8019711.415222168 54407307.652704239 0 0 0 0 -4868241.6487137424 7930180.6557979584 0 7930180.6557979584 62197857.123474121 0 0 0 0 -5796707.9467373881 -5885435.8563804626 0 -5885435.8563804626 46082808.314121246 0 0 0 0 -4870691.0724907741 4887512.5869846344 0 4887512.5869846344 43543987.825637817 0 0 0 0 -937077.69935961533 13502810.636207581 0 13502810.636207581 41727506.347034454 0 0 0 0 -4523058.9649276361 3536802.2988243103 0 3536802.2988243103 47953540.416786194 0 0 0 0 -508857.35166337993 8620315.5412025452 0 8620315.5412025452 35118852.547872543 0 0 0 0 -487345.22135176416 9413066.6172809601 0 9413066.6172809601 30231009.882181168 0 0 0 0 240617.63973991526 6197665.5402789116 0 6197665.5402789116 27558042.142375946 0 0 0 0 4143012.7284062402 12985049.966848373 0 12985049.966848373 24816178.32233429 0 0 0 0 1895658.6324543618 7538510.0941810608 0 7538510.0941810608 22236986.134914398 0 0 0 0 6688829.3647903055 13327227.290533066 0 13327227.290533066 20875116.518157959 0 0 0 0 7457041.0374845387 5494021.0393705368 0 5494021.0393705368 9050300.3971862793 0 0 0 0 6582061.7049978971 9752191.1383209229 0 9752191.1383209229 20570476.20545578 0 0 0 0 6468792.1795873996 4498240.4762115479 0 4498240.4762115479 11970899.699760437 0 0 0 0 2178706.3219799176 903364.80743789673 0 903364.80743789673 9166860.7097215652 0 0 0 0 13450049.003627017 7637783.1322746277 0 7637783.1322746277 6802672.5871353149 0 0 0 0 22039573.960402727 21375518.304143906 0 21375518.304143906 18164465.328964233 0 0 0 0 4169375.1450045058 18187167.993886948 0 18187167.993886948 45115431.327171326 0 0 0 0 3654796.3334022244 9968253.9539480209 0 9968253.9539480209 28082944.197486877 0 0 0 0 4547068.5533732334 18672458.878372192 0 18672458.878372192 33405470.804626465 0 0 0 0 -632147.23263826442 10464509.888188481 0 10464509.888188481 48347898.520744324 0 0 0 0 -733249.08897648053 9547463.1616134644 0 9547463.1616134644 47683261.004703522 0 0 0 0 -2711925.1444945266 8125641.2909946442 0 8125641.2909946442 72481784.309513092 0 0 0 0 -3581667.648459306 21276642.430381775 0 21276642.430381775 46306276.591248512 0 0 0 0 1177439.2458651932 35044268.466053009 0 35044268.466053009 85891085.771728516 0 0 0 0 -20181821.808009122 19449058.020956039 0 19449058.020956039 80770043.573890686 0 0 0 0 -14583171.701307278 11215658.60958004 0 11215658.60958004 80340761.722381592 0 0 0 0 -5668519.2328820834 -17417772.76080513 0 -17417772.76080513 99464184.735990524 0 0 0 0 68201053.079259291 104313517.06320763 0 104313517.06320763 177142520.49814606 0 0 0 0 -12943787.194542527 -42704860.148448944 0 -42704860.148448944 224846947.12059689 0 0 0 0 -29800058.75717485 29136573.752704144 0 29136573.752704144 145247217.84647369 0 0 0 0 72230914.302386805 -112080385.18720055 0 -112080385.18720055 138119338.23862076 0 0 0 0 -5412725.4673531521 65872675.844930649 0 65872675.844930649 205476510.72390175 0 0 0 0 51440091.694402128 69401028.437982559 0 69401028.437982559 55224278.704860687 0 0 0 0 41664728.719212741 43314159.709159851 0 43314159.709159851 27507755.228416443 0 0 0 0 25183974.79223527 22487668.187023163 0 22487668.187023163 15416917.357059479 0 0 0 0 44455494.686109006 26242080.582723141 0 26242080.582723141 12014456.147499084 0 0 0 0 77700126.586356342 -12112781.200565338 0 -12112781.200565338 48893249.702308655 0 0 0 0 115299616.3461355 -89320754.973045349 0 -89320754.973045349 126935951.62395096 0 0 0 0 -354160.20734532259 30450.949759976473 0 30450.949759976473 641024.98923495039 0 0 0 0 -61635415.920593739 -26484444.106964111 0 -26484444.106964111 -11612385.3359375 0 0 0 0 32487558.381896019 2143960.7784118652 0 2143960.7784118652 -27945753.358932495 0 0 0 0 -24468714.420907162 1772259.3008718491 0 1772259.3008718491 6798405.6840133667 0 0 0 0 -14046.834388772899 714756.41998935724 0 714756.41998935724 1228993.3053100053 0 0 0 0 -46222.205136441247 74476.431128663942 0 74476.431128663942 57608.379165222403 0 0 0 0 -13461064.657341823 -32287313.709096909 0 -32287313.709096909 -28132938.374710083 0 0 0 0 -56646629.037621528 26953376.24061203 0 26953376.24061203 -1659615.0291404724 0 0 0 0 11824886.804765806 11967019.19418335 0 11967019.19418335 15288538.103649139 0 0 0 0 6063080.4312167764 -1622574.9845352173 0 -1622574.9845352173 455961.45262908936 0 0 0 0 40298366.918432266 21986337.969295502 0 21986337.969295502 -20257763.215042114 0 0 0 0 15903971.0005593 -2552574.7480888367 0 -2552574.7480888367 -4583125.8207855225 0 0 0 0 -10891710.325999618 -7194691.5051956177 0 -7194691.5051956177 5358624.1197128296 0 0 0 0 8552590.9371480197 557812.38581848145 0 557812.38581848145 4582005.2801971436 0 0 0 0 17522737.552500401 12931368.514893293 0 12931368.514893293 9212658.5810394287 0 0 0 0 3220695.9280109257 -296764.45124053955 0 -296764.45124053955 4381910.8158950806 0 0 0 0 6939378.579869166 1717772.1407165527 0 1717772.1407165527 4681437.6372833252 0 0 0 0 -4907570.5450155884 -3546623.6830730438 0 -3546623.6830730438 5737710.0078716278 0 0 0 0 -4193680.5148965549 -154728.49562144279 0 -154728.49562144279 714307.62718582153 0 0 0 0 -14541416.434831649 5187054.1293737888 0 5187054.1293737888 3638382.4244270325 0 0 0 0 -6294543.3471983075 -1459156.1560974121 0 -1459156.1560974121 3789302.3153934479 0 0 0 0 -2856505.4339118004 -1626695.5360851288 0 -1626695.5360851288 3010798.4148254395 0 0 0 0 -2976787.5720990375 -1967367.799695015 0 -1967367.799695015 2109306.5446472168 0 0 0 0 -590947.3812918663 3145873.1400489807 0 3145873.1400489807 4395007.2448101044 0 0 0 0 3345139.5176343918 8980162.500617981 0 8980162.500617981 12068607.88306427 0 0 0 0 -1068186.0913900246 -624683.32155769877 0 -624683.32155769877 1423024.4616015935 0 0 0 0 -1387314.4330421835 -3599206.6719284058 0 -3599206.6719284058 221052.83439445496 0 0 0 0 -2533956.1400075853 -1891169.0012769699 0 -1891169.0012769699 1592201.3585510254 0 0 0 0 -1507519.5903298631 -3781966.0161037445 0 -3781966.0161037445 4320386.2578582764 0 0 0 0 3107715.4616679214 -1356881.8821983337 0 -1356881.8821983337 1611355.5796279907 0 0 0 0 548177.20844984893 268912.4623298645 0 268912.4623298645 8973472.6782798767 0 0 0 0 2336442.1677082609 -2864808.2630748749 0 -2864808.2630748749 1660930.3772315979 0 0 0 0 501482.960320374 6244483.6470127106 0 6244483.6470127106 12615773.79813385 0 0 0 0 -387498.68518204748 345104.12959945202 0 345104.12959945202 1512766.3246286493 0 0 0 0 2289167.7876091842 1029699.8299503326 0 1029699.8299503326 -2090232.0149765015 0 0 0 0 808008.89178449661 897360.65629577637 0 897360.65629577637 4564537.1434669495 0 0 0 0 139756.99230495712 -192734.18704108335 0 -192734.18704108335 1671713.8542841859 0 0 0 0 485558.81185278669 88564.059248924255 0 88564.059248924255 1018666.1981735229 0 0 0 0 564406.27769568563 155541.33833312988 0 155541.33833312988 1629449.2740421295 0 0 0 0 972192.03960942361 226296.80655125994 0 226296.80655125994 998318.07214120775 0 0 0 0 -696690.70286122151 854289.36660385132 0 854289.36660385132 5307960.6397972107 0 0 0 0 -340071.72567496635 220100.35988807678 0 220100.35988807678 5290477.0315322876 0 0 0 0 -20422.269801173781 290117.67163777724 0 290117.67163777724 1094819.5182785606 0 0 0 0 421836.48205688596 439932.73537063599 0 439932.73537063599 2155974.9904212952 0 0 0 0 1073778.1666494955 -610227.41095724516 0 -610227.41095724516 1239658.9873519456 0 0 0 0 2564905.2146267891 -8346166.1994838715 0 -8346166.1994838715 -76644624.845684052 0 0 0 0 -6462937.6941008568 -44849415.222858429 0 -44849415.222858429 -62269823.067028999 0 0 0 0 1615531.2369917382 -278624.19858182874 0 -278624.19858182874 794125.56312171323 0 0 0 0 22072191.625091553 -41693385.561737061 0 -41693385.561737061 -122955186.34422016 0 0 0 0 -15053711.828371048 -12887190.141403198 0 -12887190.141403198 -7225187.8371887207 0 0 0 0 641907.39124807715 338708.26386260986 0 338708.26386260986 431390.45899963379 0 0 0 0 -509920.00716546155 620792.44689921383 0 620792.44689921383 1142971.8321786681 0 0 0 0 2140723.048828125 2286457.1872825623 0 2286457.1872825623 3044033.2944545746 0 0 0 0 1189705.9332749806 1165227.2120170034 0 1165227.2120170034 1403981.4150165529 0 0 0 0 1058300.5412744284 211416.67531204224 0 211416.67531204224 380449.95259475708 0 0 0 0 -277903.20413017971 -313206.14069636539 0 -313206.14069636539 1030495.9503234876 0 0 0 0 2386803.1137789623 798104.26759433933 0 798104.26759433933 74013.133761955425 0 0 0 0 1627353.3956747055 -17741301.682033539 0 -17741301.682033539 1596117.2922172546 0 0 0 0 500917.95552945137 52434.506324768066 0 52434.506324768066 -2285139.6153888702 0 0 0 0 14929539.502830029 -13630919.607435226 0 -13630919.607435226 -42006884.259677887 0 0 0 0 2314910.113766457 -281323.78151883557 0 -281323.78151883557 576980.84734170698 0 0 0 0 305670.87626248668 253038.86059391312 0 253038.86059391312 -218018.47893686313 0 0 0 0 -22711322.513841629 36359972.980560303 0 36359972.980560303 -37686795.571567535 0 0 0 0 19004976.74132061 31169443.317173004 0 31169443.317173004 5403788.3567008972 0 0 0 0 2165465.6309997407 424554.52129674703 0 424554.52129674703 570442.79358338658 0 0 0 0 1228543.4448647201 285406.44243907928 0 285406.44243907928 -716949.54459381104 0 0 0 0 18993615.701633453 25346842.712842941 0 25346842.712842941 -6557959.1787033081 0 0 0 0 2046360.578713025 457101.32130204514 0 457101.32130204514 630822.04312623898 0 0 0 0 27340042.83127594 27433746.918945312 0 27433746.918945312 -6036311.9449234009 0 0 0 0 879298.28799057007 12940478.683013916 0 12940478.683013916 8631396.9516143799 0 0 0 0 40061097.472627163 -27760193.231334686 0 -27760193.231334686 -73329548.026304245 0 0 0 0 32939427.984195709 -13067530.34405899 0 -13067530.34405899 -127595028.54604149 0 0 0 0 -10110793.203132272 7443081.4463086128 0 7443081.4463086128 -90219413.382915497 0 0 0 0 24520588.139263153 20018102.654825211 0 20018102.654825211 -65262285.33805275 0 0 0 0 1572874.1045846939 8078667.5212554932 0 8078667.5212554932 -118619946.93493652 0 0 0 0 4531007.0109438896 -12347594.669898987 0 -12347594.669898987 -94026962.563497543 0 0 0 0 -5281154.6008062363 -5715655.8015632629 0 -5715655.8015632629 -165355501.89567947 0 0 0 0 -1207540.5281654 32746611.330960035 0 32746611.330960035 -92795047.454963684 0 0 0 0 -2792284.5202550888 14096462.290859222 0 14096462.290859222 -57852000.561393738 0 0 0 0 25436730.833839893 24092480.002447128 0 24092480.002447128 -118907462.28636932 0 0 0 0 2581017.2822889001 -139381.20982096437 0 -139381.20982096437 -61920.939237856306 0 0 0 0 23338528.092916489 24930940.120891571 0 24930940.120891571 -97493085.936264038 0 0 0 0 8777501.0590801239 40723414.21736145 0 40723414.21736145 -40568899.278038025 0 0 0 0 -8397887.5163068771 1399941.0834617615 0 1399941.0834617615 -83169816.856800079 0 0 0 0 4170056.540507555 25402248.751326561 0 25402248.751326561 -97373928.322113037 0 0 0 0 2288728.0598918642 550881.78287338465 0 550881.78287338465 39079.079800968058 0 0 0 0 13916592.36617732 913228.79571914673 0 913228.79571914673 -3781649.8601932526 0 0 0 0 24245255.721726418 35981308.375873566 0 35981308.375873566 -69220108.693389893 0 0 0 0 25873113.569272041 53030446.563179016 0 53030446.563179016 -30282729.025821686 0 0 0 0 -6463077.9123482704 51321386.48828125 0 51321386.48828125 -28545957.984440804 0 0 0 0 2805226.0644191434 237840.8088974217 0 237840.8088974217 150528.37177184597 0 0 0 0 1060255.2589323521 -1477359.4334945679 0 -1477359.4334945679 -1487266.5808210373 0 0 0 0 4294819.1849148273 -4074225.7142372131 0 -4074225.7142372131 591555.12672245502 0 0 0 0 10464885.436313331 -964537.78283882141 0 -964537.78283882141 -1332185.389175415 0 0 0 0 5836267.6516239643 3931019.409412384 0 3931019.409412384 2322658.1699142456 0 0 0 0 6170654.8709335327 -7905402.6306304932 0 -7905402.6306304932 1053749.7183055878 0 0 0 0 -3890055.7131272554 -1024929.3266391754 0 -1024929.3266391754 743935.59841156006 0 0 0 0 1138805.7391843796 -1687456.9000816345 0 -1687456.9000816345 1473635.1596107483 0 0 0 0 3390502.8842248917 7569354.9710540771 0 7569354.9710540771 731384.8835067749 0 0 0 0 1036867.7332510948 880819.21941375732 0 880819.21941375732 -2757695.9985084534 0 0 0 0 1196455.3778176487 1086600.0034082644 0 1086600.0034082644 4793.088525434956 0 0 0 0 -2339658.5785820484 2096686.8709182739 0 2096686.8709182739 118487.11111831665 0 0 0 0 -20810.094158143795 -63208.657869561575 0 -63208.657869561575 84501.998679917771 0 0 0 0 770166.8663225472 -9591805.99079144 0 -9591805.99079144 -22774676.047924042 0 0 0 0 10248808.939352989 26866296.906847 0 26866296.906847 -11941993.548439503 0 0 0 0 -7603082.728343606 14321280.088208437 0 14321280.088208437 51387588.195838928 0 0 0 0 4479354.9133639336 39442970.929837227 0 39442970.929837227 27008142.8487854 0 0 0 0 -433849.71507893433 36457.581838944927 0 36457.581838944927 413287.67080372479 0 0 0 0 -1112683.2552084923 9042583.3649158478 0 9042583.3649158478 25385414.076431274 0 0 0 0 -8783445.4094028473 19847283.184345245 0 19847283.184345245 33354973.281726837 0 0 0 0 14915937.130572081 15235509.10490799 0 15235509.10490799 12986519.880187988 0 0 0 0 -352440.63717808621 185070.15500843152 0 185070.15500843152 707213.14014330041 0 0 0 0 -808266.95460796356 260434.75157737732 0 260434.75157737732 1004296.0367546082 0 0 0 0 4322309.7357649803 22456542.727006435 0 22456542.727006435 23459215.238037109 0 0 0 0 34954258.706121922 17588945.970809937 0 17588945.970809937 11776485.1837883 0 0 0 0 5690752.2344555855 23255919.552138329 0 23255919.552138329 48047796.616798401 0 0 0 0 248304.39933919907 5612290.6688461304 0 5612290.6688461304 11051494.370788574 0 0 0 0 1823228.6196055412 -3352575.4501075745 0 -3352575.4501075745 2717863.1880397797 0 0 0 0 -1338768.1366668551 -243315.45796725526 0 -243315.45796725526 1346240.6643824913 0 0 0 0 5360520.0078620911 25087773.082899094 0 25087773.082899094 33131406.849449158 0 0 0 0 -3685272.4798622131 -2861528.0019931793 0 -2861528.0019931793 29451546.418183088 0 0 0 0 -564403.52128891926 -470402.60774888797 0 -470402.60774888797 580750.36233561859 0 0 0 0 -1161384.4887247086 699693.74647331238 0 699693.74647331238 1094364.5462760925 0 0 0 0 -4441911.513495326 335410.81147670746 0 335410.81147670746 3133764.7947158813 0 0 0 0 -7270845.050990209 580646.18452072144 0 580646.18452072144 3983738.1231193542 0 0 0 0 -705343.20380771719 433691.1373615521 0 433691.1373615521 2131175.2980104126 0 0 0 0 -672586.64117980003 349717.31320381165 0 349717.31320381165 903191.41018772125 0 0 0 0 -96757.751446723938 436275.20915031433 0 436275.20915031433 904833.74964523315 0 0 0 0 -666213.95414876938 253804.53992080688 0 253804.53992080688 1359491.6602745056 0 0 0 0 62259172.307745934 -6884519.4000768661 0 -6884519.4000768661 180602320.19042969 0 0 0 0 -344815.66081213951 469212.54495239258 0 469212.54495239258 1439095.7347183228 0 0 0 0 -95556157.53821373 -139676849.19595337 0 -139676849.19595337 76086418.885437012 0 0 0 0 -1476205.9492899179 485616.96334648132 0 485616.96334648132 1361100.7823295593 0 0 0 0 -1053214.7884960845 543166.26940005179 0 543166.26940005179 831560.51704443805 0 0 0 0 12223221.577591419 16980793.100337982 0 16980793.100337982 44247288.170685768 0 0 0 0 -8956738.3883304596 7064789.386177063 0 7064789.386177063 155326927.19247437 0 0 0 0 -4190133.7016782761 -12795349.683097839 0 -12795349.683097839 56482703.663471222 0 0 0 0 -82714674.774826244 -154930557.68261027 0 -154930557.68261027 -6059117.1797027588 0 0 0 0 -100743513.56736016 -21710581.590858459 0 -21710581.590858459 97786669.549316406 0 0 0 0 -247220.29090287047 335053.94260469452 0 335053.94260469452 12974.321182914544 0 0 0 0 37676701.930803537 -134488572.81074142 0 -134488572.81074142 -159537994.04618835 0 0 0 0 52344231.406363964 -27138222.327568054 0 -27138222.327568054 1454762.0705022812 0 0 0 0 61295630.256228849 48196321.154727221 0 48196321.154727221 204970178.26933289 0 0 0 0 31009224.039896309 71439276.758223534 0 71439276.758223534 161412558.10055542 0 0 0 0 50663327.439611435 -58138897.384418488 0 -58138897.384418488 65408963.543693542 0 0 0 0 -20727723.18852663 -79279625.80610466 0 -79279625.80610466 85717772.453594208 0 0 0 0 60973986.146507025 109189405.91716385 0 109189405.91716385 137036991.3147583 0 0 0 0 -31731251.156059474 68444728.813037246 0 68444728.813037246 177574587.17598343 0 0 0 0 -18315749.216033936 45761826.997894287 0 45761826.997894287 169302305.1697464 0 0 0 0 29876299.76887612 46269842.474279165 0 46269842.474279165 118180628.93940735 0 0 0 0 31999090.7223351 -61745957.050437927 0 -61745957.050437927 88605261.898803711 0 0 0 0 8290643.3543273211 -991457.68821620941 0 -991457.68821620941 -5299663.23828125 0 0 0 0 -106810135.89949465 8195420.7660131454 0 8195420.7660131454 49098054.837303162 0 0 0 0 -56406591.736557245 -28360885.269599915 0 -28360885.269599915 44585233.743506432 0 0 0 0 -22998340.179810286 -22938155.928939819 0 -22938155.928939819 -70393546.032218933 0 0 0 0 -972286.44111630274 902206.74648460187 0 902206.74648460187 200290.33594838204 0 0 0 0 11555152.670235157 -3392984.6606121063 0 -3392984.6606121063 87025140.617591858 0 0 0 0 -48702767.288410902 -17007914.421397209 0 -17007914.421397209 -3972417.9166946411 0 0 0 0 2763411.0237107277 -5256440.7631340027 0 -5256440.7631340027 132666143.25973511 0 0 0 0 3729404.4204993248 14464917.139656067 0 14464917.139656067 105705587.44877052 0 0 0 0 -15731835.023340702 -13177611.019592285 0 -13177611.019592285 218007250.69330406 0 0 0 0 -611949.73697656696 768258.21065815166 0 768258.21065815166 694336.71896656603 0 0 0 0 -42119.463144600391 794114.54164135456 0 794114.54164135456 1524374.0493583679 0 0 0 0 -141388.92752790451 530956.11414337158 0 530956.11414337158 1345890.1714229584 0 0 0 0 -17256.028287676163 989854.44318187609 0 989854.44318187609 635417.05529009458 0 0 0 0 105423.94492983818 858854.42404413223 0 858854.42404413223 1534658.5889396667 0 0 0 0 -492950.06094609248 -92568.886909509078 0 -92568.886909509078 231054.17446825095 0 0 0 0 -50337861.748039246 -31563207.993408203 0 -31563207.993408203 17320871.150960922 0 0 0 0 -31460391.895084381 -73489424.907832146 0 -73489424.907832146 92343480.722633362 0 0 0 0 24477836.969261169 -11381061.15329361 0 -11381061.15329361 8939706.3948669434 0 0 0 0 -131072.2155213356 -101896090.20024395 0 -101896090.20024395 -336328991.27882385 0 0 0 0 -278026.26397098228 178665.10805611964 0 178665.10805611964 202503.66519348323 0 0 0 0 106697.31369234575 60836.234260214493 0 60836.234260214493 36899.27438945137 0 0 0 0 19522027.16940403 -78055871.354639053 0 -78055871.354639053 -121314460.68846893 0 0 0 0 329129891.99349618 247547175.84001637 0 247547175.84001637 -139297356.74132919 0 0 0 0 -88924.5624484492 -289365.13462972455 0 -289365.13462972455 1388963.6953435391 0 0 0 0 160515475.25858331 337175058.17465687 0 337175058.17465687 -127271772.07917786 0 0 0 0 -67841498.701712608 -279447218.17738533 0 -279447218.17738533 111888903.95355225 0 0 0 0 7576714.1250872612 -45552776.310073376 0 -45552776.310073376 -6514777.8123207092 0 0 0 0 -98808658.903720379 -92783721.764316559 0 -92783721.764316559 119097266.4677887 0 0 0 0 367541.73370933533 20251041.241535187 0 20251041.241535187 1573838.5419244766 0 0 0 0 7517438.7625579834 -16056451.001686096 0 -16056451.001686096 94301936.972503662 0 0 0 0 7531831.7101173401 -17516108.208374023 0 -17516108.208374023 161150933.09109116 0 0 0 0 6623908.7927548885 -49296148.792611599 0 -49296148.792611599 85671926.729949951 0 0 0 0 30003191.722358704 -10746126.239871979 0 -10746126.239871979 48002493.240911484 0 0 0 0 33055748.242888451 5227824.7086639404 0 5227824.7086639404 107715431.87447739 0 0 0 0 -17015852.981987953 7106229.1298942566 0 7106229.1298942566 123895500.68629837 0 0 0 0 -82600.030774703657 29119.853037272347 0 29119.853037272347 32222.983485147357 0 0 0 0 -4686827.5580806732 28181772.252969742 0 28181772.252969742 57660296.867725372 0 0 0 0 783289.76060124114 983220.1637248043 0 983220.1637248043 -522841.2811999172 0 0 0 0 -959617.97050666809 8953998.7006454468 0 8953998.7006454468 96952246.046142578 0 0 0 0 40837231.386815429 63394228.4281528 0 63394228.4281528 84872374.490249634 0 0 0 0 -83003754.728304863 -12227655.250405312 0 -12227655.250405312 79895963.92522049 0 0 0 0 -28197434.290642738 51929649.671398163 0 51929649.671398163 59096037.281078339 0 0 0 0 11084247.766597748 -27904410.147148132 0 -27904410.147148132 25645623.390846252 0 0 0 0 258600.26800890919 348895.44987539388 0 348895.44987539388 -177380.11596560897 0 0 0 0 6952834.2458524704 3320056.217124939 0 3320056.217124939 -22916354.590492249 0 0 0 0 7017117.6027040482 664049.79542541504 0 664049.79542541504 -8481104.0798187256 0 0 0 0 4978846.0025186539 -200223.2124004364 0 -200223.2124004364 -1726362.1335849762 0 0 0 0 -393506.2145430863 2257963.9802488894 0 2257963.9802488894 -104552.40148475394 0 0 0 0 1543499.7799506187 3615143.0219624043 0 3615143.0219624043 -4657337.1984481812 0 0 0 0 39127607.161342859 -6088021.7844078541 0 -6088021.7844078541 -1019423.9965362549 0 0 0 0 137268653.18384314 139712131.59110069 0 139712131.59110069 -53627256.967481613 0 0 0 0 -388662.55661780504 398615.62262595166 0 398615.62262595166 861469.75094718486 0 0 0 0 95983046.756965637 59752558.888908386 0 59752558.888908386 -48994574.032119751 0 0 0 0 62807047.090621948 185030741.36813354 0 185030741.36813354 -79964861.70791626 0 0 0 0 107645986.85797262 96639416.554109573 0 96639416.554109573 56187636.009056091 0 0 0 0 12792382.734697342 -54324314.331144333 0 -54324314.331144333 293728134.9480896 0 0 0 0 29427715.804421902 -42255024.659462929 0 -42255024.659462929 1297364.4106445312 0 0 0 0 -12672616.396573544 50075220.694791794 0 50075220.694791794 -62497679.996711731 0 0 0 0 3895552.4015903473 9435223.8834381104 0 9435223.8834381104 -10897911.022445679 0 0 0 0 77994745.805404663 -23272764.24628067 0 -23272764.24628067 -166479290.97555542 0 0 0 0 88084585.435878754 122260423.88954353 0 122260423.88954353 -89957734.913928986 0 0 0 0 98137248.647586823 76563031.862758636 0 76563031.862758636 -128846346.28340912 0 0 0 0 53698449.470080853 93063361.247067451 0 93063361.247067451 71656369.006019592 0 0 0 0 85590829.562144279 125082510.9120369 0 125082510.9120369 -70497149.18214798 0 0 0 0 -41024541.564323425 -80515438.500785828 0 -80515438.500785828 76259243.507110596 0 0 0 0 -460975.13494414231 -945714.70255422685 0 -945714.70255422685 4316114.8725284971 0 0 0 0 46159971.463115692 61417471.892314911 0 61417471.892314911 148656367.81903076 0 0 0 0 44419419.816236496 76866134.545446396 0 76866134.545446396 54593663.023509979 0 0 0 0 27561187.830503821 -4902732.6520180702 0 -4902732.6520180702 8007284.2684555054 0 0 0 0 -5623783.6767950058 2567734.5753097534 0 2567734.5753097534 9298773.1777954102 0 0 0 0 130233831.80653048 64017227.441347122 0 64017227.441347122 12466322.750236511 0 0 0 0 -1555673.0295462608 5108121.8846588135 0 5108121.8846588135 9065960.6548128128 0 0 0 0 4382002.7949085236 1911781.60414505 0 1911781.60414505 -3264140.7840442657 0 0 0 0 -103045.14863682585 -410474.4281440191 0 -410474.4281440191 1623276.0194357038 0 0 0 0 15225661.024266243 10470601.949983597 0 10470601.949983597 144338018.23111725 0 0 0 0 46045.719404745614 417362.98122042883 0 417362.98122042883 1507491.6450910196 0 0 0 0 35425636.530467987 7657876.5026359558 0 7657876.5026359558 195519090.95691299 0 0 0 0 33489949.198032379 23467938.159233093 0 23467938.159233093 104674705.53895187 0 0 0 0 10482797.769966125 110887734.85044289 0 110887734.85044289 25521809.961502075 0 0 0 0 139119556.13370991 -31924120.512111664 0 -31924120.512111664 164738032.05600739 0 0 0 0 3828977.7419137955 181704.82245826721 0 181704.82245826721 4703945.2797641754 0 0 0 0 -210448610.88920879 -97669358.762823105 0 -97669358.762823105 -40562926.859046936 0 0 0 0 -161440859.36545563 -63034649.325248718 0 -63034649.325248718 -146315909.48846436 0 0 0 0 -256187.74845256982 -44176.795406215824 0 -44176.795406215824 204631.50242323242 0 0 0 0 1766118.770142186 -405383.77202380821 0 -405383.77202380821 -107519.06423187256 0 0 0 0 4027677.9399251938 9088107.3956565857 0 9088107.3956565857 3785639.8021240234 0 0 0 0 73912442.531126499 35635644.863227844 0 35635644.863227844 21993121.183418274 0 0 0 0 34584015.966764927 58820884.158916473 0 58820884.158916473 54238920.98840332 0 0 0 0 -6640414.4835731983 -6400227.3747463226 0 -6400227.3747463226 86182408.63356781 0 0 0 0 8095429.6114654541 24286705.19618988 0 24286705.19618988 89736690.870803833 0 0 0 0 10248078.547204971 43045291.201080322 0 43045291.201080322 51548286.515716553 0 0 0 0 23624736.817376375 83926114.298184395 0 83926114.298184395 169684575.96225739 0 0 0 0 -4625163.2280144691 -25297051.432210922 0 -25297051.432210922 38041189.127563477 0 0 0 0 4792833.5257673264 -31477653.488307953 0 -31477653.488307953 18957524.816192627 0 0 0 0 -769111.26360949862 -1310313.0522993174 0 -1310313.0522993174 1074644.5652891137 0 0 0 0 90761388.634194374 54444436.465097427 0 54444436.465097427 33055338.189639091 0 0 0 0 36898588.135749213 106489090.37687004 0 106489090.37687004 68948270.270820618 0 0 0 0 -4970269.8648605347 111136617.55516815 0 111136617.55516815 3837588.0461578369 0 0 0 0 -44940156.970565319 -13784682.246921539 0 -13784682.246921539 2378288.9206409454 0 0 0 0 36904579.280023098 102711308.54727745 0 102711308.54727745 118506926.55432892 0 0 0 0 3876242.4485886469 2649640.001891315 0 2649640.001891315 1982424.2958602905 0 0 0 0 1841667.3152210072 280825.67944449512 0 280825.67944449512 2511100.8066245858 0 0 0 0 -237387.24118331898 -1096545.8134785565 0 -1096545.8134785565 566440.56478094682 0 0 0 0 -658214.92322859401 -530019.71339932177 0 -530019.71339932177 311121.99939067662 0 0 0 0 203822693.19946289 30586339.931900024 0 30586339.931900024 148809249.19151306 0 0 0 0 893040.50859086053 -633067.68662378006 0 -633067.68662378006 391895.77698963322 0 0 0 0 -1995253.1413412094 -2402952.7680053711 0 -2402952.7680053711 -1301263.9427032471 0 0 0 0 239499941.85560131 272902558.7678709 0 272902558.7678709 95578759.169387817 0 0 0 0 -264106358.71784782 -160222568.21308136 0 -160222568.21308136 501156895.51490021 0 0 0 0 25539814.161026478 -16178560.34362793 0 -16178560.34362793 -112963496.54999542 0 0 0 0 -162423875.07555389 -116409704.07205963 0 -116409704.07205963 279075269.61874771 0 0 0 0 761095.17285871506 -632848.66529083252 0 -632848.66529083252 -174036.84774780273 0 0 0 0 2176635.4216376026 -810994.12812286522 0 -810994.12812286522 718368.87515688222 0 0 0 0 2015505.1172323227 884729.01366424561 0 884729.01366424561 -950351.08145713806 0 0 0 0 -142328.94235643384 25292.5465185754 0 25292.5465185754 347041.05922412686 0 0 0 0 55285088.502036095 47387445.14907074 0 47387445.14907074 71261643.795313239 0 0 0 0 2384676.3584086103 620555.40962369833 0 620555.40962369833 338305.2215795964 0 0 0 0 138123499.33221579 90489575.328190804 0 90489575.328190804 1574955.0702667236 0 0 0 0 2077115.1365842782 -113148.48645656835 0 -113148.48645656835 181815.01386652514 0 0 0 0 75484544.499130487 54380755.474835038 0 54380755.474835038 27467702.18321991 0 0 0 0 133043933.96760559 51327089.317668915 0 51327089.317668915 5613727.8374862671 0 0 0 0 -246183.91798010468 2391459.089925766 0 2391459.089925766 3616527.4386749268 0 0 0 0 -1956790.7507948875 892145.87082672119 0 892145.87082672119 2230028.7388534546 0 0 0 0 3780204.3629627228 -2170037.9552574158 0 -2170037.9552574158 -2453874.9843177795 0 0 0 0 126750175.36397934 36225158.832014084 0 36225158.832014084 8835535.2575836182 0 0 0 0 1578328.9802107813 -144819.94737904752 0 -144819.94737904752 158436.23925647885 0 0 0 0 -386717.85803508759 3796798.0299339294 0 3796798.0299339294 1399252.9125671387 0 0 0 0 -4374170.0556755066 -1989922.1087913513 0 -1989922.1087913513 893185.16272735596 0 0 0 0 -33381.355321732117 9553.4482806846499 0 9553.4482806846499 95314.665746128187 0 0 0 0 -4231613.9112474918 2598633.3548736572 0 2598633.3548736572 2782822.9403209686 0 0 0 0 -2046671.8639755249 109315856.74935913 0 109315856.74935913 140068460.41789627 0 0 0 0 205120821.62333298 27039219.548171997 0 27039219.548171997 -6420536.03855896 0 0 0 0 123867039.48612881 75303807.785087585 0 75303807.785087585 68204940.474250793 0 0 0 0 196755.12714879471 -314472.22722436674 0 -314472.22722436674 -104852.42262361292 0 0 0 0 124293142.10111856 -3311294.2467288971 0 -3311294.2467288971 66259336.276229858 0 0 0 0 118986608.21570587 62271505.2914505 0 62271505.2914505 7835326.8308906555 0 0 0 0 223826136.78451443 80947094.481990814 0 80947094.481990814 8944595.6826477051 0 0 0 0 123571473.2933979 154505337.05353928 0 154505337.05353928 89204998.01473999 0 0 0 0 25846709.085727692 86317769.903907776 0 86317769.903907776 52138946.597091675 0 0 0 0 -62333837.284943581 35026657.790088654 0 35026657.790088654 97396843.059066772 0 0 0 0 36524025.244771957 76423575.152198792 0 76423575.152198792 46284803.902923584 0 0 0 0 32431311.562431335 74861288.290611267 0 74861288.290611267 18710771.453353882 0 0 0 0 87389848.689336777 113579358.830616 0 113579358.830616 39638122.616867065 0 0 0 0 37106503.190738678 79756022.11643219 0 79756022.11643219 7923722.607673645 0 0 0 0 36855931.545173645 72962824.729438782 0 72962824.729438782 450147.41108512878 0 0 0 0 -27873100.686542511 4954342.8746795654 0 4954342.8746795654 27660856.825164795 0 0 0 0 -1720530.766834259 32782948.206192017 0 32782948.206192017 1268287.3465065956 0 0 0 0 37052733.493493557 39944626.731494904 0 39944626.731494904 42623886.171192169 0 0 0 0 80622287.657961845 25702404.970165253 0 25702404.970165253 12774887.064388275 0 0 0 0 72584347.274111271 38072451.926139832 0 38072451.926139832 34224750.236118317 0 0 0 0 60047461.225536346 13643549.328784943 0 13643549.328784943 18764855.722484589 0 0 0 0 24099386.312003851 16954177.613523483 0 16954177.613523483 11151145.247676849 0 0 0 0 -41496539.688518524 22373729.499076843 0 22373729.499076843 31188940.973104477 0 0 0 0 -47155099.887087345 51218556.870803833 0 51218556.870803833 5160434.4749181271 0 0 0 0 -37658345.103201866 22392373.593139648 0 22392373.593139648 1318530.3023278713 0 0 0 0 -691366.04593018058 2601604.5943307336 0 2601604.5943307336 8641005.9232470654 0 0 0 0 -28904758.319288611 36508929.961133957 0 36508929.961133957 -30070398.929969788 0 0 0 0 -600174.70481043193 322370.46203479264 0 322370.46203479264 1271861.0777695887 0 0 0 0 79699837.736604184 28540837.336036921 0 28540837.336036921 -54550017.507858276 0 0 0 0 -53389616.464133739 8022279.5500984192 0 8022279.5500984192 19029699.016775131 0 0 0 0 -1972412.220498085 30935089.145282745 0 30935089.145282745 16075125.639877319 0 0 0 0 -3869789.2847042084 20855436.619426727 0 20855436.619426727 10188780.619750977 0 0 0 0 -34864982.531156063 22157217.32084465 0 22157217.32084465 22052858.049991608 0 0 0 0 -69241895.434998035 7035571.2234039307 0 7035571.2234039307 16927796.947527409 0 0 0 0 -79116171.79657197 25497587.452868938 0 25497587.452868938 23771728.569915771 0 0 0 0 -42559838.041510105 26651404.918539047 0 26651404.918539047 10304224.500061989 0 0 0 0 -39596931.21713376 12207164.114680529 0 12207164.114680529 25628416.698677063 0 0 0 0 5206224.6256790161 15943063.753997803 0 15943063.753997803 14760000.924987793 0 0 0 0 45954954.487630844 23129937.519260406 0 23129937.519260406 12404487.592449188 0 0 0 0 6234885.9577367306 20485059.216753006 0 20485059.216753006 26701449.644683838 0 0 0 0 86500821.053971291 17821085.874145508 0 17821085.874145508 14915367.636241913 0 0 0 0 45303954.000937462 31244381.089958191 0 31244381.089958191 11986454.923873901 0 0 0 0 42810126.178582191 38940467.25933075 0 38940467.25933075 3571137.8195943832 0 0 0 0 72725878.016897202 38672144.899715424 0 38672144.899715424 3344558.9364395142 0 0 0 0 2114590.5285775661 18842904.859959126 0 18842904.859959126 14154465.426353455 0 0 0 0 35428197.513700485 84398703.825927734 0 84398703.825927734 18451784.690866232 0 0 0 0 83015896.300680161 70931259.389614105 0 70931259.389614105 648046.79656982422 0 0 0 0 59182329.814052582 76449952.488601685 0 76449952.488601685 743478.28016090393 0 0 0 0 84662780.587156296 73383084.276702881 0 73383084.276702881 4240621.3033714294 0 0 0 0 110731597.70380116 49671764.121990204 0 49671764.121990204 -1980714.7998199463 0 0 0 0 64341438.056744576 50920342.563488007 0 50920342.563488007 -1866866.4793069363 0 0 0 0 56036210.406406403 54197365.124996185 0 54197365.124996185 10401216.993812561 0 0 0 0 51291158.926627159 60466080.467128754 0 60466080.467128754 2165533.0840358734 0 0 0 0 74892736.829492569 61141815.904449463 0 61141815.904449463 1255217.3803710938 0 0 0 0 43149255.541777372 69173805.601550102 0 69173805.601550102 15420542.022628784 0 0 0 0 44518408.19342804 72185986.882713318 0 72185986.882713318 6827588.7382202148 0 0 0 0 53720624.727677345 69650207.538696289 0 69650207.538696289 7437167.7983169556 0 0 0 0 39622110.887393951 76275308.422044754 0 76275308.422044754 7675277.1913299561 0 0 0 0 44531073.452409565 71882226.236237764 0 71882226.236237764 6539048.2108917236 0 0 0 0 36979453.670517385 67639363.579360723 0 67639363.579360723 15279869.197692871 0 0 0 0 36407380.380549431 59938826.358612061 0 59938826.358612061 29401104.822914124 0 0 0 0 37256004.560435295 54056676.890716553 0 54056676.890716553 18483162.618782043 0 0 0 0 36115162.09579277 49897435.746162415 0 49897435.746162415 10468258.429924011 0 0 0 0 27672638.001595497 52123701.973300934 0 52123701.973300934 40070162.336952209 0 0 0 0 24978172.399039268 44686050.113044739 0 44686050.113044739 25003682.540382385 0 0 0 0 26911331.105270386 56637236.533435822 0 56637236.533435822 28335839.353942871 0 0 0 0 27496374.507827997 60135507.070178032 0 60135507.070178032 48642946.658554077 0 0 0 0 -2292828.507517457 30591096.960185289 0 30591096.960185289 18668671.250282288 0 0 0 0 30955582.807482719 28357032.14913559 0 28357032.14913559 10343068.677448273 0 0 0 0 38488444.578323364 43837485.348648071 0 43837485.348648071 12627979.778682709 0 0 0 0 33854849.6903162 41582476.117045403 0 41582476.117045403 12106075.0623703 0 0 0 0 25574827.471890926 43264182.556526184 0 43264182.556526184 28390152.992904663 0 0 0 0 18333995.41357708 34502803.0663414 0 34502803.0663414 18167827.998985291 0 0 0 0 18574450.529629707 34502282.652931213 0 34502282.652931213 13670369.792644501 0 0 0 0 -4916161.8963971138 26022585.275737762 0 26022585.275737762 21864082.397310257 0 0 0 0 15176846.451046467 26264820.422072411 0 26264820.422072411 11583432.580482483 0 0 0 0 14309339.449263573 25272151.493797302 0 25272151.493797302 39891269.667427063 0 0 0 0 24084189.206922531 2676586.1358680725 0 2676586.1358680725 30389822.514484406 0 0 0 0 7317924.0490689278 11387579.349586487 0 11387579.349586487 25259105.197055817 0 0 0 0 19420604.07121563 29144454.895027161 0 29144454.895027161 25530729.177432537 0 0 0 0 19790363.185170174 33304915.986801147 0 33304915.986801147 47769509.771489143 0 0 0 0 4998595.9167205095 8389689.4856591225 0 8389689.4856591225 77465696.872028351 0 0 0 0 12768782.916898727 36832172.658452988 0 36832172.658452988 59954393.286701202 0 0 0 0 -42418418.94585371 -3032132.536939621 0 -3032132.536939621 78768603.052566528 0 0 0 0 8646811.4329918623 514287.96156167984 0 514287.96156167984 59683580.908683777 0 0 0 0 23483179.854431629 -54057322.048065186 0 -54057322.048065186 110581509.54278946 0 0 0 0 -134448.45552278101 -6922.1149222636595 0 -6922.1149222636595 102269.81896980293 0 0 0 0 40613139.145913601 -16775134.934083939 0 -16775134.934083939 51062520.908768654 0 0 0 0 12073022.056240082 -15139975.041809082 0 -15139975.041809082 43280807.424715042 0 0 0 0 19319926.502781391 13382425.889602661 0 13382425.889602661 18741349.026130676 0 0 0 0 19860114.786988735 -9180718.574388504 0 -9180718.574388504 81121219.885044098 0 0 0 0 26874864.215927124 -13857339.261327744 0 -13857339.261327744 39934979.663383484 0 0 0 0 4788570.6629781723 -14576574.42972374 0 -14576574.42972374 19738002.040779114 0 0 0 0 10860815.446741104 27483502.856712341 0 27483502.856712341 -103768535.01774979 0 0 0 0 17516421.489384055 -6853235.2892427444 0 -6853235.2892427444 -8712941.6555938721 0 0 0 0 -39423301.131532192 27603006.762125015 0 27603006.762125015 19305053.868804932 0 0 0 0 -2684049.9671459198 35576086.468730927 0 35576086.468730927 -6500110.5023026466 0 0 0 0 -38311184.191573635 14357624.454777956 0 14357624.454777956 9216368.7508049011 0 0 0 0 -5253169.2487732172 28244656.48353076 0 28244656.48353076 12029158.638916016 0 0 0 0 -37233426.387386203 29311772.716918468 0 29311772.716918468 13671247.910152435 0 0 0 0 -104885874.4985714 -30194316.609481812 0 -30194316.609481812 -3024712.715719223 0 0 0 0 -119269911.04002357 45744571.286651611 0 45744571.286651611 12157423.4753685 0 0 0 0 -63992176.795871258 94572250.311067581 0 94572250.311067581 24895638.102302551 0 0 0 0 -59340652.357635021 -92489183.421302795 0 -92489183.421302795 19471928.506959915 0 0 0 0 -36690433.120841026 23529477.626634121 0 23529477.626634121 125998770.34663391 0 0 0 0 46390077.422933578 -88979805.239202499 0 -88979805.239202499 5243492.5670928955 0 0 0 0 20607226.794420242 -30217981.506500244 0 -30217981.506500244 -3083650.5849685669 0 0 0 0 -16065570.682132721 -25465172.488771439 0 -25465172.488771439 117891396.99919128 0 0 0 0 44650304.982397079 -60422944.403324127 0 -60422944.403324127 58518655.751868248 0 0 0 0 -2265534.140417099 -945650.08470916748 0 -945650.08470916748 291946.45392608643 0 0 0 0 -396495.54337224574 165859.6346496949 0 165859.6346496949 445157.72721784748 0 0 0 0 34322930.302508354 -39494173.381874084 0 -39494173.381874084 62196441.021136761 0 0 0 0 1475977.3345441818 -19836125.370933533 0 -19836125.370933533 119256597.92308712 0 0 0 0 4138380.9464082718 1565815.5055446625 0 1565815.5055446625 -1074709.0190811157 0 0 0 0 -685450.2928427367 9865.7103659110144 0 9865.7103659110144 411672.43778425828 0 0 0 0 27988167.91263628 -78388396.442043304 0 -78388396.442043304 118112134.19446683 0 0 0 0 -175090.58539574128 29109.650933059864 0 29109.650933059864 244188.93225614727 0 0 0 0 62974877.962537289 -64426912.636604309 0 -64426912.636604309 66630382.77391243 0 0 0 0 24880843.096562386 -50478137.406059265 0 -50478137.406059265 72543394.344772339 0 0 0 0 22928771.015064478 -62871000.113510132 0 -62871000.113510132 69313339.984985352 0 0 0 0 14919517.705687761 -52093965.778266907 0 -52093965.778266907 76738792.184249878 0 0 0 0 44296317.166861534 -71957269.225399017 0 -71957269.225399017 85456079.927726746 0 0 0 0 49284211.792965889 -58909953.412315369 0 -58909953.412315369 68235450.068431854 0 0 0 0 44349029.833637059 -75391914.812543631 0 -75391914.812543631 95380911.876701355 0 0 0 0 40124077.164341927 -53892689.664001465 0 -53892689.664001465 73203558.609283447 0 0 0 0 56877895.715148695 -96281969.889151633 0 -96281969.889151633 112348896.21961212 0 0 0 0 57110801.376834393 -73907107.350563049 0 -73907107.350563049 82046142.288749695 0 0 0 0 73116616.041396916 -90841291.950496197 0 -90841291.950496197 87373090.685562134 0 0 0 0 45605568.273738384 -80863135.761255264 0 -80863135.761255264 96694104.141681671 0 0 0 0 83803948.908935547 -113392654.147995 0 -113392654.147995 110175757.36878967 0 0 0 0 68751375.885911942 -84731986.633922577 0 -84731986.633922577 73843169.500670195 0 0 0 0 43550788.683125734 -55626778.236890793 0 -55626778.236890793 69563896.866394043 0 0 0 0 65158351.487522602 -134446885.23428917 0 -134446885.23428917 158610644.20208549 0 0 0 0 51657276.866639614 -145363671.72154617 0 -145363671.72154617 151835711.45201302 0 0 0 0 85334915.906512618 -123478023.55216408 0 -123478023.55216408 118445869.1240387 0 0 0 0 63282334.567111909 -114369838.32832479 0 -114369838.32832479 138021796.4589653 0 0 0 0 65405239.260639191 -93817495.367338181 0 -93817495.367338181 112649004.45640564 0 0 0 0 50207408.642372608 -76347924.999410629 0 -76347924.999410629 93156345.516113281 0 0 0 0 40293482.534490347 -106174856.33114433 0 -106174856.33114433 126283786.6887207 0 0 0 0 33611467.929745674 -136569234.08491135 0 -136569234.08491135 147684228.03692627 0 0 0 0 34551634.095432281 -97626607.116428375 0 -97626607.116428375 117375817.4280777 0 0 0 0 63501069.266792774 -149069520.5629406 0 -149069520.5629406 147233934.33460999 0 0 0 0 35880803.267971039 -131886051.04142761 0 -131886051.04142761 154768363.70130157 0 0 0 0 -5941290.7700977325 -97407122.855709076 0 -97407122.855709076 143984536.26627827 0 0 0 0 16514428.207186937 -75595752.789628983 0 -75595752.789628983 111720419.32793427 0 0 0 0 12860160.82840538 -74093788.814022064 0 -74093788.814022064 113664468.32323837 0 0 0 0 24361469.22039032 -55867870.442760468 0 -55867870.442760468 84728375.049030304 0 0 0 0 35176000.158956528 -75779411.61125946 0 -75779411.61125946 98497791.369941711 0 0 0 0 17133282.867982864 -85412631.855880737 0 -85412631.855880737 124718599.73153877 0 0 0 0 8478349.9669523239 -53874347.704736233 0 -53874347.704736233 93183283.951911926 0 0 0 0 18476625.366033077 -60539517.289505005 0 -60539517.289505005 71811242.042224884 0 0 0 0 13697210.724782467 -54272504.275836945 0 -54272504.275836945 89098706.298793793 0 0 0 0 1111009.1402835846 554939.24432373047 0 554939.24432373047 740179.2420539856 0 0 0 0 8813722.6485123634 -35190773.296512604 0 -35190773.296512604 96267692.007835388 0 0 0 0 -5390515.1148376465 -2722013.3146095276 0 -2722013.3146095276 71493511.71868515 0 0 0 0 25788121.600653648 -43760647.535491943 0 -43760647.535491943 56701855.022331238 0 0 0 0 -279249.95311617176 -40036.070947359316 0 -40036.070947359316 177586.71103481203 0 0 0 0 14879546.289221287 -86465298.865666389 0 -86465298.865666389 85399527.551944733 0 0 0 0 -352317.70909865107 121156.91907960363 0 121156.91907960363 317830.9086618945 0 0 0 0 22732349.818653107 -51577658.738510132 0 -51577658.738510132 61383351.33020401 0 0 0 0 -22513564.26432085 -77824403.563634872 0 -77824403.563634872 156099065.18563843 0 0 0 0 -2209366.3719353676 -39244865.705244064 0 -39244865.705244064 75542327.143585205 0 0 0 0 -14762597.864212036 -40090621.090778351 0 -40090621.090778351 103332103.11653328 0 0 0 0 -7366740.8132505417 11094938.324550629 0 11094938.324550629 -16273905.561477661 0 0 0 0 -58730377.797137201 -28466052.219869137 0 -28466052.219869137 136214855.06636047 0 0 0 0 -62472935.546962261 3074442.5302734375 0 3074442.5302734375 119798262.90805054 0 0 0 0 21065676.141291142 -96105591.085559845 0 -96105591.085559845 171738052.80280972 0 0 0 0 4620357.0605759621 -10820690.022171021 0 -10820690.022171021 208105728.59854889 0 0 0 0 59541627.572755337 -68338328.662684441 0 -68338328.662684441 237228768.68881989 0 0 0 0 24820518.887326241 -64345799.862329483 0 -64345799.862329483 287311904.38894272 0 0 0 0 72412103.9614923 -206244593.98896885 0 -206244593.98896885 242770419.80278015 0 0 0 0 1107067.6929011345 -67533722.644659042 0 -67533722.644659042 157804466.94762993 0 0 0 0 12662901.527911901 -127711560.80882263 0 -127711560.80882263 190365990.10590363 0 0 0 0 40750345.887848616 -153473447.04940319 0 -153473447.04940319 161831811.335392 0 0 0 0 43760519.054324627 -147403927.88126183 0 -147403927.88126183 159246436.00766182 0 0 0 0 50392778.014273643 -165806431.64771271 0 -165806431.64771271 160889191.36828268 0 0 0 0 88690024.366454601 -138840770.36250973 0 -138840770.36250973 97820545.11580658 0 0 0 0 46738892.850105762 -158350429.0618782 0 -158350429.0618782 145788193.00791168 0 0 0 0 66283934.305578709 -155423024.54918861 0 -155423024.54918861 140486072.19469452 0 0 0 0 159548044.15288353 -70692828.140310287 0 -70692828.140310287 19451254.938481331 0 0 0 0 91133879.19051528 -151710411.02826023 0 -151710411.02826023 129579893.24633026 0 0 0 0 116241502.38030338 -167726108.23160744 0 -167726108.23160744 127402778.07944798 0 0 0 0 330152497.63968706 -131613721.26542282 0 -131613721.26542282 31643046.694385529 0 0 0 0 57500346.459207296 24901646.724467278 0 24901646.724467278 -582190.15936660767 0 0 0 0 73696.322979683639 -542250.97274554055 0 -542250.97274554055 1039561.7183433156 0 0 0 0 180319520.77060127 -295449044.14978123 0 -295449044.14978123 364182389.21556473 0 0 0 0 75309385.746329069 11863621.693608284 0 11863621.693608284 568640581.01755142 0 0 0 0 353920763.42539334 27302545.690101624 0 27302545.690101624 202669467.92417908 0 0 0 0 141276911.56065559 -52064135.171281815 0 -52064135.171281815 176022047.18476677 0 0 0 0 85465369.047807217 -22082129.091039658 0 -22082129.091039658 96180882.393821716 0 0 0 0 97963084.160865068 12000114.480481148 0 12000114.480481148 134825478.72364807 0 0 0 0 78374432.897545338 22593611.0555439 0 22593611.0555439 122557540.44104004 0 0 0 0 116713521.84481359 24321333.24093914 0 24321333.24093914 44112710.97492981 0 0 0 0 82628032.146173477 56564569.623718262 0 56564569.623718262 88254448.623687744 0 0 0 0 184898084.70635259 70444414.707078934 0 70444414.707078934 144006160.83325958 0 0 0 0 44927267.728999615 430536.00381755829 0 430536.00381755829 135350085.83501434 0 0 0 0 46632189.415776253 28073903.527877808 0 28073903.527877808 296378311.47027779 0 0 0 0 23990406.790802479 48822391.055715561 0 48822391.055715561 167697677.42560768 0 0 0 0 22238638.161879063 36076780.78587532 0 36076780.78587532 84440736.460906982 0 0 0 0 -1670470.7234997749 -39555583.776500702 0 -39555583.776500702 84179218.531352997 0 0 0 0 -11083167.818700314 44572315.229227066 0 44572315.229227066 105253262.52463245 0 0 0 0 13494447.253289223 54827844.285232544 0 54827844.285232544 99655048.407081604 0 0 0 0 38057528.887728691 72705235.871255875 0 72705235.871255875 70847676.546913147 0 0 0 0 46960588.491245508 61048214.66277504 0 61048214.66277504 55661197.388183594 0 0 0 0 8777351.2880499363 42391345.720171928 0 42391345.720171928 68852312.761383057 0 0 0 0 27149092.464915276 64788005.121006012 0 64788005.121006012 55041933.251991272 0 0 0 0 27868085.493367195 60623800.944705963 0 60623800.944705963 57877759.562561035 0 0 0 0 90864812.074597836 62554692.243476868 0 62554692.243476868 85814322.581279755 0 0 0 0 38195519.20407486 56852419.316848755 0 56852419.316848755 86457722.569965363 0 0 0 0 58818018.651546746 30503513.757344723 0 30503513.757344723 60466763.658416748 0 0 0 0 61018549.695210934 67667031.078287125 0 67667031.078287125 48030583.17432785 0 0 0 0 41247223.833145171 72441202.881864548 0 72441202.881864548 36639218.26410675 0 0 0 0 40198274.175380111 48336512.462649763 0 48336512.462649763 30330692.507720947 0 0 0 0 32857290.082691193 61890990.395042419 0 61890990.395042419 23499230.867479324 0 0 0 0 32320994.176133156 69112993.84985733 0 69112993.84985733 30525854.74420929 0 0 0 0 32408774.370178223 64538765.301467896 0 64538765.301467896 38557050.313774109 0 0 0 0 32700547.958643913 60284315.157917023 0 60284315.157917023 56931871.505573273 0 0 0 0 34427518.276567459 70598678.031246185 0 70598678.031246185 46020396.689453125 0 0 0 0 34638700.911561966 59535760.212223053 0 59535760.212223053 21186213.642002106 0 0 0 0 30698590.797689438 74903318.863643646 0 74903318.863643646 28326485.328033447 0 0 0 0 36880356.424933434 66901018.078471899 0 66901018.078471899 26200500.030349731 0 0 0 0 31983082.169318199 74470938.909248352 0 74470938.909248352 18364660.618179321 0 0 0 0 33536576.451811671 68621055.466391563 0 68621055.466391563 16664133.431274414 0 0 0 0 26655138.035547256 75665522.50435257 0 75665522.50435257 10199109.468711853 0 0 0 0 27631750.571361601 59559805.044770837 0 59559805.044770837 -1630001.8937072754 0 0 0 0 3380335.357436657 55959804.818122864 0 55959804.818122864 -1613997.6263580322 0 0 0 0 19667924.105070114 69832749.849803925 0 69832749.849803925 -13455708.330589294 0 0 0 0 22163198.502263069 61035179.550445557 0 61035179.550445557 1298139.8879852295 0 0 0 0 13601474.070065498 59235931.577342987 0 59235931.577342987 2628148.2242889404 0 0 0 0 31204850.406728745 78942744.750782013 0 78942744.750782013 6641657.7748031616 0 0 0 0 47650044.714945793 34603241.276953697 0 34603241.276953697 -7419068.3248291016 0 0 0 0 15446617.003967285 28795449.325192213 0 28795449.325192213 -7052404.8405227661 0 0 0 0 27605002.855355263 44778566.528999329 0 44778566.528999329 -1266805.3965644836 0 0 0 0 24214543.565887451 68434458.516498566 0 68434458.516498566 16895388.160219193 0 0 0 0 22425221.449777365 39632843.371509552 0 39632843.371509552 -40617089.235420227 0 0 0 0 21247671.569385529 58249547.192077637 0 58249547.192077637 -11495845.048830032 0 0 0 0 17813882.016558528 -3319222.9155216217 0 -3319222.9155216217 -27136233.699512482 0 0 0 0 35222054.296157837 36777532.617845535 0 36777532.617845535 -49486172.855714798 0 0 0 0 61776211.716886044 24933224.679574966 0 24933224.679574966 -15265940.371853828 0 0 0 0 67561892.566015244 -30745060.160590172 0 -30745060.160590172 -17862421.365119934 0 0 0 0 36784679.977540731 -16638501.660137177 0 -16638501.660137177 27958472.777339935 0 0 0 0 95053811.666781664 1493086.6862688065 0 1493086.6862688065 32946598.74042511 0 0 0 0 54635350.35435915 51502219.560043335 0 51502219.560043335 19258366.927776337 0 0 0 0 51500452.442133427 7302301.4171504974 0 7302301.4171504974 40359639.7786026 0 0 0 0 -16686680.968590736 -24521905.3620224 0 -24521905.3620224 78886768.171527863 0 0 0 0 24785561.163446903 -34361877.422224045 0 -34361877.422224045 4181.8871116638184 0 0 0 0 25620950.553851604 -62789381.833469391 0 -62789381.833469391 68470590.531806946 0 0 0 0 33059598.312252283 -8808866.0175857544 0 -8808866.0175857544 34543605.377586365 0 0 0 0 59934006.171260476 -48286254.500969887 0 -48286254.500969887 81710947.301143646 0 0 0 0 9724770.7979459763 -2053252.6939334869 0 -2053252.6939334869 -29504658.492031097 0 0 0 0 38806986.861595631 -44764489.965857506 0 -44764489.965857506 -60007487.172393799 0 0 0 0 -12039794.359479666 -42280182.027687073 0 -42280182.027687073 1676422.4877471924 0 0 0 0 -3784760.333293438 -28128562.822937012 0 -28128562.822937012 -46846265.664253235 0 0 0 0 -45653244.820274174 -56795148.378166676 0 -56795148.378166676 520774.36173439026 0 0 0 0 291752.21340154711 -550721.53103762679 0 -550721.53103762679 2468124.5450766385 0 0 0 0 -232950.06284177303 845240.01760673523 0 845240.01760673523 402506.26096343994 0 0 0 0 -11525336.990486562 3406662.7956504822 0 3406662.7956504822 14960916.823326111 0 0 0 0 -15561763.37039654 -57834012.154506445 0 -57834012.154506445 80104202.945930481 0 0 0 0 -37602483.806284428 -3179721.6326885223 0 -3179721.6326885223 -15187024.915500641 0 0 0 0 -54978578.520234823 -25251574.14071846 0 -25251574.14071846 238635335.22274399 0 0 0 0 -59719257.743433237 54080338.328430176 0 54080338.328430176 124486534.48618603 0 0 0 0 -51603966.317976013 42845377.714523792 0 42845377.714523792 -29338422.733287811 0 0 0 0 16651.117914718619 -354774.76188600808 0 -354774.76188600808 2022923.2557076365 0 0 0 0 -75861179.750326902 -15858372.177215576 0 -15858372.177215576 55368430.674842834 0 0 0 0 9280711.5136662126 83388693.761795044 0 83388693.761795044 379043803.55138016 0 0 0 0 39645.820356462791 -171405.2416832 0 -171405.2416832 191537.74595820159 0 0 0 0 -122009120.47103918 43578709.891471863 0 43578709.891471863 366588534.42132187 0 0 0 0 -102561582.91603518 -14106830.679523468 0 -14106830.679523468 536071130.61533737 0 0 0 0 -99152444.497494698 8400726.9076480865 0 8400726.9076480865 245839520.55605888 0 0 0 0 -28548617.345592976 -62945577.248838425 0 -62945577.248838425 252278836.96444321 0 0 0 0 -83891515.999588013 -34496846.935638428 0 -34496846.935638428 352783543.94882584 0 0 0 0 8300226.4127578735 -32198214.385810852 0 -32198214.385810852 91221985.511274338 0 0 0 0 -1465074.0345003605 -56717412.252506256 0 -56717412.252506256 124342533.39605331 0 0 0 0 -54393400.434279084 -9542305.7592275739 0 -9542305.7592275739 203238540.03862 0 0 0 0 134225631.22158432 -36910025.149755955 0 -36910025.149755955 82727514.709449768 0 0 0 0 53089187.636835098 -100905966.08966064 0 -100905966.08966064 196559549.73535156 0 0 0 0 -28744131.810575724 -60375832.690265656 0 -60375832.690265656 237015310.70049095 0 0 0 0 -110019089.08183861 -82123374.137414932 0 -82123374.137414932 525462070.04852486 0 0 0 0 150502884.87225723 -206430879.80249119 0 -206430879.80249119 349628934.6471138 0 0 0 0 -84148051.696487308 -30975885.529744625 0 -30975885.529744625 313354857.58899307 0 0 0 0 -113853591.17538857 -25154161.373571396 0 -25154161.373571396 351804515.91534424 0 0 0 0 -130845303.2180078 -29789729.420354843 0 -29789729.420354843 318889134.98559189 0 0 0 0 -30895107.935584307 126755261.61241531 0 126755261.61241531 379439436.63675976 0 0 0 0 -12599227.911927342 37544818.064053535 0 37544818.064053535 50130966.911186218 0 0 0 0 -58989123.154237628 -95057373.958017349 0 -95057373.958017349 -100420243.60002136 0 0 0 0 -55148475.481230259 -63469689.611031532 0 -63469689.611031532 26163714.801215649 0 0 0 0 -116493.7208178544 -1492177.1886724872 0 -1492177.1886724872 2696448.018408224 0 0 0 0 -26210256.747842789 -12613236.167274475 0 -12613236.167274475 30555891.609106064 0 0 0 0 -65520864.399879873 43973529.852380753 0 43973529.852380753 -29807220.858253479 0 0 0 0 -174998711.55944425 -7993547.8077745438 0 -7993547.8077745438 144451395.5025444 0 0 0 0 -74415401.569246292 -55552091.502075195 0 -55552091.502075195 161826098.8458004 0 0 0 0 -59086790.853654221 26145945.726708174 0 26145945.726708174 162948120.51184845 0 0 0 0 -24264936.800992012 -35523632.068994522 0 -35523632.068994522 92219800.547332764 0 0 0 0 -124183368.85887837 6671984.3531208038 0 6671984.3531208038 290087069.82242966 0 0 0 0 -105949005.64805913 -27848869.871900558 0 -27848869.871900558 299693909.20633459 0 0 0 0 -76373324.530919716 -23424238.211304188 0 -23424238.211304188 385516103.70355225 0 0 0 0 -90931630.499356806 -66355452.607049942 0 -66355452.607049942 376999992.70378876 0 0 0 0 9822833.9487733245 -27108181.011890411 0 -27108181.011890411 379852905.46447372 0 0 0 0 197377127.88730171 -11072342.329975128 0 -11072342.329975128 340206249.03110969 0 0 0 0 7523770.3733448982 8761874.1143226624 0 8761874.1143226624 340830436.50531793 0 0 0 0 64221452.32702601 44452126.549214363 0 44452126.549214363 253309421.18397141 0 0 0 0 -17156470.089635581 -9210651.2422676086 0 -9210651.2422676086 352901073.10604477 0 0 0 0 44672616.56531477 61192295.591197968 0 61192295.591197968 418334761.39518166 0 0 0 0 -1638927.358511284 21919700.496819496 0 21919700.496819496 247281953.17457962 0 0 0 0 65867911.872008413 -39532335.482645035 0 -39532335.482645035 260572762.81476974 0 0 0 0 -40536687.511330724 -25839128.681268692 0 -25839128.681268692 260344845.11618885 0 0 0 0 -20537851.191291809 16914810.677864075 0 16914810.677864075 117520319.69136906 0 0 0 0 42840145.33673045 -8395662.6265697479 0 -8395662.6265697479 127041674.95811844 0 0 0 0 25853149.540113263 5962332.1677522659 0 5962332.1677522659 29395332.340789795 0 0 0 0 16421312.782399237 -24178007.040388584 0 -24178007.040388584 17297028.516647339 0 0 0 0 18708230.866181456 14606636.546380997 0 14606636.546380997 68552764.493234634 0 0 0 0 -982952.44860985875 -6589918.8420906067 0 -6589918.8420906067 137397649.55661035 0 0 0 0 25018433.378494136 12924586.701871872 0 12924586.701871872 140292205.8454783 0 0 0 0 12462.727221488993 -21008200.053112984 0 -21008200.053112984 152667254.63208389 0 0 0 0 -26532588.147386394 17880781.085977554 0 17880781.085977554 320158531.41052246 0 0 0 0 -40675.738560270998 -20607657.099524498 0 -20607657.099524498 270560721.87681675 0 0 0 0 837186.97437053174 42511311.470899582 0 42511311.470899582 207915510.97710991 0 0 0 0 -28674470.515245363 -53707892.441959381 0 -53707892.441959381 333068536.28218269 0 0 0 0 -6087.2575911879494 -39454674.407627307 0 -39454674.407627307 291035601.93212128 0 0 0 0 77675.760031490485 -243274.83581188694 0 -243274.83581188694 520900.78761334717 0 0 0 0 1825913.7985862121 1592677.4816493988 0 1592677.4816493988 -4470238.2694225311 0 0 0 0 -28063090.889090613 -43193360.409422398 0 -43193360.409422398 455623970.14817047 0 0 0 0 111891176.15388411 -157617280.97621727 0 -157617280.97621727 221871068.61230087 0 0 0 0 55820626.572705269 -139523620.66740227 0 -139523620.66740227 647442333.48368073 0 0 0 0 51289.091241915652 -139158.21639825124 0 -139158.21639825124 288582.71476178616 0 0 0 0 55917207.023929 191079797.43807602 0 191079797.43807602 623012274.87794423 0 0 0 0 47467.574788686543 -361427.24033931643 0 -361427.24033931643 721793.81443172414 0 0 0 0 2100750.3855707869 248036.88979721069 0 248036.88979721069 -2793545.6592922211 0 0 0 0 13821.546321950853 -4307361.0585260391 0 -4307361.0585260391 5113583.1478233337 0 0 0 0 3463663.5901980773 -2286140.3440074921 0 -2286140.3440074921 5365533.6036996841 0 0 0 0 15944882.596820749 7464305.7320079803 0 7464305.7320079803 -6378785.4453582764 0 0 0 0 -3014323.9992244989 -4597774.4173803329 0 -4597774.4173803329 3994766.1121406555 0 0 0 0 -2179799.7642258592 -1851380.6741924286 0 -1851380.6741924286 16638604.471883774 0 0 0 0 38701.287708415723 -18802.364233693108 0 -18802.364233693108 -10013.186916258652 0 0 0 0 575524.29235583171 866366.01933288574 0 866366.01933288574 -1643499.5965423584 0 0 0 0 -707751.55505132675 394675.24185180664 0 394675.24185180664 328667.71732521057 0 0 0 0 109226.10401338055 1298.9650550894439 0 1298.9650550894439 -23918.276900020428 0 0 0 0 377042.55123302341 383799.67346572876 0 383799.67346572876 -524980.426902771 0 0 0 0 -2900038.4748321548 -1461884.1569061279 0 -1461884.1569061279 15021604.402323723 0 0 0 0 -56279.399455098108 190503.37047485262 0 190503.37047485262 754099.16376383044 0 0 0 0 19283.582747849483 112118.00286051072 0 112118.00286051072 649299.37116225436 0 0 0 0 75952.154926908828 444471.08549499512 0 444471.08549499512 2704238.6078453064 0 0 0 0 -18849.311668764884 46828.210331276059 0 46828.210331276059 349051.20171084767 0 0 0 0 125.32317598689501 90121.828102111816 0 90121.828102111816 350186.17633247375 0 0 0 0 -4485.5861578456179 1083830.8823852539 0 1083830.8823852539 3092154.7948303223 0 0 0 0 946967.17076100502 1178297.7090568542 0 1178297.7090568542 22217628.280208588 0 0 0 0 54315.978584171258 122291.70515034348 0 122291.70515034348 300911.18635292538 0 0 0 0 -10182.203068119472 -5918911.5964085562 0 -5918911.5964085562 10079612.463523865 0 0 0 0 2556502.234976586 -6830501.8885669708 0 -6830501.8885669708 5219392.8545379639 0 0 0 0 1279164.1658771413 -1296738.4142148495 0 -1296738.4142148495 8158787.1249313354 0 0 0 0 -2254332.6177982418 -1449346.4419727325 0 -1449346.4419727325 7755126.285118103 0 0 0 0 1860062.7107795225 965564.34361124039 0 965564.34361124039 8553646.0129165649 0 0 0 0 -23571636.383341026 -19917780.50558567 0 -19917780.50558567 43680739.083061218 0 0 0 0 18745143.170460291 -43289862.455881119 0 -43289862.455881119 -8165021.9037216902 0 0 0 0 -8525673.7606666498 -47280524.526386261 0 -47280524.526386261 65838126.805233002 0 0 0 0 -66695.672791057703 -22182521.262686729 0 -22182521.262686729 5422376.6214885712 0 0 0 0 41943987.353951134 -66299839.20221138 0 -66299839.20221138 62019380.266395092 0 0 0 0 -128285.0895062536 -24855546.206676483 0 -24855546.206676483 138477414.32357788 0 0 0 0 4083371.4505946664 -53456208.705226898 0 -53456208.705226898 49929392.677920818 0 0 0 0 -44248804.126301773 -18652304.49981308 0 -18652304.49981308 106361846.60053253 0 0 0 0 -38778500.969146401 -47271398.450006485 0 -47271398.450006485 33180039.989908218 0 0 0 0 -61576900.96185784 27983796.839702606 0 27983796.839702606 5537953.5568256378 0 0 0 0 -234986.16955279897 246019.2631648127 0 246019.2631648127 186777.09826415777 0 0 0 0 -115725830.85355611 23839191.318256378 0 23839191.318256378 -3772145.4064331055 0 0 0 0 -54683033.249143422 18869188.490509033 0 18869188.490509033 -18803396.051876068 0 0 0 0 -115548968.11498538 24685403.703477859 0 24685403.703477859 227853.31684494019 0 0 0 0 -17305324.007119834 -33102272.074954987 0 -33102272.074954987 -5632656.4235572815 0 0 0 0 -79493806.808289573 -8855765.7012252808 0 -8855765.7012252808 -3630751.0716245174 0 0 0 0 -72777016.029586032 -47865574.382833481 0 -47865574.382833481 -60562946.273006439 0 0 0 0 -18234956.419269957 -16668635.063919067 0 -16668635.063919067 -46319056.545886993 0 0 0 0 -130666972.05514309 38096868.098989487 0 38096868.098989487 -9170018.7652664185 0 0 0 0 -207112.62502124929 -40146.811710778624 0 -40146.811710778624 279667.73699619062 0 0 0 0 -4037298.2674641609 637223.49240112305 0 637223.49240112305 669155.46105957031 0 0 0 0 -71730055.755108342 3112888.8084106445 0 3112888.8084106445 -5353644.2947463989 0 0 0 0 -154898265.9999795 -7491734.0395545959 0 -7491734.0395545959 -6703307.4933204651 0 0 0 0 -104741459.96041402 -63704831.268059731 0 -63704831.268059731 -36465489.607021332 0 0 0 0 -111670200.54543619 -56306111.92305851 0 -56306111.92305851 -42073786.317005157 0 0 0 0 -74421547.396717176 494593.04630851746 0 494593.04630851746 -65812457.309230089 0 0 0 0 -23268368.654880937 -21326814.075033903 0 -21326814.075033903 -44942888.634101868 0 0 0 0 -20872083.473180264 -25965497.813371658 0 -25965497.813371658 -7725645.7273324728 0 0 0 0 10127831.021688705 -37264814.398358345 0 -37264814.398358345 -41839129.697681427 0 0 0 0 -8830205.7779347785 -14521750.250240326 0 -14521750.250240326 -51631061.663564682 0 0 0 0 34654.960434941328 -19874113.328972928 0 -19874113.328972928 -52549888.594871521 0 0 0 0 -4725446.5719997697 -14788279.334589005 0 -14788279.334589005 -47254780.528287888 0 0 0 0 -7078831.620199535 -24378027.841188431 0 -24378027.841188431 -51017292.536296844 0 0 0 0 -11162699.132019304 -11619093.402347565 0 -11619093.402347565 -34148356.54192543 0 0 0 0 -7063.9814214820963 -23046417.334385872 0 -23046417.334385872 -35989180.282529831 0 0 0 0 10436711.769603759 -11692062.889400482 0 -11692062.889400482 -11236412.634488225 0 0 0 0 -13021747.642992117 -19133563.55273819 0 -19133563.55273819 -11475545.643577576 0 0 0 0 -1396148.2469707169 -486123.05340600014 0 -486123.05340600014 27541784.819400787 0 0 0 0 -12885876.654263683 -17753047.338279724 0 -17753047.338279724 59590591.310538292 0 0 0 0 19795.230148423558 -24747128.425821304 0 -24747128.425821304 25950723.125114441 0 0 0 0 -26776223.317040086 -43172905.405424118 0 -43172905.405424118 25658589.913902283 0 0 0 0 -18233197.775173038 -39746062.174014091 0 -39746062.174014091 -21340357.68788147 0 0 0 0 -13942996.383502454 -13530053.67663765 0 -13530053.67663765 36637462.210705757 0 0 0 0 5354573.0107975118 -34616373.491555691 0 -34616373.491555691 -8343359.8665313721 0 0 0 0 -43545180.599260747 -27646813.302095413 0 -27646813.302095413 -7481705.0840415955 0 0 0 0 -39442589.475038365 -58337580.719934583 0 -58337580.719934583 -12844428.551582336 0 0 0 0 -92830845.689639479 -47838852.376394272 0 -47838852.376394272 -14903509.493434906 0 0 0 0 -19354996.824677691 -36257719.058792591 0 -36257719.058792591 -27318676.836864471 0 0 0 0 -22318225.511502907 -27764770.856615782 0 -27764770.856615782 -61142508.572284698 0 0 0 0 -67049489.842830792 -15795672.011053085 0 -15795672.011053085 -34911292.127529144 0 0 0 0 -59013708.625706188 -41890214.797290325 0 -41890214.797290325 -48988208.471378326 0 0 0 0 -75372435.771632373 -73582789.529735565 0 -73582789.529735565 -37628862.429474831 0 0 0 0 -14309448.186054707 -2224485.5435028076 0 -2224485.5435028076 11027818.331928253 0 0 0 0 -9390662.9794363976 -5555116.8550415039 0 -5555116.8550415039 -10172134.530754089 0 0 0 0 -13132483.338872433 -14523308.819374084 0 -14523308.819374084 13412114.000610352 0 0 0 0 -7057600.662358284 6749276.3758392334 0 6749276.3758392334 1496601.390007019 0 0 0 0 -365819.0042908293 -751836.62483197963 0 -751836.62483197963 2703883.59829152 0 0 0 0 1477507.8468706608 5247136.3482227325 0 5247136.3482227325 -3391382.0926513672 0 0 0 0 -47503241.341837436 -40113568.991957664 0 -40113568.991957664 -5074789.8500957489 0 0 0 0 -137803068.78006405 -76607477.27016449 0 -76607477.27016449 300931.8052482605 0 0 0 0 -78084188.465041816 -78677650.634994507 0 -78677650.634994507 -14719565.175598145 0 0 0 0 -86515469.321267903 -57898686.730599642 0 -57898686.730599642 1399262.7582778931 0 0 0 0 -60358111.719528854 -94695355.58008194 0 -94695355.58008194 -74590194.768409252 0 0 0 0 -82760642.848914385 21540467.190155029 0 21540467.190155029 -1878376.0934138298 0 0 0 0 -1568057.9890779944 -653856.67863883078 0 -653856.67863883078 1743829.2880017227 0 0 0 0 -2346618.7007294893 -1957790.0421504974 0 -1957790.0421504974 4116945.2593269348 0 0 0 0 6900345.3058180809 19787513.396211624 0 19787513.396211624 -7971972.1294441223 0 0 0 0 -233377.79668616643 -385819.65410941467 0 -385819.65410941467 631767.21150931809 0 0 0 0 -3854361.0950703621 -2228285.0831069946 0 -2228285.0831069946 6456324.2300853729 0 0 0 0 -676136.54957225942 -786857.7176617831 0 -786857.7176617831 2998211.6632380374 0 0 0 0 -793397.11603218317 -5699.2037529945374 0 -5699.2037529945374 4378164.6701564789 0 0 0 0 -2888639.011279583 -1367334.653837204 0 -1367334.653837204 4049762.9730987549 0 0 0 0 -2036464.3869698048 -2404096.5492687225 0 -2404096.5492687225 596048.40631484985 0 0 0 0 -669423.97938752174 -5322069.5541610718 0 -5322069.5541610718 -4855204.5061664581 0 0 0 0 -2887159.3153965473 -995734.0982542038 0 -995734.0982542038 4676.4814147949219 0 0 0 0 -1588529.6155247688 -7428691.5726966858 0 -7428691.5726966858 1878215.4272689819 0 0 0 0 -2967589.2739505768 -4392421.0792617798 0 -4392421.0792617798 -1347876.0444984436 0 0 0 0 1787659.4378795624 -4723674.1777992249 0 -4723674.1777992249 -2706010.3813400269 0 0 0 0 -3974054.5920290947 -1161948.0916557312 0 -1161948.0916557312 -4878708.6198196411 0 0 0 0 -11690596.903808832 -10242383.877606392 0 -10242383.877606392 -14816697.786987305 0 0 0 0 -3549414.3212177157 -7365923.3383512497 0 -7365923.3383512497 -16541385.670318604 0 0 0 0 980.85414778988343 -11712.291888334788 0 -11712.291888334788 11923.679607821745 0 0 0 0 -44353.420141462353 -51126.216689674184 0 -51126.216689674184 77564.942814556882 0 0 0 0 -5805889.0622606277 5465570.9063110352 0 5465570.9063110352 5331736.0381317139 0 0 0 0 -3371983.5963439941 -9074321.2732849121 0 -9074321.2732849121 -17652505.071807861 0 0 0 0 -167447.59042370738 55140.072135925293 0 55140.072135925293 198201.97092943068 0 0 0 0 138468.24207866192 -1998236.7406606674 0 -1998236.7406606674 1644031.2039260864 0 0 0 0 440602.76893401146 210111.70793151855 0 210111.70793151855 1765232.1226081848 0 0 0 0 -414431.94272862189 -78550.388954684138 0 -78550.388954684138 577970.29080779478 0 0 0 0 -482810.48829820764 43209.88079668954 0 43209.88079668954 651057.32757037506 0 0 0 0 -4649300.4790604115 -815384.322722435 0 -815384.322722435 1356317.5031890869 0 0 0 0 -4521469.2878046036 1429391.62550354 0 1429391.62550354 6059615.7378997803 0 0 0 0 -14582370.018810749 290599.77606582642 0 290599.77606582642 2443932.2380523682 0 0 0 0 -6966334.6022987366 3452867.3834762573 0 3452867.3834762573 -2041789.9111328125 0 0 0 0 20573.00096028042 -329343.28487266693 0 -329343.28487266693 191140.91026453581 0 0 0 0 -97445.349057197571 -135126.60218048096 0 -135126.60218048096 89161.607276916504 0 0 0 0 -306309.99610754265 -390407.12642195355 0 -390407.12642195355 1951469.962726 0 0 0 0 -891127.22460047528 -2191186.1339721084 0 -2191186.1339721084 3870153.5909614563 0 0 0 0 -24299.589480876923 -795187.35465431213 0 -795187.35465431213 82458.315502166748 0 0 0 0 -24885.600652333349 -317005.86492835917 0 -317005.86492835917 17658.354760298505 0 0 0 0 -270974.30779266357 -331854.74940490723 0 -331854.74940490723 -270656.41674804688 0 0 0 0 -153655.99021054071 -155146.18450495787 0 -155146.18450495787 1717.5949816983193 0 0 0 0 -216747.00099468674 -176937.24498227704 0 -176937.24498227704 956528.31213884498 0 0 0 0 -1084530.949993059 6192403.1771794856 0 6192403.1771794856 1752335.1507034302 0 0 0 0 -1060689.4666646654 -1509669.1461599413 0 -1509669.1461599413 1601125.5461426415 0 0 0 0 781822.51751041412 2879626.6961135864 0 2879626.6961135864 5035474.3996124268 0 0 0 0 -716294.73298922065 964923.09886369621 0 964923.09886369621 2288285.9725911282 0 0 0 0 3353891.9636718035 784889.61181640625 0 784889.61181640625 2643397.6204719543 0 0 0 0 -4450213.1007473469 4205021.2581572533 0 4205021.2581572533 2141918.3136100769 0 0 0 0 -2567667.6644935608 905860.36285209656 0 905860.36285209656 1358573.6225137711 0 0 0 0 180441.17014503479 -1270358.8124446869 0 -1270358.8124446869 5389135.7368245125 0 0 0 0 -1163457.9709565639 -366274.81781768799 0 -366274.81781768799 5220117.3229980469 0 0 0 0 -7481556.4898671508 1000068.6143255234 0 1000068.6143255234 12449220.691841125 0 0 0 0 -5062910.0717978477 5934101.6699867249 0 5934101.6699867249 -2456036.0684127808 0 0 0 0 -292301.59525400423 -67530.53211212717 0 -67530.53211212717 525727.44279072993 0 0 0 0 12548891.573152065 -12842263.872398376 0 -12842263.872398376 8114498.7307682037 0 0 0 0 -154473.06682071427 14835.928503370844 0 14835.928503370844 204020.61307610199 0 0 0 0 3282236.3418977261 -3569138.9170246124 0 -3569138.9170246124 -2670154.416437149 0 0 0 0 -13895802.153242588 24063083.070440292 0 24063083.070440292 -10166157.15045929 0 0 0 0 -10018526.26395607 4354223.1557044983 0 4354223.1557044983 10441242.801006317 0 0 0 0 -8429479.0645561218 -21527146.76128006 0 -21527146.76128006 -5664491.6119737625 0 0 0 0 2488786.132450223 -1016461.8630619049 0 -1016461.8630619049 -11475621.301322937 0 0 0 0 -139130.47730505664 -28265.478646903299 0 -28265.478646903299 188191.27287792228 0 0 0 0 -11358938.003756046 -23094472.59135437 0 -23094472.59135437 7222436.7550849915 0 0 0 0 -3301418.4971656799 2460773.8378295898 0 2460773.8378295898 2650934.2874526978 0 0 0 0 -6571548.7308809757 -3419042.8964691162 0 -3419042.8964691162 644541.74655151367 0 0 0 0 -621709.13952488615 -570128.09089884767 0 -570128.09089884767 2868149.3792974725 0 0 0 0 -682453.67591035366 -2629181.7445335388 0 -2629181.7445335388 -19805153.871993065 0 0 0 0 2010427.666785121 2327699.5348701477 0 2327699.5348701477 1575494.5057601929 0 0 0 0 -167241.88448396116 -452379.97533982201 0 -452379.97533982201 7916.8209868445992 0 0 0 0 -1192785.6678309441 365310.98260498047 0 365310.98260498047 433474.99615478516 0 0 0 0 -736596.92864621687 -886891.93512177095 0 -886891.93512177095 1553908.9720850457 0 0 0 0 -1838971.5370342731 1846645.3711299896 0 1846645.3711299896 -224858.95373153687 0 0 0 0 -467924.36811248172 1053936.3328753356 0 1053936.3328753356 534930.44611792639 0 0 0 0 -749240.2932439876 189917.04824364907 0 189917.04824364907 800094.9998608157 0 0 0 0 -840123.51373672485 -3091435.1554222107 0 -3091435.1554222107 7208794.2349824905 0 0 0 0 -3024948.232446909 -1869252.5180015564 0 -1869252.5180015564 7349639.2681465149 0 0 0 0 -1030664.2101123562 240870.21167245973 0 240870.21167245973 1914267.9412419721 0 0 0 0 -892698.99793243408 -1671030.292930603 0 -1671030.292930603 6107780.3974094391 0 0 0 0 -1924015.8991689682 131200.52320098877 0 131200.52320098877 -5799926.7370491028 0 0 0 0 -1390369.365472436 8214793.0180559158 0 8214793.0180559158 -793837.99379730225 0 0 0 0 9598202.2568011284 738559.93914413452 0 738559.93914413452 -5810714.3510140181 0 0 0 0 -21765080.783072948 25145753.36427784 0 25145753.36427784 -25859144.151874542 0 0 0 0 -7171069.2282220721 -2284047.641866684 0 -2284047.641866684 -1925357.0921211243 0 0 0 0 -295135.90932940849 224532.21968802018 0 224532.21968802018 425073.1584273316 0 0 0 0 -3279116.1611196995 -7435001.131444931 0 -7435001.131444931 -3914762.1229629517 0 0 0 0 16604184.420967937 -4381373.2786884308 0 -4381373.2786884308 -7156113.0532560349 0 0 0 0 24169590.702929735 18727620.535455704 0 18727620.535455704 1587522.3441572189 0 0 0 0 -23257021.006847471 -2363145.6465044022 0 -2363145.6465044022 72815217.119838715 0 0 0 0 -8832893.4625661373 4086496.0055122375 0 4086496.0055122375 996557.99565124512 0 0 0 0 -13262405.692416906 1927299.9695339203 0 1927299.9695339203 60129371.536006927 0 0 0 0 10687073.806748152 -844895.54372024536 0 -844895.54372024536 -7419234.5348931551 0 0 0 0 -6045492.6577019691 5812243.5142688751 0 5812243.5142688751 3484432.0602121949 0 0 0 0 -1974062.526128965 544175.61406968534 0 544175.61406968534 2518746.2798565617 0 0 0 0 -16954.619141697185 -276334.18905984052 0 -276334.18905984052 312550.29509550065 0 0 0 0 -4899313.1206542253 1176955.6118373871 0 1176955.6118373871 3036297.6291828156 0 0 0 0 -1748895.8548218012 1217174.0509471893 0 1217174.0509471893 1305080.3090591431 0 0 0 0 -3433143.509406209 1483514.2610588074 0 1483514.2610588074 4686824.326210022 0 0 0 0 -1448246.499724065 179093.45537462365 0 179093.45537462365 1735165.7904664278 0 0 0 0 -3223978.1973690987 -1255725.0262699127 0 -1255725.0262699127 4982211.8886528015 0 0 0 0 -8216310.7110210657 2001636.4150133133 0 2001636.4150133133 9399345.623052597 0 0 0 0 -7444124.7650067806 559973.62906455994 0 559973.62906455994 1891585.4322891235 0 0 0 0 2702588.3918737173 -3067506.2180747986 0 -3067506.2180747986 -2198384.6292114258 0 0 0 0 -786667.39305816696 1341759.7400415856 0 1341759.7400415856 1751521.6039083377 0 0 0 0 -2395819.4129724046 -262361.04373839963 0 -262361.04373839963 1665798.3022454162 0 0 0 0 -25477558.834295988 -10702663.113737106 0 -10702663.113737106 -2163487.8537420034 0 0 0 0 -1378011.7371714409 -566364.10413446371 0 -566364.10413446371 753667.00394198974 0 0 0 0 -21172873.087809324 30451193.076704025 0 30451193.076704025 -20472672.367358565 0 0 0 0 43985570.230803609 -13825995.562168121 0 -13825995.562168121 -54770461.980260372 0 0 0 0 -23988683.020027876 12289602.425699234 0 12289602.425699234 -4834310.8989616036 0 0 0 0 -442715.65250690177 -316839.78386749141 0 -316839.78386749141 201976.07972992177 0 0 0 0 -54506584.559759215 71212268.257758617 0 71212268.257758617 -28357800.862213135 0 0 0 0 -58900441.953338861 25558416.927145958 0 25558416.927145958 8965145.0164356232 0 0 0 0 -34209487.685799271 12684047.741083264 0 12684047.741083264 15028143.102180481 0 0 0 0 -128488069.58903909 -14343752.036512375 0 -14343752.036512375 20578053.445705414 0 0 0 0 -148619328.68895817 101616690.10681725 0 101616690.10681725 53797800.911203384 0 0 0 0 -142549966.36313719 29200652.760495663 0 29200652.760495663 107887503.36189651 0 0 0 0 -20961921.958097458 -21779342.569955826 0 -21779342.569955826 8441671.6888103485 0 0 0 0 -31453063.70804739 -23695992.121011734 0 -23695992.121011734 8577271.730840683 0 0 0 0 -37484625.737931132 -10003519.630058289 0 -10003519.630058289 8506160.0584526062 0 0 0 0 -16852844.975052238 6394983.3003072739 0 6394983.3003072739 1083353.9652099609 0 0 0 0 -4546359.7362189293 -192634.21209716797 0 -192634.21209716797 3180247.2985229492 0 0 0 0 -35020357.253898382 7727245.9598636627 0 7727245.9598636627 3184775.9592728615 0 0 0 0 -9763255.852216959 -3946321.1567659378 0 -3946321.1567659378 -7053332.2051944733 0 0 0 0 -7517494.4266171455 2517144.350728035 0 2517144.350728035 4910603.0863618851 0 0 0 0 2795523.7145855427 2482624.3256206512 0 2482624.3256206512 -2129468.2220573425 0 0 0 0 -3883166.6596751213 5089905.0914440155 0 5089905.0914440155 4548515.0055847168 0 0 0 0 -2446850.5769876502 -641335.62476856448 0 -641335.62476856448 1541337.0541645815 0 0 0 0 728489.2970430851 956943.70761489868 0 956943.70761489868 7766987.3156414032 0 0 0 0 -5893252.3551719189 2315513.3337039948 0 2315513.3337039948 16746483.815444946 0 0 0 0 -5973801.2931346893 -10498568.503856659 0 -10498568.503856659 9408933.4159271717 0 0 0 0 -2879514.6958708763 -8632144.7150821686 0 -8632144.7150821686 7610684.7477779388 0 0 0 0 -4297782.9051623344 6652194.0597267151 0 6652194.0597267151 8854208.8967418671 0 0 0 0 -195792.07812857628 -1759114.5400648117 0 -1759114.5400648117 -2454869.3321418762 0 0 0 0 55074.779420185834 -725464.4152115304 0 -725464.4152115304 782603.2999858465 0 0 0 0 666674.92585659027 -3760240.9037628174 0 -3760240.9037628174 -1869802.9817123413 0 0 0 0 1087407.9030462145 -852109.45741712302 0 -852109.45741712302 29566.460035480559 0 0 0 0 3264456.6396808624 6158728.3116221428 0 6158728.3116221428 -407545.15065383911 0 0 0 0 -2933852.5277404785 1935121.8701057434 0 1935121.8701057434 -924007.58695793152 0 0 0 0 1258412.8954362869 -2035445.7134475708 0 -2035445.7134475708 -3991052.4354705811 0 0 0 0 29084.49429753283 -658596.35705257487 0 -658596.35705257487 618671.09357488621 0 0 0 0 786637.44881928572 -1647014.6201772755 0 -1647014.6201772755 1164120.5710192937 0 0 0 0 -367530.3558242321 -1238082.4786138535 0 -1238082.4786138535 -472554.52090644836 0 0 0 0 -385289.56840419769 -1163916.0485992432 0 -1163916.0485992432 -601026.51718139648 0 0 0 0 -74601.472609397024 -86992.320390850306 0 -86992.320390850306 -119302.19884135574 0 0 0 0 -798296.56179046631 -1057789.2666778564 0 -1057789.2666778564 -1099931.5147285461 0 0 0 0 -29550.174596861354 -107011.70626761857 0 -107011.70626761857 -81564.249285889789 0 0 0 0 -1856000.678881526 -2662346.3249073029 0 -2662346.3249073029 -235599.43659973145 0 0 0 0 1727745.4616613388 44647.941871643066 0 44647.941871643066 -4079578.2701873779 0 0 0 0 -2799396.7440419197 -1350209.1194763184 0 -1350209.1194763184 1626633.9573974609 0 0 0 0 -2024052.8459086418 1060924.0306091309 0 1060924.0306091309 5561815.7480201721 0 0 0 0 -3075172.3072357178 -1657880.1957683563 0 -1657880.1957683563 4065705.7167263031 0 0 0 0 -237730.48371696472 461360.24263000488 0 461360.24263000488 226476.67174530029 0 0 0 0 -2576817.7954320908 -479608.68533706665 0 -479608.68533706665 4066165.2778015137 0 0 0 0 -3355444.1625070572 -2144856.5982627869 0 -2144856.5982627869 7106326.4538192749 0 0 0 0 -2660475.9338254929 -726034.48498535156 0 -726034.48498535156 9991930.4720201492 0 0 0 0 -841586.3051302433 2293732.3453512192 0 2293732.3453512192 8566029.2064590454 0 0 0 0 45758.289699077606 1459805.6274929047 0 1459805.6274929047 2862143.575630188 0 0 0 0 -3035390.8167799711 -3510737.1027498245 0 -3510737.1027498245 874063.34659957886 0 0 0 0 -65657.53459436819 -35797.575331922621 0 -35797.575331922621 32889.476686069742 0 0 0 0 -63248.543327772291 -43548.939973413944 0 -43548.939973413944 4461.1743072103709 0 0 0 0 10329512.780921936 -676559.29412078857 0 -676559.29412078857 7219294.5868377686 0 0 0 0 9783509.1413002014 -1045127.8032569885 0 -1045127.8032569885 -3103330.1158638 0 0 0 0 6455929.5670518875 -6935282.9685974121 0 -6935282.9685974121 -354567.31047821045 0 0 0 0 -5466225.9834480286 -4238013.2921447754 0 -4238013.2921447754 516329.98236083984 0 0 0 0 1695535.75949049 -11792518.173599243 0 -11792518.173599243 8438161.7017822266 0 0 0 0 -953361.38918328402 -128377.63066748437 0 -128377.63066748437 1098999.2547341716 0 0 0 0 52525299.607635021 -23196241.771515846 0 -23196241.771515846 -4098724.0053939819 0 0 0 0 10651819.408282757 -22698181.972070694 0 -22698181.972070694 34944994.10672617 0 0 0 0 12916722.64411211 -123976029.51681423 0 -123976029.51681423 168399558.30856705 0 0 0 0 31582967.386162281 -144511763.18789673 0 -144511763.18789673 188822950.84759521 0 0 0 0 34279108.230910897 -104000799.69545555 0 -104000799.69545555 121179208.8908844 0 0 0 0 8853148.4023885727 -74043960.035925865 0 -74043960.035925865 95899235.068397403 0 0 0 0 22095464.52661562 -15077299.688228607 0 -15077299.688228607 48309326.268762589 0 0 0 0 -366059.85846985877 79247.54682140518 0 79247.54682140518 894353.3734580297 0 0 0 0 -286737.09379816055 -795599.8819732666 0 -795599.8819732666 2156172.0992279053 0 0 0 0 -5112778.7315782309 -2352570.9142549038 0 -2352570.9142549038 2684450.6234054565 0 0 0 0 -2875739.7956504822 -230689.68556213379 0 -230689.68556213379 3190529.5298690796 0 0 0 0 90296.399159260793 38229.530385743827 0 38229.530385743827 -126944.89940023888 0 0 0 0 1124847.4792327881 -920275.18196105957 0 -920275.18196105957 2141750.9812850952 0 0 0 0 820287.80561577249 -908890.30625799112 0 -908890.30625799112 311576.36292519979 0 0 0 0 -12043308.061085701 -19016780.642827034 0 -19016780.642827034 250324383.17796326 0 0 0 0 -117930584.75183487 -76829490.393764496 0 -76829490.393764496 1073789.2941513062 0 0 0 0 7136.34700848395 -27812.069294080138 0 -27812.069294080138 51456.949930489995 0 0 0 0 -38947182.481352806 -6585252.1725254059 0 -6585252.1725254059 -6103683.4847698212 0 0 0 0 -38068010.484457016 -7774098.9941539764 0 -7774098.9941539764 -5174116.0865631104 0 0 0 0 -154464941.18169594 1398964.8334617615 0 1398964.8334617615 9056121.1335697174 0 0 0 0 -12701603.087660313 30236450.338504791 0 30236450.338504791 -11359566.662134171 0 0 0 0 14516334.465145111 -14708595.720077515 0 -14708595.720077515 -8908831.3519134521 0 0 0 0 4814817.3955821991 2153001.524974823 0 2153001.524974823 -20192673.178787231 0 0 0 0 20713301.273246765 -25411327.601882935 0 -25411327.601882935 -3786743.524520874 0 0 0 0 -2388257.9195699692 -14727080.374761581 0 -14727080.374761581 38412114.099040985 0 0 0 0 -20951064.244848013 -19761175.419659615 0 -19761175.419659615 4051706.2574977875 0 0 0 0 -1637520.9835217847 -231346.30171269085 0 -231346.30171269085 748318.40581681661 0 0 0 0 -154454955.40587187 54216933.037834167 0 54216933.037834167 25218412.856567383 0 0 0 0 -81753778.038436413 -125442294.07443857 0 -125442294.07443857 -133848671.52641296 0 0 0 0 -603274.53236788046 -50740.743880579248 0 -50740.743880579248 218340.5417472478 0 0 0 0 11247490.247325897 -82925859.794096947 0 -82925859.794096947 -182433992.455616 0 0 0 0 -221397357.76626301 -241163488.94125175 0 -241163488.94125175 972606.98195648193 0 0 0 0 13201928.12239027 -44409095.06257534 0 -44409095.06257534 28436641.752346873 0 0 0 0 73251738.593136668 -277846362.76818943 0 -277846362.76818943 52144693.73551178 0 0 0 0 -1090416.0810105801 -153788795.73103333 0 -153788795.73103333 -14473535.876796722 0 0 0 0 -331861816.25908804 -47645457.850753784 0 -47645457.850753784 64537608.12789917 0 0 0 0 -128747332.70722604 -57953151.975573063 0 -57953151.975573063 50254103.766891479 0 0 0 0 -93886216.892522812 -141757673.69205093 0 -141757673.69205093 5796722.7032623291 0 0 0 0 -101261639.25813675 -86582351.11989212 0 -86582351.11989212 -5335469.4998130798 0 0 0 0 -91268925.995510578 -34220786.483337402 0 -34220786.483337402 -50891684.807819366 0 0 0 0 -3555588.8193955421 -152939498.45676804 0 -152939498.45676804 -137235489.71836185 0 0 0 0 204048.97321613715 -145660.48624174204 0 -145660.48624174204 357882.07497389615 0 0 0 0 -6662752.8303451538 -59556312.270927429 0 -59556312.270927429 375602757.61243057 0 0 0 0 -28521137.783205032 -76001367.912679672 0 -76001367.912679672 -193054974.60284138 0 0 0 0 90034683.850972414 -234246887.99720144 0 -234246887.99720144 228618730.39821625 0 0 0 0 93400117.058337212 -259905186.18113708 0 -259905186.18113708 -19898968.998720169 0 0 0 0 120377115.61442041 -117986767.47707146 0 -117986767.47707146 136978012.00917816 0 0 0 0 90835442.897008419 -138601308.16550446 0 -138601308.16550446 129587369.1104455 0 0 0 0 31533628.945688248 -150514650.36330223 0 -150514650.36330223 340600290.42346573 0 0 0 0 118036833.93546742 -202748835.57330447 0 -202748835.57330447 195275930.02568436 0 0 0 0 109453971.04205084 -117484467.53502274 0 -117484467.53502274 91572347.007628918 0 0 0 0 68767893.601975441 -80059886.576618195 0 -80059886.576618195 85261408.209579468 0 0 0 0 99916925.42553854 -149479141.48527718 0 -149479141.48527718 140951211.69110489 0 0 0 0 79853767.637554646 -115014221.1295433 0 -115014221.1295433 110130043.03622818 0 0 0 0 98189993.458326817 -202830987.9402914 0 -202830987.9402914 74142507.487876892 0 0 0 0 87360135.837727547 -97674986.434654236 0 -97674986.434654236 79288080.056493759 0 0 0 0 192297877.48505729 -89460403.874478817 0 -89460403.874478817 79729932.658111572 0 0 0 0 167572502.10787964 -131258509.78154707 0 -131258509.78154707 45746497.968351364 0 0 0 0 214803132.99097109 -173045635.57383442 0 -173045635.57383442 28792523.042348862 0 0 0 0 425227611.65170622 -39594512.724452972 0 -39594512.724452972 36216879.213975072 0 0 0 0 178795408.30335355 95732522.081363201 0 95732522.081363201 388970812.07734871 0 0 0 0 65767110.930821419 -94695115.831289291 0 -94695115.831289291 86278471.309194565 0 0 0 0 126273047.21199977 -239442316.5827105 0 -239442316.5827105 333486286.18773651 0 0 0 0 427129296.22735691 92086073.759840012 0 92086073.759840012 18525663.36007309 0 0 0 0 39541.943100313423 125344.60277965781 0 125344.60277965781 1201478.5051096138 0 0 0 0 211658327.72628236 -278093661.33050632 0 -278093661.33050632 295932648.52067566 0 0 0 0 -338831449.17371678 -106376511.16217232 0 -106376511.16217232 179312901.84801102 0 0 0 0 -139658942.05398273 53398973.387708664 0 53398973.387708664 161865269.32945228 0 0 0 0 -72559156.702024937 40035185.418577194 0 40035185.418577194 110346805.21315002 0 0 0 0 -39661154.466628075 177969163.50493717 0 177969163.50493717 395787636.46751332 0 0 0 0 -173308747.76078796 157586671.58588791 0 157586671.58588791 68183435.601506233 0 0 0 0 -138605644.91664219 45249882.889480591 0 45249882.889480591 131843488.67363739 0 0 0 0 -70884272.602116346 164523622.37026596 0 164523622.37026596 -206761505.59012794 0 0 0 0 -117886951.34504175 190041614.22026062 0 190041614.22026062 -9722384.9787158966 0 0 0 0 41551864.338986874 36761055.443263054 0 36761055.443263054 -139037643.19590378 0 0 0 0 192881352.93733931 20718548.102095604 0 20718548.102095604 -39635826.109089613 0 0 0 0 -17219.914749512973 546382.31227551936 0 546382.31227551936 3423925.6731321365 0 0 0 0 -51099934.311328292 -48791549.768436193 0 -48791549.768436193 95120276.464082718 0 0 0 0 59268030.647757173 91643600.62546277 0 91643600.62546277 23153095.123159409 0 0 0 0 13775673.15148735 61107621.695001602 0 61107621.695001602 688450.3109254837 0 0 0 0 14992762.915994167 53316201.299516678 0 53316201.299516678 50297938.18378067 0 0 0 0 -254970.38348496141 943411.68837558385 0 943411.68837558385 5488171.6702338029 0 0 0 0 28200022.102537513 70814156.041802645 0 70814156.041802645 6930025.863319397 0 0 0 0 -80828933.83399266 -4522952.0858999491 0 -4522952.0858999491 1062476.2694244385 0 0 0 0 22864314.166028976 89249938.075279236 0 89249938.075279236 -25662148.454185486 0 0 0 0 10008253.57403636 91056525.393208504 0 91056525.393208504 26000367.021175385 0 0 0 0 2817857.7934536934 99066672.901412964 0 99066672.901412964 57430921.803537369 0 0 0 0 -47798056.750428557 30252230.042612076 0 30252230.042612076 115953467.87254333 0 0 0 0 -169314282.97603554 68797879.025914669 0 68797879.025914669 119847858.78463364 0 0 0 0 -89600923.762670279 82699271.283653259 0 82699271.283653259 103918404.31295776 0 0 0 0 -23667952.561622143 12039838.225723267 0 12039838.225723267 159498952.67481613 0 0 0 0 -33431354.289779186 45529422.09623909 0 45529422.09623909 72483474.227912903 0 0 0 0 -22477156.867768764 -714348.80222606659 0 -714348.80222606659 160210289.48189545 0 0 0 0 53953.529272015207 -463942.98347994313 0 -463942.98347994313 116145.14057284733 0 0 0 0 16906863.331081033 -36033722.961177826 0 -36033722.961177826 47449821.009801865 0 0 0 0 -21411230.495857835 -26641250.930749893 0 -26641250.930749893 104503002.3993988 0 0 0 0 -8905029.4772677422 1324393.0642051697 0 1324393.0642051697 116258024.58451271 0 0 0 0 -20990120.436038017 -20880388.02904129 0 -20880388.02904129 131796841.80642319 0 0 0 0 -9174192.1409759521 -3738965.0709457397 0 -3738965.0709457397 90268833.931983948 0 0 0 0 320154.2669615827 -890983.82236432657 0 -890983.82236432657 182597.42814744916 0 0 0 0 -8691982.1899591684 18655169.854460716 0 18655169.854460716 -34283725.094894409 0 0 0 0 365329.7170563509 -586983.80003191996 0 -586983.80003191996 -1020857.4517594203 0 0 0 0 -8574869.1744837761 -21553152.557830811 0 -21553152.557830811 -23293959.468589783 0 0 0 0 8531099.8187665939 -12203143.361486435 0 -12203143.361486435 -15627210.1873703 0 0 0 0 8681516.1030621529 -2936465.147611618 0 -2936465.147611618 -28891467.122982025 0 0 0 0 5587176.8397223949 -22006535.877527714 0 -22006535.877527714 -24694322.700397491 0 0 0 0 10917088.162618876 -34277224.647012234 0 -34277224.647012234 256865.49280166626 0 0 0 0 4567209.4270601273 -9980758.7262935638 0 -9980758.7262935638 -14388415.80730629 0 0 0 0 22267054.855243683 -14531931.310705185 0 -14531931.310705185 -21598579.700630188 0 0 0 0 4840043.377448082 -26349121.771278381 0 -26349121.771278381 122639806.57642555 0 0 0 0 17333760.691997528 -4952145.5189933777 0 -4952145.5189933777 10847587.967057228 0 0 0 0 -766023.35828571056 1082179.3258337779 0 1082179.3258337779 7524266.171183873 0 0 0 0 -82953891.095874786 21636268.148310661 0 21636268.148310661 79193726.925275803 0 0 0 0 -204892516.39585078 -51678538.44930172 0 -51678538.44930172 -26114539.861713409 0 0 0 0 -1886803.631985422 439568.69039894547 0 439568.69039894547 9594400.5368492883 0 0 0 0 -288710694.737885 59513277.13812542 0 59513277.13812542 234998472.45101929 0 0 0 0 -32451834.116234779 -23628675.544489861 0 -23628675.544489861 1603743.3283615112 0 0 0 0 -2924423.5816315785 -3817181.22789005 0 -3817181.22789005 1783102.9328634164 0 0 0 0 -6968138.6489417553 -10200732.981125832 0 -10200732.981125832 1511253.3757972717 0 0 0 0 -24401994.842818737 94006362.69969368 0 94006362.69969368 299869750.82788658 0 0 0 0 130805525.68227649 -56602816.338777542 0 -56602816.338777542 -168576179.32803774 0 0 0 0 26735304.88646489 -144101187.19762421 0 -144101187.19762421 475107662.19317436 0 0 0 0 -391285.67618143564 -1237142.2850073483 0 -1237142.2850073483 1490764.4597552363 0 0 0 0 -104150112.15518913 -7481578.163266778 0 -7481578.163266778 926474138.00473213 0 0 0 0 -81331616.44912377 -65003485.625353336 0 -65003485.625353336 453811165.08185959 0 0 0 0 -81839037.931279525 207555500.95264244 0 207555500.95264244 758735496.48916245 0 0 0 0 -158600592.08253443 251739036.97227478 0 251739036.97227478 944676204.73213577 0 0 0 0 -44580588.227450743 262036367.75758934 0 262036367.75758934 903156485.44156647 0 0 0 0 -90865068.39081578 163635430.38990688 0 163635430.38990688 803434401.48092842 0 0 0 0 500055023.12062812 450011866.29381943 0 450011866.29381943 945758764.15434265 0 0 0 0 409659095.41675884 526366411.97546244 0 526366411.97546244 311034977.42114258 0 0 0 0 253578715.18636483 187624562.87136412 0 187624562.87136412 -135072282.5817337 0 0 0 0 -51118258.192768723 349882396.53299999 0 349882396.53299999 671594166.68318176 0 0 0 0 -50143919.539499439 407768315.51971817 0 407768315.51971817 947885363.94324541 0 0 0 0 -82385236.59339346 135432607.68368289 0 135432607.68368289 601319963.79740715 0 0 0 0 28064961.411163058 232291434.91315842 0 232291434.91315842 453219188.17279434 0 0 0 0 86031872.002843753 83418194.283583641 0 83418194.283583641 150013556.28016472 0 0 0 0 57868461.458177388 120877276.68947411 0 120877276.68947411 273869586.94839132 0 0 0 0 129290500.18926066 30814677.405870438 0 30814677.405870438 34069945.675319672 0 0 0 0 38602772.093091249 -37965478.132595539 0 -37965478.132595539 -15864949.401313782 0 0 0 0 -58587811.346935749 -73337451.691196918 0 -73337451.691196918 -3313500.2720832825 0 0 0 0 -10274106.136856802 24218461.599503517 0 24218461.599503517 190550797.2769928 0 0 0 0 40574842.919967934 -78512932.292564392 0 -78512932.292564392 -28186989.483058929 0 0 0 0 -70602849.894157141 -26255772.769312859 0 -26255772.769312859 235732817.7147522 0 0 0 0 -1997514.016025706 -4418481.4378067162 0 -4418481.4378067162 894975.28692952264 0 0 0 0 -4589516.248601675 1003986.8049945831 0 1003986.8049945831 -10615415.006931305 0 0 0 0 47125649.483013451 2024580.8849744797 0 2024580.8849744797 -113690315.32557774 0 0 0 0 -1287361.5134081955 -2314137.7572016814 0 -2314137.7572016814 2363361.9575347677 0 0 0 0 -1060827.3929723501 -1806478.6926183701 0 -1806478.6926183701 696643.87544631958 0 0 0 0 -743085.96153247834 -1524208.8741813721 0 -1524208.8741813721 1028591.8319468414 0 0 0 0 197733.55815505981 -6601899.149887085 0 -6601899.149887085 -29083878.118601799 0 0 0 0 -1324721.7601090074 -870033.39349651337 0 -870033.39349651337 2064108.5102539062 0 0 0 0 -726585.52509027719 -1176156.4220275879 0 -1176156.4220275879 969702.51034545898 0 0 0 0 -1473477.5469525158 -898988.83571434021 0 -898988.83571434021 1322922.4741668701 0 0 0 0 -1231809.829410255 -1626979.975982666 0 -1626979.975982666 575555.0217666626 0 0 0 0 -101509081.58135176 54655106.212415695 0 54655106.212415695 -9517302.3938531876 0 0 0 0 -87050486.108377934 -31826035.867892742 0 -31826035.867892742 35266903.695180893 0 0 0 0 -70529312.938084841 3112146.8065567017 0 3112146.8065567017 71499176.694343567 0 0 0 0 -73732125.294722319 -41083550.487462997 0 -41083550.487462997 59737852.047279358 0 0 0 0 -1870467.2612133822 -989454.25718335388 0 -989454.25718335388 3318486.6511780843 0 0 0 0 -1848506.4386826456 -1362893.5364234447 0 -1362893.5364234447 938887.22044372559 0 0 0 0 -1969674.780454874 -1854395.182975769 0 -1854395.182975769 703822.74915122986 0 0 0 0 -981214.64035305486 -1436207.6686878027 0 -1436207.6686878027 3191489.4112919774 0 0 0 0 498027.79264278681 975936.44562617969 0 975936.44562617969 2154293.4235941125 0 0 0 0 -8644.693183467185 -243620.52785784844 0 -243620.52785784844 578413.14299361408 0 0 0 0 -74163398.817259252 -161172310.36341476 0 -161172310.36341476 870793970.96315002 0 0 0 0 25605505.879196327 567065782.76620483 0 567065782.76620483 943717554.14471626 0 0 0 0 73483564.633810803 208319014.02160835 0 208319014.02160835 590867444.13899231 0 0 0 0 371474.90968799859 307124.97063492704 0 307124.97063492704 652344.06204737164 0 0 0 0 -35982191.324211299 -41497079.254955292 0 -41497079.254955292 1232985072.6987858 0 0 0 0 -91492750.569500148 -291084448.29654884 0 -291084448.29654884 943174007.74863815 0 0 0 0 -139127424.83676624 -45556982.47845459 0 -45556982.47845459 464656806.74976158 0 0 0 0 -943492.16260093451 -811408.19894886017 0 -811408.19894886017 871268.44313430786 0 0 0 0 196282157.08685067 -281713338.84821892 0 -281713338.84821892 430574016.28575897 0 0 0 0 860429747.14270091 -350676027.66293335 0 -350676027.66293335 -331714610.19680786 0 0 0 0 -397962.33455406612 -1188158.7752410178 0 -1188158.7752410178 329934.39283546433 0 0 0 0 -387869.46196520486 -983558.88597758557 0 -983558.88597758557 121499.97333454527 0 0 0 0 67199391.781556919 29498468.711362839 0 29498468.711362839 -86154555.891708374 0 0 0 0 -585276.34162711387 -2207494.5971966954 0 -2207494.5971966954 1362474.6434949664 0 0 0 0 26383226.044497743 28427888.499489784 0 28427888.499489784 -33222784.072662354 0 0 0 0 -20977274.774526477 -148365163.43086171 0 -148365163.43086171 398296275.20772552 0 0 0 0 -150523.32113002706 -2332205.1657823464 0 -2332205.1657823464 937594.93100319616 0 0 0 0 1312053.1742719561 -3148921.819660902 0 -3148921.819660902 -1696017.6828575134 0 0 0 0 -1904572.2703689337 -1321112.9617347717 0 -1321112.9617347717 909932.3546333313 0 0 0 0 -1050050.9206457308 -1379269.8943789208 0 -1379269.8943789208 2631182.3941530269 0 0 0 0 -5798697.4794164896 -6305660.2255973816 0 -6305660.2255973816 4050030.0002861023 0 0 0 0 2292140.3547585607 -7146659.9041523933 0 -7146659.9041523933 696220.39447021484 0 0 0 0 -1340330.1523922682 -1127966.6291828156 0 -1127966.6291828156 1428438.9328546524 0 0 0 0 -24150831.362647772 -4464489.6108341217 0 -4464489.6108341217 16174432.143913269 0 0 0 0 -978607.6363209167 -381464.91798497958 0 -381464.91798497958 2510726.5400950257 0 0 0 0 -14040577.326076508 -1237866.3800010681 0 -1237866.3800010681 1087011.0298531055 0 0 0 0 -21193325.805875301 -8254159.1988182068 0 -8254159.1988182068 16677612.616218567 0 0 0 0 -30529260.97357893 7294749.7207183838 0 7294749.7207183838 -4579177.5107727051 0 0 0 0 10649632.362662852 -4018549.467959404 0 -4018549.467959404 -1770984.1610069275 0 0 0 0 1449777.2129365662 -1131159.3173346519 0 -1131159.3173346519 -836544.12900812179 0 0 0 0 3342337.4264367819 -17660090.978513718 0 -17660090.978513718 12750734.290786743 0 0 0 0 -6459909.9276287556 8272136.6480121613 0 8272136.6480121613 -60373544.845552444 0 0 0 0 -19533888.51422435 -32257316.296306014 0 -32257316.296306014 -23344996.365524292 0 0 0 0 -22842985.186610401 -6100675.3235837221 0 -6100675.3235837221 1714363.8244819641 0 0 0 0 -41886073.376062036 111389911.80779648 0 111389911.80779648 73348985.757827759 0 0 0 0 -31967478.674785376 31815650.654104233 0 31815650.654104233 129729688.66175461 0 0 0 0 -17361543.908947945 83407181.098571777 0 83407181.098571777 181251239.25205994 0 0 0 0 269219311.04700357 -270240368.66685867 0 -270240368.66685867 -82746316.587677002 0 0 0 0 -23731944.049003363 129971684.58861542 0 129971684.58861542 614415880.00867462 0 0 0 0 401457115.16731811 117728863.18312836 0 117728863.18312836 -11480585.337051392 0 0 0 0 -72313480.714379311 36897583.487617493 0 36897583.487617493 1914812.7928705215 0 0 0 0 259082.99531304464 -371000.41809280589 0 -371000.41809280589 486312.42188239656 0 0 0 0 -29446076.37899179 -328598202.39309382 0 -328598202.39309382 -45235076.272613525 0 0 0 0 76121730.047659993 1625034.3679246902 0 1625034.3679246902 -281677282.01883698 0 0 0 0 -208418.05711890536 -420451.73347180709 0 -420451.73347180709 213391.95671801316 0 0 0 0 44458490.676771164 46127163.880302429 0 46127163.880302429 -66509530.096427917 0 0 0 0 1060085.8717543227 -1069269.6921691084 0 -1069269.6921691084 2675.0279221870005 0 0 0 0 23182.864808838942 -251886.29482531367 0 -251886.29482531367 -43497.161516711116 0 0 0 0 56777350.902285099 -75250563.239521027 0 -75250563.239521027 -374592138.29673767 0 0 0 0 -86026436.459280193 -49985741.225675106 0 -49985741.225675106 -24308843.366760254 0 0 0 0 2678.7929625571705 -20270.113795462996 0 -20270.113795462996 64717.208632007241 0 0 0 0 637453.48522000562 -1115295.8519721311 0 -1115295.8519721311 152829.43656534841 0 0 0 0 -196780.84625845251 -1359367.3280764148 0 -1359367.3280764148 425216.8318671314 0 0 0 0 -3536976.3014183044 8953932.8284912109 0 8953932.8284912109 -28182335.471260071 0 0 0 0 -51941312.333943188 -91413255.268507004 0 -91413255.268507004 41646313.95211792 0 0 0 0 2453903.2558538914 14739255.577745438 0 14739255.577745438 -24500846.033197403 0 0 0 0 20088744.865839481 -16142806.977231979 0 -16142806.977231979 -24510350.588972092 0 0 0 0 -12658630.845523357 -3456708.6602249146 0 -3456708.6602249146 1589994.5853996277 0 0 0 0 -16657047.323246598 -33134802.328416824 0 -33134802.328416824 108876105.90345001 0 0 0 0 30007346.657935381 -67906169.312114716 0 -67906169.312114716 88235116.585445404 0 0 0 0 -5090307.6688764691 7605824.2974796295 0 7605824.2974796295 -12084681.242540836 0 0 0 0 8868219.7776853219 23851047.888085604 0 23851047.888085604 5447602.0508422852 0 0 0 0 61806286.769045949 -45335244.57972908 0 -45335244.57972908 23621335.885240555 0 0 0 0 -92183.347481329867 -180949.13439105824 0 -180949.13439105824 498050.50341774896 0 0 0 0 -105660693.86595964 175582233.72055244 0 175582233.72055244 462490060.94976616 0 0 0 0 -146191758.80385894 41950446.358166218 0 41950446.358166218 364887811.27681351 0 0 0 0 36158791.879704475 -137766568.72691345 0 -137766568.72691345 210784717.55301285 0 0 0 0 -42488844.833187342 64946517.878435135 0 64946517.878435135 264534862.17517567 0 0 0 0 -8146642.2143413126 51825286.219706535 0 51825286.219706535 84628444.877494812 0 0 0 0 79969212.0771541 30755610.296065331 0 30755610.296065331 80719774.313728333 0 0 0 0 42580245.345118105 -60424481.620849609 0 -60424481.620849609 210087839.62295151 0 0 0 0 28379203.797071218 41476811.625087023 0 41476811.625087023 66137174.267974854 0 0 0 0 7403320.8745774627 -37741425.681222439 0 -37741425.681222439 6865233.5772781372 0 0 0 0 -782737.7144457862 1473360.2140540336 0 1473360.2140540336 2512473.3393725455 0 0 0 0 11535432.905468225 -9307582.2549095154 0 -9307582.2549095154 37928420.650903702 0 0 0 0 -2796153.6352797747 -8798056.5106401443 0 -8798056.5106401443 42046561.773094177 0 0 0 0 -66264030.005915999 -24986285.471129179 0 -24986285.471129179 364427703.00369263 0 0 0 0 73260791.734228134 -107462679.0720253 0 -107462679.0720253 112595928.12776184 0 0 0 0 75493966.431615114 153057792.8047781 0 153057792.8047781 118626428.42149353 0 0 0 0 -107014.61516176612 596240.41733717453 0 596240.41733717453 838503.32386695035 0 0 0 0 111113223.12153208 -208146796.22853947 0 -208146796.22853947 353092999.9832077 0 0 0 0 -29158661.498451471 11137111.729188919 0 11137111.729188919 148704186.24821854 0 0 0 0 -62914322.712425813 -6505626.8988910913 0 -6505626.8988910913 160846443.6027298 0 0 0 0 -43887703.152855039 -8436048.7418346405 0 -8436048.7418346405 158642987.87641716 0 0 0 0 8196263.8456643894 -42303382.607639551 0 -42303382.607639551 76125455.957569122 0 0 0 0 -43523434.614928842 -4508577.9918384552 0 -4508577.9918384552 137182411.30605888 0 0 0 0 -14364089.483020425 19306799.501399994 0 19306799.501399994 78263837.873497009 0 0 0 0 -16589104.590556383 36664118.941641808 0 36664118.941641808 157124056.90761185 0 0 0 0 -39614634.994427383 -44412468.112080812 0 -44412468.112080812 102741487.97058105 0 0 0 0 36075863.634559989 43413244.725845337 0 43413244.725845337 51305616.950809479 0 0 0 0 -110309.53752636512 -33972.123529063072 0 -33972.123529063072 212312.80076665431 0 0 0 0 44241472.48066397 4757172.2430248857 0 4757172.2430248857 133659611.71430588 0 0 0 0 -19085902.525574058 -2675619.5340461731 0 -2675619.5340461731 153858634.14756107 0 0 0 0 44434847.668636799 2290367.6509094238 0 2290367.6509094238 117049239.09329224 0 0 0 0 -24048211.970417976 -7284332.910200119 0 -7284332.910200119 163390386.29464436 0 0 0 0 37046491.520595789 -2533495.9133110046 0 -2533495.9133110046 117058773.29319632 0 0 0 0 45990102.972144008 10243497.271766663 0 10243497.271766663 100042836.96629715 0 0 0 0 59806523.57654497 -4688548.5282974243 0 -4688548.5282974243 116160500.25750351 0 0 0 0 75061478.990492225 -30916561.792427063 0 -30916561.792427063 128936377.37387085 0 0 0 0 108020920.64487398 -6693541.3120956421 0 -6693541.3120956421 82430855.633823395 0 0 0 0 98187782.833905816 -39375125.058084965 0 -39375125.058084965 127651743.33835602 0 0 0 0 -19491144.00353384 39316003.159115791 0 39316003.159115791 100102621.22486496 0 0 0 0 67283831.831797481 -1207710.519990921 0 -1207710.519990921 35337054.653528214 0 0 0 0 -19867963.141144514 26080464.688579559 0 26080464.688579559 59016346.160823822 0 0 0 0 -28767914.042860538 2494465.0538344383 0 2494465.0538344383 107028686.84272003 0 0 0 0 -54114165.008840561 27742987.504766464 0 27742987.504766464 137737390.25052643 0 0 0 0 -55717804.782720804 21381306.181386948 0 21381306.181386948 191802885.38930511 0 0 0 0 -44629919.585836887 78926881.950725555 0 78926881.950725555 98615821.062496185 0 0 0 0 -32645905.306139708 15605644.754827499 0 15605644.754827499 75827047.093095779 0 0 0 0 -3090872.9018502235 -21123103.863981247 0 -21123103.863981247 -16841040.270465851 0 0 0 0 -3269635.286413908 -23886097.38404274 0 -23886097.38404274 -59332071.397146225 0 0 0 0 -102010857.7688477 -49976177.493120193 0 -49976177.493120193 50935958.252259016 0 0 0 0 27900427.555249989 30833670.671210289 0 30833670.671210289 -71800148.341564178 0 0 0 0 -60202960.107632458 -64190614.233982563 0 -64190614.233982563 39343003.568305969 0 0 0 0 -66816421.919208407 -7017210.4438753128 0 -7017210.4438753128 1479358.7975549698 0 0 0 0 762394.20472823177 -1590359.4698730893 0 -1590359.4698730893 1321706.4462438654 0 0 0 0 81406.557728438755 -374679.86524826102 0 -374679.86524826102 200744.52036621608 0 0 0 0 14547272.862475073 -82155052.888533652 0 -82155052.888533652 246728453.51396942 0 0 0 0 58984485.760103978 353009903.21216393 0 353009903.21216393 943462771.29248619 0 0 0 0 23399337.858745795 197907643.62654305 0 197907643.62654305 318656759.99101448 0 0 0 0 -157661590.01139039 11074745.174394608 0 11074745.174394608 945342191.62224579 0 0 0 0 156818181.49205869 -232816898.57747078 0 -232816898.57747078 605163534.21637726 0 0 0 0 -155702765.507018 -117686632.18558311 0 -117686632.18558311 940386583.62394905 0 0 0 0 310053152.19988865 -227104667.34046376 0 -227104667.34046376 82021616.504348755 0 0 0 0 311288141.0877586 -86184367.363101959 0 -86184367.363101959 -52153193.249538422 0 0 0 0 362527.84194875375 -540170.70591885503 0 -540170.70591885503 693992.20291279815 0 0 0 0 117095648.50334144 21240202.670578003 0 21240202.670578003 -17452559.131851196 0 0 0 0 231324588.09213805 -74956408.706481934 0 -74956408.706481934 3077787.7657623291 0 0 0 0 93333313.589939624 -9742543.7574424744 0 -9742543.7574424744 -157231148.2088623 0 0 0 0 227429072.78938076 -135506764.79404795 0 -135506764.79404795 -176156833.26906586 0 0 0 0 165337368.4180952 -149541144.08719349 0 -149541144.08719349 20241184.511119843 0 0 0 0 164248294.12837341 -178185377.99535942 0 -178185377.99535942 -61301935.893066406 0 0 0 0 151246630.48544031 -119258294.14613914 0 -119258294.14613914 -21177376.836513519 0 0 0 0 74882321.584492862 -55273260.506608963 0 -55273260.506608963 80286896.214870453 0 0 0 0 110974278.62210202 -35872518.263866425 0 -35872518.263866425 30636553.867226362 0 0 0 0 185591578.36131185 -102832601.72623825 0 -102832601.72623825 88727047.218597412 0 0 0 0 120429451.96183792 -48133613.468875885 0 -48133613.468875885 73031257.487911224 0 0 0 0 415758790.34232801 -283398733.18523407 0 -283398733.18523407 -73514197.245353699 0 0 0 0 131431314.19979805 -97486198.965045929 0 -97486198.965045929 272259320.51531219 0 0 0 0 -92394909.88445358 -32614452.601976395 0 -32614452.601976395 319571806.27223206 0 0 0 0 -229563704.39218414 -154607550.97200012 0 -154607550.97200012 556509776.00395298 0 0 0 0 -98592080.652640343 -14345775.872497559 0 -14345775.872497559 273467331.14280701 0 0 0 0 135163.59583963227 -84177.301448547281 0 -84177.301448547281 64749.267296576872 0 0 0 0 -290615592.14281738 280966196.56604576 0 280966196.56604576 -174068510.21380615 0 0 0 0 -201348423.93805528 -89321770.923309326 0 -89321770.923309326 550196395.52126598 0 0 0 0 182380626.83871475 -31592440.091388047 0 -31592440.091388047 -38702272.817016602 0 0 0 0 -11308061.077261478 -74137550.991479874 0 -74137550.991479874 190309301.13204193 0 0 0 0 101982.23474231268 130473.87572333589 0 130473.87572333589 472103.69747744128 0 0 0 0 111948663.99962705 -194693534.9500103 0 -194693534.9500103 149988175.13821888 0 0 0 0 169766177.13414079 -53721362.1690979 0 -53721362.1690979 44586138.688568115 0 0 0 0 -33283983.215365961 35872689.926722527 0 35872689.926722527 -39543822.4640522 0 0 0 0 -31732.211747699883 -425374.3378682097 0 -425374.3378682097 433730.40497030318 0 0 0 0 26784.719718434029 -184978.81056260469 0 -184978.81056260469 186725.06920464709 0 0 0 0 -15999804.467034191 -90136007.565976143 0 -90136007.565976143 101996424.56414032 0 0 0 0 -104733897.60417275 59685500.401542664 0 59685500.401542664 108588453.21399498 0 0 0 0 55615888.393829286 -49751645.230028152 0 -49751645.230028152 -95510308.773426056 0 0 0 0 52466949.71380052 -202145924.65071201 0 -202145924.65071201 263103011.20084572 0 0 0 0 69861018.013495892 89728893.232252121 0 89728893.232252121 -26213326.871004105 0 0 0 0 -134423255.1130349 -39918645.015669584 0 -39918645.015669584 942460529.20117569 0 0 0 0 -14848.600836417385 -203125.35518818651 0 -203125.35518818651 185701.78126499429 0 0 0 0 -42547213.765504859 -223700053.50988388 0 -223700053.50988388 930931121.58825684 0 0 0 0 -31694.818801020137 -371261.97098071186 0 -371261.97098071186 317352.63343734294 0 0 0 0 -181314320.51499948 62152856.257269859 0 62152856.257269859 593799873.73316956 0 0 0 0 208886117.50289515 -205012006.15719318 0 -205012006.15719318 265382296.87001419 0 0 0 0 -244589.37808155135 7700049.0573997498 0 7700049.0573997498 434557043.84352112 0 0 0 0 -72680.267280392596 -144840.10444945435 0 -144840.10444945435 773326.67255427316 0 0 0 0 9895003.8286136054 -166552037.47361755 0 -166552037.47361755 941210576.5442543 0 0 0 0 31999259.586277019 169061257.84817314 0 169061257.84817314 435498824.61333466 0 0 0 0 -135329004.84721547 -20510857.051634312 0 -20510857.051634312 538957029.26171875 0 0 0 0 -147185660.80315447 100874642.35977554 0 100874642.35977554 943535234.83769011 0 0 0 0 88608496.379474893 -89088931.722185612 0 -89088931.722185612 -150300598.3265686 0 0 0 0 73320380.961997569 146284787.60054016 0 146284787.60054016 133941605.76936531 0 0 0 0 -35756.66836972053 -2675376.0857181549 0 -2675376.0857181549 -1843834.3050670624 0 0 0 0 264106345.78457019 -196234031.30316544 0 -196234031.30316544 -19153198.102073669 0 0 0 0 -175229.80296212045 409281.4678020142 0 409281.4678020142 872577.24643103406 0 0 0 0 -17392887.714168485 -14135895.123843193 0 -14135895.123843193 -9389287.0764942169 0 0 0 0 -107093.27757661229 259986.43384949118 0 259986.43384949118 739933.62938018516 0 0 0 0 -43328.507782522567 -190464.81076567626 0 -190464.81076567626 1050923.6948109232 0 0 0 0 -10595892.891391546 10464828.599061966 0 10464828.599061966 -8287345.7159290314 0 0 0 0 120347157.8054349 -83795347.048894882 0 -83795347.048894882 26076915.837274551 0 0 0 0 2185316.7569028549 41714644.320275545 0 41714644.320275545 37349754.706897736 0 0 0 0 47911.066940022589 -17292531.510007858 0 -17292531.510007858 -20192788.974391937 0 0 0 0 -30962892.293316387 18185592.415740967 0 18185592.415740967 85732514.086090088 0 0 0 0 -25594550.54632397 2191006.9065856934 0 2191006.9065856934 56604856.02848053 0 0 0 0 -11329395.029691245 26278278.643478394 0 26278278.643478394 11268583.228113174 0 0 0 0 -116836.2534754268 -39201169.686531901 0 -39201169.686531901 120325768.56868744 0 0 0 0 -36306448.531265512 -107862600.77553177 0 -107862600.77553177 56149362.779426575 0 0 0 0 -36426538.503059931 -6031924.340045929 0 -6031924.340045929 195587489.74662781 0 0 0 0 -61933885.532740772 -214705239.52651978 0 -214705239.52651978 384710595.79524231 0 0 0 0 44473722.098711133 -95982865.757635117 0 -95982865.757635117 141635063.26064408 0 0 0 0 -156880.29831840575 -47911.083352762274 0 -47911.083352762274 667717.12026554532 0 0 0 0 128159010.92593166 52359.517780303955 0 52359.517780303955 295361864.90904236 0 0 0 0 104238887.54369342 -93350283.819595337 0 -93350283.819595337 141483459.7989471 0 0 0 0 4789.6452347975301 -153616.26946527098 0 -153616.26946527098 417373.15631583706 0 0 0 0 130047191.90835151 -115837567.65975845 0 -115837567.65975845 80297383.339199066 0 0 0 0 -112619.16509544836 -22998.923743845895 0 -22998.923743845895 323608.33999605291 0 0 0 0 -54958036.188309856 59325385.519953728 0 59325385.519953728 105816946.69769669 0 0 0 0 47224693.345490918 -84690545.458938599 0 -84690545.458938599 25029757.142526627 0 0 0 0 250298186.96338642 -207390863.19558191 0 -207390863.19558191 264692428.82510376 0 0 0 0 207566339.82749575 -4872605.9600944519 0 -4872605.9600944519 136151301.96356583 0 0 0 0 36751777.074764192 -24987968.625915527 0 -24987968.625915527 110392435.50176486 0 0 0 0 59008113.020165741 -98546713.869638443 0 -98546713.869638443 110202977.90324476 0 0 0 0 114726489.92612213 -41401282.418401718 0 -41401282.418401718 103022433.56391144 0 0 0 0 34239717.269565254 -57492760.377439499 0 -57492760.377439499 153080660.46393204 0 0 0 0 38036863.851577878 -48805209.265275955 0 -48805209.265275955 107780286.3653717 0 0 0 0 40700107.651922815 -110141054.11906672 0 -110141054.11906672 114726861.37937927 0 0 0 0 40412767.368165627 -69452505.706397057 0 -69452505.706397057 116852189.00379181 0 0 0 0 11196627.834381372 -86530997.135702133 0 -86530997.135702133 118263671.33398509 0 0 0 0 11490540.951692134 -91271406.147294998 0 -91271406.147294998 166673672.43152618 0 0 0 0 25028480.871851318 -90823046.653963089 0 -90823046.653963089 163050819.82817268 0 0 0 0 -7317913.2395807914 -84862523.838209629 0 -84862523.838209629 180764946.96805191 0 0 0 0 -17671857.37164408 -48377778.657089233 0 -48377778.657089233 151667786.12584829 0 0 0 0 -42188189.091651864 -58530495.540733337 0 -58530495.540733337 150200922.58261108 0 0 0 0 -3900263.4932217808 -59125801.815059662 0 -59125801.815059662 107654859.47587967 0 0 0 0 -11999819.496868238 -39224988.907213211 0 -39224988.907213211 154030105.27043915 0 0 0 0 21681724.504185989 -89332770.818334579 0 -89332770.818334579 159002324.61860371 0 0 0 0 32999000.000651777 -65386413.456342697 0 -65386413.456342697 199380540.36642456 0 0 0 0 361691.47077888995 -41565598.151736259 0 -41565598.151736259 186574722.63559723 0 0 0 0 25211458.014915809 -156884014.71210861 0 -156884014.71210861 319381577.34518814 0 0 0 0 -59544.530183577532 -130120.19135499001 0 -130120.19135499001 542686.89863842353 0 0 0 0 159960154.4861033 -248520042.94573212 0 -248520042.94573212 252806037.7684021 0 0 0 0 124237.72420784403 -54361611.905771255 0 -54361611.905771255 22669448.479335785 0 0 0 0 160985366.57582694 -128275587.99863052 0 -128275587.99863052 148811641.76280975 0 0 0 0 22296951.750288911 -95449402.732624054 0 -95449402.732624054 195859308.47149658 0 0 0 0 77204088.814400986 -148043777.73848343 0 -148043777.73848343 217303748.56324005 0 0 0 0 373439.68385222752 -2217725.1682031867 0 -2217725.1682031867 7783989.3975656433 0 0 0 0 -53216810.485527754 -63934192.804745317 0 -63934192.804745317 96146012.813343048 0 0 0 0 -81152905.696979523 -19000913.821779251 0 -19000913.821779251 30147866.702423096 0 0 0 0 -14625799.561350107 -5912231.1295282841 0 -5912231.1295282841 14051908.032731533 0 0 0 0 764608.95137578377 12451603.092413247 0 12451603.092413247 20027051.17915535 0 0 0 0 7172000.4776329994 -22690984.549536705 0 -22690984.549536705 12287264.896797538 0 0 0 0 -22446420.27537179 2699652.194627285 0 2699652.194627285 26998969.445065498 0 0 0 0 -9603118.0841759443 -3603551.5772111416 0 -3603551.5772111416 10579886.343797684 0 0 0 0 -54596317.590087891 -23980996.346469879 0 -23980996.346469879 10923643.591579437 0 0 0 0 46588796.878817558 -10174738.437705994 0 -10174738.437705994 -25478161.126440048 0 0 0 0 14368545.30618763 66361452.771711349 0 66361452.771711349 33923769.652788162 0 0 0 0 442220.23542257398 126014.58446729835 0 126014.58446729835 518678.92414177395 0 0 0 0 -40900010.652856708 -31054457.4940207 0 -31054457.4940207 2387714.0539073944 0 0 0 0 -29501313.687244892 10646761.550806284 0 10646761.550806284 29100226.872768402 0 0 0 0 -21255053.25494194 -48334581.971468925 0 -48334581.971468925 -28444574.86690712 0 0 0 0 439395.13212197437 -12464.805785063654 0 -12464.805785063654 -171120.99424389191 0 0 0 0 43720036.762150764 -12976037.792314529 0 -12976037.792314529 4067257.9271621704 0 0 0 0 -60295029.618166924 25948150.01504612 0 25948150.01504612 1780383.9950866699 0 0 0 0 -3835556.2305116653 20830414.281158447 0 20830414.281158447 19626258.930419922 0 0 0 0 -49325887.519283295 4473815.2655105591 0 4473815.2655105591 43427612.497406006 0 0 0 0 -25998513.342918396 34511714.861637115 0 34511714.861637115 70602090.937992096 0 0 0 0 -13009849.529842377 -20608180.974750519 0 -20608180.974750519 57769986.622852325 0 0 0 0 -13350717.345191956 -11764496.277934074 0 -11764496.277934074 -15607045.427688599 0 0 0 0 -16768171.695598602 -4114687.3361740112 0 -4114687.3361740112 -28896905.331233978 0 0 0 0 -89011283.519956589 10746876.655563354 0 10746876.655563354 71774647.436609268 0 0 0 0 -97503613.974744797 -63535950.343636513 0 -63535950.343636513 32952093.008551598 0 0 0 0 -41289971.135943413 11387841.276249647 0 11387841.276249647 -81780917.868270874 0 0 0 0 1025215.9830615912 -1179218.3082618611 0 -1179218.3082618611 -1049034.1538029313 0 0 0 0 216030.99402121431 -1135113.1136275218 0 -1135113.1136275218 6422619.7016636543 0 0 0 0 42412869.107420534 92330252.966080606 0 92330252.966080606 80441171.305240631 0 0 0 0 -27560901.864612818 -6297543.1766376495 0 -6297543.1766376495 99677836.947143555 0 0 0 0 -21245390.953372002 8258051.3290753365 0 8258051.3290753365 -26270954.495155334 0 0 0 0 -8234088.346414566 -32643841.529468536 0 -32643841.529468536 15276453.209063053 0 0 0 0 -111470103.32271099 -65766159.338627815 0 -65766159.338627815 -4370691.4902739525 0 0 0 0 2174590.9421655536 -2299894.4220042401 0 -2299894.4220042401 3105302.0821341444 0 0 0 0 1158389.165910244 -565084.45379447937 0 -565084.45379447937 2757986.5844945908 0 0 0 0 -601101.12355715036 5553844.3405632973 0 5553844.3405632973 10342784.793874741 0 0 0 0 1564632.336288929 821957.36367034912 0 821957.36367034912 5095768.5443735123 0 0 0 0 247830.14033928991 590915.27024720795 0 590915.27024720795 243293.11751100793 0 0 0 0 -4544286.1332574487 2287635.480055809 0 2287635.480055809 10878687.557299614 0 0 0 0 -6304271.5178060532 -1391201.0080375671 0 -1391201.0080375671 9236840.2342567444 0 0 0 0 1041167.123203516 2032261.0043783188 0 2032261.0043783188 7648806.9921522141 0 0 0 0 -5408120.0318052769 28866295.081772804 0 28866295.081772804 20521189.749526978 0 0 0 0 -4592612.6696968079 13755830.531311512 0 13755830.531311512 2613683.6293668747 0 0 0 0 -44615759.899336576 -25644398.31462431 0 -25644398.31462431 64015092.429853439 0 0 0 0 -80550067.070091128 67690916.998037905 0 67690916.998037905 -56191806.403737456 0 0 0 0 7208660.9458474666 -7892121.4713777751 0 -7892121.4713777751 -47435654.730487108 0 0 0 0 90555617.995293021 -175324573.19739795 0 -175324573.19739795 64894406.407700181 0 0 0 0 92512629.434995174 -143064308.45906591 0 -143064308.45906591 158877795.60766602 0 0 0 0 10331.824933531308 126149.19206545036 0 126149.19206545036 621082.70290397387 0 0 0 0 -25420092.944262549 30400304.519474849 0 30400304.519474849 -31013908.015684247 0 0 0 0 -15269563.565826833 10684629.825925887 0 10684629.825925887 -13919136.492085695 0 0 0 0 25198097.175566822 39668455.435023636 0 39668455.435023636 -89298682.530328304 0 0 0 0 33373541.07372272 -9094937.0113235712 0 -9094937.0113235712 191966669.21185696 0 0 0 0 91016283.437231541 38481942.875839218 0 38481942.875839218 -73334669.479688287 0 0 0 0 4493859.8809432983 -66741276.497581482 0 -66741276.497581482 114432534.25005341 0 0 0 0 -37501261.310659528 -47353156.644408464 0 -47353156.644408464 135418710.81030273 0 0 0 0 140093.21395502277 -578747.95370095817 0 -578747.95370095817 32141.965091602877 0 0 0 0 -1411541.1828808896 1630054.0589625314 0 1630054.0589625314 820150.79283947311 0 0 0 0 12330003.573686242 11283715.559327126 0 11283715.559327126 -11282403.3292799 0 0 0 0 -172483.09673392115 -1100273.7688548735 0 -1100273.7688548735 6654379.1086138375 0 0 0 0 -185485402.89704394 -37512732.164117485 0 -37512732.164117485 120938209.24908972 0 0 0 0 -64242397.438938886 -191682136.04927385 0 -191682136.04927385 265379401.50615391 0 0 0 0 -29033045.509386301 24268618.743138313 0 24268618.743138313 -92935265.107761383 0 0 0 0 19086957.850678846 41721955.008276716 0 41721955.008276716 58184180.42624855 0 0 0 0 400129.69422161707 -264184.02233094006 0 -264184.02233094006 139950.97083796852 0 0 0 0 84897602.084402144 -131339515.10650462 0 -131339515.10650462 30112146.210113883 0 0 0 0 26129053.065592617 11126667.298572063 0 11126667.298572063 140954818.43195033 0 0 0 0 -10966640.282062888 36731111.615903974 0 36731111.615903974 -57295972.291648388 0 0 0 0 42508533.27670972 -21739359.164110094 0 -21739359.164110094 -25177466.989074826 0 0 0 0 -73265868.134192348 -43311492.716353402 0 -43311492.716353402 -10091230.49502635 0 0 0 0 809534.64945907984 -599875.11659976293 0 -599875.11659976293 607411.93984636979 0 0 0 0 -14984363.643511176 -22623672.586509824 0 -22623672.586509824 -24792598.440453529 0 0 0 0 15310081.441964418 23465065.379066631 0 23465065.379066631 -21268645.062757611 0 0 0 0 60340750.263849199 -6288841.9682645798 0 -6288841.9682645798 -35832244.612610817 0 0 0 0 4690471.1231449842 -17209357.999183893 0 -17209357.999183893 4655014.0324354172 0 0 0 0 992747.45565056801 -22683551.705440998 0 -22683551.705440998 17578042.521657467 0 0 0 0 42518814.055639625 -27633390.358795762 0 -27633390.358795762 -26194094.000311077 0 0 0 0 -13481039.677019835 -2174250.8254564404 0 -2174250.8254564404 -8970106.257838428 0 0 0 0 1441136.0420329869 5040675.9905371666 0 5040675.9905371666 17458598.541472912 0 0 0 0 -11607215.28009367 -196659.98704600334 0 -196659.98704600334 6264767.0755372047 0 0 0 0 -33769821.650822639 -110871129.04008245 0 -110871129.04008245 -221697212.89408636 0 0 0 0 -228199.75361682088 30063.635985697445 0 30063.635985697445 339703.83372523164 0 0 0 0 38930948.987538248 -2651529.8607624173 0 -2651529.8607624173 -39245663.368799925 0 0 0 0 43197364.139124751 1341481.7998273969 0 1341481.7998273969 -90427609.179252863 0 0 0 0 52131090.435501993 -23046292.008112192 0 -23046292.008112192 -64008173.976026654 0 0 0 0 34646991.298317969 -40459801.30239439 0 -40459801.30239439 -87959472.345186889 0 0 0 0 13219580.075593531 -48777573.918699741 0 -48777573.918699741 -55101232.83334446 0 0 0 0 42995117.665848166 -19393068.172780573 0 -19393068.172780573 -51496411.050826073 0 0 0 0 -8893457.6177280545 -32706828.695852518 0 -32706828.695852518 -15862962.768718719 0 0 0 0 15166108.55436613 -35787240.369878665 0 -35787240.369878665 -34320021.413089275 0 0 0 0 42340696.763293564 -19171846.94260323 0 -19171846.94260323 -24299144.686947346 0 0 0 0 9227993.7475943565 -11360227.001112223 0 -11360227.001112223 2924579.5711989403 0 0 0 0 -375739.92102866073 957242.75624629878 0 957242.75624629878 2919961.4374646465 0 0 0 0 56847701.867803194 29752571.214845896 0 29752571.214845896 -6085343.528547287 0 0 0 0 -1595165.2593142986 64950236.316884995 0 64950236.316884995 -1994167.9241962433 0 0 0 0 -29056005.600636721 -28656278.500432968 0 -28656278.500432968 42496618.804908514 0 0 0 0 -102489794.12272006 107892634.51077497 0 107892634.51077497 -4323345.8958053589 0 0 0 0 170396805.45928103 70253583.306655526 0 70253583.306655526 -6115566.5471909046 0 0 0 0 -13105854.232541844 35803210.104652226 0 35803210.104652226 23198676.176626205 0 0 0 0 137637715.29370427 -49960188.282386065 0 -49960188.282386065 30329541.864081383 0 0 0 0 -62792.679387213371 188195.91023926888 0 188195.91023926888 898143.76433410542 0 0 0 0 -26357648.132814586 5320393.7248038054 0 5320393.7248038054 90924384.938827991 0 0 0 0 71935675.301606923 -381461.89620637894 0 -381461.89620637894 3605346.905218482 0 0 0 0 54879047.457924366 -62046100.984473348 0 -62046100.984473348 44700579.07542038 0 0 0 0 33413429.00167425 181713923.86407304 0 181713923.86407304 -136021420.66424561 0 0 0 0 12294450.202018857 -82383832.124504924 0 -82383832.124504924 252176062.08429193 0 0 0 0 -133956201.06200212 156242646.53102207 0 156242646.53102207 60018978.286895275 0 0 0 0 134315830.83079588 208087513.5786972 0 208087513.5786972 68343250.056960106 0 0 0 0 112400298.84225301 -169533258.23425293 0 -169533258.23425293 -110730039.39190626 0 0 0 0 336684486.14091706 -137261711.57907772 0 -137261711.57907772 -106833760.39735746 0 0 0 0 -28684029.321106553 -114966108.26889277 0 -114966108.26889277 253561356.81644392 0 0 0 0 -39748467.813153267 -58987394.187356472 0 -58987394.187356472 11844787.360705376 0 0 0 0 -82163838.213254929 -41566835.740267754 0 -41566835.740267754 5628601.5009989738 0 0 0 0 -98656328.257077932 -49977468.311447859 0 -49977468.311447859 136176350.12204647 0 0 0 0 -8140336.5216306448 82042761.216082096 0 82042761.216082096 177654635.86617088 0 0 0 0 1725916.3106549978 32924286.156223178 0 32924286.156223178 28517917.167345285 0 0 0 0 -28603861.540884256 12447510.088202238 0 12447510.088202238 35565820.251222134 0 0 0 0 -67901834.962507486 -25040857.527143478 0 -25040857.527143478 3674305.0978007317 0 0 0 0 -13883432.247670233 10263414.496702433 0 10263414.496702433 26025776.718327522 0 0 0 0 -28363101.391521633 32420113.396313787 0 32420113.396313787 35321367.910037518 0 0 0 0 16350707.857947111 -13489670.598191977 0 -13489670.598191977 25136170.478941679 0 0 0 0 51677.282951604924 18608.115532113356 0 18608.115532113356 597329.88523509807 0 0 0 0 31478895.318887353 -4453910.5559346676 0 -4453910.5559346676 10188131.565562248 0 0 0 0 15931084.437126052 3042453.6482328419 0 3042453.6482328419 7016656.5933170319 0 0 0 0 15932018.126302958 -7044527.6170706749 0 -7044527.6170706749 12050125.262507439 0 0 0 0 227540.58510006167 -241738.72348098271 0 -241738.72348098271 1822009.1821480379 0 0 0 0 2668596.0909328461 -4799811.2368619442 0 -4799811.2368619442 19619577.155577183 0 0 0 0 2500880.9772209674 -3575028.3554822206 0 -3575028.3554822206 18833992.017291069 0 0 0 0 -527631.12849354744 499570.53923511505 0 499570.53923511505 16725666.629176378 0 0 0 0 1941749.9077825546 -2592206.9406991005 0 -2592206.9406991005 14632159.302126408 0 0 0 0 1708538.2566949725 -1521766.1867547035 0 -1521766.1867547035 9921170.6639461517 0 0 0 0 2713347.5590742826 134694.74281352758 0 134694.74281352758 6387222.6611967087 0 0 0 0 3248247.1318885535 -2243362.8694803119 0 -2243362.8694803119 5375906.0662355423 0 0 0 0 7458989.6177619696 -2033631.4855582714 0 -2033631.4855582714 7376787.8771624565 0 0 0 0 7158554.5444840789 -1612926.3018790483 0 -1612926.3018790483 8883655.2837743759 0 0 0 0 12069002.331759453 -86978.242751836777 0 -86978.242751836777 4326074.6798949242 0 0 0 0 8220614.6620461941 2769802.7884875536 0 2769802.7884875536 7485293.0825481415 0 0 0 0 79984447.764721036 -11234782.907940626 0 -11234782.907940626 -219651621.01544428 0 0 0 0 1375194.9793745279 -5309963.5007193089 0 -5309963.5007193089 20353730.465002775 0 0 0 0 74135.219526123838 -893794.82705952367 0 -893794.82705952367 3617387.1241865964 0 0 0 0 -832516.17916202545 -51077.882328033447 0 -51077.882328033447 1531695.8101081848 0 0 0 0 -7321.8107090913691 -356468.60161874047 0 -356468.60161874047 4944552.1469901251 0 0 0 0 -668198.98084850842 351155.88153694477 0 351155.88153694477 2259418.8780452907 0 0 0 0 -674707.0612694025 323086.13479995728 0 323086.13479995728 1390957.3793258667 0 0 0 0 1406.6101065990515 -1587117.866677125 0 -1587117.866677125 5210808.3831074946 0 0 0 0 -523367.75883324235 -971211.79676545365 0 -971211.79676545365 4672796.231443543 0 0 0 0 -65108487.008909218 -72486909.009343266 0 -72486909.009343266 -57558737.876325607 0 0 0 0 -65074102.521689177 -73666133.01608181 0 -73666133.01608181 -23220229.78263092 0 0 0 0 -2022459.8293111324 -3484174.2230548859 0 -3484174.2230548859 21929610.711592197 0 0 0 0 1402957.2291066647 -4218973.9477272034 0 -4218973.9477272034 21584365.480845928 0 0 0 0 -2394049.3920663595 -383045.8610291481 0 -383045.8610291481 8481536.5799608231 0 0 0 0 26172.318199275061 -214482.89242316666 0 -214482.89242316666 1380256.2442126267 0 0 0 0 -1078237.6527264118 1977556.733109951 0 1977556.733109951 13671301.596776009 0 0 0 0 -1204740.2636427879 928136.20707321167 0 928136.20707321167 9905422.9898386002 0 0 0 0 -743522.670617342 805551.04173851013 0 805551.04173851013 7902553.8263292313 0 0 0 0 -1714527.4552090168 -1430885.6862401962 0 -1430885.6862401962 9489291.5875214338 0 0 0 0 1146371.7025325298 958304.66794586182 0 958304.66794586182 1199343.4493249059 0 0 0 0 -3736544.5714663863 238556.29518020153 0 238556.29518020153 8116851.2485790253 0 0 0 0 -3332692.7500944138 -1010751.3638486862 0 -1010751.3638486862 9025969.6597185135 0 0 0 0 -548218.01838974608 505058.97081758338 0 505058.97081758338 2943148.3796759872 0 0 0 0 -6661067.3671735525 9949968.5846507549 0 9949968.5846507549 14904456.972484112 0 0 0 0 -1741895.5525941849 -978853.20069313049 0 -978853.20069313049 3375482.4636771679 0 0 0 0 -951869.04896946554 47258.883832979482 0 47258.883832979482 4083893.2755031856 0 0 0 0 -1691631.0439676046 -454955.3481824398 0 -454955.3481824398 5219013.0199012756 0 0 0 0 -787711.41871631145 -54871.640284061432 0 -54871.640284061432 3624334.574801445 0 0 0 0 -202509.58571887249 -1104685.6446262179 0 -1104685.6446262179 5395795.8264258392 0 0 0 0 223634.43457984924 -1223096.1618423462 0 -1223096.1618423462 5594306.7222099304 0 0 0 0 -213968.1121969223 -526165.30104923248 0 -526165.30104923248 3981700.2690335512 0 0 0 0 -661449.69343306753 245353.85301174212 0 245353.85301174212 2475600.4451505477 0 0 0 0 -1429296.5766174793 -50448.942244529724 0 -50448.942244529724 1878215.7325744629 0 0 0 0 -1439122.1945855618 7604.2891368865967 0 7604.2891368865967 1550563.7974739075 0 0 0 0 -1262363.2655901893 1337701.9855726538 0 1337701.9855726538 3086075.2907702448 0 0 0 0 -989606.53572986077 -30457.233449857566 0 -30457.233449857566 1949618.5577107137 0 0 0 0 -233024.64533033641 -1085302.5509358956 0 -1085302.5509358956 5946728.5234565875 0 0 0 0 15324.868769747671 -1132698.6499404036 0 -1132698.6499404036 5829670.3386850627 0 0 0 0 -76154.687377929688 -182748.35675811768 0 -182748.35675811768 2104883.7220797539 0 0 0 0 -112220.45989179611 -201915.93224334717 0 -201915.93224334717 2104458.8080978394 0 0 0 0 -177079.23277580214 -81134.193650831468 0 -81134.193650831468 1074617.5778588923 0 0 0 0 -734831.91538652359 -221185.27791881259 0 -221185.27791881259 1807146.9282157617 0 0 0 0 -2366376.711748302 972814.05504500866 0 972814.05504500866 1516531.3452377319 0 0 0 0 -9754760.8634605408 7721002.8096656799 0 7721002.8096656799 9935321.9808731079 0 0 0 0 -1538530.8341067722 658147.3962062092 0 658147.3962062092 4593514.4875576487 0 0 0 0 -2292669.4618768692 411718.9151763916 0 411718.9151763916 609900.93067359924 0 0 0 0 -11150537.896511078 2740798.3232078552 0 2740798.3232078552 9900101.6474533081 0 0 0 0 -232663.57503337809 -1240817.8857943388 0 -1240817.8857943388 5318249.9143126151 0 0 0 0 142836.84993171692 -1132165.249584198 0 -1132165.249584198 5616754.6904335022 0 0 0 0 -1691304.5810670853 -184312.61069869995 0 -184312.61069869995 2923703.7756547928 0 0 0 0 -1664270.4190964699 -183175.69622325897 0 -183175.69622325897 2910580.8031053543 0 0 0 0 -1379665.1081371307 394007.46709251404 0 394007.46709251404 1452949.4384651184 0 0 0 0 -539182.65676761803 116249.9030018379 0 116249.9030018379 1979387.7016837727 0 0 0 0 -547366.75569279725 -891560.09132645209 0 -891560.09132645209 5375028.0696707154 0 0 0 0 -1643542.4557026033 1532833.4020754821 0 1532833.4020754821 3746112.5351836337 0 0 0 0 -1464039.3345090358 -554553.3578655012 0 -554553.3578655012 6096093.0676036822 0 0 0 0 -82593045.81088233 -36764921.439232826 0 -36764921.439232826 -27378879.395915985 0 0 0 0 -109485470.03233647 -63541375.943331957 0 -63541375.943331957 34025338.501910686 0 0 0 0 -103745406.91798091 -21094842.167931557 0 -21094842.167931557 -22083314.691545963 0 0 0 0 -2034443.7892954056 3056922.2756193615 0 3056922.2756193615 2850403.9523827024 0 0 0 0 -6126119.5320272446 195572.79572105408 0 195572.79572105408 2266904.2625579834 0 0 0 0 -598439.3469704641 -2204549.778453263 0 -2204549.778453263 2644892.8219071832 0 0 0 0 -6387394.4639492035 182474.71276473999 0 182474.71276473999 2385295.0964584351 0 0 0 0 -460789.79080023943 -2791417.8017639439 0 -2791417.8017639439 7220170.8032042235 0 0 0 0 -5145726.2826795578 -744672.49725914001 0 -744672.49725914001 1855390.3966369629 0 0 0 0 -3219591.0806876109 2440680.7653227141 0 2440680.7653227141 6363703.3296295581 0 0 0 0 -1904880.7610324817 -697591.03379550413 0 -697591.03379550413 6316086.4692746419 0 0 0 0 -3336233.3829879761 294070.46646118164 0 294070.46646118164 1261893.2219161987 0 0 0 0 -10511614.377224922 -3053241.902759552 0 -3053241.902759552 7633510.0908737183 0 0 0 0 -12158649.620257378 1391268.1790423393 0 1391268.1790423393 13526794.845527649 0 0 0 0 -13863542.618244171 -1169678.2862968445 0 -1169678.2862968445 11494267.362541199 0 0 0 0 -19777800.612686157 -4169687.8443717957 0 -4169687.8443717957 14775466.665283203 0 0 0 0 -14499827.81554985 -8263944.2391777039 0 -8263944.2391777039 6318342.1364936829 0 0 0 0 1153803.3164134026 12609402.647703648 0 12609402.647703648 7690634.9955615997 0 0 0 0 -1995402.7380450526 830285.69105520006 0 830285.69105520006 4167142.7775915004 0 0 0 0 -22880984.580696106 -10448718.869184494 0 -10448718.869184494 10711019.309326172 0 0 0 0 -36083669.253695965 9403117.5749373436 0 9403117.5749373436 32583958.926860809 0 0 0 0 361218.15437118721 -3121867.781362934 0 -3121867.781362934 9131965.0583108105 0 0 0 0 -10178895.629796863 -13629373.140504599 0 -13629373.140504599 10200331.614831924 0 0 0 0 -304689.20587727654 -980981.96843262005 0 -980981.96843262005 1099970.794198249 0 0 0 0 -159612320.46759558 46696119.485286713 0 46696119.485286713 61943876.056505203 0 0 0 0 -109061217.21437955 -9065891.9766616821 0 -9065891.9766616821 21536460.91176188 0 0 0 0 -1475182.9908463166 -1026044.8141382588 0 -1026044.8141382588 5652855.7577990452 0 0 0 0 -103325.97844797117 -3035642.099779346 0 -3035642.099779346 -1564441.9118066859 0 0 0 0 -6430276.405081749 800787.49043083191 0 800787.49043083191 1140173.635181427 0 0 0 0 -9672290.7064208984 -1863453.7031822205 0 -1863453.7031822205 11577332.659008026 0 0 0 0 10530882.419171333 5145018.8861913681 0 5145018.8861913681 9869363.0390739441 0 0 0 0 -6726190.1548142433 13722158.920673847 0 13722158.920673847 45837761.521907806 0 0 0 0 -8684428.5174160004 2161438.534122467 0 2161438.534122467 1115294.4651591778 0 0 0 0 -21494798.538654327 3897614.2310848236 0 3897614.2310848236 9121091.2066802979 0 0 0 0 -16547424.710666656 -4485666.8254165649 0 -4485666.8254165649 12371672.614997864 0 0 0 0 -27720066.490814686 -2915096.0652132034 0 -2915096.0652132034 13784363.192298889 0 0 0 0 -9696392.6559715271 641516.641746521 0 641516.641746521 9775734.4533700943 0 0 0 0 -11161069.614452362 4976866.3893661499 0 4976866.3893661499 18849613.507637858 0 0 0 0 -18895211.969470024 -980033.29060745239 0 -980033.29060745239 19033361.782272339 0 0 0 0 -16118586.227811813 1485390.9864082336 0 1485390.9864082336 17876020.273628235 0 0 0 0 -10072334.458124161 4729767.9971809387 0 4729767.9971809387 15709629.06045723 0 0 0 0 -7491602.5970327854 11379230.007733345 0 11379230.007733345 27012493.039985657 0 0 0 0 -8493936.4933738708 4064089.5466575623 0 4064089.5466575623 17794578.840888977 0 0 0 0 -10230061.208639145 6609300.9478225708 0 6609300.9478225708 21366678.31035614 0 0 0 0 9901705.1130466461 14298862.162242889 0 14298862.162242889 17659401.217380524 0 0 0 0 179429.3649517321 507166.90265482105 0 507166.90265482105 377520.69034873694 0 0 0 0 22494489.165415764 18654616.640977859 0 18654616.640977859 16448587.595832825 0 0 0 0 -56687461.389729977 -47178913.826704025 0 -47178913.826704025 -14530842.803274632 0 0 0 0 16984175.299845576 34615340.515016079 0 34615340.515016079 26024783.430431366 0 0 0 0 13819956.459188938 7699944.9495563507 0 7699944.9495563507 13225665.644126892 0 0 0 0 -11359517.461930513 3849398.3637948036 0 3849398.3637948036 26308545.865451813 0 0 0 0 3412738.815952301 17980112.393442154 0 17980112.393442154 29266331.203407288 0 0 0 0 7587777.0204954147 16543927.378311157 0 16543927.378311157 18532116.055297852 0 0 0 0 21818909.751059294 95946674.748999119 0 95946674.748999119 -39871642.335578918 0 0 0 0 -44987181.218513489 -15287711.371604919 0 -15287711.371604919 51568852.855857849 0 0 0 0 7211218.58776474 6230683.4095458984 0 6230683.4095458984 14419135.928726196 0 0 0 0 -73516901.399459362 2782443.5349140167 0 2782443.5349140167 188119422.13529205 0 0 0 0 -18822908.588432312 -10454838.312633514 0 -10454838.312633514 35369752.480377197 0 0 0 0 -28216075.503560543 -12173419.007825851 0 -12173419.007825851 52123304.84311676 0 0 0 0 -22667098.33331871 -1576586.1740474701 0 -1576586.1740474701 23456678.161880493 0 0 0 0 -31745064.460558891 -3442769.7062988281 0 -3442769.7062988281 45014375.92383194 0 0 0 0 -20280151.235599995 -7684735.8870220184 0 -7684735.8870220184 35644300.484848022 0 0 0 0 -28774823.616353989 -18747532.340343475 0 -18747532.340343475 31020586.014640808 0 0 0 0 -2014913.772191786 1703693.5111656459 0 1703693.5111656459 3162088.9301678836 0 0 0 0 137902.44867324829 11123379.285617828 0 11123379.285617828 10795088.269702911 0 0 0 0 -10996175.976709485 5469984.4582111835 0 5469984.4582111835 17093540.061431885 0 0 0 0 -6433393.1594619751 6892194.6912117004 0 6892194.6912117004 11457013.59942627 0 0 0 0 1206832.7538661957 7951845.2579879761 0 7951845.2579879761 14125869.78192234 0 0 0 0 -1817714.0899810791 11136130.160400391 0 11136130.160400391 13298630.960170746 0 0 0 0 -1759609.7611103058 10379334.85786438 0 10379334.85786438 16957704.821338654 0 0 0 0 -6283780.2026897669 8239192.0213398933 0 8239192.0213398933 15995387.915840149 0 0 0 0 -1489760.4556331635 11464751.467063904 0 11464751.467063904 17942590.683330536 0 0 0 0 -9309974.5267019272 6025405.5750198364 0 6025405.5750198364 9753335.4523620605 0 0 0 0 489549.43650436401 11433555.931808472 0 11433555.931808472 6361486.5917778015 0 0 0 0 -5714823.8782730103 8235814.1480140686 0 8235814.1480140686 11159588.832321167 0 0 0 0 -6542296.2330589294 9194556.5233955383 0 9194556.5233955383 12434204.183576584 0 0 0 0 -680839.72233200073 6674899.193693161 0 6674899.193693161 -1333041.7870559692 0 0 0 0 200153.85631275177 -777849.17268943787 0 -777849.17268943787 2406336.9353866577 0 0 0 0 -1193125.0419880077 310980.08762039803 0 310980.08762039803 6035285.8720190609 0 0 0 0 -239587.48506306252 -1340507.1109757666 0 -1340507.1109757666 5317522.7898212224 0 0 0 0 -1107893.5812644958 -142557.17210769653 0 -142557.17210769653 1893032.1421699524 0 0 0 0 6540740.8501853943 5748271.3164749146 0 5748271.3164749146 -21626212.196609497 0 0 0 0 11319763.710249901 -299363.44662857056 0 -299363.44662857056 -14937872.627258301 0 0 0 0 -5978731.4528846741 18561402.271408081 0 18561402.271408081 -27180102.13602066 0 0 0 0 21523.959177887999 -121867.04881609138 0 -121867.04881609138 437410.77323188935 0 0 0 0 7420973.3103847504 305026.03285598755 0 305026.03285598755 -2328857.9044036865 0 0 0 0 -1147172.9560145594 882686.63550863881 0 882686.63550863881 6360246.9135510484 0 0 0 0 -1751417.9843978882 64938.982574462891 0 64938.982574462891 2333658.5538787842 0 0 0 0 -1942652.2148566246 813180.20238208771 0 813180.20238208771 2115248.4984397888 0 0 0 0 -7367784.6962280273 11900694.173187256 0 11900694.173187256 7465486.2540359497 0 0 0 0 -1438923.4956819753 1072361.0271213027 0 1072361.0271213027 3271900.8639820535 0 0 0 0 -485289.72267384175 -488516.58104520594 0 -488516.58104520594 1488023.8155357745 0 0 0 0 -20326153.149591446 -4152243.3343276978 0 -4152243.3343276978 16461955.215057373 0 0 0 0 -927799.81889788271 1194268.1829184778 0 1194268.1829184778 1302460.4170502033 0 0 0 0 -11105012.732891083 8857402.6676979065 0 8857402.6676979065 -4165113.3123779297 0 0 0 0 -12839326.759038925 6869051.4205169678 0 6869051.4205169678 5162018.7895965576 0 0 0 0 -15630215.758785248 3445349.6114654541 0 3445349.6114654541 6897732.2570953369 0 0 0 0 -24609361.946235657 19356461.225200653 0 19356461.225200653 12629028.616073608 0 0 0 0 -23547500.434318066 5282876.040060997 0 5282876.040060997 33904057.701637268 0 0 0 0 -21491873.317380905 7032347.8510131836 0 7032347.8510131836 12669812.03213501 0 0 0 0 -17956512.130819321 -1104966.1566197872 0 -1104966.1566197872 5133502.5874938965 0 0 0 0 -17077538.08265686 -766068.69505310059 0 -766068.69505310059 -759272.00271606445 0 0 0 0 -21569677.87424469 2248262.7938232422 0 2248262.7938232422 22837370.216184616 0 0 0 0 -17953875.184653878 -1253919.1752889156 0 -1253919.1752889156 12452707.254577637 0 0 0 0 -15499940.827758789 2907133.0207672119 0 2907133.0207672119 6270056.3874359131 0 0 0 0 -15426725.504615784 640183.06130981445 0 640183.06130981445 2963443.6733093262 0 0 0 0 -15282967.531913757 250714.6353302002 0 250714.6353302002 -1055607.5502624512 0 0 0 0 -12896097.846603394 2990199.3559112549 0 2990199.3559112549 -4312915.9267120361 0 0 0 0 -12774855.313434601 4161086.9637298584 0 4161086.9637298584 -1398125.1621398926 0 0 0 0 -13285335.545057297 5301735.7372741699 0 5301735.7372741699 329333.17031860352 0 0 0 0 -3717882.4242730141 -450683.15063047409 0 -450683.15063047409 1174572.4833984375 0 0 0 0 -11815809.005443573 5630668.7773971558 0 5630668.7773971558 -1925421.1731834412 0 0 0 0 -12243741.738342285 4653710.3547668457 0 4653710.3547668457 -2897005.9392547607 0 0 0 0 -855670.82976721879 752703.80821020529 0 752703.80821020529 4342418.9783413485 0 0 0 0 -13299702.444814682 1976989.1185073853 0 1976989.1185073853 -7754681.8604888916 0 0 0 0 -110207.85333225597 35209.228020696901 0 35209.228020696901 783928.81673856732 0 0 0 0 22480903.701958656 -28442260.628673553 0 -28442260.628673553 -21896334.4973526 0 0 0 0 -3787176.4306430817 34020703.951286316 0 34020703.951286316 -21814761.355056763 0 0 0 0 -10677559.629166603 5611527.3014011383 0 5611527.3014011383 -4254728.7891769409 0 0 0 0 -374696.00242877007 50753052.935640812 0 50753052.935640812 33597266.390743256 0 0 0 0 46432.309881057357 42158.974633680657 0 42158.974633680657 98621.659945826977 0 0 0 0 -61075393.764157057 -41597640.025035858 0 -41597640.025035858 -13834109.823203087 0 0 0 0 45067490.258454084 48196536.854446888 0 48196536.854446888 -35338505.004806519 0 0 0 0 -24009260.104299217 34346281.161741763 0 34346281.161741763 66248014.851352692 0 0 0 0 -56792148.086351395 2988501.8120880127 0 2988501.8120880127 70190735.885480881 0 0 0 0 -47707102.734958887 11189624.249426842 0 11189624.249426842 74766112.952690125 0 0 0 0 -23303213.979401588 -3642145.4927768707 0 -3642145.4927768707 20575727.132825851 0 0 0 0 -36264132.203606606 6681870.0413780212 0 6681870.0413780212 31553019.177875519 0 0 0 0 -37284786.027136087 16921733.162169456 0 16921733.162169456 33621347.801273346 0 0 0 0 -64563505.544548079 5678580.5528762937 0 5678580.5528762937 42277265.343250275 0 0 0 0 -4161750.4367163181 6733794.2163658142 0 6733794.2163658142 22520566.039924622 0 0 0 0 -2321078.9553291798 16718484.277856827 0 16718484.277856827 19286220.470991135 0 0 0 0 -1291754.4097326994 25100121.226690054 0 25100121.226690054 23887639.799015045 0 0 0 0 -11366512.425658941 1142817.1347551346 0 1142817.1347551346 59826999.324491501 0 0 0 0 -16503761.260336995 17922373.660936117 0 17922373.660936117 30468339.197875977 0 0 0 0 10091450.972704411 5153919.6668214798 0 5153919.6668214798 46718601.568410873 0 0 0 0 10663021.847539902 -39271849.348484993 0 -39271849.348484993 71066074.98768568 0 0 0 0 33268258.068341851 -34785916.422858953 0 -34785916.422858953 59648396.001310349 0 0 0 0 12366595.111070633 -15940692.10161972 0 -15940692.10161972 12944955.854693413 0 0 0 0 -50446452.405401111 -5619037.3851585388 0 -5619037.3851585388 40037917.299062729 0 0 0 0 -100841722.83353472 -69988614.420166016 0 -69988614.420166016 1391709.396463871 0 0 0 0 301857.01737631951 90691.376737869345 0 90691.376737869345 -147100.46589676477 0 0 0 0 11128434.562901825 46875611.991618067 0 46875611.991618067 65127303.391487122 0 0 0 0 -57845561.572665289 4511649.7947192639 0 4511649.7947192639 18692407.687953949 0 0 0 0 -36897712.902303219 -15185141.633377075 0 -15185141.633377075 -16376348.569809437 0 0 0 0 -44565375.392372608 -4971168.9141845703 0 -4971168.9141845703 45738431.926919937 0 0 0 0 72079562.87891385 -41111330.314873695 0 -41111330.314873695 83750967.484939575 0 0 0 0 101163718.85038769 -83456574.14863205 0 -83456574.14863205 71237526.316326141 0 0 0 0 50045227.760233641 -66267030.256118774 0 -66267030.256118774 72429700.242099762 0 0 0 0 51138455.021682739 -38116294.518341064 0 -38116294.518341064 43480122.175355911 0 0 0 0 46970206.911607623 -55958763.102085114 0 -55958763.102085114 75664223.940790176 0 0 0 0 65145800.831543356 -41854076.978905678 0 -41854076.978905678 12843495.296321869 0 0 0 0 44856025.723441958 -63232876.73547554 0 -63232876.73547554 112852138.24901199 0 0 0 0 57729355.265031315 -29094268.162415028 0 -29094268.162415028 121679524.98571205 0 0 0 0 33337812.360050365 -58269383.23656559 0 -58269383.23656559 104049344.81839561 0 0 0 0 -5292473.9499239922 39357254.240171432 0 39357254.240171432 -32013190.049674749 0 0 0 0 -343182.27326749888 -9052.4785076957196 0 -9052.4785076957196 430980.8967720978 0 0 0 0 -1615013.5946034789 3928264.8475370407 0 3928264.8475370407 -12880986.269844055 0 0 0 0 -2371540.5078292787 55502330.290981293 0 55502330.290981293 19252762.845479012 0 0 0 0 -7021324.6903252453 11811873.800965786 0 11811873.800965786 91570676.457767487 0 0 0 0 39181204.507511936 -13908130.000705719 0 -13908130.000705719 86814970.852561951 0 0 0 0 27787708.112362385 -27546298.261568069 0 -27546298.261568069 72782983.205310822 0 0 0 0 50619893.237443745 -71595795.44856739 0 -71595795.44856739 103251135.17979074 0 0 0 0 55138625.68583408 -61029579.82930851 0 -61029579.82930851 122948357.8555069 0 0 0 0 50087738.35019803 -37198078.935962677 0 -37198078.935962677 128603822.18243217 0 0 0 0 56322274.532592535 -28493731.274036407 0 -28493731.274036407 140570516.77701187 0 0 0 0 97537276.884761572 -49477189.596197128 0 -49477189.596197128 116111152.1060915 0 0 0 0 67045125.974826992 -77983940.872499466 0 -77983940.872499466 135698730.02038538 0 0 0 0 92099426.075849533 -56978546.617983818 0 -56978546.617983818 158535737.90564167 0 0 0 0 109737325.38861781 -26777806.9246068 0 -26777806.9246068 157890299.79064751 0 0 0 0 61255578.030110121 -196303462.1566124 0 -196303462.1566124 182460801.85020256 0 0 0 0 38070625.451513171 -155678135.82531929 0 -155678135.82531929 256267595.43320656 0 0 0 0 73731694.826902479 -46329568.058122158 0 -46329568.058122158 212427288.65986824 0 0 0 0 54297297.414729714 -141784796.28404474 0 -141784796.28404474 158005651.51817703 0 0 0 0 81035056.802287921 -131011620.9573555 0 -131011620.9573555 133536940.92156196 0 0 0 0 59883626.601655722 -94201052.164145947 0 -94201052.164145947 81355866.815723419 0 0 0 0 110919741.39312816 -142780075.49945068 0 -142780075.49945068 104807115.6601305 0 0 0 0 151193959.98343581 -133483011.26360416 0 -133483011.26360416 96708371.002258301 0 0 0 0 45845684.059847474 -221011480.65735722 0 -221011480.65735722 205178662.72325039 0 0 0 0 141818385.53001693 -221027073.37478745 0 -221027073.37478745 138416719.50316048 0 0 0 0 55709537.049593568 -190023670.93831253 0 -190023670.93831253 145966261.32587242 0 0 0 0 73347816.298497915 -173932435.78798962 0 -173932435.78798962 138572713.79772186 0 0 0 0 -88203356.956757069 -120033480.71419001 0 -120033480.71419001 157976332.66280937 0 0 0 0 8005199.5534899235 -73791414.041324615 0 -73791414.041324615 61950802.64790678 0 0 0 0 -21559031.337799072 -34568297.436742783 0 -34568297.436742783 54682508.211938858 0 0 0 0 17434295.138730168 -53565930.179937363 0 -53565930.179937363 31038989.290891647 0 0 0 0 -18699327.89835453 329682.2474155426 0 329682.2474155426 19071666.36173439 0 0 0 0 17218825.148413658 -43967489.312758446 0 -43967489.312758446 59525319.671785355 0 0 0 0 59743377.62103951 -94468878.94865799 0 -94468878.94865799 80956854.780565739 0 0 0 0 70166024.907804251 -85884050.39084816 0 -85884050.39084816 53580159.468342543 0 0 0 0 127322391.49079633 -145861347.38302422 0 -145861347.38302422 94179294.696995735 0 0 0 0 72601540.145241082 -79920956.474856377 0 -79920956.474856377 65231474.848855972 0 0 0 0 111125688.39545357 -145222478.42532921 0 -145222478.42532921 155726965.18833733 0 0 0 0 172136614.51883245 -132152363.80077839 0 -132152363.80077839 46069538.69227314 0 0 0 0 93624613.023942828 -86394833.07053566 0 -86394833.07053566 21444610.870504379 0 0 0 0 113637410.52546072 -45562100.602266312 0 -45562100.602266312 2835283.1938056946 0 0 0 0 46899754.810472101 -19024827.098909676 0 -19024827.098909676 32858308.929721832 0 0 0 0 39668106.090928316 -81059705.938018799 0 -81059705.938018799 77641156.262773514 0 0 0 0 46517533.933020592 -10824353.742966652 0 -10824353.742966652 4805325.4466190338 0 0 0 0 48246213.629091263 -18319610.626491547 0 -18319610.626491547 31891965.497267723 0 0 0 0 43048967.498345852 -45711755.190849304 0 -45711755.190849304 -5727927.2993583679 0 0 0 0 57278799.474411011 539470.63709640503 0 539470.63709640503 -10641459.327043533 0 0 0 0 14335686.755693257 -81920174.783676624 0 -81920174.783676624 -31691723.511444092 0 0 0 0 5268289.9785819054 -12539194.398511887 0 -12539194.398511887 41070865.641575813 0 0 0 0 155533295.47849846 26445729.137770653 0 26445729.137770653 -10330133.910136223 0 0 0 0 117233963.32327592 -47852207.679035187 0 -47852207.679035187 -24513729.982311249 0 0 0 0 275327232.20334375 -93460535.090269089 0 -93460535.090269089 -15894161.230581284 0 0 0 0 231675552.41252857 -153747915.57394218 0 -153747915.57394218 -21959970.189556122 0 0 0 0 255078113.40430278 -266525306.93908584 0 -266525306.93908584 -27787648.055185318 0 0 0 0 459513492.19374394 -183831070.97487926 0 -183831070.97487926 -53791236.052599669 0 0 0 0 237068517.52550447 -141295665.49565458 0 -141295665.49565458 -46568443.848711014 0 0 0 0 563396606.78704762 -333895615.64805651 0 -333895615.64805651 131247470.29902649 0 0 0 0 198037610.47035095 -221933463.75777721 0 -221933463.75777721 287404521.65446091 0 0 0 0 307069844.33659029 24654355.062697887 0 24654355.062697887 551077611.44283283 0 0 0 0 311721993.8424983 -376398589.11014605 0 -376398589.11014605 453391467.58087826 0 0 0 0 260352786.78796619 -412399107.84614182 0 -412399107.84614182 532393648.81433374 0 0 0 0 -33869471.290391088 -18544021.533849716 0 -18544021.533849716 555532083.54287362 0 0 0 0 84637502.717877477 -14579466.930529118 0 -14579466.930529118 1142014.8825531006 0 0 0 0 494594454.12431806 56765637.218896627 0 56765637.218896627 -63690477.9465065 0 0 0 0 1063857.0802863713 -558052.88699192693 0 -558052.88699192693 414742.71104493085 0 0 0 0 -159874017.66757321 -7309433.6914272308 0 -7309433.6914272308 17313982.367588043 0 0 0 0 -91791028.801871538 11432317.052672386 0 11432317.052672386 36662488.324050665 0 0 0 0 -29628697.086858153 -51993563.650673151 0 -51993563.650673151 -35939295.112289429 0 0 0 0 608629.48756728135 -727132.62526622135 0 -727132.62526622135 106554.21248522773 0 0 0 0 -150000602.10546625 -89956470.844182014 0 -89956470.844182014 -36086047.7955717 0 0 0 0 2834110.7419911027 -45498548.855083466 0 -45498548.855083466 -163706726.00526261 0 0 0 0 463958.44388898148 -455727.33782802708 0 -455727.33782802708 -32529.242739681154 0 0 0 0 143328459.67507556 -318546887.60195255 0 -318546887.60195255 -76962088.85585022 0 0 0 0 -140974991.86105001 -63603574.158889771 0 -63603574.158889771 202158665.52874327 0 0 0 0 137074396.04876518 -308915889.11933994 0 -308915889.11933994 113675880.66368484 0 0 0 0 87604626.254476488 -203818425.31076193 0 -203818425.31076193 76674702.46291256 0 0 0 0 207287426.33246124 -224854447.41970754 0 -224854447.41970754 63063919.517365456 0 0 0 0 94564172.667292893 -86325656.146054268 0 -86325656.146054268 317721171.46669292 0 0 0 0 -102466682.65544868 -27277840.856694698 0 -27277840.856694698 326016078.76622963 0 0 0 0 -104770689.99724776 -120319386.429214 0 -120319386.429214 196194892.23223019 0 0 0 0 -274782260.511136 -243199008.48979998 0 -243199008.48979998 88117994.111878395 0 0 0 0 -196085156.49978209 -624793.36020374298 0 -624793.36020374298 47143757.095754743 0 0 0 0 -353757851.08285928 -74377359.601246834 0 -74377359.601246834 -38478313.13720417 0 0 0 0 273574.28533623327 -328262.29596593929 0 -328262.29596593929 6769.6045463057235 0 0 0 0 -183676082.72192776 47367107.094404221 0 47367107.094404221 231552785.74697495 0 0 0 0 -119171857.99648535 -50314346.554536819 0 -50314346.554536819 -55569772.022533417 0 0 0 0 -162898350.1870451 -78635446.777694702 0 -78635446.777694702 -68227847.124586105 0 0 0 0 39424372.78988874 16221267.175429821 0 16221267.175429821 14705895.124293327 0 0 0 0 -660222.2752577567 -27292.441078386735 0 -27292.441078386735 1016718.9259344502 0 0 0 0 -576534867.09511685 69181574.91903019 0 69181574.91903019 235064778.4782486 0 0 0 0 -165918512.88915992 -80899421.573726177 0 -80899421.573726177 38295682.383302689 0 0 0 0 -494195675.43235898 293633800.11142921 0 293633800.11142921 -244994636.37409496 0 0 0 0 -404503515.17923188 -106350459.7786268 0 -106350459.7786268 63777283.287143707 0 0 0 0 -188015902.32297128 -13817770.155542374 0 -13817770.155542374 101899010.5117979 0 0 0 0 -202809471.70493376 351282283.36079121 0 351282283.36079121 9664874.5466228724 0 0 0 0 -106912111.29862016 215152400.70200157 0 215152400.70200157 351040496.62729859 0 0 0 0 -98591041.172964916 48188345.680028915 0 48188345.680028915 279223113.60079765 0 0 0 0 -136939061.78083897 77447274.22736907 0 77447274.22736907 257718266.38398552 0 0 0 0 -57588213.266043797 119090368.00624466 0 119090368.00624466 400936035.93549728 0 0 0 0 4666944.2658980414 69526011.645470142 0 69526011.645470142 533958347.09844398 0 0 0 0 -222892441.25725153 -28543159.378179073 0 -28543159.378179073 511338504.63654804 0 0 0 0 -269511320.3046692 39911584.953843594 0 39911584.953843594 945303955.68992996 0 0 0 0 -281213918.5486151 174985945.65637159 0 174985945.65637159 650214218.19114327 0 0 0 0 -196866540.2784631 176010291.5921917 0 176010291.5921917 646962342.26840782 0 0 0 0 62701372.133397885 144875666.28879833 0 144875666.28879833 944785722.41127503 0 0 0 0 -304033273.48276377 20177758.187707007 0 20177758.187707007 1006999478.4300556 0 0 0 0 -361183508.86719292 353650539.34302425 0 353650539.34302425 749360632.81313896 0 0 0 0 122705221.43305652 -293198428.93783045 0 -293198428.93783045 549757674.93781567 0 0 0 0 208037542.58281285 -275040056.02588654 0 -275040056.02588654 375025705.68999493 0 0 0 0 323593083.78007996 -342123413.31105804 0 -342123413.31105804 369401012.87075889 0 0 0 0 176545948.50977549 -385461059.41243124 0 -385461059.41243124 434716618.93887424 0 0 0 0 273586536.21901435 -397028578.1287179 0 -397028578.1287179 418490998.12186813 0 0 0 0 84771262.683815002 -311858234.6658721 0 -311858234.6658721 502665217.98204041 0 0 0 0 539743085.77913499 -120439933.23592353 0 -120439933.23592353 527204716.33032131 0 0 0 0 124440289.5650745 -164660697.73565722 0 -164660697.73565722 497123083.26939964 0 0 0 0 -15882944.835084677 18485953.158977509 0 18485953.158977509 631439115.63794231 0 0 0 0 -37842680.968051061 289829599.11754942 0 289829599.11754942 398434229.470016 0 0 0 0 84888373.153833002 -393050022.15851021 0 -393050022.15851021 400064316.66917992 0 0 0 0 -466.73200147084913 -146407.77544268325 0 -146407.77544268325 714806.37510366924 0 0 0 0 240744065.57453337 -307415811.56784439 0 -307415811.56784439 97722061.879358292 0 0 0 0 24463290.625096228 86694451.59540379 0 86694451.59540379 126638185.67633057 0 0 0 0 60189781.449860066 -371690682.57851124 0 -371690682.57851124 398781233.82375097 0 0 0 0 -178654034.51579261 -180984253.64418697 0 -180984253.64418697 943112071.40462208 0 0 0 0 -3541.6688532169055 -253376.0730644961 0 -253376.0730644961 721208.45824509952 0 0 0 0 -63843763.113422707 262642695.07251182 0 262642695.07251182 316485436.31066704 0 0 0 0 -8216597.0304177292 -70624226.391571522 0 -70624226.391571522 942603022.81384349 0 0 0 0 219629041.44662651 -326167070.34545517 0 -326167070.34545517 514963816.23922634 0 0 0 0 27223057.492563967 -290714875.77234221 0 -290714875.77234221 945067481.83505726 0 0 0 0 -1809153.4962933846 -91384065.870900035 0 -91384065.870900035 490361406.14816952 0 0 0 0 35606177.351327315 -322923820.42784393 0 -322923820.42784393 624563672.15293312 0 0 0 0 210082922.82595369 -508394968.77222633 0 -508394968.77222633 568752474.93114758 0 0 0 0 58075931.53769394 -458695090.87175226 0 -458695090.87175226 945380301.17314816 0 0 0 0 163591244.2940501 -344274003.9239707 0 -344274003.9239707 469501777.97433233 0 0 0 0 163763042.43542063 -411490540.89558411 0 -411490540.89558411 546070494.05709267 0 0 0 0 636099.64642849064 -554936.91591224028 0 -554936.91591224028 1648766.0481627118 0 0 0 0 259798528.64335462 -652520819.96317315 0 -652520819.96317315 942689915.31730902 0 0 0 0 864727646.4380728 -596110032.81058192 0 -596110032.81058192 270137506.98427296 0 0 0 0 388280.36046881531 -884887.68253319652 0 -884887.68253319652 4152153.2763784844 0 0 0 0 7827292.9954602718 -160696110.06749344 0 -160696110.06749344 107850529.08996582 0 0 0 0 234739689.98377904 -76988047.762337685 0 -76988047.762337685 30156035.872588634 0 0 0 0 9724374.1310067177 45924788.799973011 0 45924788.799973011 27896245.258495092 0 0 0 0 166386214.51072064 -342554874.50249958 0 -342554874.50249958 432400558.18308449 0 0 0 0 168056862.88183105 -336558979.64311022 0 -336558979.64311022 438625832.77142239 0 0 0 0 184160969.52126488 -223109730.76829576 0 -223109730.76829576 147356986.98186684 0 0 0 0 250007000.57286355 -381198225.88515872 0 -381198225.88515872 361779807.8239069 0 0 0 0 52947514.597328961 -92460146.706169128 0 -92460146.706169128 197758022.1830399 0 0 0 0 89900917.634891093 -181807676.92530268 0 -181807676.92530268 261656907.38149261 0 0 0 0 123584242.4661122 -177376922.55285978 0 -177376922.55285978 234780527.93766117 0 0 0 0 4840301.9694738388 -33362546.965054035 0 -33362546.965054035 227994047.71336937 0 0 0 0 1762527.3585018516 52963887.509569645 0 52963887.509569645 90670832.426433563 0 0 0 0 371201.60611415654 -66126.715838063508 0 -66126.715838063508 -117501.17857463099 0 0 0 0 54435896.737166524 -40004404.815145493 0 -40004404.815145493 -17063619.53077507 0 0 0 0 -326293.03807687759 -31316575.879756927 0 -31316575.879756927 2707282.7202701569 0 0 0 0 74945022.213772416 -979831.91494870186 0 -979831.91494870186 19145919.468255997 0 0 0 0 50629835.027078867 26461468.894160271 0 26461468.894160271 1266279.8885192871 0 0 0 0 71927437.15035814 -657576.64871072769 0 -657576.64871072769 -14685352.657852173 0 0 0 0 105076938.04362094 -84660548.089186192 0 -84660548.089186192 78264339.179343224 0 0 0 0 31190120.076846838 37063331.385371208 0 37063331.385371208 46422320.859582901 0 0 0 0 -136654974.56603146 -22945637.583736897 0 -22945637.583736897 64165360.539681435 0 0 0 0 189839.54599316377 -986167.88135610358 0 -986167.88135610358 5265092.53728115 0 0 0 0 -13729675.310217977 30195821.479845285 0 30195821.479845285 -14090701.185398102 0 0 0 0 1604381.5470128059 3147742.9659740925 0 3147742.9659740925 9998295.2694149017 0 0 0 0 27797108.619986773 16996182.005805492 0 16996182.005805492 -6953619.6305904388 0 0 0 0 -5852811.0147140026 36970806.779006004 0 36970806.779006004 30743.827156543732 0 0 0 0 -89241492.478653669 21601723.374305725 0 21601723.374305725 19212463.684116364 0 0 0 0 -30637452.60071367 -728966.73186588287 0 -728966.73186588287 1650753.632853508 0 0 0 0 -11223934.76443541 16668171.288170815 0 16668171.288170815 -2319819.7255115509 0 0 0 0 22291117.523697853 21142786.325122833 0 21142786.325122833 -6308962.5601119995 0 0 0 0 -6143800.3833291531 6637964.194940567 0 6637964.194940567 16999832.841533661 0 0 0 0 23329899.784601927 18035318.662311554 0 18035318.662311554 -2097991.7496967316 0 0 0 0 1277015.6607654057 -308689.42256030207 0 -308689.42256030207 836440.88497239631 0 0 0 0 2077209.9849309921 -264901.76990604401 0 -264901.76990604401 2445058.6615219116 0 0 0 0 1336401.5693110116 -566066.29136109632 0 -566066.29136109632 -67934.781956993975 0 0 0 0 -91263014.880055428 -58554509.683668137 0 -58554509.683668137 -10926136.629402399 0 0 0 0 -15922874.053558826 -15641797.058585167 0 -15641797.058585167 -21428329.889568329 0 0 0 0 504797.89954948425 -6105851.069662571 0 -6105851.069662571 -31256959.641641617 0 0 0 0 1866756.9364094068 -1694333.222802721 0 -1694333.222802721 1187064.5126939109 0 0 0 0 -2350589.064994812 -2414886.2703475952 0 -2414886.2703475952 -1362629.0287780762 0 0 0 0 1714999.6680223942 -34329426.374420166 0 -34329426.374420166 -1577485.5087127686 0 0 0 0 21979181.645968437 6876732.1116485596 0 6876732.1116485596 -503575.78450012207 0 0 0 0 1355625.4831982502 -371615.55006905133 0 -371615.55006905133 -599730.77516410314 0 0 0 0 4447457.1966978312 -7635898.009390831 0 -7635898.009390831 -9249165.9849696159 0 0 0 0 2260111.1179454331 -1467128.1716596205 0 -1467128.1716596205 1515496.9294310771 0 0 0 0 31196949.443788648 -6967927.6504788399 0 -6967927.6504788399 -28003395.734746933 0 0 0 0 557487.52096696128 -412458.16433782736 0 -412458.16433782736 1873641.9886741675 0 0 0 0 692753.50448823604 -335060.27750715055 0 -335060.27750715055 -421896.88815901801 0 0 0 0 26022279.397426248 12721861.145796299 0 12721861.145796299 -1832068.4131813049 0 0 0 0 6888980.4213038385 -3514645.5898894072 0 -3514645.5898894072 -7614352.1939048767 0 0 0 0 26921821.166198134 13490027.475471497 0 13490027.475471497 -5802021.2785186768 0 0 0 0 -39721509.409403086 40490317.911146283 0 40490317.911146283 -16981259.972742319 0 0 0 0 -33452771.915901035 32609320.029276073 0 32609320.029276073 -31039418.118687749 0 0 0 0 144050.91948488756 419206.64106691768 0 419206.64106691768 1359620.7629643567 0 0 0 0 110290882.81069618 -46917244.170643926 0 -46917244.170643926 29613915.256613255 0 0 0 0 59896113.17064172 -19250842.60595727 0 -19250842.60595727 17876656.091094971 0 0 0 0 39222692.839190245 -28194367.533278883 0 -28194367.533278883 63239446.459474325 0 0 0 0 14259138.067998648 -8758710.9970059395 0 -8758710.9970059395 94620303.836767912 0 0 0 0 48364941.585604727 -27909173.933063745 0 -27909173.933063745 61565698.004926205 0 0 0 0 157925586.13011092 -47615562.198409319 0 -47615562.198409319 10632786.062606335 0 0 0 0 110300843.81771989 -48358790.356673948 0 -48358790.356673948 29924013.391401291 0 0 0 0 78677540.368842244 -115009764.00260234 0 -115009764.00260234 183077224.48296905 0 0 0 0 67443230.901446044 -74710938.250872374 0 -74710938.250872374 139947934.6867609 0 0 0 0 -39590566.658887684 38636758.445303954 0 38636758.445303954 -1566588.2159087658 0 0 0 0 481787779.95278692 -279241891.50307274 0 -279241891.50307274 -20357826.750022888 0 0 0 0 -25028744.923750162 2945471.6377491951 0 2945471.6377491951 4071247.5963449478 0 0 0 0 -38883081.12895143 17616814.837813973 0 17616814.837813973 18667519.174491674 0 0 0 0 -39896906.607767701 31035747.992975473 0 31035747.992975473 16939755.136342824 0 0 0 0 -37495486.55026269 36683407.00616622 0 36683407.00616622 -4690341.9492394328 0 0 0 0 -29946715.199568748 19099552.715304613 0 19099552.715304613 4897204.2971177697 0 0 0 0 -34835083.432000488 31230266.358159125 0 31230266.358159125 -17840519.848117113 0 0 0 0 -59006657.386767477 53003323.672141343 0 53003323.672141343 -21901465.435512662 0 0 0 0 -43151671.107872307 32361678.947388947 0 32361678.947388947 -7452391.1036778688 0 0 0 0 -41046396.796179235 41994495.126750648 0 41994495.126750648 -13728772.587133408 0 0 0 0 -57229000.619798362 40219477.719446421 0 40219477.719446421 -6976780.5474299192 0 0 0 0 -37284297.040592194 39815806.908235312 0 39815806.908235312 -12316134.897462726 0 0 0 0 -41941523.623880565 37140841.348417804 0 37140841.348417804 -770948.6580748558 0 0 0 0 554614.83543477533 -2607907.4838671712 0 -2607907.4838671712 62042.064625543542 0 0 0 0 -129720462.37285876 39214509.185738027 0 39214509.185738027 2458286.3245525956 0 0 0 0 -34771992.988428831 11751554.991055489 0 11751554.991055489 14338433.693909645 0 0 0 0 -94067.087426727332 -905858.75839468208 0 -905858.75839468208 6222344.2073418871 0 0 0 0 -104013987.0879744 19252587.304653466 0 19252587.304653466 5330317.7334716916 0 0 0 0 -63160844.916845441 12408209.36614418 0 12408209.36614418 1002689.6212966442 0 0 0 0 -23042278.656643301 7721550.9780167937 0 7721550.9780167937 -4522076.3757463694 0 0 0 0 474686.30506623437 -2577732.3465366592 0 -2577732.3465366592 -90882.841872304678 0 0 0 0 -30686869.986139044 -7368581.2112901211 0 -7368581.2112901211 23493183.04747963 0 0 0 0 102915.49070589886 -973134.60137576668 0 -973134.60137576668 5813604.2779982369 0 0 0 0 -31414460.53898561 6512767.8660959005 0 6512767.8660959005 462279.52795124054 0 0 0 0 -28998077.239412382 8190172.8918699324 0 8190172.8918699324 -584472.07857322693 0 0 0 0 -38796992.60812816 36227554.419922173 0 36227554.419922173 -17009740.770442963 0 0 0 0 -51227676.46520707 23875148.299362779 0 23875148.299362779 -7036956.694209516 0 0 0 0 -38359787.541999653 33916500.581789404 0 33916500.581789404 -4886123.0905237198 0 0 0 0 -23050191.544903368 13629937.722541571 0 13629937.722541571 -4795109.9428881705 0 0 0 0 -32589209.026022792 28546157.1350227 0 28546157.1350227 -12226972.559924424 0 0 0 0 -34362811.953852229 26381967.002985001 0 26381967.002985001 -14821225.009060979 0 0 0 0 -15997400.645193011 10426974.456716657 0 10426974.456716657 -12655824.340906411 0 0 0 0 -21940682.682750911 4799396.8867266178 0 4799396.8867266178 90874.037670612335 0 0 0 0 -30874294.63202244 23495227.640804052 0 23495227.640804052 -18064194.705040693 0 0 0 0 -7954669.6231515706 989218.88875478506 0 989218.88875478506 3865369.130905509 0 0 0 0 122876.90982246847 -584900.96913144563 0 -584900.96913144563 -9063.4515583547764 0 0 0 0 -32871985.166559324 13608667.425101519 0 13608667.425101519 -99641965.605176926 0 0 0 0 -11537268.123862304 -2863136.9064429998 0 -2863136.9064429998 -263640.24385243282 0 0 0 0 -13164237.488167658 -5103859.0748132467 0 -5103859.0748132467 -4674312.9899893999 0 0 0 0 -42192315.498341575 -52024330.949665725 0 -52024330.949665725 5512284.9304840565 0 0 0 0 -60991371.063473523 -28010982.027819693 0 -28010982.027819693 77650822.101157188 0 0 0 0 -18303063.576272666 -27153596.697313666 0 -27153596.697313666 25844032.186869085 0 0 0 0 -13266171.543938726 -9048819.7696120739 0 -9048819.7696120739 28161467.715011358 0 0 0 0 -14035550.038372748 -31508008.815024614 0 -31508008.815024614 -2692084.8258168697 0 0 0 0 -912848.82766109705 1804189.4443938732 0 1804189.4443938732 -15922679.829802871 0 0 0 0 -7947485.2273730189 -325712.5833235085 0 -325712.5833235085 -6827908.0284204483 0 0 0 0 361168.65523798764 -18889927.48028338 0 -18889927.48028338 7584186.0933864117 0 0 0 0 16908120.041168004 -17952317.234807968 0 -17952317.234807968 3300642.91568923 0 0 0 0 18541717.640285909 11198883.082036734 0 11198883.082036734 -10053437.525716573 0 0 0 0 -32555898.89694339 35673917.765326619 0 35673917.765326619 -11456496.560969591 0 0 0 0 -11612634.41837582 23827866.862216473 0 23827866.862216473 -33760695.789279461 0 0 0 0 -21910890.41584605 14958176.86162746 0 14958176.86162746 -7750131.5373796821 0 0 0 0 -70047831.464994758 37833121.146957755 0 37833121.146957755 -15937269.540427446 0 0 0 0 -37608483.716822684 15404539.479413986 0 15404539.479413986 -23640812.011331528 0 0 0 0 52363354.544102907 -42613124.854360342 0 -42613124.854360342 18179876.390515327 0 0 0 0 161652.5380309255 561253.84447315568 0 561253.84447315568 1867695.481114764 0 0 0 0 149223518.0524973 -80497039.276579857 0 -80497039.276579857 -50883094.16214323 0 0 0 0 -68762683.91367054 72385942.088674039 0 72385942.088674039 -36662392.396889448 0 0 0 0 142057152.03721583 -52271588.55797863 0 -52271588.55797863 52163792.358200073 0 0 0 0 -17583855.580782473 1185461.3719166517 0 1185461.3719166517 -37465568.436036766 0 0 0 0 -22104901.524770975 41678530.004374981 0 41678530.004374981 -71388995.690936327 0 0 0 0 -20454237.103078187 -12455500.485632181 0 -12455500.485632181 -11825105.739170471 0 0 0 0 -95772127.888993979 78896036.581931353 0 78896036.581931353 61827945.77662456 0 0 0 0 -25049344.049917996 6337516.965862155 0 6337516.965862155 58894439.972783327 0 0 0 0 20786927.051050395 16139362.55643028 0 16139362.55643028 60382991.044031307 0 0 0 0 -42528293.404866427 -48016109.214152157 0 -48016109.214152157 376003421.90291715 0 0 0 0 8304057.0843980089 -26550830.80432722 0 -26550830.80432722 10459811.848162055 0 0 0 0 43096203.747381926 -1932795.6595031023 0 -1932795.6595031023 -22063918.434179328 0 0 0 0 -2345873.8042611927 -48626725.707350969 0 -48626725.707350969 -25122427.15141511 0 0 0 0 22656050.859310657 -21343959.221891761 0 -21343959.221891761 -7840620.4317190051 0 0 0 0 41165233.785891317 38363859.204397559 0 38363859.204397559 27583373.715758264 0 0 0 0 10153603.382684432 -7745971.1077462733 0 -7745971.1077462733 31375725.713854313 0 0 0 0 -958115.10081359744 -6093113.7301609516 0 -6093113.7301609516 171922737.57516301 0 0 0 0 -61225784.820039682 32452302.342971891 0 32452302.342971891 135534525.65413952 0 0 0 0 21399473.923989594 4348388.0227755308 0 4348388.0227755308 141693899.10198307 0 0 0 0 85105856.87625666 168766746.95510709 0 168766746.95510709 280202785.3868134 0 0 0 0 -161749417.66326487 242314773.03385749 0 242314773.03385749 945137218.88813531 0 0 0 0 310528863.21832383 467817512.66948569 0 467817512.66948569 407838269.98730659 0 0 0 0 -161599914.36751878 241493002.80043578 0 241493002.80043578 942987118.30796552 0 0 0 0 -130413150.87814094 17801558.942719519 0 17801558.942719519 577846495.12863302 0 0 0 0 -136811447.90653455 -17468852.444958985 0 -17468852.444958985 394545632.87551409 0 0 0 0 -138130550.50872004 -184415418.27721003 0 -184415418.27721003 944977496.89121318 0 0 0 0 -8332672.1902272999 -162964580.23301736 0 -162964580.23301736 298885574.07294536 0 0 0 0 -64812.526637295523 -139185.09440289222 0 -139185.09440289222 1247524.6770099322 0 0 0 0 171912593.58118173 -505291311.43460608 0 -505291311.43460608 943331414.75835156 0 0 0 0 14902137.689269602 201769806.70904803 0 201769806.70904803 196882487.44014978 0 0 0 0 -81323918.4452613 119751423.41217661 0 119751423.41217661 942954829.74835539 0 0 0 0 -52727752.686935641 -214161355.81117809 0 -214161355.81117809 943158737.58013296 0 0 0 0 -65218108.59883824 -45385607.972461581 0 -45385607.972461581 324642159.117486 0 0 0 0 57867958.192623615 -39827561.520371914 0 -39827561.520371914 324827813.07494402 0 0 0 0 130435988.6783565 -78383925.657634854 0 -78383925.657634854 77274202.25256443 0 0 0 0 58673169.307720892 -85090858.025046587 0 -85090858.025046587 -13942235.732799888 0 0 0 0 109428818.70661953 -2623242.9693852663 0 -2623242.9693852663 74262245.836693525 0 0 0 0 26591687.151327088 -48672200.773659468 0 -48672200.773659468 -6940536.0472550392 0 0 0 0 116931354.76241571 -70489568.670985222 0 -70489568.670985222 -1906722.6750743389 0 0 0 0 18771547.521868706 16989800.530881643 0 16989800.530881643 -10964329.343285799 0 0 0 0 121173428.20361833 21288404.2759936 0 21288404.2759936 -25007740.209998608 0 0 0 0 75824188.637871981 -15875423.840617418 0 -15875423.840617418 -506848.66983246803 0 0 0 0 1641480.5315452516 -958853.44740414619 0 -958853.44740414619 138546.45673709363 0 0 0 0 23555350.127061397 -50886965.954297662 0 -50886965.954297662 20091832.41703558 0 0 0 0 9655302.1294086277 -28501066.894144535 0 -28501066.894144535 26643827.431012511 0 0 0 0 27501867.653733067 -46026987.452362835 0 -46026987.452362835 23071663.729730844 0 0 0 0 110448.37822409952 565094.45086005365 0 565094.45086005365 2204324.1677343706 0 0 0 0 45529864.134400755 -56885149.356498003 0 -56885149.356498003 29602826.936177492 0 0 0 0 45689128.685051307 -60914506.49056077 0 -60914506.49056077 67109212.574346066 0 0 0 0 -62186589.767596953 -45921763.995066702 0 -45921763.995066702 317667363.99794209 0 0 0 0 28417.813078899409 346488.73251611576 0 346488.73251611576 2118288.6838283511 0 0 0 0 -60144506.642512858 -36457113.841497421 0 -36457113.841497421 42461354.353891611 0 0 0 0 -802558.33529981971 11499843.859942198 0 11499843.859942198 20227638.120679379 0 0 0 0 46026960.317904457 -45847037.518732548 0 -45847037.518732548 26560879.563331127 0 0 0 0 853276.67585624428 634709.24998086714 0 634709.24998086714 1061027.794762766 0 0 0 0 96644.20677064301 -107158.09547983711 0 -107158.09547983711 400999.9459023769 0 0 0 0 11027170.665320203 -199358596.5593105 0 -199358596.5593105 463069947.48550606 0 0 0 0 -85483431.862235606 135790015.55326104 0 135790015.55326104 934907759.43585205 0 0 0 0 171096369.58197016 32176962.187803745 0 32176962.187803745 -95838048.167023182 0 0 0 0 14506174.338915644 13133010.053695679 0 13133010.053695679 -97226934.999582052 0 0 0 0 -170661578.73552608 -16838639.052666187 0 -16838639.052666187 941082959.67576551 0 0 0 0 266644.19770273136 -86836.826485280966 0 -86836.826485280966 716405.71004023822 0 0 0 0 42161140.027292833 183096317.96870208 0 183096317.96870208 537511052.37589979 0 0 0 0 138060884.40056086 -257893361.73576486 0 -257893361.73576486 235520504.26993918 0 0 0 0 75797748.710003242 53789405.321765661 0 53789405.321765661 -67696455.272926807 0 0 0 0 -108390272.90799674 4614924.0771099329 0 4614924.0771099329 40275508.91953826 0 0 0 0 16505144.51476752 10421059.741394848 0 10421059.741394848 -19094705.521509647 0 0 0 0 -4585773.1839441657 34383559.905644178 0 34383559.905644178 -6824684.7729303837 0 0 0 0 -1790539.5323638362 2022653.0676460266 0 2022653.0676460266 16801161.154467523 0 0 0 0 14130.76670953448 790301.44956694194 0 790301.44956694194 2112148.9375242037 0 0 0 0 268597.5147379344 -84953.889720668725 0 -84953.889720668725 1542403.114060184 0 0 0 0 3206981.303335093 -2789003.28687644 0 -2789003.28687644 -62008722.946350098 0 0 0 0 -10371919.205788912 -6831406.1304056644 0 -6831406.1304056644 14498925.715872765 0 0 0 0 17165048.540283129 10106606.182881162 0 10106606.182881162 4802840.8622226715 0 0 0 0 185585.48462324028 65546.11694158992 0 65546.11694158992 671864.55755740358 0 0 0 0 -9228476.6887907349 17229512.191657782 0 17229512.191657782 -53211660.441555023 0 0 0 0 394842.19214698533 675198.41409830202 0 675198.41409830202 431798.76195725892 0 0 0 0 2643068.2103769183 3212318.2164640427 0 3212318.2164640427 -360826.56624698639 0 0 0 0 870093.87433966994 2326617.8361558914 0 2326617.8361558914 1525343.2373743057 0 0 0 0 -2048976.9698642811 1424011.2235923223 0 1424011.2235923223 6646054.314573288 0 0 0 0 -2041116.6781383157 576230.63510322571 0 576230.63510322571 5887549.7522602081 0 0 0 0 -1184690.9029924273 1225613.2593029737 0 1225613.2593029737 4558352.9681339264 0 0 0 0 -1275599.5151236206 960052.98232400417 0 960052.98232400417 5642394.3727779388 0 0 0 0 166353.20826447499 1157336.4723824151 0 1157336.4723824151 3659410.6491389247 0 0 0 0 -137153.18802826112 75337.942436539102 0 75337.942436539102 3081342.0300396583 0 0 0 0 -785057.03735219687 202467.61157867312 0 202467.61157867312 453101.63167190552 0 0 0 0 -732631.28676885366 863541.31799459457 0 863541.31799459457 5630541.5256552696 0 0 0 0 -114359.62710578596 73316.447819046269 0 73316.447819046269 3000940.4180854158 0 0 0 0 77739.932666176552 210599.58694269086 0 210599.58694269086 2633841.9505345905 0 0 0 0 -23337638.573214054 6320276.5601069927 0 6320276.5601069927 4543476.118065834 0 0 0 0 -19155077.919348717 3865675.0823221207 0 3865675.0823221207 4264685.5244162083 0 0 0 0 6207340.0719753802 7937092.4631187916 0 7937092.4631187916 -3992760.0235128403 0 0 0 0 987174.32589995861 8650184.9727678299 0 8650184.9727678299 -4074099.1964149475 0 0 0 0 -1617910.5174145401 18549883.553569794 0 18549883.553569794 -5397698.0895900726 0 0 0 0 -6272059.3606456518 21575617.74776268 0 21575617.74776268 -6551585.1622138023 0 0 0 0 -28035500.166987091 36902736.943899393 0 36902736.943899393 -8458958.1876335144 0 0 0 0 -52726336.859334886 40413234.061840773 0 40413234.061840773 -13208023.958954334 0 0 0 0 -42879540.560452133 -27619991.62925446 0 -27619991.62925446 38876501.417996883 0 0 0 0 3222116.0220969459 2917037.1024541855 0 2917037.1024541855 761739.75692176819 0 0 0 0 -70373.314366686929 25828.688445798587 0 25828.688445798587 162101.07431967254 0 0 0 0 -66172659.86464417 -28320008.097187996 0 -28320008.097187996 24512224.970790863 0 0 0 0 31771371.663888231 15756114.256383717 0 15756114.256383717 -22423931.436620712 0 0 0 0 12961420.118245721 29285162.190626144 0 29285162.190626144 -22267705.824724197 0 0 0 0 22038053.237851381 -9860523.4856653214 0 -9860523.4856653214 -1059764.441576004 0 0 0 0 9550704.7219520807 -8232853.7219283581 0 -8232853.7219283581 7803366.4361557961 0 0 0 0 14229075.329840124 14442059.468930244 0 14442059.468930244 13613774.07134223 0 0 0 0 137952.01847499955 -26475.595022198278 0 -26475.595022198278 40.324607884191209 0 0 0 0 34495161.721546225 -271051.95599710941 0 -271051.95599710941 -13929366.366713524 0 0 0 0 8855055.6437920332 -760110.30236816406 0 -760110.30236816406 -4404314.3703398705 0 0 0 0 11909138.412959635 1625867.3611755371 0 1625867.3611755371 -4386060.3343982697 0 0 0 0 9717692.0854626894 9110074.9915118217 0 9110074.9915118217 -10453156.749037623 0 0 0 0 6491562.0044364929 3414677.3634204865 0 3414677.3634204865 -4960903.5278282166 0 0 0 0 7645418.0969080329 288795.84179234505 0 288795.84179234505 -2958812.8086299896 0 0 0 0 6909295.5001227558 1114084.165481329 0 1114084.165481329 -842931.46484947205 0 0 0 0 4106300.5632116199 2448264.0110038519 0 2448264.0110038519 -1162189.9440584183 0 0 0 0 4587552.744778553 6072610.1127658635 0 6072610.1127658635 -3146853.5990943909 0 0 0 0 3831226.6025845408 3531786.7508294582 0 3531786.7508294582 -673797.30617380142 0 0 0 0 4607342.2325516343 3707576.1270914078 0 3707576.1270914078 -1576275.9674739838 0 0 0 0 2392948.1887195706 1748682.4466047287 0 1748682.4466047287 2831060.3519382477 0 0 0 0 430937.32079458237 1927199.1390662193 0 1927199.1390662193 4646105.2602853775 0 0 0 0 -8641779.750257194 -12327745.143374264 0 -12327745.143374264 2036776.7205367088 0 0 0 0 -7272813.7969103903 -8434588.0582075268 0 -8434588.0582075268 2216413.0258388519 0 0 0 0 -6729328.1290512085 -5059072.3921532631 0 -5059072.3921532631 -121780.52941679955 0 0 0 0 -7366048.7618622705 -10069125.258494645 0 -10069125.258494645 -4011904.5784549713 0 0 0 0 -86983.359631331405 78327.208833575249 0 78327.208833575249 496688.73299617053 0 0 0 0 -7980814.5708105564 -13224925.842178494 0 -13224925.842178494 -3326105.5803794861 0 0 0 0 -21268018.032810688 44752937.316062927 0 44752937.316062927 -16512844.226439714 0 0 0 0 -476236.60725146532 2796933.6031754017 0 2796933.6031754017 3924240.647895813 0 0 0 0 -1139639.4470376968 2907402.4902219772 0 2907402.4902219772 5058894.3488149643 0 0 0 0 519592.76527295308 -30941.866714280797 0 -30941.866714280797 2011581.4470213598 0 0 0 0 -35593.396919548512 3309971.0946559906 0 3309971.0946559906 4624377.4370856285 0 0 0 0 11723200.801388741 8428243.9677991867 0 8428243.9677991867 22159200.461421013 0 0 0 0 -504746.30822742893 155095.55316145255 0 155095.55316145255 1819070.9946921137 0 0 0 0 1639444.504861623 2471050.5535740852 0 2471050.5535740852 3794650.0531377792 0 0 0 0 461162.06231997162 665413.51290154457 0 665413.51290154457 3197148.5578374863 0 0 0 0 -748130.41370484233 2652298.1608128548 0 2652298.1608128548 4239811.8174200058 0 0 0 0 -2762674.3301356435 1856560.1194257736 0 1856560.1194257736 3866351.3582399189 0 0 0 0 -1641243.9902247787 3593272.957005024 0 3593272.957005024 3471123.3820009232 0 0 0 0 -1189233.7850005031 5153803.2899565697 0 5153803.2899565697 1376973.7647428513 0 0 0 0 955897.92704743147 3278941.7846086025 0 3278941.7846086025 1706740.5248737335 0 0 0 0 -4795934.442938745 7940378.1266121864 0 7940378.1266121864 275036.4615945816 0 0 0 0 -2594588.4639297128 1921045.3637375832 0 1921045.3637375832 3476941.954574585 0 0 0 0 -5424404.6636039019 2110789.1809315681 0 2110789.1809315681 4239065.1394178867 0 0 0 0 -5675350.3615953922 -951462.39825725555 0 -951462.39825725555 1600749.2357711792 0 0 0 0 -502570.13895846158 458908.20161900064 0 458908.20161900064 3336882.0049953242 0 0 0 0 -4057901.0535168052 810036.69392299652 0 810036.69392299652 3935220.5658454895 0 0 0 0 428751.88867444673 -877318.32759440714 0 -877318.32759440714 2530261.2379333475 0 0 0 0 -1887716.7138326019 392175.18566775322 0 392175.18566775322 5478565.7089767456 0 0 0 0 622667.80370721943 -80829.527053086524 0 -80829.527053086524 2353253.9956275527 0 0 0 0 -3288363.6616178751 -1193995.1457147598 0 -1193995.1457147598 897060.52998733521 0 0 0 0 1104594.9069700539 1308518.5311532021 0 1308518.5311532021 3624544.3949670792 0 0 0 0 3153996.950756669 -886708.17924928665 0 -886708.17924928665 1851122.6845855713 0 0 0 0 -3019311.0548545718 -181011.08307933807 0 -181011.08307933807 6225786.5495891571 0 0 0 0 -1696352.2104690671 -981843.60835170746 0 -981843.60835170746 4304566.7449426651 0 0 0 0 -2388897.3114715219 -627593.36417293549 0 -627593.36417293549 4129840.3636045456 0 0 0 0 -2496733.8606507778 356946.2683801651 0 356946.2683801651 5900670.8914718628 0 0 0 0 -2297089.6913974881 748471.10916686058 0 748471.10916686058 6078502.9509181976 0 0 0 0 4335527.1732084751 -17662996.424429417 0 -17662996.424429417 -71669547.022150755 0 0 0 0 -13184509.043638229 -11545026.085580826 0 -11545026.085580826 -40992741.915668249 0 0 0 0 -8537149.4371608496 -17443068.870321274 0 -17443068.870321274 -13295208.00707376 0 0 0 0 -3819555.0452654362 -31564753.368145227 0 -31564753.368145227 -24145935.65859437 0 0 0 0 -5907189.5803389102 -15017464.125788897 0 -15017464.125788897 -36515400.90937233 0 0 0 0 -1377497.2780110836 -35594235.509653807 0 -35594235.509653807 -8176352.0491430759 0 0 0 0 65280950.49686873 5739518.0928304195 0 5739518.0928304195 -138460471.14625525 0 0 0 0 39452540.326334 -12249498.560828447 0 -12249498.560828447 -47882998.623337373 0 0 0 0 -20660380.409931183 1869257.4304850101 0 1869257.4304850101 -46812288.382473409 0 0 0 0 -9065452.786208272 -30773827.062604904 0 -30773827.062604904 -48996187.964293718 0 0 0 0 34394630.616112433 -45964754.354654074 0 -45964754.354654074 65244293.867605686 0 0 0 0 108059.33880541779 29931.136552993907 0 29931.136552993907 50826.805744883342 0 0 0 0 74049772.127752662 -192647743.85773355 0 -192647743.85773355 205594389.90720606 0 0 0 0 37502525.015205383 -31608958.957487583 0 -31608958.957487583 96773808.876403093 0 0 0 0 289926.94794195832 70924.188379655243 0 70924.188379655243 145648.98538430463 0 0 0 0 14147473.476870537 -32563026.116416931 0 -32563026.116416931 79721710.429825306 0 0 0 0 16732271.435166031 -36598611.395175934 0 -36598611.395175934 61198653.322922707 0 0 0 0 -19266428.528276891 -22384692.816322565 0 -22384692.816322565 70996803.863618851 0 0 0 0 44778.647709289216 18746.028908284963 0 18746.028908284963 -24494.832339303801 0 0 0 0 17915413.143181667 -35856788.74648267 0 -35856788.74648267 32549001.005626678 0 0 0 0 13577000.438879296 -10544260.724228263 0 -10544260.724228263 8334664.571893692 0 0 0 0 376555.61535498546 -67773.687429010519 0 -67773.687429010519 891.95980052417144 0 0 0 0 25663035.413593039 -23978186.221617341 0 -23978186.221617341 15937620.059926271 0 0 0 0 -825639.16132503748 -1533843.5694282055 0 -1533843.5694282055 3583459.0448832512 0 0 0 0 7085871.3458801508 -730391.62591028214 0 -730391.62591028214 -232051.46548032761 0 0 0 0 12963.916417300701 352384.16464805603 0 352384.16464805603 -205996.4569837451 0 0 0 0 355062.29661172588 -27146.041019813681 0 -27146.041019813681 407613.51760417409 0 0 0 0 -7578081.17825225 -24033859.588620752 0 -24033859.588620752 -25379616.065471888 0 0 0 0 -4513196.8526403904 -23471265.756524324 0 -23471265.756524324 -25811242.230926633 0 0 0 0 -17077561.566981912 -5430386.971509099 0 -5430386.971509099 -5531177.8016295433 0 0 0 0 -13757404.726628661 -16410037.038003922 0 -16410037.038003922 6656658.7118582726 0 0 0 0 5410203.0783596039 1225801.0211315155 0 1225801.0211315155 -669679.2179646492 0 0 0 0 5416260.7452020645 -32894187.289873123 0 -32894187.289873123 11674090.280481756 0 0 0 0 -19165764.6874578 -16937238.164282918 0 -16937238.164282918 2872804.8709518909 0 0 0 0 486011.03053853038 -125163.1258236299 0 -125163.1258236299 952618.78337612958 0 0 0 0 -15885716.148685694 -12492138.447498918 0 -12492138.447498918 6866761.9292277098 0 0 0 0 -9151342.14640522 -11983539.579490185 0 -11983539.579490185 3132730.2108509392 0 0 0 0 -11000285.821517467 -6747265.2289277315 0 -6747265.2289277315 12533395.07887888 0 0 0 0 -10678435.727144718 -9221545.3327934742 0 -9221545.3327934742 4359879.8633112907 0 0 0 0 -14113105.501217246 -3591371.0824414492 0 -3591371.0824414492 16498010.214853883 0 0 0 0 -11862342.297260284 -4274402.692530632 0 -4274402.692530632 16231747.873539209 0 0 0 0 -9695557.5581789017 4738902.1478738785 0 4738902.1478738785 35145879.355661035 0 0 0 0 -7450063.9402930737 -12415803.298147559 0 -12415803.298147559 21990316.805470824 0 0 0 0 -12746767.462500311 -6852196.1662176773 0 -6852196.1662176773 16480083.180163383 0 0 0 0 -5242529.679104805 -28624155.174906731 0 -28624155.174906731 -277875.99268007278 0 0 0 0 -5326979.4015681241 -12978572.821750527 0 -12978572.821750527 8447203.7502932549 0 0 0 0 17492877.199344158 -27212385.632648945 0 -27212385.632648945 17312384.356570005 0 0 0 0 16964237.970050097 -26569739.053274512 0 -26569739.053274512 44301768.169996023 0 0 0 0 9299658.8105527163 -16378549.426051855 0 -16378549.426051855 51875737.421179533 0 0 0 0 6608720.1692152023 12436000.17369926 0 12436000.17369926 42198616.523506343 0 0 0 0 -2571782.6193927526 -1483761.5590213537 0 -1483761.5590213537 33927423.854124546 0 0 0 0 31803489.494838029 -10059090.473332644 0 -10059090.473332644 37548494.976743221 0 0 0 0 23256555.171788812 20724743.094902813 0 20724743.094902813 9144382.6319781542 0 0 0 0 3527109.728118062 15845906.530372024 0 15845906.530372024 48291794.690221548 0 0 0 0 -1780949.5825784206 8850411.9837465286 0 8850411.9837465286 22170872.95703125 0 0 0 0 2388435.9563497901 9633832.2034148574 0 9633832.2034148574 21321863.936313629 0 0 0 0 8509543.3139154315 14799805.674370527 0 14799805.674370527 18211799.177200556 0 0 0 0 14426751.050092131 10810558.399084955 0 10810558.399084955 10495598.296038628 0 0 0 0 15290452.39927882 12056177.424749136 0 12056177.424749136 8837043.8608881719 0 0 0 0 9999770.5274775624 10381247.949324071 0 10381247.949324071 10489495.328552574 0 0 0 0 10045198.332444131 10035733.672163539 0 10035733.672163539 10111254.219154835 0 0 0 0 1526832.2835291624 7909207.2068009377 0 7909207.2068009377 12938396.326582074 0 0 0 0 -40855915.384336948 -26549860.538349152 0 -26549860.538349152 -3802664.5388553143 0 0 0 0 -36984631.267009258 -45409125.297738671 0 -45409125.297738671 -22126224.706065178 0 0 0 0 965032.43747479608 -695063.38401300041 0 -695063.38401300041 1183707.2769125393 0 0 0 0 59643.683548688889 5071426.7140500546 0 5071426.7140500546 8797095.3960486259 0 0 0 0 -88119.804648280144 5471885.4634118676 0 5471885.4634118676 9535395.8623369932 0 0 0 0 4798522.8238730431 5755837.2965261936 0 5755837.2965261936 9075974.7116285563 0 0 0 0 4199487.6494647264 7044892.216698885 0 7044892.216698885 9424966.1171677113 0 0 0 0 -3081731.468241334 4348556.3399769068 0 4348556.3399769068 12270798.343419433 0 0 0 0 -1489723.6859941483 6625104.8356009722 0 6625104.8356009722 13098730.40887785 0 0 0 0 -870062.88210862875 4581800.9228171408 0 4581800.9228171408 10408353.406509876 0 0 0 0 -5707318.6002314091 2443318.0272920132 0 2443318.0272920132 11317728.005600929 0 0 0 0 -2951760.4867018461 3952626.7132668197 0 3952626.7132668197 11833615.117374897 0 0 0 0 -7682353.3496017456 -514992.80755281448 0 -514992.80755281448 11870547.829963207 0 0 0 0 -6097768.8997613192 3488501.7885274887 0 3488501.7885274887 16883886.735575199 0 0 0 0 -8276432.9971852303 501570.90611279011 0 501570.90611279011 13518878.861541033 0 0 0 0 -5448449.5679891109 3294601.6703517437 0 3294601.6703517437 15804736.759909213 0 0 0 0 1168144.3442651629 8367058.2244282365 0 8367058.2244282365 15120304.684485197 0 0 0 0 -9026237.2203667164 3060560.3269103765 0 3060560.3269103765 21649271.317058206 0 0 0 0 -1138480.6356348693 5746477.615885362 0 5746477.615885362 16412540.388881922 0 0 0 0 -11772957.822757125 -2178754.871817112 0 -2178754.871817112 15275551.347180843 0 0 0 0 -9530415.2740654945 -2018336.2582117319 0 -2018336.2582117319 14037370.572708845 0 0 0 0 -9341243.8546564579 -3434596.3761532307 0 -3434596.3761532307 10831918.677958965 0 0 0 0 -9776652.028367281 -5358998.9113178253 0 -5358998.9113178253 9201847.4828755856 0 0 0 0 -9088185.1924004555 -3957359.5672617704 0 -3957359.5672617704 8097250.0196123123 0 0 0 0 -9095529.4059782028 -2704297.011911869 0 -2704297.011911869 10493426.2348876 0 0 0 0 -8346406.248934269 -3878729.5843787193 0 -3878729.5843787193 6201772.8906054497 0 0 0 0 -8782356.6097335815 -4870264.6606134176 0 -4870264.6606134176 6685411.1272535324 0 0 0 0 -9193127.6625838876 -6845419.7169783115 0 -6845419.7169783115 3222348.5009231567 0 0 0 0 -6820187.3146698475 -4308827.4294801354 0 -4308827.4294801354 3050462.8621473312 0 0 0 0 -8426150.6047375202 -2035859.0916585922 0 -2035859.0916585922 5977699.1663366556 0 0 0 0 -6936759.9999863505 -3983396.9760691226 0 -3983396.9760691226 3711023.1947894096 0 0 0 0 -2741792.5309267044 -1783714.1147227287 0 -1783714.1147227287 4440808.6168708801 0 0 0 0 -8355060.6154888272 -2561400.2639359832 0 -2561400.2639359832 7687879.6130719185 0 0 0 0 -7929494.3669832945 -1730653.3179783225 0 -1730653.3179783225 8603805.3899044991 0 0 0 0 -8445006.249945879 -1328967.6502759457 0 -1328967.6502759457 10230176.424087942 0 0 0 0 -7260084.7046996355 -567460.36035841703 0 -567460.36035841703 10199742.29526186 0 0 0 0 -4017877.3263625503 -2821417.4194812775 0 -2821417.4194812775 3050185.730342865 0 0 0 0 -2318122.7473838031 -1729443.5041747093 0 -1729443.5041747093 3466108.5426158905 0 0 0 0 -1752824.3631076813 432224.2457780838 0 432224.2457780838 10354728.617042542 0 0 0 0 -3922068.8240282834 -1356117.2933382988 0 -1356117.2933382988 2268195.7631053925 0 0 0 0 -324902.40117219335 -482739.99399056286 0 -482739.99399056286 2814240.8408226129 0 0 0 0 -1106836.4677795861 1606520.5880437847 0 1606520.5880437847 3487947.0188211086 0 0 0 0 -766093.45587130112 343687.42458266427 0 343687.42458266427 5923104.5067459773 0 0 0 0 -27391225.746955276 -20920099.968585968 0 -20920099.968585968 2928689.3522453308 0 0 0 0 1251901.7126659155 16881854.672703981 0 16881854.672703981 709136.38884544373 0 0 0 0 -147766.34368667033 513443.9815232784 0 513443.9815232784 6237075.4609238803 0 0 0 0 7551054.0379902124 -1907320.8321585655 0 -1907320.8321585655 -26257142.890960693 0 0 0 0 9438165.9135289192 20530885.196956635 0 20530885.196956635 32054753.096263885 0 0 0 0 -1806142.7065777779 -692756.34522819519 0 -692756.34522819519 1354608.3477668762 0 0 0 0 -67185.161176294496 145783.86599466158 0 145783.86599466158 1071241.8276499324 0 0 0 0 -2613767.4522856474 23888871.197139978 0 23888871.197139978 28467479.351989746 0 0 0 0 -181773.53942986316 183703.63714396721 0 183703.63714396721 695408.59765714593 0 0 0 0 -1247113.3999650478 -2949076.9278669357 0 -2949076.9278669357 6578465.1758117676 0 0 0 0 10807788.39939487 19931833.041005135 0 19931833.041005135 -448064.40072631836 0 0 0 0 774652.96297662705 972781.82721662521 0 972781.82721662521 5495242.5904941559 0 0 0 0 -16075687.635919094 -10880535.146764755 0 -10880535.146764755 -1003967.9957752228 0 0 0 0 76295.155592628522 -437893.97278422862 0 -437893.97278422862 4489963.5309944153 0 0 0 0 -119136.08066935366 -87217.565730234142 0 -87217.565730234142 499609.86549810623 0 0 0 0 -9150150.2540762424 -2112562.362783432 0 -2112562.362783432 7211743.7811136246 0 0 0 0 72657.205598913133 -649321.71388185024 0 -649321.71388185024 5400001.5155944824 0 0 0 0 -12001230.521582246 4441717.0888614655 0 4441717.0888614655 16681456.725105286 0 0 0 0 -13345959.504964828 1974936.5957393646 0 1974936.5957393646 13526142.515872955 0 0 0 0 -44125271.247824669 3051916.5428638458 0 3051916.5428638458 17993281.163711548 0 0 0 0 -39805582.834554166 36703173.58030951 0 36703173.58030951 18290757.572338104 0 0 0 0 -8101883.9505448341 27727627.747135162 0 27727627.747135162 9184342.7164001465 0 0 0 0 -470942.84235732054 358604.53062624234 0 358604.53062624234 6939897.8261560015 0 0 0 0 5627460.4271166325 9031313.4878334999 0 9031313.4878334999 7590131.0850410461 0 0 0 0 -5215032.7138730288 -1953112.0098490715 0 -1953112.0098490715 14676167.039964676 0 0 0 0 -11060565.50625658 3423290.724064827 0 3423290.724064827 17116103.592887878 0 0 0 0 260867.34975248575 5642204.5608711243 0 5642204.5608711243 13598966.832216263 0 0 0 0 -10294053.567448497 5208418.614525795 0 5208418.614525795 20942195.781581879 0 0 0 0 -15939325.256495714 1100670.1216564178 0 1100670.1216564178 20119054.339623928 0 0 0 0 -6042082.716135025 2546105.1241810322 0 2546105.1241810322 10812137.847686172 0 0 0 0 -5596901.1120047569 1594986.1671848297 0 1594986.1671848297 8708989.0090215802 0 0 0 0 -6357659.8750259876 1221244.7481100559 0 1221244.7481100559 6618495.2630030662 0 0 0 0 -10660841.760532022 774746.42840850353 0 774746.42840850353 9809479.5420259237 0 0 0 0 -4465780.5365058184 1933071.7644989491 0 1933071.7644989491 8870518.1657876968 0 0 0 0 -2641063.8818193674 2246208.4455964565 0 2246208.4455964565 7362241.9481965303 0 0 0 0 -1645378.9003168344 5212786.9337778687 0 5212786.9337778687 10245879.592404842 0 0 0 0 -5587250.8160387278 3031514.6601287127 0 3031514.6601287127 11100096.459449232 0 0 0 0 -1619887.572131301 659078.83382707811 0 659078.83382707811 4669130.0264383899 0 0 0 0 5198660.9747632742 -4714044.7477426529 0 -4714044.7477426529 5931179.7483642101 0 0 0 0 -2290068.4974803925 -3543435.9509587288 0 -3543435.9509587288 3257106.4462814331 0 0 0 0 5258192.2007931173 5009280.0125832558 0 5009280.0125832558 -1100896.5818901062 0 0 0 0 -110342.90273918735 -431801.90675249975 0 -431801.90675249975 1179538.0824406212 0 0 0 0 -5647019.9090380669 4092433.6369152069 0 4092433.6369152069 -1380014.2617864609 0 0 0 0 -1141283.1908466388 921489.79587912955 0 921489.79587912955 7671383.8699036539 0 0 0 0 -13586345.048181802 -6378254.6649653912 0 -6378254.6649653912 12447445.86728096 0 0 0 0 -2658749.2419888191 -611489.14967736602 0 -611489.14967736602 5931397.772102356 0 0 0 0 -6575425.5291553736 2031843.5843906403 0 2031843.5843906403 11393339.333616257 0 0 0 0 -6813781.6211525984 -3344368.5212795734 0 -3344368.5212795734 7510180.7648181915 0 0 0 0 -2071155.4764983654 -560556.80603218079 0 -560556.80603218079 7774625.1478515863 0 0 0 0 -2086281.5369133353 597227.42620253563 0 597227.42620253563 7924817.0597743988 0 0 0 0 -3127805.8386726975 -1645255.9362435341 0 -1645255.9362435341 8671262.3469219208 0 0 0 0 -3566946.0312964916 464615.20212984085 0 464615.20212984085 7626661.1153638363 0 0 0 0 -2377795.482293555 296821.90737105813 0 296821.90737105813 6741389.3530430589 0 0 0 0 -2508164.6452112198 -572349.53815364838 0 -572349.53815364838 5899628.3734505177 0 0 0 0 -1964514.7162284255 450909.02851438522 0 450909.02851438522 6093879.9013595581 0 0 0 0 -4015503.6358700395 -142848.82462918758 0 -142848.82462918758 4681067.6268496513 0 0 0 0 134697.78182197362 -7471579.3227244914 0 -7471579.3227244914 6915420.8213829994 0 0 0 0 -2334363.4476709962 -4053964.9280029535 0 -4053964.9280029535 3990107.7325258255 0 0 0 0 -1559691.1299829483 -66945.258781433105 0 -66945.258781433105 2079151.3407478333 0 0 0 0 164777.93159425259 2065117.6474728584 0 2065117.6474728584 3097196.9403820038 0 0 0 0 28434.886828567243 -239012.4381874018 0 -239012.4381874018 15921.322079186793 0 0 0 0 -1142937.7869587988 -7366070.2753853798 0 -7366070.2753853798 19390845.184833527 0 0 0 0 -39409.780277903483 -200420.95021736354 0 -200420.95021736354 233335.0878667119 0 0 0 0 9084746.1502013206 -11657486.015613556 0 -11657486.015613556 7314390.8914985657 0 0 0 0 -1183091.5546674212 405382.2804638439 0 405382.2804638439 5497161.2960991161 0 0 0 0 -6846887.7335283756 1152554.6391046047 0 1152554.6391046047 7186267.4604215622 0 0 0 0 -4728374.4428925514 3506543.7381539345 0 3506543.7381539345 9793713.5260555744 0 0 0 0 -2415887.2256708145 1424327.6545591354 0 1424327.6545591354 4529408.6487983763 0 0 0 0 -275458.18501389027 3496977.9759893417 0 3496977.9759893417 4424517.9126472473 0 0 0 0 -3145745.7482351065 1028471.8607544899 0 1028471.8607544899 2770954.6801686287 0 0 0 0 -3551946.4099678993 -34278.190497636795 0 -34278.190497636795 3569794.5051336288 0 0 0 0 -3041836.6326060593 -251950.42130917311 0 -251950.42130917311 1413040.4944090843 0 0 0 0 -3051353.7358330488 532313.08550214767 0 532313.08550214767 4111658.8438200951 0 0 0 0 -1856472.3619757546 1366981.4139379286 0 1366981.4139379286 3845094.9669368332 0 0 0 0 -2128144.3595186118 -415304.65735578537 0 -415304.65735578537 3136175.6364631653 0 0 0 0 -4217062.6312736273 290762.28888392448 0 290762.28888392448 1205053.7430019379 0 0 0 0 -1091934.2198777143 288684.89855474001 0 288684.89855474001 1936677.9079108376 0 0 0 0 384845.00577575981 -1978908.878127944 0 -1978908.878127944 108836.67020683363 0 0 0 0 -2255692.7840717253 1844021.2579440107 0 1844021.2579440107 4075659.237937435 0 0 0 0 -7690115.2169332504 -2619151.9974565506 0 -2619151.9974565506 7097790.7100843787 0 0 0 0 -1099378.6798538486 -1296735.6471964098 0 -1296735.6471964098 4553279.7638837416 0 0 0 0 -10226023.007071018 -3257475.3114368916 0 -3257475.3114368916 7008109.8997597098 0 0 0 0 -312509.86704965448 -2190264.4731639577 0 -2190264.4731639577 4764363.8035093434 0 0 0 0 -10616960.019273043 -3616025.9609937668 0 -3616025.9609937668 9453392.7239608765 0 0 0 0 -23128718.111842155 -12245697.959686279 0 -12245697.959686279 4745598.0527334213 0 0 0 0 -15776534.608448029 -1882973.798302412 0 -1882973.798302412 9413443.3345799446 0 0 0 0 -9852927.040648222 -83454.741876363754 0 -83454.741876363754 9119630.625882864 0 0 0 0 -7868626.3576750755 3208897.3296368122 0 3208897.3296368122 10303613.425231457 0 0 0 0 -16077186.437122941 4002772.3920632079 0 4002772.3920632079 15319242.202143669 0 0 0 0 6418836.682798624 507207.1361644268 0 507207.1361644268 5882292.3036036491 0 0 0 0 -2172359.1311786175 9998973.5082023144 0 9998973.5082023144 13116195.34796536 0 0 0 0 -11995344.335318804 6321177.0154979229 0 6321177.0154979229 16172623.36159122 0 0 0 0 17936353.906691253 23591026.052384794 0 23591026.052384794 21002589.104487896 0 0 0 0 -11581495.105139732 3633942.0209827423 0 3633942.0209827423 13672947.608436584 0 0 0 0 -23363776.148182392 3510666.1022241116 0 3510666.1022241116 21125048.550918102 0 0 0 0 -43899542.660542011 -11213812.830492973 0 -11213812.830492973 17501778.980301857 0 0 0 0 -19262525.379668474 -7320560.6640051603 0 -7320560.6640051603 -3385423.5237865448 0 0 0 0 -24980150.559766531 -7067746.1680060625 0 -7067746.1680060625 49278043.348566294 0 0 0 0 26400008.233391285 -11376516.345026791 0 -11376516.345026791 2716457.414939642 0 0 0 0 -24687836.459944248 -4864030.1327035427 0 -4864030.1327035427 8327835.3278377056 0 0 0 0 -13615551.522601604 -23690675.315080643 0 -23690675.315080643 -23641873.03850092 0 0 0 0 -43304325.802666783 -26843352.916944146 0 -26843352.916944146 9681818.1961944103 0 0 0 0 4465061.5111949444 6539931.403049767 0 6539931.403049767 8822113.0999993682 0 0 0 0 -46766733.774588823 -20259691.381310463 0 -20259691.381310463 -924408.24912548065 0 0 0 0 744116.86123112869 -509431.28998004732 0 -509431.28998004732 2335799.789765893 0 0 0 0 4427708.8687326908 5262694.8794826269 0 5262694.8794826269 8936463.9464182854 0 0 0 0 -1578461.6245129108 -48392.112636685371 0 -48392.112636685371 3358701.2208263874 0 0 0 0 -133469.51889510744 489043.89944223722 0 489043.89944223722 3007518.1751105813 0 0 0 0 140134.74039310229 -1757959.2342590773 0 -1757959.2342590773 2984540.5589348702 0 0 0 0 280546.25930172205 3949437.0663951039 0 3949437.0663951039 9605643.4783440828 0 0 0 0 -16061203.548158169 -12581430.636281252 0 -12581430.636281252 4221067.2237106562 0 0 0 0 -31996054.878543019 -32821698.93935895 0 -32821698.93935895 -21453528.064519882 0 0 0 0 -131167.91154769645 -200703.31482574914 0 -200703.31482574914 564175.06409888156 0 0 0 0 5355941.7090098858 -14443034.042194366 0 -14443034.042194366 -10544278.803174973 0 0 0 0 -16739670.730296135 -5103255.4702701569 0 -5103255.4702701569 24923801.565193176 0 0 0 0 9289124.7407674789 6381766.3203296661 0 6381766.3203296661 -45772202.863256454 0 0 0 0 10090413.236542702 2378247.787191391 0 2378247.787191391 -24984036.616044998 0 0 0 0 -11185484.011106253 14162256.359828949 0 14162256.359828949 31641131.084264755 0 0 0 0 7875396.3038270473 22385915.514772415 0 22385915.514772415 425598.94341278076 0 0 0 0 -6329669.608517766 -7209766.411359787 0 -7209766.411359787 12754170.133794785 0 0 0 0 -572969.15849306365 -205411.62983840425 0 -205411.62983840425 612032.20806748897 0 0 0 0 -25786062.519049644 -3328815.2817554474 0 -3328815.2817554474 24454117.994918346 0 0 0 0 -172425.03171351342 -132394.61119419709 0 -132394.61119419709 184041.32406440063 0 0 0 0 10578663.295361042 -19327999.384807587 0 -19327999.384807587 20195384.691461563 0 0 0 0 55933282.7032547 -20807326.17556572 0 -20807326.17556572 -14406826.254545212 0 0 0 0 -6511302.2548019886 25756052.699318886 0 25756052.699318886 36037456.735656738 0 0 0 0 15877203.621641159 32861818.520860672 0 32861818.520860672 24842734.603549957 0 0 0 0 -188528.25204241765 -253080.12490010168 0 -253080.12490010168 -112538.70794118382 0 0 0 0 -29644030.156694889 37445163.218080521 0 37445163.218080521 23432679.415113449 0 0 0 0 -39467837.889257431 -21827564.561746597 0 -21827564.561746597 46907369.098941803 0 0 0 0 -2185376.2428284488 -139300.27172450721 0 -139300.27172450721 3216835.925885627 0 0 0 0 10973120.863105893 -318035.46802091599 0 -318035.46802091599 -18493522.230327606 0 0 0 0 -30311081.524829865 -7538592.0297355652 0 -7538592.0297355652 1597600.3962554932 0 0 0 0 14226082.043230057 -2046735.2784023285 0 -2046735.2784023285 2177012.9379758835 0 0 0 0 -18209146.672781467 30248200.234918594 0 30248200.234918594 -7541655.2731666565 0 0 0 0 -24654174.522958755 20193541.889092922 0 20193541.889092922 39864790.327646255 0 0 0 0 10314294.899621248 10873376.121941566 0 10873376.121941566 3156851.2838783264 0 0 0 0 562950.41550302505 -3894443.8288655281 0 -3894443.8288655281 19678526.300947189 0 0 0 0 -677200.26551762922 3532410.5932730446 0 3532410.5932730446 13604.432029482909 0 0 0 0 27406.497026920319 15463560.860779762 0 15463560.860779762 9012233.3127250671 0 0 0 0 -114787.37387514114 15082823.46100235 0 15082823.46100235 20113512.857351303 0 0 0 0 -1689807.4809336606 3307742.1453643404 0 3307742.1453643404 -236279.76403409382 0 0 0 0 -4933886.605442524 17892427.23160553 0 17892427.23160553 27153515.615587234 0 0 0 0 -14853125.035681725 2092860.6076011658 0 2092860.6076011658 34620132.17206192 0 0 0 0 1455266.0930790901 10920862.102198601 0 10920862.102198601 20355827.90845871 0 0 0 0 -2491452.0692021335 3331823.0026549157 0 3331823.0026549157 23408.34404962603 0 0 0 0 -15067372.890003204 10382986.394916534 0 10382986.394916534 21093074.467325211 0 0 0 0 -12348933.852405548 6171426.5107364655 0 6171426.5107364655 17887016.35943985 0 0 0 0 -25186255.944763184 14397354.124874115 0 14397354.124874115 18432279.767276764 0 0 0 0 -18898420.558542252 3594479.6676902771 0 3594479.6676902771 20856836.044647217 0 0 0 0 -19379687.23906219 7109545.2335553169 0 7109545.2335553169 7637351.199798584 0 0 0 0 -20635490.207275391 17314048.46840477 0 17314048.46840477 4383958.7911982536 0 0 0 0 -25054942.909293175 12532549.585922241 0 12532549.585922241 24022541.382250786 0 0 0 0 17037079.353596687 -18524806.183641434 0 -18524806.183641434 14986637.245025635 0 0 0 0 16271996.741633058 -8791587.9685125351 0 -8791587.9685125351 8299310.737411499 0 0 0 0 2274.2266477248631 -383816.3022116106 0 -383816.3022116106 837047.1687333826 0 0 0 0 3951553.1830196381 2352371.5742511749 0 2352371.5742511749 16994344.566774368 0 0 0 0 7534907.5645518303 -25648280.863807678 0 -25648280.863807678 40361138.508575439 0 0 0 0 -549458.88974189758 -7472252.2543067932 0 -7472252.2543067932 27575822.521503448 0 0 0 0 -5945747.5007743835 3433976.3616981506 0 3433976.3616981506 44953273.237318993 0 0 0 0 -8463329.1431159973 7959182.6881103516 0 7959182.6881103516 37091264.419528961 0 0 0 0 -942939.61058759689 167016.13500213623 0 167016.13500213623 6479261.0854024887 0 0 0 0 -1758212.6052946006 149743.64856833662 0 149743.64856833662 4225450.8058425952 0 0 0 0 -5330809.7591357231 -262761.49124526978 0 -262761.49124526978 1719040.8633823395 0 0 0 0 -19414884.386920929 -4770543.0546722412 0 -4770543.0546722412 18277459.365127563 0 0 0 0 -1739228.8771124757 1624599.06566314 0 1624599.06566314 4969807.4587999769 0 0 0 0 -575532.98091697693 1824480.6014709473 0 1824480.6014709473 12584344.339765072 0 0 0 0 -17804223.001416206 -2908081.3881378174 0 -2908081.3881378174 18199451.924682617 0 0 0 0 -17039693.96508503 8104356.1077785492 0 8104356.1077785492 17502646.918235779 0 0 0 0 -6260112.5990282297 1244488.053958416 0 1244488.053958416 2209310.3033561707 0 0 0 0 -1716973.521779381 -2682588.7254313556 0 -2682588.7254313556 6297698.9287797026 0 0 0 0 -6417091.5457136631 357620.7280921936 0 357620.7280921936 -141198.5598192215 0 0 0 0 -7155021.9063396454 1781055.3803405762 0 1781055.3803405762 15577506.674659729 0 0 0 0 -13757722.939271927 -8050337.1418991089 0 -8050337.1418991089 9126477.1939849854 0 0 0 0 -862355.43782997131 -10655000.286945343 0 -10655000.286945343 19800918.812149048 0 0 0 0 -3765156.9609260559 -899660.95388031006 0 -899660.95388031006 13920493.693805695 0 0 0 0 -5823626.7554569244 4388794.6937828064 0 4388794.6937828064 4778833.304901123 0 0 0 0 -2286147.2156996056 -2703.8679876932874 0 -2703.8679876932874 6655159.3674525116 0 0 0 0 -2126553.4563872432 -808229.0583046563 0 -808229.0583046563 8396324.8381590322 0 0 0 0 -2004882.2640082575 133327.10925999004 0 133327.10925999004 4541723.1307590995 0 0 0 0 -1642647.4918814301 -1439852.9816632271 0 -1439852.9816632271 5940801.1137542725 0 0 0 0 -11832772.694136024 -4764535.5252342224 0 -4764535.5252342224 9127495.0646896362 0 0 0 0 -5318583.2899764776 -3301917.4932603836 0 -3301917.4932603836 1003148.542755127 0 0 0 0 -69276.613945814315 325637.18265255436 0 325637.18265255436 -72000.81811055541 0 0 0 0 6167671.7764492035 -4928228.8304157257 0 -4928228.8304157257 5328434.0909080505 0 0 0 0 -50950.912702355534 -130719.12189081218 0 -130719.12189081218 132425.33394990209 0 0 0 0 23757987.539871514 8624477.2632813454 0 8624477.2632813454 9672849.4403610229 0 0 0 0 -1582316.1406305614 -26853.240893308073 0 -26853.240893308073 2524715.1761272578 0 0 0 0 29897893.125360489 -437519.68504333496 0 -437519.68504333496 5702696.7883453369 0 0 0 0 -1370510.7506637573 1887761.5265445709 0 1887761.5265445709 9052505.0295872688 0 0 0 0 -23671159.613126755 20204369.210418701 0 20204369.210418701 12179457.145690918 0 0 0 0 586370.94381493889 1795088.2322402 0 1795088.2322402 7238552.3200302124 0 0 0 0 -6206487.1682918072 -11858573.738455772 0 -11858573.738455772 12896340.147846222 0 0 0 0 -2216946.3301248532 507696.59791512787 0 507696.59791512787 7399611.0868988037 0 0 0 0 -1000417.1782064837 1043391.506332307 0 1043391.506332307 4629989.2161093168 0 0 0 0 -7508261.498585701 -7847224.4258747101 0 -7847224.4258747101 13216415.813167572 0 0 0 0 9371039.7293431759 11249302.264527321 0 11249302.264527321 -5398248.2235336304 0 0 0 0 -6176651.2929077148 1046331.3471660614 0 1046331.3471660614 16903119.619426727 0 0 0 0 -3412403.7499895478 2749909.6201270819 0 2749909.6201270819 1286994.1661782265 0 0 0 0 -10153940.20862484 11760058.555469513 0 11760058.555469513 17730088.715557098 0 0 0 0 -14768785.100815773 -4890500.9490623474 0 -4890500.9490623474 4167051.8813438416 0 0 0 0 2403167.9323296547 14475626.686218262 0 14475626.686218262 8723082.5129432678 0 0 0 0 -1055148.3944078232 -131091.89604999684 0 -131091.89604999684 1287024.7217426226 0 0 0 0 -4743481.4098069668 2112884.8884773254 0 2112884.8884773254 18524803.609193802 0 0 0 0 6592499.09948349 2473430.2702865601 0 2473430.2702865601 -12028174.225852966 0 0 0 0 498995.82444677502 -167337.99395370483 0 -167337.99395370483 12525714.203451157 0 0 0 0 -1262954.3745102286 2843509.0438947678 0 2843509.0438947678 11845032.862609863 0 0 0 0 -3919491.0999530554 4100441.1836585999 0 4100441.1836585999 15758650.393039703 0 0 0 0 -4427065.8707122803 -4089796.0250892639 0 -4089796.0250892639 16317216.444881439 0 0 0 0 -585177.30713216588 5269856.1149044037 0 5269856.1149044037 -497878.24876976013 0 0 0 0 -10974760.932326101 6214097.0810266733 0 6214097.0810266733 11501855.046272278 0 0 0 0 13161.919525926933 2227043.6759300232 0 2227043.6759300232 6491632.9373205304 0 0 0 0 -702743.25587913767 3931211.6224031448 0 3931211.6224031448 6515634.9541091919 0 0 0 0 -6834094.1540894508 3414716.1822109222 0 3414716.1822109222 5697740.5187568665 0 0 0 0 -5186312.300255537 370302.19025611877 0 370302.19025611877 10805808.976365089 0 0 0 0 -112829.22205814521 -155804.69777073711 0 -155804.69777073711 697483.65980140353 0 0 0 0 -8319420.9042207599 4039885.8715353012 0 4039885.8715353012 11139712.367589951 0 0 0 0 -694803.61583721638 2800341.3737182617 0 2800341.3737182617 4935349.084321022 0 0 0 0 -1600696.8509440869 -7981140.9454908371 0 -7981140.9454908371 9189773.1704626083 0 0 0 0 -483897.0529048359 -352693.23094613198 0 -352693.23094613198 948156.19673817791 0 0 0 0 181999.71635565907 3358533.717815876 0 3358533.717815876 5225994.5618286133 0 0 0 0 -406069.92132949829 2197439.2949943542 0 2197439.2949943542 4563131.0742921829 0 0 0 0 -408464.52416169643 1985233.7724056244 0 1985233.7724056244 7412463.7837104797 0 0 0 0 -944993.84578990936 -669638.70726013184 0 -669638.70726013184 7989795.2683143616 0 0 0 0 55705.284391283989 2651872.3532171249 0 2651872.3532171249 4301998.3583183289 0 0 0 0 -194592.69160432537 -94910.333883031271 0 -94910.333883031271 2270417.1421835264 0 0 0 0 -767942.50958376226 1121368.9750462903 0 1121368.9750462903 4536165.151174075 0 0 0 0 -3840725.5709214457 414490.85128429532 0 414490.85128429532 4466191.8174743652 0 0 0 0 9473956.0414031744 -1654618.1377658844 0 -1654618.1377658844 -14629776.501438141 0 0 0 0 -338344.37822326191 -165391.3037764281 0 -165391.3037764281 1562507.2333895415 0 0 0 0 -513017.68435851485 444687.08033061028 0 444687.08033061028 247957.92248535156 0 0 0 0 -240763.77832242317 660978.07398050372 0 660978.07398050372 1967521.4152670819 0 0 0 0 -296230.74750306841 946989.45503906906 0 946989.45503906906 2575810.7542957533 0 0 0 0 -436223.63575322879 -266605.26289661322 0 -266605.26289661322 3738153.4555482008 0 0 0 0 -9127932.8826411366 9129747.3852529526 0 9129747.3852529526 -10635837.452159882 0 0 0 0 -1060547.3216765523 2005112.4255990982 0 2005112.4255990982 6168612.955552578 0 0 0 0 -6674952.945299983 16790725.779831886 0 16790725.779831886 38623894.02236557 0 0 0 0 7440.2708658636202 685808.45841577719 0 685808.45841577719 -40176.654379945248 0 0 0 0 12333305.061043501 -14003500.006803513 0 -14003500.006803513 -22604311.32321167 0 0 0 0 -45317720.951500356 57566851.440210342 0 57566851.440210342 67917039.933624268 0 0 0 0 -6835324.9238991737 -7200110.7222633362 0 -7200110.7222633362 4237059.95271492 0 0 0 0 -11668423.246841878 -5729223.5387849808 0 -5729223.5387849808 2166302.526517868 0 0 0 0 -9690561.1702954173 1819890.4806089401 0 1819890.4806089401 4946226.4920902252 0 0 0 0 142740.0616453003 1412514.2276321705 0 1412514.2276321705 3461763.4231961099 0 0 0 0 -1997108.5445068681 4321878.0679505877 0 4321878.0679505877 4169474.2496910095 0 0 0 0 -4592751.1069022417 2592983.3342056274 0 2592983.3342056274 4931780.0526884496 0 0 0 0 -4630567.6088699102 -985848.24388647079 0 -985848.24388647079 5800947.1020793915 0 0 0 0 -4828523.8553809524 -1660225.1575469971 0 -1660225.1575469971 4863316.3862447739 0 0 0 0 -5058511.7364193797 -1300519.9816083908 0 -1300519.9816083908 4626090.5304813385 0 0 0 0 -89661.523374393582 -880923.01732707024 0 -880923.01732707024 5187557.3927631378 0 0 0 0 -3773654.2825928926 1138253.3280062675 0 1138253.3280062675 6478430.2200374603 0 0 0 0 -2384093.2355877161 1577883.0750684738 0 1577883.0750684738 2692209.2385826111 0 0 0 0 -3880415.2398223281 525107.27335739136 0 525107.27335739136 2650013.6878682971 0 0 0 0 556928.09074306488 2830973.63322258 0 2830973.63322258 2738888.0833587646 0 0 0 0 -9839144.4702439308 1525323.9069080353 0 1525323.9069080353 7072221.3318653107 0 0 0 0 -7750433.5153841972 -1842844.8231048584 0 -1842844.8231048584 3381451.4805030823 0 0 0 0 -288159.15663505602 -45359.286054730415 0 -45359.286054730415 278213.63457364962 0 0 0 0 11227386.985175729 10595486.192494392 0 10595486.192494392 7231244.1440086365 0 0 0 0 8041642.7985630035 13646717.677547455 0 13646717.677547455 11830809.132765174 0 0 0 0 -3602622.0140433311 2487298.5769672394 0 2487298.5769672394 4748311.8016204834 0 0 0 0 -2911637.8324813843 57625.236204147339 0 57625.236204147339 3069131.121547699 0 0 0 0 566657.53985929489 1027513.2714614868 0 1027513.2714614868 2661022.0596389771 0 0 0 0 -6658753.0580430031 2361904.2096328735 0 2361904.2096328735 5371487.0450286865 0 0 0 0 -1853936.9964918885 1013189.2536223554 0 1013189.2536223554 3391603.0692181233 0 0 0 0 -6960858.6344504356 1371672.4486618042 0 1371672.4486618042 5168519.9547805786 0 0 0 0 2829226.0243003368 7871605.416097641 0 7871605.416097641 4411175.1597824097 0 0 0 0 -2076750.3744584543 679871.5939112273 0 679871.5939112273 3018842.867920626 0 0 0 0 -5774174.1837594509 -3912157.8379907608 0 -3912157.8379907608 4812300.9150695354 0 0 0 0 -5414781.7276650071 -3440690.5999958515 0 -3440690.5999958515 -1007659.5578613281 0 0 0 0 101386.09828066395 165473.20817179792 0 165473.20817179792 193664.18688806705 0 0 0 0 6845940.7448150516 6347563.7948098183 0 6347563.7948098183 20348925.779521942 0 0 0 0 2129458.174328804 9086593.3305797577 0 9086593.3305797577 23568304.591989875 0 0 0 0 3339368.4375760555 2405002.2336215973 0 2405002.2336215973 3325114.8490600586 0 0 0 0 -4043144.0660870075 -1560567.3965435028 0 -1560567.3965435028 12530998.464485168 0 0 0 0 -10234663.222351305 -3374615.5758011937 0 -3374615.5758011937 12463507.439037323 0 0 0 0 -853343.26698527148 -243288.83727229759 0 -243288.83727229759 289459.6199086979 0 0 0 0 -2034219.3576598167 -565712.27265834808 0 -565712.27265834808 10384628.522537231 0 0 0 0 -3099127.7093262672 -1855743.9343910217 0 -1855743.9343910217 -476764.78739356995 0 0 0 0 -2361199.4927130472 -170884.10631849058 0 -170884.10631849058 3034493.7715844214 0 0 0 0 -2744521.2471551895 -829928.52918052673 0 -829928.52918052673 -2504.5190963745117 0 0 0 0 -369875.00419761834 -59309.829499564134 0 -59309.829499564134 214021.26959174126 0 0 0 0 938380.40763485432 5405925.2528572083 0 5405925.2528572083 11272253.333896637 0 0 0 0 -287837.87167320412 -49932.095034956932 0 -49932.095034956932 283136.25961508043 0 0 0 0 5309802.4024944901 11043778.59421587 0 11043778.59421587 9688958.9145774841 0 0 0 0 -8585701.8036271334 -4299048.5698795319 0 -4299048.5698795319 5748139.7478218079 0 0 0 0 -6087179.210160017 -18289767.851402283 0 -18289767.851402283 8873994.2131919861 0 0 0 0 -4105558.4141139984 5156984.226524353 0 5156984.226524353 19725929.178359985 0 0 0 0 -34697846.035356522 16953167.311782837 0 16953167.311782837 15422956.551275253 0 0 0 0 -13888297.211574376 -16088373.718836784 0 -16088373.718836784 19748653.371856689 0 0 0 0 -489828.19696378161 -78246.750417307019 0 -78246.750417307019 475466.63970442861 0 0 0 0 -9593909.2942733765 16457465.914228439 0 16457465.914228439 11501250.53704071 0 0 0 0 1475800.0176381171 4540493.4929633141 0 4540493.4929633141 11447765.66819191 0 0 0 0 -1789991.630209446 11334814.020234108 0 11334814.020234108 -5231942.7811126709 0 0 0 0 3506707.0810680389 1431645.1639976501 0 1431645.1639976501 13219197.391942739 0 0 0 0 -309447.5295435033 4744.3737677093595 0 4744.3737677093595 527306.13379015215 0 0 0 0 8132508.4403738976 -1788709.3337192535 0 -1788709.3337192535 22093714.44424057 0 0 0 0 -25597460.03616339 34172639.330039024 0 34172639.330039024 78621954.375991821 0 0 0 0 97558369.960868239 47426097.852708817 0 47426097.852708817 43907360.627891541 0 0 0 0 234727791.1856066 94212713.914643288 0 94212713.914643288 -27543385.419810295 0 0 0 0 125402661.56254014 206602930.78090191 0 206602930.78090191 192985457.84535599 0 0 0 0 13030924.248484612 26996549.317169189 0 26996549.317169189 67288758.608070374 0 0 0 0 5229335.5810861588 3143216.5457248688 0 3143216.5457248688 -9093993.4107570648 0 0 0 0 3401442.8898329735 22232203.799010277 0 22232203.799010277 -1164426.7848625183 0 0 0 0 8000811.774379015 37343764.589212418 0 37343764.589212418 46036242.683776855 0 0 0 0 -12197879.058128834 22602729.062692642 0 22602729.062692642 60243124.047374725 0 0 0 0 -624595.41729229991 303799.80239718221 0 303799.80239718221 1408038.8039851924 0 0 0 0 7082332.5384435654 7526380.4275302887 0 7526380.4275302887 7023401.2691985369 0 0 0 0 39301154.208932877 6781338.0988540649 0 6781338.0988540649 21415612.056079865 0 0 0 0 -12410255.411906227 19527918.761541307 0 19527918.761541307 49126710.889976501 0 0 0 0 -2745537.914264679 60454637.274131775 0 60454637.274131775 61952499.899356842 0 0 0 0 -1170791.0804309845 5534969.848657608 0 5534969.848657608 11579842.436344385 0 0 0 0 -712603.00671064178 1007425.7671751287 0 1007425.7671751287 2544619.1926885424 0 0 0 0 -500929.66092681885 3828463.3456764221 0 3828463.3456764221 8941600.0635375977 0 0 0 0 -5122209.959230423 2991157.7600212097 0 2991157.7600212097 11425553.834621429 0 0 0 0 -4627010.5100523233 978613.42479419708 0 978613.42479419708 8366500.3283233643 0 0 0 0 1807153.3175601959 9926926.6742897034 0 9926926.6742897034 11545260.314969301 0 0 0 0 -5065903.5694950819 2388478.2829995155 0 2388478.2829995155 10656373.975257874 0 0 0 0 4796007.0165681839 8050062.0807666779 0 8050062.0807666779 19521119.908893585 0 0 0 0 9559124.7423725128 17583745.285621643 0 17583745.285621643 24990170.771894418 0 0 0 0 1829151.0571508408 6774989.9172019958 0 6774989.9172019958 25003492.542831421 0 0 0 0 -13925804.949770927 25131068.323059082 0 25131068.323059082 48382826.409469604 0 0 0 0 37636070.061680794 28137830.691886902 0 28137830.691886902 19792792.739730835 0 0 0 0 17530842.863106251 15296973.069613457 0 15296973.069613457 16113377.900238037 0 0 0 0 34339390.419884205 9857407.4090061188 0 9857407.4090061188 7233371.4160881042 0 0 0 0 16307524.808852196 18798772.546210289 0 18798772.546210289 18349767.191665649 0 0 0 0 13175617.276348114 15297334.221603394 0 15297334.221603394 14785181.913658142 0 0 0 0 5301968.1960296631 13269538.249084473 0 13269538.249084473 20736875.258377075 0 0 0 0 72800.220622740046 570282.22492776962 0 570282.22492776962 285585.44383077696 0 0 0 0 -11729784.815038204 3844979.4715433121 0 3844979.4715433121 7798127.5731430054 0 0 0 0 61375331.944137573 52689484.39641571 0 52689484.39641571 17922596.125278473 0 0 0 0 -8825077.2859063148 17519478.201742172 0 17519478.201742172 49052187.454590559 0 0 0 0 46880080.715675831 16634864.892290115 0 16634864.892290115 6925175.8556060791 0 0 0 0 1322244.4823422432 4660192.2439365387 0 4660192.2439365387 2392969.7243022919 0 0 0 0 358792.19158423413 1559591.0910205871 0 1559591.0910205871 792873.06585530564 0 0 0 0 5022139.4237216711 3886254.5664606094 0 3886254.5664606094 -1524167.6323013306 0 0 0 0 -290607.84217629465 762189.82092726044 0 762189.82092726044 1157456.3419723324 0 0 0 0 9439095.2073020935 7498680.4787521362 0 7498680.4787521362 6485170.1955718994 0 0 0 0 14532136.849845886 12778847.646088481 0 12778847.646088481 7953936.2735862732 0 0 0 0 7565857.3455982208 12646634.483573914 0 12646634.483573914 13903588.049481392 0 0 0 0 14305835.555608749 5050394.5945796967 0 5050394.5945796967 6688801.9518172741 0 0 0 0 7681491.3655500412 9057761.3831386566 0 9057761.3831386566 6765812.5106315613 0 0 0 0 733550.82351190725 1107503.4540614737 0 1107503.4540614737 710204.42867228203 0 0 0 0 6980360.5727243423 3792067.5702152252 0 3792067.5702152252 1860767.8775402308 0 0 0 0 12038447.988493443 8139104.0740442276 0 8139104.0740442276 2304007.0678710938 0 0 0 0 4707723.2971663475 3185087.4778842926 0 3185087.4778842926 1942955.2310495377 0 0 0 0 4240125.8300974369 6492895.3552827835 0 6492895.3552827835 4234959.1530151367 0 0 0 0 333717005.22093689 345914737.33606339 0 345914737.33606339 305304198.97584742 0 0 0 0 28135.343036312843 60796.80388126988 0 60796.80388126988 770466.1819197312 0 0 0 0 360865812.12504506 292651686.02978206 0 292651686.02978206 262101847.65765953 0 0 0 0 240243805.18076405 248822509.537673 0 248822509.537673 276387561.42972183 0 0 0 0 5747332.1080384254 -1340121.776506424 0 -1340121.776506424 1835081.3306884766 0 0 0 0 2176535.0791523457 2957674.1322932243 0 2957674.1322932243 6238657.405632019 0 0 0 0 11074187.15079546 3089659.1775970459 0 3089659.1775970459 1343287.5706825256 0 0 0 0 -237505.65021179034 243925.04670119938 0 243925.04670119938 494529.35405596346 0 0 0 0 9989025.9080681801 8602176.4407119751 0 8602176.4407119751 7781584.4313468933 0 0 0 0 -2761391.2521775067 1467280.1783447266 0 1467280.1783447266 7826499.8058872223 0 0 0 0 -2921838.8046549559 895049.61921834946 0 895049.61921834946 6357384.8311347961 0 0 0 0 -4151566.0466684252 766356.32182598114 0 766356.32182598114 6899392.0646076202 0 0 0 0 -2931547.3582283854 -379256.76159095764 0 -379256.76159095764 5658366.6775131226 0 0 0 0 -824811.41948565841 1028234.7996082306 0 1028234.7996082306 5069585.503786087 0 0 0 0 -1665564.3852856159 779370.71561527252 0 779370.71561527252 6595321.5787696838 0 0 0 0 -1932840.2414434552 836825.87813329697 0 836825.87813329697 7801814.0970096588 0 0 0 0 -229289.25116723776 572258.41817092896 0 572258.41817092896 7833439.7196731567 0 0 0 0 465457.40317955613 1340248.1744103432 0 1340248.1744103432 6929102.8486614227 0 0 0 0 -1244258.2835140277 120365.18797014654 0 120365.18797014654 3801633.9914826714 0 0 0 0 -290201.14249879122 1717783.8461608887 0 1717783.8461608887 7766680.2695732117 0 0 0 0 27260.690857096459 173402.88619602472 0 173402.88619602472 575057.78627129551 0 0 0 0 -223158.04873649776 1858523.4793291092 0 1858523.4793291092 6559016.6008138657 0 0 0 0 -1016190.9264681608 759709.64294803003 0 759709.64294803003 4073741.828554403 0 0 0 0 -782250.74700419605 774882.77362990379 0 774882.77362990379 6482084.3179340363 0 0 0 0 574300.97071456909 3090624.5049724579 0 3090624.5049724579 6596695.8446731567 0 0 0 0 -2093703.5295816148 1731901.0477713337 0 1731901.0477713337 4297346.9208220132 0 0 0 0 2839871.8060159683 3187925.8738021851 0 3187925.8738021851 7252003.8258285522 0 0 0 0 2593470.4019498825 4138095.6397399902 0 4138095.6397399902 7833238.9395179749 0 0 0 0 1673510.2305698395 2326765.1925582886 0 2326765.1925582886 7118854.1322021484 0 0 0 0 -783862.96602010727 3535296.5305891037 0 3535296.5305891037 9495844.8186569214 0 0 0 0 -1101752.266119957 502960.75124740601 0 502960.75124740601 1662792.9741973877 0 0 0 0 911131.15756225586 11491468.426971436 0 11491468.426971436 21262808.028470993 0 0 0 0 911131.15755081177 11491468.426925659 0 11491468.426925659 21262808.028474808 0 0 0 0 911131.15754699707 11491468.42691803 0 11491468.42691803 21262808.028446198 0 0 0 0 -1162656.1535974718 1731511.5740979835 0 1731511.5740979835 3513702.1242989786 0 0 0 0 1190217.0319862366 6330253.0331192017 0 6330253.0331192017 11949904.987327576 0 0 0 0 -2018734.4668610217 503694.13630622905 0 503694.13630622905 3810202.9881753651 0 0 0 0 2651467.1474742889 9760262.4468917847 0 9760262.4468917847 15176868.514480591 0 0 0 0 -1151268.3509368896 9095650.0177898407 0 9095650.0177898407 18866414.120269775 0 0 0 0 5677346.7133493423 12621211.900258064 0 12621211.900258064 17804701.631759644 0 0 0 0 8197204.4242652655 10560582.704373121 0 10560582.704373121 7585453.508140564 0 0 0 0 4279608.7206583023 9100348.84192276 0 9100348.84192276 9992730.0362415314 0 0 0 0 7515158.5314188004 12856383.989953995 0 12856383.989953995 14289585.508467197 0 0 0 0 5851790.3770961761 7157140.5278913975 0 7157140.5278913975 5192751.7828845978 0 0 0 0 5651855.8938179016 7437862.981880188 0 7437862.981880188 6468603.7931065559 0 0 0 0 5355363.089389801 7362399.3146915436 0 7362399.3146915436 9530128.4827923775 0 0 0 0 46165.268939912319 2223503.1454219818 0 2223503.1454219818 8112087.9622793198 0 0 0 0 -1951145.3086630271 1514303.1364570868 0 1514303.1364570868 5560789.5703809615 0 0 0 0 4171374.7604100704 7988354.1344313622 0 7988354.1344313622 9314705.3966884613 0 0 0 0 4243517.6258659363 8572112.9821710587 0 8572112.9821710587 12777469.870221138 0 0 0 0 -685336.62167420983 3595839.6624970436 0 3595839.6624970436 6541540.6916065216 0 0 0 0 -552018.49235266447 4048253.397441864 0 4048253.397441864 7938779.8981380463 0 0 0 0 -1975871.5558636785 1900021.2678546906 0 1900021.2678546906 10217617.401605606 0 0 0 0 -2176340.9112641513 1141671.7146964073 0 1141671.7146964073 7351080.6469516754 0 0 0 0 -2141826.4914417863 1560451.5211572647 0 1560451.5211572647 4517689.1699886322 0 0 0 0 -1649551.673150897 1721701.2909755707 0 1721701.2909755707 4397738.9517827034 0 0 0 0 -1679464.2585718632 2301074.7531089783 0 2301074.7531089783 5915239.7224082947 0 0 0 0 -8457087.0432289541 1973528.2349615097 0 1973528.2349615097 9099108.7487933636 0 0 0 0 759091.78717006452 1337743.7821089837 0 1337743.7821089837 2625559.6326580378 0 0 0 0 151820.41680610739 -16113517.807914108 0 -16113517.807914108 -15075627.331995964 0 0 0 0 -1627765.5186337531 2206550.9934825897 0 2206550.9934825897 3665385.2717046738 0 0 0 0 -107443.13856872916 6223082.6351304054 0 6223082.6351304054 4700785.6487011909 0 0 0 0 -525956.98103645747 1487848.2392044212 0 1487848.2392044212 4144255.0947091058 0 0 0 0 6286182.0424876213 6656675.6551003456 0 6656675.6551003456 6082623.5748901367 0 0 0 0 -1512433.7291418314 2738053.0031665484 0 2738053.0031665484 5349572.9447869221 0 0 0 0 3464475.0711995997 3677416.4143325249 0 3677416.4143325249 2963024.5998218507 0 0 0 0 3360558.5544939172 11576521.415122509 0 11576521.415122509 -1595923.6803736687 0 0 0 0 5393560.4105482101 6313962.8037652969 0 6313962.8037652969 6410571.0565776825 0 0 0 0 4890134.1502225399 4490667.877376914 0 4490667.877376914 4420836.4359645844 0 0 0 0 1207703.1806435746 1437312.7335888315 0 1437312.7335888315 1609137.5818937626 0 0 0 0 -5423338.1451323032 -4031157.4967508316 0 -4031157.4967508316 -3414537.8213596344 0 0 0 0 1380626.8646082282 1400605.7984905243 0 1400605.7984905243 2118522.254655838 0 0 0 0 809091.98348140717 2088740.5831747055 0 2088740.5831747055 3275392.0232830048 0 0 0 0 2556582.9586746492 1168426.8455398078 0 1168426.8455398078 181930.84336239286 0 0 0 0 133875.87089429118 -202671.91152279917 0 -202671.91152279917 -184865.27598418808 0 0 0 0 -34237581.807177946 68535646.431745052 0 68535646.431745052 609165981.90032196 0 0 0 0 121944329.1615122 4124445.5957641602 0 4124445.5957641602 -332125807.04324341 0 0 0 0 51987998.919848979 49997156.384778976 0 49997156.384778976 608082318.68164062 0 0 0 0 199770719.28643832 324731776.98184586 0 324731776.98184586 945222457.7890234 0 0 0 0 -24124555.69079126 301446971.29419518 0 301446971.29419518 1058371356.4273901 0 0 0 0 -130832448.46017987 334026667.31985617 0 334026667.31985617 1371060287.4928513 0 0 0 0 94275557.612832814 351206861.3007865 0 351206861.3007865 498365502.14224052 0 0 0 0 40089540.446260646 -72473762.281491518 0 -72473762.281491518 472040617.47538185 0 0 0 0 1595531.8472112007 2950298.0412096977 0 2950298.0412096977 4862598.6041841507 0 0 0 0 -17541336.488661326 24579619.163550854 0 24579619.163550854 -2520322.9033718109 0 0 0 0 835086.87784491095 441398.27334230067 0 441398.27334230067 2475719.3799698278 0 0 0 0 155104.17534205902 547014.12556136213 0 547014.12556136213 837574.08731173072 0 0 0 0 -23123215.764211796 19073269.662844658 0 19073269.662844658 -3670218.1501259804 0 0 0 0 -20552476.566709042 31692108.385038376 0 31692108.385038376 24070812.952383995 0 0 0 0 60297732.956982806 40149036.242817402 0 40149036.242817402 -8884370.0646162033 0 0 0 0 -80297426.793657333 -82834478.62844944 0 -82834478.62844944 39344729.996765137 0 0 0 0 125653599.54146327 483616648.50604188 0 483616648.50604188 944318470.50285912 0 0 0 0 299306.90546705486 488531.07150453283 0 488531.07150453283 1891897.3674858939 0 0 0 0 -69059101.680635095 -185637606.23231363 0 -185637606.23231363 939566551.35272932 0 0 0 0 93410311.338918939 217634413.64694023 0 217634413.64694023 388816136.98373222 0 0 0 0 86182047.064461216 -28590443.013004303 0 -28590443.013004303 -14998365.145364761 0 0 0 0 306475170.76295227 345364745.00365198 0 345364745.00365198 385073000.89793968 0 0 0 0 298644799.83504909 422828845.12776661 0 422828845.12776661 453555766.97769547 0 0 0 0 229281334.24756604 319665803.63210678 0 319665803.63210678 350097097.09181976 0 0 0 0 322707639.17205507 325848313.05029917 0 325848313.05029917 336845378.86531258 0 0 0 0 225746549.19020507 325108277.49427319 0 325108277.49427319 422614460.90444946 0 0 0 0 327620544.84242868 332002797.23119259 0 332002797.23119259 305917694.34864837 0 0 0 0 248819273.2961849 200159280.45893955 0 200159280.45893955 213411745.99042892 0 0 0 0 545542.08180555282 350524.13487089705 0 350524.13487089705 1869340.5873676725 0 0 0 0 559434.81419301033 2778566.4921655655 0 2778566.4921655655 3464040.2331523895 0 0 0 0 300984.04295515135 2420675.1881152061 0 2420675.1881152061 2512953.0596547201 0 0 0 0 769677.53750222002 1977083.5318792113 0 1977083.5318792113 1797532.7905843416 0 0 0 0 -20781.91787739328 855996.60818241898 0 855996.60818241898 3710979.8316848893 0 0 0 0 5091975.1696827412 5185293.6390895844 0 5185293.6390895844 -55530310.386390686 0 0 0 0 238103099.73782936 200181743.5309813 0 200181743.5309813 216494023.6001358 0 0 0 0 469113673.97900033 356904552.46676064 0 356904552.46676064 211080795.38960919 0 0 0 0 439990131.4541508 486527954.78027344 0 486527954.78027344 414273828.74987268 0 0 0 0 474255831.71225792 602413117.65078783 0 602413117.65078783 777579937.07474518 0 0 0 0 538178105.47575057 516055753.79693985 0 516055753.79693985 743079130.00963163 0 0 0 0 1125063994.8360398 865866839.99299431 0 865866839.99299431 710775673.40448952 0 0 0 0 -51655810.007427573 -135441996.96296978 0 -135441996.96296978 598130184.99065399 0 0 0 0 37864.251254253672 288808.0053998598 0 288808.0053998598 1383196.8108914895 0 0 0 0 85879533.781441957 146826051.97710001 0 146826051.97710001 -126771734.54428101 0 0 0 0 795743877.82168245 425053261.82748985 0 425053261.82748985 123013128.04238367 0 0 0 0 550586130.34614396 603619380.25681114 0 603619380.25681114 1310133621.1300659 0 0 0 0 808528403.74302149 625535663.52912521 0 625535663.52912521 976476160.01261425 0 0 0 0 797908106.85588908 229321673.59248883 0 229321673.59248883 1099434291.6924515 0 0 0 0 551941216.0479691 426255265.23675442 0 426255265.23675442 944788163.19462013 0 0 0 0 280724446.89687777 405482007.5231638 0 405482007.5231638 1065593889.1766367 0 0 0 0 93164888.053760558 402093296.17834234 0 402093296.17834234 945500672.49806118 0 0 0 0 275825479.90713 362467794.73250628 0 362467794.73250628 760621210.52545547 0 0 0 0 184328039.74956793 358521875.76151943 0 358521875.76151943 509227724.4178524 0 0 0 0 254579439.74535841 502787427.48556376 0 502787427.48556376 761191665.9492836 0 0 0 0 146477101.32735321 386359914.95501423 0 386359914.95501423 614501537.71177101 0 0 0 0 -13407558.876738578 237523303.16013193 0 237523303.16013193 694034266.32035637 0 0 0 0 -105915909.55248119 264036766.79456615 0 264036766.79456615 942862808.62687504 0 0 0 0 -231326846.8830072 48065584.339733839 0 48065584.339733839 571471898.76624107 0 0 0 0 -95811960.423684835 259397771.67792797 0 259397771.67792797 603339241.89315319 0 0 0 0 58940213.135129027 285440891.49993896 0 285440891.49993896 508922127.76529503 0 0 0 0 60744487.832256585 256166432.51979256 0 256166432.51979256 494247458.41629791 0 0 0 0 -3925198.035615813 205242668.69975543 0 205242668.69975543 461540572.67039871 0 0 0 0 135849374.12365746 257043919.60400677 0 257043919.60400677 374795565.93374348 0 0 0 0 134482769.34306422 244256586.14092636 0 244256586.14092636 379803494.35066795 0 0 0 0 -77807543.701215506 74151649.995780945 0 74151649.995780945 514348045.49775457 0 0 0 0 -56211984.06251543 4021793.6964986548 0 4021793.6964986548 339575000.04577255 0 0 0 0 -12790730.174423456 167369888.24308014 0 167369888.24308014 427582787.98152924 0 0 0 0 38245614.3325454 149817517.58557224 0 149817517.58557224 415592689.97095013 0 0 0 0 -128243263.27343528 139904389.0318501 0 139904389.0318501 544919449.92799568 0 0 0 0 -46933754.328842878 125655541.97076988 0 125655541.97076988 527266859.26789093 0 0 0 0 -29812512.766472965 160110114.44384408 0 160110114.44384408 538155299.1651516 0 0 0 0 104789456.20836806 124280151.93201828 0 124280151.93201828 517640987.41887283 0 0 0 0 -831459.79835587798 -7736.4690829589963 0 -7736.4690829589963 1435496.0082884952 0 0 0 0 200991965.37985572 486754093.14972782 0 486754093.14972782 944686624.79871368 0 0 0 0 -23090281.850978091 170253964.99853936 0 170253964.99853936 564679559.36143494 0 0 0 0 -22428599.27682972 160848027.0267992 0 160848027.0267992 465443409.15755653 0 0 0 0 -140760276.5145033 -90693968.174694777 0 -90693968.174694777 183757212.31219864 0 0 0 0 -701355.29217262019 18643.446973670274 0 18643.446973670274 1566239.9559358256 0 0 0 0 -20681398.635124877 232394873.26358032 0 232394873.26358032 652887643.25132179 0 0 0 0 -352485466.05955172 126146847.35454798 0 126146847.35454798 944810474.46424103 0 0 0 0 -8464394.5608488023 239095191.57806492 0 239095191.57806492 495332243.62582397 0 0 0 0 -171608810.35340962 149682366.66657543 0 149682366.66657543 586345316.46342087 0 0 0 0 -117244155.57176533 15933605.907955647 0 15933605.907955647 898513135.14244652 0 0 0 0 22073255.173775762 -18671949.936190605 0 -18671949.936190605 706798915.12721634 0 0 0 0 -188580079.23857474 -212979928.78305149 0 -212979928.78305149 990709833.48767281 0 0 0 0 -433890993.03136647 141424141.25302315 0 141424141.25302315 643420730.20625305 0 0 0 0 -210053.94781401358 244896.32782205474 0 244896.32782205474 491683.98155075731 0 0 0 0 -50200734.86986053 10423162.035734177 0 10423162.035734177 475097736.38422012 0 0 0 0 -214261970.28032899 -40830516.704044342 0 -40830516.704044342 774131030.38057327 0 0 0 0 -293319130.4078021 10949602.623825073 0 10949602.623825073 761560645.2794342 0 0 0 0 -33819658.306185365 -133217535.80935097 0 -133217535.80935097 566181351.9516983 0 0 0 0 -54136556.538166165 -38761436.777620316 0 -38761436.777620316 376884647.39566231 0 0 0 0 163119457.01203862 -197808658.81612873 0 -197808658.81612873 567639534.29031181 0 0 0 0 132922309.30838776 431551196.7206316 0 431551196.7206316 831567385.52266312 0 0 0 0 -95593448.230585337 523317730.97517967 0 523317730.97517967 1113478288.1879807 0 0 0 0 -426952.14422043384 8912.0965726943687 0 8912.0965726943687 649761.29824631847 0 0 0 0 -47305266.07096982 349552762.23422623 0 349552762.23422623 872625379.76675987 0 0 0 0 -449595522.89733529 196318560.08769608 0 196318560.08769608 510737929.43545532 0 0 0 0 -402672562.6578474 -215215919.46726799 0 -215215919.46726799 375150755.81725454 0 0 0 0 -365706886.96991491 72288666.240764618 0 72288666.240764618 822829472.71087646 0 0 0 0 -345614979.63611031 4203799.8781738281 0 4203799.8781738281 684162940.42675018 0 0 0 0 -336404426.40750122 190557318.15860748 0 190557318.15860748 1122935132.2267761 0 0 0 0 -298094444.73360825 174652137.07205963 0 174652137.07205963 935270456.97039557 0 0 0 0 -342384843.67437255 50948075.671412706 0 50948075.671412706 928239972.50048065 0 0 0 0 -149188923.87588209 167189383.23874092 0 167189383.23874092 614484268.45966339 0 0 0 0 -174149776.5333755 237232116.19952202 0 237232116.19952202 798196695.97894287 0 0 0 0 -335107770.79095173 88425807.400947571 0 88425807.400947571 779560682.5332489 0 0 0 0 -227622601.61736488 111745340.21878052 0 111745340.21878052 763351877.93445969 0 0 0 0 -225562147.18472171 143060837.92727661 0 143060837.92727661 633937118.33029175 0 0 0 0 -260886184.78307962 34993775.711811066 0 34993775.711811066 652471301.12429047 0 0 0 0 -180383054.77371883 80577591.229419708 0 80577591.229419708 609706580.16822815 0 0 0 0 -177105219.35193157 106405074.19582748 0 106405074.19582748 640911331.80595541 0 0 0 0 -132856815.37714028 128488533.27105236 0 128488533.27105236 436754985.293293 0 0 0 0 -140120764.7054286 169533399.82492638 0 169533399.82492638 614447665.80529785 0 0 0 0 -57035244.677776933 90106842.442698956 0 90106842.442698956 324492828.86339569 0 0 0 0 -51961538.149659455 169285296.54272592 0 169285296.54272592 534500946.27864838 0 0 0 0 -58011231.437006474 174409034.59840965 0 174409034.59840965 531661413.49348831 0 0 0 0 -81794938.269784331 168905350.02517223 0 168905350.02517223 6278252.9128646851 0 0 0 0 -200510490.55180955 131582196.24423122 0 131582196.24423122 339492964.05127811 0 0 0 0 -112704005.55154967 64920703.600820541 0 64920703.600820541 425178264.292068 0 0 0 0 -85750569.654316217 112655797.87366915 0 112655797.87366915 314137921.93055344 0 0 0 0 -10663186.853135109 -714786.15759468079 0 -714786.15759468079 22840401.835730553 0 0 0 0 -419449.6252584703 380321.46744828485 0 380321.46744828485 724463.31659155851 0 0 0 0 26943458.869321346 -4859189.7827925682 0 -4859189.7827925682 -179106652.51343346 0 0 0 0 -38609800.403327346 60026854.68832016 0 60026854.68832016 44504720.957370758 0 0 0 0 43006732.408527151 65605548.255036533 0 65605548.255036533 52271811.362037659 0 0 0 0 45671671.871680863 -172654835.89988136 0 -172654835.89988136 261304783.81606674 0 0 0 0 30781462.1222682 -53837197.854312897 0 -53837197.854312897 108451833.24819565 0 0 0 0 57358628.695978224 -8929437.6418905258 0 -8929437.6418905258 -69393468.671033859 0 0 0 0 -1129879.7940651339 1628842.489188767 0 1628842.489188767 2343920.3140302692 0 0 0 0 -37132497.472284794 -4963589.5519800186 0 -4963589.5519800186 5047077.5553092957 0 0 0 0 861703.23485333042 3134577.5784891755 0 3134577.5784891755 4193620.7195423115 0 0 0 0 -34803289.974910006 29272754.236337185 0 29272754.236337185 39365058.538869858 0 0 0 0 2617171.1984802485 2753664.8792672157 0 2753664.8792672157 787101.73128890991 0 0 0 0 -255182.53196156281 1128010.1478427052 0 1128010.1478427052 2227449.6109187501 0 0 0 0 3171775.5037567616 6248797.7766065598 0 6248797.7766065598 3539256.4978790283 0 0 0 0 1481153.5447359085 3246892.427148819 0 3246892.427148819 2508063.6047134399 0 0 0 0 1077752.7661014199 5198489.7022986412 0 5198489.7022986412 7967248.5797271729 0 0 0 0 1245562.1622577664 3765697.421154073 0 3765697.421154073 4228137.7703609616 0 0 0 0 -1408283.7301359177 11975483.297172546 0 11975483.297172546 8999269.0196037292 0 0 0 0 -1745705.3452341252 -566264.88686216064 0 -566264.88686216064 2412696.8333488703 0 0 0 0 97734982.599518657 182736611.60123825 0 182736611.60123825 318696050.60233307 0 0 0 0 1682731.7695527077 8739118.0387554169 0 8739118.0387554169 10597463.831504822 0 0 0 0 53573051.92350173 132342425.09207821 0 132342425.09207821 307331881.73044968 0 0 0 0 -51930.847884276533 -25354.376799792983 0 -25354.376799792983 106527.38207045011 0 0 0 0 -35696530.861625195 139828508.61842346 0 139828508.61842346 554474920.37385559 0 0 0 0 -28420823.687780201 16093453.388815641 0 16093453.388815641 7645952.3274116516 0 0 0 0 3013094.9647865295 4220981.1042098999 0 4220981.1042098999 -1331706.298242569 0 0 0 0 875664.16750221374 527049.6604968328 0 527049.6604968328 1543485.609842638 0 0 0 0 95096032.497070312 158210566.14546013 0 158210566.14546013 417183128.61108971 0 0 0 0 83670046.179754257 206415530.84838104 0 206415530.84838104 512512142.93686676 0 0 0 0 74591309.579229832 242673188.97109222 0 242673188.97109222 484588686.36899185 0 0 0 0 139039310.38070983 198795335.08883905 0 198795335.08883905 375695422.77972031 0 0 0 0 -48281404.386455186 116594603.19888198 0 116594603.19888198 -163460814.77236176 0 0 0 0 75904721.34714359 314343585.82889175 0 314343585.82889175 718388433.58905411 0 0 0 0 161696.83749898057 102331.90562433098 0 102331.90562433098 544750.68462710315 0 0 0 0 137636238.17037693 223447390.06035328 0 223447390.06035328 189785666.32328033 0 0 0 0 88601994.82943356 132907141.47460365 0 132907141.47460365 163445705.84488869 0 0 0 0 198122970.39241406 305314594.3002634 0 305314594.3002634 274806476.56159973 0 0 0 0 79917475.190389693 195954831.85350037 0 195954831.85350037 359675078.71020699 0 0 0 0 102494099.1063963 213479971.17240334 0 213479971.17240334 227056588.27020168 0 0 0 0 80054404.877061129 137678031.45863533 0 137678031.45863533 118266954.11084175 0 0 0 0 61059811.68912077 137440647.17965508 0 137440647.17965508 128053191.26774788 0 0 0 0 157079973.00606805 220771910.52606392 0 220771910.52606392 147073778.03361797 0 0 0 0 125102307.87462467 240853604.69581604 0 240853604.69581604 197132201.281744 0 0 0 0 121493291.26032728 212012923.41503215 0 212012923.41503215 190157336.06250763 0 0 0 0 179210190.60123441 183935126.94444561 0 183935126.94444561 202121094.43270779 0 0 0 0 182769498.98887753 245784571.89642048 0 245784571.89642048 205417088.42235756 0 0 0 0 124934982.27459031 253066408.32581997 0 253066408.32581997 255081439.95338631 0 0 0 0 78846798.024518371 160748439.54897404 0 160748439.54897404 274670559.43676567 0 0 0 0 31562437.635992348 123380949.22261286 0 123380949.22261286 313540233.30776596 0 0 0 0 -133536562.26247358 -75450793.301940918 0 -75450793.301940918 53889088.465995789 0 0 0 0 -11894351.029436827 36173432.956676483 0 36173432.956676483 213390081.08440971 0 0 0 0 -13537318.910277605 114328862.64210129 0 114328862.64210129 325293272.23635364 0 0 0 0 113003355.49322701 212415439.62163162 0 212415439.62163162 -110368674.3174305 0 0 0 0 109960188.20966512 227023586.99932671 0 227023586.99932671 218247694.94937325 0 0 0 0 113702742.35385758 245190406.19903231 0 245190406.19903231 88094008.105480194 0 0 0 0 -85766339.739115253 -64850929.907723427 0 -64850929.907723427 944377965.00302601 0 0 0 0 -14044.776657415965 -2721760.7172627449 0 -2721760.7172627449 564504866.2475872 0 0 0 0 -3781336.0382622029 33399063.5308218 0 33399063.5308218 241065219.65124512 0 0 0 0 2769819.0455715228 1580593.6624340117 0 1580593.6624340117 116437169.96171188 0 0 0 0 19169517.949354984 112975493.73994231 0 112975493.73994231 1100390261.6875324 0 0 0 0 55350134.740065232 -369865619.02348518 0 -369865619.02348518 1085090936.4973984 0 0 0 0 -21234.45331021415 232300.58250416908 0 232300.58250416908 511608.117165884 0 0 0 0 -281628268.68467832 -93146372.341556072 0 -93146372.341556072 825517147.4272728 0 0 0 0 153783.37486532552 513089.8979174206 0 513089.8979174206 867519.94907924905 0 0 0 0 -113320216.59070261 -11788172.198560715 0 -11788172.198560715 509306496.55396652 0 0 0 0 3024761.4266705168 11763373.892103672 0 11763373.892103672 323909346.92333221 0 0 0 0 -1963174.6121452302 5561858.3135318756 0 5561858.3135318756 334210489.95005989 0 0 0 0 4296363.3457962573 -104002642.24834824 0 -104002642.24834824 533240740.74936295 0 0 0 0 209808.79122146941 245333.35804109089 0 245333.35804109089 365224.83700322174 0 0 0 0 -63185188.66893106 11346247.511854172 0 11346247.511854172 1042050828.8350468 0 0 0 0 28182297.731022894 546027676.73212242 0 546027676.73212242 27588561.822998047 0 0 0 0 57376215.563270748 260452327.33117104 0 260452327.33117104 431699842.56769753 0 0 0 0 217590788.57103658 335383093.22373962 0 335383093.22373962 257047960.35403061 0 0 0 0 43956190.592142701 -46479082.617347717 0 -46479082.617347717 215055150.48106861 0 0 0 0 37912428.080675125 479333877.83179283 0 479333877.83179283 702893513.27457619 0 0 0 0 238667798.4782573 -64202875.576112747 0 -64202875.576112747 894500309.82136154 0 0 0 0 -32220066.049239129 203842933.24525261 0 203842933.24525261 865293922.90574646 0 0 0 0 18206094.39194575 39414219.205804825 0 39414219.205804825 225448536.26490784 0 0 0 0 221079133.86095354 125968188.1720711 0 125968188.1720711 1106309717.6427708 0 0 0 0 -27579101.501191925 10005826.882226944 0 10005826.882226944 860693540.83160162 0 0 0 0 246183383.20724946 -260256262.82994652 0 -260256262.82994652 962349578.35295868 0 0 0 0 17671979.392279673 -68700286.034970284 0 -68700286.034970284 945051284.65741003 0 0 0 0 309682.97459250933 233930.48136511259 0 233930.48136511259 455595.41525525646 0 0 0 0 -89767129.837397218 -162736016.8705616 0 -162736016.8705616 878096532.65747261 0 0 0 0 -19943142.545171976 -206810467.34449673 0 -206810467.34449673 667595878.82999802 0 0 0 0 82797.072476942209 521778.29684174061 0 521778.29684174061 908627.96549661737 0 0 0 0 991272274.09400058 113851100.3835144 0 113851100.3835144 493464427.23916054 0 0 0 0 -12035699.932803035 -725107758.25782585 0 -725107758.25782585 1209236629.6664791 0 0 0 0 355093.02145938692 748785.66947152838 0 748785.66947152838 1223687.9504008107 0 0 0 0 119417318.40294433 150345851.62556171 0 150345851.62556171 -49675236.841861725 0 0 0 0 185599967.37241554 442854338.76567364 0 442854338.76567364 166274193.27281952 0 0 0 0 -44643022.235712096 -10275289.983293533 0 -10275289.983293533 392420091.51515055 0 0 0 0 64971268.616001725 -114171110.49259567 0 -114171110.49259567 393250780.44070435 0 0 0 0 -159274984.65304661 56431612.418912888 0 56431612.418912888 22213153.560539246 0 0 0 0 733793.30030499608 2075853.6739518214 0 2075853.6739518214 3157714.6922981702 0 0 0 0 -53503698.212586403 -145340155.97110939 0 -145340155.97110939 58782016.768819809 0 0 0 0 151178744.13577652 -28392546.597882271 0 -28392546.597882271 -27775954.280532837 0 0 0 0 -7910606.6237887144 -78318434.185625076 0 -78318434.185625076 39321281.634471893 0 0 0 0 -18268425.716936976 4563269.1452708244 0 4563269.1452708244 49269941.308132172 0 0 0 0 -28351989.826980591 -21435446.615472794 0 -21435446.615472794 20494622.739990234 0 0 0 0 -23582961.121515751 -21555556.631641388 0 -21555556.631641388 18187186.468066692 0 0 0 0 21429581.078346252 63871618.833297729 0 63871618.833297729 185429588.20330811 0 0 0 0 -461161.78058099747 13832593.588787079 0 13832593.588787079 20597959.969934464 0 0 0 0 -1833501.4558330243 -1329189.2077462645 0 -1329189.2077462645 2073680.4715506108 0 0 0 0 -4957728.2718162537 5270825.2600841522 0 5270825.2600841522 15363264.860904694 0 0 0 0 -969686.05126866745 -1478659.8435495654 0 -1478659.8435495654 419019.78524527885 0 0 0 0 -57742711.475738525 48278277.045118332 0 48278277.045118332 47995923.512893677 0 0 0 0 -396988.38585189637 -698779.41379082203 0 -698779.41379082203 700980.89051818848 0 0 0 0 -13142787.547651768 -20217855.125709534 0 -20217855.125709534 66853329.156826973 0 0 0 0 13099402.895852327 4519962.7445583344 0 4519962.7445583344 -24613930.307376862 0 0 0 0 2081451.1141856909 -47536929.135639191 0 -47536929.135639191 -67694969.839496613 0 0 0 0 -191959.62170129735 134097.65412580222 0 134097.65412580222 741806.52392584365 0 0 0 0 -495394.88321286778 -458253.7395476927 0 -458253.7395476927 -102153.67339051887 0 0 0 0 47785600.502377987 26986562.292230606 0 26986562.292230606 -124090855.37779236 0 0 0 0 -45468597.674275637 -43906125.968430519 0 -43906125.968430519 -32236028.256755829 0 0 0 0 -823377.59416858607 -1593595.86825612 0 -1593595.86825612 268116.2994604893 0 0 0 0 -21013356.190658092 -5206073.9509830475 0 -5206073.9509830475 12782775.026201248 0 0 0 0 -45725936.371175051 25885958.38899231 0 25885958.38899231 -8685495.0204143524 0 0 0 0 -51841980.916420937 20941233.033082962 0 20941233.033082962 73784362.815032959 0 0 0 0 -1048091.0805830214 -960905.79997541197 0 -960905.79997541197 160034.59825678915 0 0 0 0 -8129575.9718528241 -17997582.672338486 0 -17997582.672338486 -66138175.160209656 0 0 0 0 59539151.984554946 -31978100.415302277 0 -31978100.415302277 -63851333.845640182 0 0 0 0 -13729857.059580244 20745347.922132492 0 20745347.922132492 19211006.204971313 0 0 0 0 84028676.33067584 114926075.49522018 0 114926075.49522018 71579806.800605774 0 0 0 0 -16640946.589098454 -58305461.296201706 0 -58305461.296201706 -34486033.761768341 0 0 0 0 95737927.637413561 -23939134.334186554 0 -23939134.334186554 -52855839.496297836 0 0 0 0 -122467059.40823019 1977674.8447394371 0 1977674.8447394371 249419563.7466507 0 0 0 0 -210969.62249310553 209749.00178259413 0 209749.00178259413 91316.065219305456 0 0 0 0 39475358.723515272 98294654.586996078 0 98294654.586996078 72092663.632606506 0 0 0 0 180744380.01603469 241286087.01628017 0 241286087.01628017 374439648.82220459 0 0 0 0 270594966.29095417 250415473.5929184 0 250415473.5929184 360872611.9929924 0 0 0 0 -8394893.1336465478 8858799.2843475342 0 8858799.2843475342 270920976.02476311 0 0 0 0 -21544091.140118271 23475521.400226593 0 23475521.400226593 224603121.23592377 0 0 0 0 25389651.729436614 110674932.30633736 0 110674932.30633736 342267895.46128464 0 0 0 0 -46001455.377371877 92209104.488853455 0 92209104.488853455 410611598.2333374 0 0 0 0 -108390108.34077621 125170670.65594101 0 125170670.65594101 395869054.15509033 0 0 0 0 -183685402.91406643 93315287.166484833 0 93315287.166484833 347009480.68953705 0 0 0 0 -14966759.3489516 154639625.67458344 0 154639625.67458344 299398305.57875443 0 0 0 0 -64068359.942250915 -75989284.646930695 0 -75989284.646930695 -84735510.447528839 0 0 0 0 29593601.780338854 90271406.234333038 0 90271406.234333038 205703355.08860779 0 0 0 0 -89984527.745415956 -91724224.225056171 0 -91724224.225056171 64079754.22044754 0 0 0 0 38832296.543769196 70818126.848802567 0 70818126.848802567 -73886924.913599014 0 0 0 0 1390869.4918167591 16250141.508003235 0 16250141.508003235 -60924633.53918457 0 0 0 0 42287118.417992711 67673920.09526062 0 67673920.09526062 -87523212.493659973 0 0 0 0 -358658.19019003591 -228989.69919111487 0 -228989.69919111487 77319.291539390571 0 0 0 0 73955121.084690094 128862419.86876678 0 128862419.86876678 97927446.794208527 0 0 0 0 -53005065.21336484 -20703868.183200836 0 -20703868.183200836 183675998.28362083 0 0 0 0 -52399272.72158742 -29588566.563203812 0 -29588566.563203812 20173982.790035248 0 0 0 0 -270788771.53364718 -20539662.330583572 0 -20539662.330583572 301853838.99385071 0 0 0 0 146225744.93849677 -34092655.797018051 0 -34092655.797018051 -58294874.77551651 0 0 0 0 -75942.178433297609 112044.95954905965 0 112044.95954905965 772825.81140136719 0 0 0 0 -87091560.269889534 -66481463.683777809 0 -66481463.683777809 -60902088.855464935 0 0 0 0 -29218.381952417858 4833.9633997491183 0 4833.9633997491183 354066.49133392796 0 0 0 0 49717619.553729557 130691461.97068083 0 130691461.97068083 99051766.677352905 0 0 0 0 -38982650.95005355 25833388.775205612 0 25833388.775205612 64630182.975259781 0 0 0 0 8742054.2740516644 40440896.561774611 0 40440896.561774611 201063670.88383484 0 0 0 0 62366.546510308028 29912817.771730423 0 29912817.771730423 -66542.752456665039 0 0 0 0 -30339420.809768815 -4099956.4835786819 0 -4099956.4835786819 105988791.81830025 0 0 0 0 -31582949.920987219 59731993.037360191 0 59731993.037360191 71774463.27677536 0 0 0 0 -115185003.59133218 -18825729.437450409 0 -18825729.437450409 31130661.825403214 0 0 0 0 -20866996.89040634 3478472.3448824883 0 3478472.3448824883 12127542.765766144 0 0 0 0 -61546595.638260283 42691675.500696182 0 42691675.500696182 8077967.2549958229 0 0 0 0 -27247861.259921253 66400144.130532131 0 66400144.130532131 -11854119.387546539 0 0 0 0 -42014372.132072985 -13112503.195453644 0 -13112503.195453644 32351922.02579689 0 0 0 0 106777816.19489288 101824990.79147434 0 101824990.79147434 -88762227.492448807 0 0 0 0 -55854.35366981526 217643.41912482498 0 217643.41912482498 603039.86518677697 0 0 0 0 -83498421.619219303 -202211317.31812763 0 -202211317.31812763 126005711.16838455 0 0 0 0 -55531.976729556525 96296.074469564715 0 96296.074469564715 783042.10524969175 0 0 0 0 4314918.6678527594 -76613162.479299545 0 -76613162.479299545 54327203.441230774 0 0 0 0 -166869671.49537122 -96989712.394837379 0 -96989712.394837379 142567442.79471779 0 0 0 0 34095645.383700013 -30344653.996757507 0 -30344653.996757507 -162276084.04696274 0 0 0 0 -78986075.651935577 -89475970.177555084 0 -89475970.177555084 11665841.124742508 0 0 0 0 -192089148.12658727 116281658.11081028 0 116281658.11081028 90639100.258579254 0 0 0 0 -354067395.01236773 75484961.488556385 0 75484961.488556385 154018943.16692734 0 0 0 0 -94494.685515309888 383945.436672471 0 383945.436672471 1718525.439864479 0 0 0 0 -13221.747677655163 102623.19446094692 0 102623.19446094692 184167.47445660457 0 0 0 0 197972184.07729065 82242449.575073242 0 82242449.575073242 -58400766.565620422 0 0 0 0 1291950.7149680257 192605480.81335926 0 192605480.81335926 -13395567.924655914 0 0 0 0 4289439.7263125703 -9829774.5933074951 0 -9829774.5933074951 197862218.88585281 0 0 0 0 -9955402.0332491398 -89997118.379657745 0 -89997118.379657745 -43432714.087423563 0 0 0 0 235676232.09817886 297436122.7334671 0 297436122.7334671 3052251.7075271606 0 0 0 0 235359588.26061416 199762146.99079514 0 199762146.99079514 -107975965.78175735 0 0 0 0 171970401.97070408 295466474.56039619 0 295466474.56039619 180861535.02632523 0 0 0 0 156205869.68530571 255155420.02689362 0 255155420.02689362 82841060.064758301 0 0 0 0 211166499.93757677 396900177.36484528 0 396900177.36484528 240170476.01846313 0 0 0 0 189482206.25680989 264256566.89763069 0 264256566.89763069 229047718.84907913 0 0 0 0 150674376.549793 197097942.7588501 0 197097942.7588501 274929818.97174263 0 0 0 0 119325459.34301439 218060823.64014769 0 218060823.64014769 262040786.66123199 0 0 0 0 189194793.03360856 144396553.0790863 0 144396553.0790863 241919686.91459656 0 0 0 0 309173663.99677491 199783614.13324928 0 199783614.13324928 113992133.70832348 0 0 0 0 282610818.07016468 61071086.442899704 0 61071086.442899704 313162973.44585419 0 0 0 0 128424848.30021691 74969188.206335068 0 74969188.206335068 367319742.7111187 0 0 0 0 25289575.229367852 169196785.1692791 0 169196785.1692791 333785179.46009827 0 0 0 0 64207410.328932285 -125440730.39260101 0 -125440730.39260101 149754502.14768791 0 0 0 0 -3451265.6476540565 -73706819.500703812 0 -73706819.500703812 118125929.49118042 0 0 0 0 -19035660.650765061 -33096576.637849808 0 -33096576.637849808 -25078457.340911865 0 0 0 0 81863411.307017207 -76876584.173107147 0 -76876584.173107147 76500140.388568878 0 0 0 0 33057.48063712311 -409373.82132507768 0 -409373.82132507768 130006.66828987934 0 0 0 0 116956215.04577148 -101762486.33725071 0 -101762486.33725071 83631997.925888062 0 0 0 0 124243746.55293214 165372663.46591234 0 165372663.46591234 256977621.60903931 0 0 0 0 -252516.97517653566 -446152.73640345503 0 -446152.73640345503 646993.8914930094 0 0 0 0 135512118.36927044 149555030.19024086 0 149555030.19024086 128575551.5248909 0 0 0 0 48930462.458198071 138464689.15538025 0 138464689.15538025 306901167.5223403 0 0 0 0 94155653.88181448 168890523.68262863 0 168890523.68262863 297426654.42295742 0 0 0 0 59525499.545690447 176771400.7759428 0 176771400.7759428 295940998.40249634 0 0 0 0 120769825.79609573 68813811.098712921 0 68813811.098712921 22315434.821884155 0 0 0 0 -848153.86931037437 -1035002.5399615793 0 -1035002.5399615793 652738.10821941122 0 0 0 0 46395072.178367615 -15254245.840106964 0 -15254245.840106964 18679536.430673122 0 0 0 0 10835129.907227874 129827535.51439667 0 129827535.51439667 224894171.65029907 0 0 0 0 63104869.614314735 97794700.437385559 0 97794700.437385559 156126785.16459274 0 0 0 0 22824999.46378994 134988508.96785736 0 134988508.96785736 195176839.67093277 0 0 0 0 -30054208.905720353 70170273.327575684 0 70170273.327575684 158577203.88100433 0 0 0 0 -52267691.998262405 125860195.3996315 0 125860195.3996315 41917625.842285156 0 0 0 0 -80866.568880107254 43711.90489909146 0 43711.90489909146 118854.79002461303 0 0 0 0 46454980.322144032 130035504.47991562 0 130035504.47991562 172981683.04643059 0 0 0 0 31234792.384358406 155116635.67481232 0 155116635.67481232 224676703.68344116 0 0 0 0 61690310.809024334 147893934.62886047 0 147893934.62886047 184532542.88710785 0 0 0 0 65162754.880689025 136598005.1653614 0 136598005.1653614 209991026.55492401 0 0 0 0 43781600.094721556 133626723.4055748 0 133626723.4055748 242519871.28308868 0 0 0 0 52252571.556596726 183192684.0397501 0 183192684.0397501 276791938.52439117 0 0 0 0 65146418.697091103 126663597.22943497 0 126663597.22943497 221987101.39813995 0 0 0 0 61347652.097422242 158042504.19823456 0 158042504.19823456 304967638.97844124 0 0 0 0 121394028.99288344 187831292.98989677 0 187831292.98989677 314487810.18599701 0 0 0 0 62231565.45857954 155937826.0038681 0 155937826.0038681 369349921.95264435 0 0 0 0 107603341.3562392 194706021.44861412 0 194706021.44861412 383464438.25231552 0 0 0 0 168634147.13795781 130158590.66286278 0 130158590.66286278 345776857.38825417 0 0 0 0 96934333.5068672 148987662.18169689 0 148987662.18169689 341571075.53791809 0 0 0 0 92955696.507848978 130541933.77642441 0 130541933.77642441 307857309.93109131 0 0 0 0 267378767.40518534 238401531.68400574 0 238401531.68400574 340156279.06550217 0 0 0 0 108491391.14114201 170756548.11816788 0 170756548.11816788 313537063.17029953 0 0 0 0 -72509.68220378051 6299.7870307918638 0 6299.7870307918638 327497.86194907967 0 0 0 0 70193094.33585459 -6758537.8928527832 0 -6758537.8928527832 -193548354.20765305 0 0 0 0 25108237.396050811 251715573.84072208 0 251715573.84072208 661982685.12828827 0 0 0 0 248452.2988750989 57502.851955280639 0 57502.851955280639 89996.131447030231 0 0 0 0 674615.51305957139 11122034.491317749 0 11122034.491317749 71330216.676862717 0 0 0 0 135128450.07971239 145401922.14198303 0 145401922.14198303 -52385666.852844238 0 0 0 0 121633832.65621531 224845601.7756176 0 224845601.7756176 243027996.96308517 0 0 0 0 130153739.17637038 191320764.25172424 0 191320764.25172424 148172107.86640167 0 0 0 0 -72837.625699459852 -195049.84782902431 0 -195049.84782902431 263334.14045435656 0 0 0 0 -1452519.6009503603 51742152.049098969 0 51742152.049098969 155699590.38912964 0 0 0 0 61516819.970409632 37811573.076764107 0 37811573.076764107 70399752.407211304 0 0 0 0 5427205.3425946757 21422633.501902938 0 21422633.501902938 27927732.701030731 0 0 0 0 427722.93686634675 -7243883.6059024334 0 -7243883.6059024334 23792413.478954315 0 0 0 0 -12133866.178538039 -21050025.119550705 0 -21050025.119550705 -12478345.05790329 0 0 0 0 -59672340.108566612 7156106.9877185822 0 7156106.9877185822 33752276.492250443 0 0 0 0 -16163479.822666347 28451310.216854095 0 28451310.216854095 61337412.312580109 0 0 0 0 43523921.690691113 -3606734.6348114014 0 -3606734.6348114014 4280532.121963501 0 0 0 0 22146541.47259745 36980036.027565956 0 36980036.027565956 -13907641.23260498 0 0 0 0 138442999.00220799 -15617702.917150497 0 -15617702.917150497 -20406625.944259644 0 0 0 0 131220199.5393939 -3210303.9321365356 0 -3210303.9321365356 81444231.530200958 0 0 0 0 37607.550586667552 -91812.777553208172 0 -91812.777553208172 113739.06258671731 0 0 0 0 51808409.579753548 -4503353.3882665634 0 -4503353.3882665634 36342335.58052063 0 0 0 0 93391112.83695817 -17213030.020687103 0 -17213030.020687103 201072302.31101227 0 0 0 0 109611555.36105847 22510462.501363754 0 22510462.501363754 170046818.50154877 0 0 0 0 39935925.160434723 33994082.885044098 0 33994082.885044098 442417982.10258675 0 0 0 0 50401694.944887757 157845231.12548447 0 157845231.12548447 599827306.65646362 0 0 0 0 174783684.59907711 219087653.08466148 0 219087653.08466148 477682437.77703094 0 0 0 0 60863379.204046011 192879298.03501892 0 192879298.03501892 326282443.70538712 0 0 0 0 69759428.121405363 54416904.113073349 0 54416904.113073349 388813891.42063141 0 0 0 0 65623390.580761194 133783121.53230667 0 133783121.53230667 128577776.08272839 0 0 0 0 -13141157.482658565 155179875.35076714 0 155179875.35076714 278989342.30956268 0 0 0 0 56218589.794042937 182235613.17810273 0 182235613.17810273 219325629.85787201 0 0 0 0 115724031.38761687 258408060.083992 0 258408060.083992 271198153.57850456 0 0 0 0 73471212.954214573 200344999.50332832 0 200344999.50332832 256562696.86312485 0 0 0 0 105008821.98781717 282425449.56262016 0 282425449.56262016 233129835.17980576 0 0 0 0 123811416.91927922 311201762.37731552 0 311201762.37731552 277156599.57167816 0 0 0 0 118517507.54598546 321708193.08842659 0 321708193.08842659 339229558.68876266 0 0 0 0 138010257.55690247 361273445.79868484 0 361273445.79868484 405546742.93952942 0 0 0 0 48151020.156784505 232471742.08534741 0 232471742.08534741 418126189.43228912 0 0 0 0 -219730170.77618337 -71877339.42135334 0 -71877339.42135334 324160462.90027237 0 0 0 0 -18324.549829626791 261366.32398710621 0 261366.32398710621 940820.90608990565 0 0 0 0 260047357.98303342 386761980.58987236 0 386761980.58987236 230702841.28324509 0 0 0 0 -79316475.667466342 106763859.10234547 0 106763859.10234547 534019824.3796463 0 0 0 0 136996608.83323228 328278514.36145288 0 328278514.36145288 682354640.25460052 0 0 0 0 -35906112.194031268 -26129408.12501812 0 -26129408.12501812 202354282.35361099 0 0 0 0 -137341631.47821259 -19570466.640995026 0 -19570466.640995026 447431299.0938797 0 0 0 0 111235888.23928845 213576031.54533148 0 213576031.54533148 310928751.57110214 0 0 0 0 -69206989.641734064 113096649.03854561 0 113096649.03854561 446626927.42594147 0 0 0 0 -4712862.1141606569 106627011.02388382 0 106627011.02388382 409439104.26030159 0 0 0 0 101546819.37941885 232537957.92224121 0 232537957.92224121 477831013.59322596 0 0 0 0 52712309.649033248 265216367.6028161 0 265216367.6028161 597177129.40744019 0 0 0 0 552117549.87468052 170817741.9330101 0 170817741.9330101 480401787.22195435 0 0 0 0 444860015.5744307 27455814.177200317 0 27455814.177200317 593833903.67927933 0 0 0 0 9394.8865466774878 71709.491824422963 0 71709.491824422963 378254.80562592298 0 0 0 0 91845240.069580734 -36622725.409818053 0 -36622725.409818053 14638347.454727173 0 0 0 0 274656321.28729498 276446728.96787167 0 276446728.96787167 261784337.45143127 0 0 0 0 19029138.099434495 -39495264.749138832 0 -39495264.749138832 189841473.13303375 0 0 0 0 128684687.08658957 49829407.682889938 0 49829407.682889938 -83900893.842199326 0 0 0 0 -31792987.008889765 4974259.3453540802 0 4974259.3453540802 28489493.189584255 0 0 0 0 200449019.89499742 149051342.7364254 0 149051342.7364254 62534684.782688618 0 0 0 0 62068736.716514766 203460892.36773014 0 203460892.36773014 308855703.42050552 0 0 0 0 14378719.138732105 139653792.47034216 0 139653792.47034216 205636148.14256287 0 0 0 0 22211469.820663765 114101391.56547451 0 114101391.56547451 109920294.92618179 0 0 0 0 -147679.25446270534 60864168.291733056 0 60864168.291733056 205267796.27568054 0 0 0 0 -29911551.153036043 74009594.614025116 0 74009594.614025116 261141557.82932854 0 0 0 0 -30865773.087521464 85267068.677948952 0 85267068.677948952 331425091.24699783 0 0 0 0 8375841.3684881032 10509931.189304352 0 10509931.189304352 -38624033.060935974 0 0 0 0 30086.574649663336 126082.87125062849 0 126082.87125062849 71939.243603540119 0 0 0 0 1354372.3724413589 387979.18442604598 0 387979.18442604598 -3789.6380936689675 0 0 0 0 101392967.82898712 60608977.459777832 0 60608977.459777832 66397561.536022186 0 0 0 0 2057430.1290507317 -89091.582916259766 0 -89091.582916259766 3695364.3120269775 0 0 0 0 3297608.0639367104 -1724802.999502182 0 -1724802.999502182 1803834.7164878845 0 0 0 0 3545690.0004526377 -702348.35956001282 0 -702348.35956001282 -2204023.7118911743 0 0 0 0 3418407.1511449814 -545579.36822605133 0 -545579.36822605133 731333.76943969727 0 0 0 0 2612526.8956508636 258167.34458255768 0 258167.34458255768 1863145.6044883728 0 0 0 0 222252.26526617122 1380985.7240283131 0 1380985.7240283131 1348473.5928454753 0 0 0 0 -4761020.1107776081 2560215.2878704071 0 2560215.2878704071 1993226.9549102783 0 0 0 0 1227839.2858052254 99679.848529815674 0 99679.848529815674 -153542.43318367004 0 0 0 0 2018483.8055694699 3138335.8992500305 0 3138335.8992500305 2746270.2447662354 0 0 0 0 3170930.6466140449 3341844.7741603851 0 3341844.7741603851 -469678.77030944824 0 0 0 0 1229465.6226794422 2117113.3100852966 0 2117113.3100852966 -675090.81671905518 0 0 0 0 3183938.7714207172 2859671.632522583 0 2859671.632522583 -1691986.1212539673 0 0 0 0 -137893.47210950963 4132687.4592323303 0 4132687.4592323303 -486607.27639007568 0 0 0 0 -3672259.9852298088 847425.10851669312 0 847425.10851669312 975687.49850845337 0 0 0 0 2022570.6053262949 518857.11269378662 0 518857.11269378662 369181.16625213623 0 0 0 0 1091072.8900845051 1653659.8612136841 0 1653659.8612136841 386251.91988754272 0 0 0 0 3996509.9217458963 1169782.9250183105 0 1169782.9250183105 449469.38384056091 0 0 0 0 -9659958.8702735901 -1405523.5588703156 0 -1405523.5588703156 4674230.6851387024 0 0 0 0 4557214.7390204668 -10308753.588653564 0 -10308753.588653564 9226168.4218254089 0 0 0 0 17961965.338644981 -8296328.6736602783 0 -8296328.6736602783 9258559.3587222099 0 0 0 0 -7877176.5253650844 10372680.860855103 0 10372680.860855103 939825.91390228271 0 0 0 0 -10054819.670170352 -482729.73574829102 0 -482729.73574829102 2212302.2267913818 0 0 0 0 2617431.6758859754 5335993.088508606 0 5335993.088508606 32028.306331634521 0 0 0 0 2373193.915427506 3935191.8778419495 0 3935191.8778419495 -2253944.1110515594 0 0 0 0 10688538.977598429 3922366.5445861816 0 3922366.5445861816 -5283255.5990104675 0 0 0 0 7215388.1178382635 -2525583.4040546417 0 -2525583.4040546417 32019364.003623962 0 0 0 0 14128107.13704659 -10660650.947678328 0 -10660650.947678328 8135664.5541763306 0 0 0 0 12446334.497309556 4003799.4205620289 0 4003799.4205620289 -24244506.379013062 0 0 0 0 -4415871.7108559608 -28175142.996311188 0 -28175142.996311188 29394513.333362579 0 0 0 0 24782889.484634951 21425139.81332016 0 21425139.81332016 68509138.26231575 0 0 0 0 18766811.502599016 -11372297.982539415 0 -11372297.982539415 35694368.734962463 0 0 0 0 -19421295.649295747 29095532.847379684 0 29095532.847379684 149659453.28470993 0 0 0 0 -3707522.637121439 -15373207.12862587 0 -15373207.12862587 30007595.068527222 0 0 0 0 8127584.2617784739 15233637.308057785 0 15233637.308057785 93975199.606964111 0 0 0 0 18922144.512849689 1316304.7042007446 0 1316304.7042007446 18587331.282468796 0 0 0 0 27048939.194513679 59658782.538812637 0 59658782.538812637 105903286.77533674 0 0 0 0 41485636.557410121 62180600.117862701 0 62180600.117862701 8342881.9296836853 0 0 0 0 53976678.010584116 64134738.872984409 0 64134738.872984409 64588094.376636505 0 0 0 0 33724678.026018977 104525358.60041952 0 104525358.60041952 202235801.2293663 0 0 0 0 69677081.473531827 128881065.76826823 0 128881065.76826823 222825318.54702759 0 0 0 0 66118995.358097732 67614355.083518982 0 67614355.083518982 126000361.69347382 0 0 0 0 341026.05294953455 491994.51968139783 0 491994.51968139783 -145805.16946600936 0 0 0 0 2133905.8734798133 -13032674.871896744 0 -13032674.871896744 67848622.023925781 0 0 0 0 35430016.062652051 85684050.092563629 0 85684050.092563629 93824729.655784607 0 0 0 0 67965963.819246337 140302493.6590358 0 140302493.6590358 244656566.61483192 0 0 0 0 54097850.768664598 48483939.5014534 0 48483939.5014534 142976940.0600071 0 0 0 0 103145738.61603987 98118853.678882599 0 98118853.678882599 247302558.83633232 0 0 0 0 153283026.34412026 190020941.53424191 0 190020941.53424191 242477869.54434586 0 0 0 0 72053992.355148911 158275106.98984337 0 158275106.98984337 375817383.11136913 0 0 0 0 84960692.856182128 232478904.41411078 0 232478904.41411078 318421252.91255188 0 0 0 0 -61245.765385047591 75276.223271869123 0 75276.223271869123 224668.50535547733 0 0 0 0 36307463.479273081 172178635.80550957 0 172178635.80550957 318720936.8262558 0 0 0 0 118644214.21807033 190886850.38752079 0 190886850.38752079 272728829.21215439 0 0 0 0 5987857.5036318898 58585091.820088387 0 58585091.820088387 162305589.65793037 0 0 0 0 74690136.800130367 149029329.55079365 0 149029329.55079365 240927138.99921417 0 0 0 0 66336629.067733765 154221271.85280991 0 154221271.85280991 318506710.81684399 0 0 0 0 67831773.255230427 184231020.51559448 0 184231020.51559448 272881821.63649559 0 0 0 0 29232374.244398415 96668865.975157738 0 96668865.975157738 244210219.18410873 0 0 0 0 116935263.00715601 189542122.59184265 0 189542122.59184265 288219618.78449965 0 0 0 0 74448397.593628168 159574433.90693092 0 159574433.90693092 295685895.94699478 0 0 0 0 84208493.397666156 156917709.04705429 0 156917709.04705429 304395423.02632141 0 0 0 0 72427353.533286452 214878807.82592392 0 214878807.82592392 349967957.65354919 0 0 0 0 86673216.811416864 156140574.39201736 0 156140574.39201736 354016428.39925671 0 0 0 0 -88156.942640202993 100553.60382171348 0 100553.60382171348 459668.11651598662 0 0 0 0 90462284.86944294 230403425.23784256 0 230403425.23784256 347878130.97271347 0 0 0 0 88535328.480575323 174846191.72809219 0 174846191.72809219 356455784.84720039 0 0 0 0 100238858.38168855 144003102.30644727 0 144003102.30644727 300208937.13246536 0 0 0 0 81410613.045306683 156737870.69104385 0 156737870.69104385 357850414.98900986 0 0 0 0 766295.20958165824 272323.78097870573 0 272323.78097870573 73907.062880808022 0 0 0 0 26108222.470029235 15417183.649997711 0 15417183.649997711 -70880569.532899857 0 0 0 0 1143128.0523313135 352201.39706803206 0 352201.39706803206 20462.693617986981 0 0 0 0 56165629.804241776 73734778.084184647 0 73734778.084184647 172339422.69294548 0 0 0 0 10360501.07149446 126334862.52700424 0 126334862.52700424 344934617.05906868 0 0 0 0 6144956.8816492558 12744241.787708282 0 12744241.787708282 -49175951.606742859 0 0 0 0 -24943700.28112185 10333329.181144714 0 10333329.181144714 4431426.3866910934 0 0 0 0 4683125.6219903231 -2498897.6269550323 0 -2498897.6269550323 -13838578.893444061 0 0 0 0 -3580163.3175560236 15275240.751411438 0 15275240.751411438 -12526085.027492523 0 0 0 0 -24304805.783122361 14250589.319945812 0 14250589.319945812 11951482.295780182 0 0 0 0 -27289966.36314135 18442315.961985111 0 18442315.961985111 53160916.056926727 0 0 0 0 -190364.22692303453 -93738.258867903613 0 -93738.258867903613 137399.98363010585 0 0 0 0 -44672157.944194674 18023567.880174637 0 18023567.880174637 17889007.189718246 0 0 0 0 -6797124.0139005184 773826.15279769897 0 773826.15279769897 18158199.131753922 0 0 0 0 -31441864.431405663 -14549861.315656662 0 -14549861.315656662 8949966.3376331329 0 0 0 0 -16017266.939579904 44625692.099006653 0 44625692.099006653 33952549.271499634 0 0 0 0 -36560750.469086349 -15430602.100483894 0 -15430602.100483894 1023337.5153942108 0 0 0 0 23645541.698104858 23248086.212406158 0 23248086.212406158 -65436046.533826828 0 0 0 0 17683182.292839766 30766970.854402542 0 30766970.854402542 -42416541.464687347 0 0 0 0 15736976.084327877 12372117.890854836 0 12372117.890854836 4702876.5284805298 0 0 0 0 -9104178.3137159348 -5977900.9261455536 0 -5977900.9261455536 33902762.046754837 0 0 0 0 4351278.6698817611 20321998.714485168 0 20321998.714485168 59323240.146840096 0 0 0 0 -274227.43397848902 -168612.73848219775 0 -168612.73848219775 262446.09355649166 0 0 0 0 5150225.1357816458 -4477871.9574565887 0 -4477871.9574565887 19648942.710798264 0 0 0 0 3955412.5688699484 4160723.6362342834 0 4160723.6362342834 -37175911.07862854 0 0 0 0 -7177963.8486434221 -18624774.577009201 0 -18624774.577009201 36787748.477989197 0 0 0 0 -937216.47799470462 305529.82634705491 0 305529.82634705491 23580.700623739976 0 0 0 0 3021591.2287471294 -302309.65540122986 0 -302309.65540122986 13196589.387586594 0 0 0 0 4760228.3744985163 -13042612.498064041 0 -13042612.498064041 8653299.9348392487 0 0 0 0 -148008.57522194134 25413.275524057448 0 25413.275524057448 180607.88244201429 0 0 0 0 5594696.106528759 -7520461.5893344879 0 -7520461.5893344879 -15768188.654245377 0 0 0 0 -8987154.5248192549 -36766188.26659584 0 -36766188.26659584 -2004484.6832485199 0 0 0 0 -36814271.807813436 33924329.510014534 0 33924329.510014534 49334536.184829712 0 0 0 0 7224488.473480463 -4981536.3509159088 0 -4981536.3509159088 -63390048.637548447 0 0 0 0 -1554334.9504224304 585618.78732824139 0 585618.78732824139 128264.53071535891 0 0 0 0 -5612196.2888669968 14013251.170063019 0 14013251.170063019 30883981.65451622 0 0 0 0 9076748.2330675125 -100924.35500907898 0 -100924.35500907898 -48154130.154882431 0 0 0 0 -2082947.9468388488 921081.50416538678 0 921081.50416538678 398973.33216126356 0 0 0 0 -2138599.4502620697 5108334.844704628 0 5108334.844704628 -31601276.687480927 0 0 0 0 -2369897.1468243599 7180222.8434047699 0 7180222.8434047699 13616923.523628235 0 0 0 0 -1249618.8567000628 5639067.0673913956 0 5639067.0673913956 11384751.307628632 0 0 0 0 2532131.6546368599 9166828.0383396149 0 9166828.0383396149 4357896.1454925537 0 0 0 0 -2243605.2849960327 5528879.4976387024 0 5528879.4976387024 11373411.331241608 0 0 0 0 -1496229.0530052185 5240350.14336586 0 5240350.14336586 5293318.6553039551 0 0 0 0 14475133.032980859 19484503.487925529 0 19484503.487925529 2200455.6759033203 0 0 0 0 2747519.4823527336 -2585676.3852939606 0 -2585676.3852939606 -10521808.503826141 0 0 0 0 -331555.58615861973 224447.06547650509 0 224447.06547650509 486433.73155934643 0 0 0 0 -7532004.4109549522 9149680.5052188635 0 9149680.5052188635 11374877.265781403 0 0 0 0 2364782.9302288294 4828514.1228933334 0 4828514.1228933334 4938666.9127120972 0 0 0 0 2478196.6720387936 1506099.4004974365 0 1506099.4004974365 -4962763.035451889 0 0 0 0 -329250.99061998306 685380.34961610753 0 685380.34961610753 791320.00606378354 0 0 0 0 -1060800.1474108696 915499.1319770813 0 915499.1319770813 4240168.9694595337 0 0 0 0 2874709.5039718151 2359609.1038885117 0 2359609.1038885117 1111466.2375869751 0 0 0 0 4216611.9262461662 1932920.6162796021 0 1932920.6162796021 -483943.33913230896 0 0 0 0 4336523.5666739941 1695382.5520782471 0 1695382.5520782471 -3701102.7434616089 0 0 0 0 3088378.5862026215 5067104.7957420349 0 5067104.7957420349 -335871.41957855225 0 0 0 0 2278068.7793512344 4698088.9029998779 0 4698088.9029998779 4720268.061756134 0 0 0 0 524070.51217573881 -528814.2931098938 0 -528814.2931098938 -207361.64545631409 0 0 0 0 -547971.88934736466 347710.17096236628 0 347710.17096236628 1869597.3914261293 0 0 0 0 1858884.5332267676 672790.65697288513 0 672790.65697288513 -608254.62986755371 0 0 0 0 79965.361569009343 205808.49806753872 0 205808.49806753872 -107484.097991338 0 0 0 0 -1312640.8270460963 818687.83834648132 0 818687.83834648132 1901447.8491191864 0 0 0 0 23281.351136186255 1292904.2639987578 0 1292904.2639987578 1225049.6771609336 0 0 0 0 -240700.35220026039 3469498.0822601318 0 3469498.0822601318 1973514.1133737564 0 0 0 0 -1523284.2284373841 769731.13096091663 0 769731.13096091663 1823168.7918712702 0 0 0 0 1071319.1536403063 1443056.5491851363 0 1443056.5491851363 1288834.8427170087 0 0 0 0 -1614310.0862817168 2031016.2379398346 0 2031016.2379398346 6818238.8689346313 0 0 0 0 4484960.3178281784 561449.4650478363 0 561449.4650478363 3022272.7325973511 0 0 0 0 809150.68239879608 953429.71951293945 0 953429.71951293945 4847891.4030475616 0 0 0 0 311711.64583536849 603725.26694139605 0 603725.26694139605 -170080.02501251176 0 0 0 0 68506.07086062117 262704.61929300427 0 262704.61929300427 380445.2337599583 0 0 0 0 -1846552.6680088206 -39159.644370857626 0 -39159.644370857626 2928817.8130020611 0 0 0 0 -772054.55327105522 109368.07112121582 0 109368.07112121582 1167283.9100704193 0 0 0 0 12850285.595275283 6405122.8694462776 0 6405122.8694462776 4736944.3196792603 0 0 0 0 -2464171.202553255 3542227.0118234497 0 3542227.0118234497 3671679.9186399188 0 0 0 0 4108701.7617826462 338674.21062278748 0 338674.21062278748 5706649.4075136185 0 0 0 0 10784171.033810616 3920716.1588668823 0 3920716.1588668823 11703806.550899506 0 0 0 0 -999716.66847246885 8870135.4557142258 0 8870135.4557142258 -5614495.355178833 0 0 0 0 -2494833.8743656646 1548352.6761981715 0 1548352.6761981715 983618.90567684267 0 0 0 0 9207433.4923586845 5304830.2717971802 0 5304830.2717971802 -31449082.426391602 0 0 0 0 -2338597.8990988731 4483850.6674556732 0 4483850.6674556732 13428905.84979248 0 0 0 0 -4767328.6248407364 39065209.7993927 0 39065209.7993927 32972968.422660828 0 0 0 0 -1172575.0330934525 9952619.402759552 0 9952619.402759552 -17863949.079517365 0 0 0 0 -658352.0474119524 975389.87876526476 0 975389.87876526476 -495359.68483645841 0 0 0 0 -13373340.0759902 20059280.503373146 0 20059280.503373146 -24414477.826404572 0 0 0 0 19503970.4904809 13465717.987487793 0 13465717.987487793 2683777.2014656067 0 0 0 0 6064089.9162769318 17514785.69519043 0 17514785.69519043 -27403329.612271309 0 0 0 0 9840986.8474624157 17383065.099682808 0 17383065.099682808 -21690869.100128174 0 0 0 0 5268343.5837898254 13248216.004165649 0 13248216.004165649 -23759644.997577667 0 0 0 0 -68468268.891715288 77668032.434191704 0 77668032.434191704 -28446594.993946075 0 0 0 0 85538069.116887927 45632642.781555653 0 45632642.781555653 -43041403.353069305 0 0 0 0 50324992.746575356 -23532549.094017029 0 -23532549.094017029 6333879.1837997437 0 0 0 0 46279265.260253668 -9900302.5579719543 0 -9900302.5579719543 -20731446.350654602 0 0 0 0 44246377.45065093 -20037814.151096344 0 -20037814.151096344 11141100.507947922 0 0 0 0 48908662.845160484 64575726.016111374 0 64575726.016111374 -40882761.039867401 0 0 0 0 134707422.73680305 5566859.9754219055 0 5566859.9754219055 -34910900.66668129 0 0 0 0 -5908358.7537899017 -26251101.150922775 0 -26251101.150922775 46224040.162324905 0 0 0 0 56812723.002533436 -38322794.328178406 0 -38322794.328178406 21817235.7850914 0 0 0 0 20680508.037827015 -61717706.370849609 0 -61717706.370849609 85505124.862543106 0 0 0 0 29318410.505404353 -24882089.922019958 0 -24882089.922019958 8849141.0458946228 0 0 0 0 21608376.056164265 -15217466.79132843 0 -15217466.79132843 17068757.038520813 0 0 0 0 -6140288.1870659888 -24188129.683905005 0 -24188129.683905005 62201828.810333252 0 0 0 0 11600562.072080851 3577057.4686698914 0 3577057.4686698914 -17461490.197681427 0 0 0 0 3947383.9167320132 -10916247.565885544 0 -10916247.565885544 12438631.00390625 0 0 0 0 13758589.409120083 -6590484.2746715546 0 -6590484.2746715546 6095429.5693643093 0 0 0 0 23418649.805826187 8943358.9332237244 0 8943358.9332237244 -24895126.763744354 0 0 0 0 12562133.791138649 10196489.950237274 0 10196489.950237274 -31406390.833667755 0 0 0 0 5525083.7078694254 10415342.440355897 0 10415342.440355897 -24180662.628067017 0 0 0 0 4739877.4763871431 -1863420.5374970436 0 -1863420.5374970436 -19407512.891216278 0 0 0 0 1444869.0258903503 8620936.6038856506 0 8620936.6038856506 -34329895.693656921 0 0 0 0 -4882114.5108680129 -9555108.6049232483 0 -9555108.6049232483 -28911657.39087677 0 0 0 0 -8232531.4407221079 5624088.7834005356 0 5624088.7834005356 -23674907.93450737 0 0 0 0 -3028761.7153979093 -10241796.649014473 0 -10241796.649014473 -9526777.5969581604 0 0 0 0 -1939841.2863059044 11210896.817405701 0 11210896.817405701 4663679.9172210693 0 0 0 0 2754729.0633270741 7267573.764169693 0 7267573.764169693 -21771218.530280113 0 0 0 0 -9687643.2348068357 18078142.197332382 0 18078142.197332382 -6149329.2208633423 0 0 0 0 4384533.6731916666 -5481567.8412952423 0 -5481567.8412952423 -69439251.504223347 0 0 0 0 -19509245.15350575 -28943310.549021006 0 -28943310.549021006 77851989.802120209 0 0 0 0 -2154791.6386058331 7960975.8825263977 0 7960975.8825263977 -4745588.3317623138 0 0 0 0 -17847606.130386353 2955276.9204511642 0 2955276.9204511642 32314987.662994385 0 0 0 0 -9359889.8980361223 13170545.65839386 0 13170545.65839386 28013785.817354202 0 0 0 0 12023857.4660272 -26454911.608905792 0 -26454911.608905792 208101318.12528419 0 0 0 0 -134826.72687963356 97225.414693223312 0 97225.414693223312 197871.12242184393 0 0 0 0 869218.02568250895 -60959334.551252365 0 -60959334.551252365 198908132.16132355 0 0 0 0 -5226288.0067453682 -10847861.285611987 0 -10847861.285611987 38379736.389694214 0 0 0 0 -3692780.0447421074 3812242.6686038971 0 3812242.6686038971 25402190.938531876 0 0 0 0 -16706793.402498722 20471826.323896408 0 20471826.323896408 79368326.185661316 0 0 0 0 -23575758.829721212 -27362487.595569611 0 -27362487.595569611 126980321.34985542 0 0 0 0 -23725133.129177332 -16013146.793020248 0 -16013146.793020248 82986719.899032593 0 0 0 0 -8414855.8235268593 -24590524.779230118 0 -24590524.779230118 78392517.917805672 0 0 0 0 -356166.23813962936 -48019365.3573246 0 -48019365.3573246 99104734.641122818 0 0 0 0 -654450.07967949391 -31341.966924179345 0 -31341.966924179345 138975.28692165948 0 0 0 0 -41078376.66713798 -66723213.797985077 0 -66723213.797985077 70392036.279148102 0 0 0 0 -12278127.803387046 -19000758.632919312 0 -19000758.632919312 102234232.33318329 0 0 0 0 17600203.313981533 1480837.9215507507 0 1480837.9215507507 -25657307.364273071 0 0 0 0 -32761210.634492159 -49262283.538103104 0 -49262283.538103104 17102198.263835907 0 0 0 0 -244346.98286441469 -151791.41291467473 0 -151791.41291467473 188689.64568250068 0 0 0 0 -20257249.914339304 -36903820.082443237 0 -36903820.082443237 262016619.11241531 0 0 0 0 73997072.673696041 13561169.469144821 0 13561169.469144821 -92987629.953932762 0 0 0 0 -83421.296337362961 6677.533285100013 0 6677.533285100013 86180.87900731992 0 0 0 0 -18987059.250984877 -49569163.999775887 0 -49569163.999775887 259226520.53142548 0 0 0 0 -2173918.1812429428 26658270.871562958 0 26658270.871562958 38604898.603725433 0 0 0 0 -592500.31166477618 -24837.435480895452 0 -24837.435480895452 116443.94264500309 0 0 0 0 -8985712.2895720005 -1156077.7151317596 0 -1156077.7151317596 59244734.466960907 0 0 0 0 5983120.5048507452 14596996.235824585 0 14596996.235824585 -5307822.0479507446 0 0 0 0 1586531.9021999836 31339310.4887743 0 31339310.4887743 -1109930.2119750977 0 0 0 0 6543893.8937696218 -1057801.536482811 0 -1057801.536482811 -24138502.28723526 0 0 0 0 15690.407227898249 169154.72260795347 0 169154.72260795347 -47150.086483806372 0 0 0 0 -52788429.580349684 -7755875.7838115692 0 -7755875.7838115692 3016228.0535621643 0 0 0 0 -219010.4811880812 3314514.8809580207 0 3314514.8809580207 -1339538.1442337036 0 0 0 0 4060791.5084786415 6081172.6072034836 0 6081172.6072034836 -1644972.8948059082 0 0 0 0 2843042.5877155066 4794934.1827077866 0 4794934.1827077866 -650185.87623596191 0 0 0 0 24242289.360342011 -47890740.079737425 0 -47890740.079737425 10004835.626003265 0 0 0 0 -295662.08807420661 8600.6954114967957 0 8600.6954114967957 80231.938311756589 0 0 0 0 16957285.325684547 -598476.64761352539 0 -598476.64761352539 -16576255.604660034 0 0 0 0 -53744691.552591085 -48417847.998975754 0 -48417847.998975754 81835141.18342495 0 0 0 0 -15093446.642075062 -16358056.788579464 0 -16358056.788579464 22657879.993751526 0 0 0 0 -47472184.00934124 18234938.190045357 0 18234938.190045357 648948.23670291901 0 0 0 0 -16501778.051257372 -24250795.131061554 0 -24250795.131061554 -1383372.8818082809 0 0 0 0 -30841028.311926126 50719885.052400589 0 50719885.052400589 65329975.165208817 0 0 0 0 -34678729.551503234 -24598980.831359565 0 -24598980.831359565 32468933.19316864 0 0 0 0 24297351.082217693 -28122210.356693268 0 -28122210.356693268 42974978.848590136 0 0 0 0 37265499.25633812 66913858.876749039 0 66913858.876749039 36161722.307495117 0 0 0 0 74424393.240936279 43176935.580528259 0 43176935.580528259 32053084.827969074 0 0 0 0 82317676.369778633 73023469.689983368 0 73023469.689983368 33963380.014026523 0 0 0 0 -26308089.208873928 742407.28480911255 0 742407.28480911255 42842366.001029015 0 0 0 0 81315838.370383739 74165511.664176941 0 74165511.664176941 46736116.641052246 0 0 0 0 1720161.4542075796 -1608109.2739518639 0 -1608109.2739518639 1196271.2151592579 0 0 0 0 -769693.31707732519 96030.205753074959 0 96030.205753074959 803518.71729871258 0 0 0 0 69273143.039694786 42191182.163378716 0 42191182.163378716 -51352412.002717972 0 0 0 0 322349023.51628494 -48213635.343401909 0 -48213635.343401909 -27966493.659629822 0 0 0 0 164593806.48010635 73739499.137145996 0 73739499.137145996 9936787.4361686707 0 0 0 0 819767.89269007102 -605878.41726037674 0 -605878.41726037674 239930.62687281519 0 0 0 0 117686163.1219182 125292902.26072502 0 125292902.26072502 172987029.62047005 0 0 0 0 73978753.195668221 45914959.476396561 0 45914959.476396561 65233502.946674347 0 0 0 0 29231452.7972579 6940613.464881897 0 6940613.464881897 292012284.66954422 0 0 0 0 138003046.98638177 -163656482.28731251 0 -163656482.28731251 231778760.0968647 0 0 0 0 376249203.94760442 -69842857.388816833 0 -69842857.388816833 26199301.323543549 0 0 0 0 113656876.1213063 18142039.754232407 0 18142039.754232407 10209919.951133728 0 0 0 0 159325887.38795769 -93790464.720965385 0 -93790464.720965385 52369736.2358284 0 0 0 0 20129783.527053833 -47144238.913560867 0 -47144238.913560867 126282926.79307175 0 0 0 0 16968579.056876898 -68223336.090223312 0 -68223336.090223312 112837465.91559792 0 0 0 0 -26098756.961047411 -28886911.189809799 0 -28886911.189809799 95195638.068548203 0 0 0 0 -27205769.926279545 -41600712.884468079 0 -41600712.884468079 97708269.681555748 0 0 0 0 -63621960.77069699 -46150162.541943595 0 -46150162.541943595 131182347.12248993 0 0 0 0 -62310212.587867498 13778535.216335297 0 13778535.216335297 80870070.046675682 0 0 0 0 109341.51381646759 57951131.612667724 0 57951131.612667724 124413473.35318375 0 0 0 0 14363.720709659399 185810.22774988785 0 185810.22774988785 522595.07859811932 0 0 0 0 12501011.643867981 7551981.4253616333 0 7551981.4253616333 -46265943.827681541 0 0 0 0 -27200801.742601078 34291646.203279138 0 34291646.203279138 231798353.33803558 0 0 0 0 -26637643.258125752 2725031.6903295517 0 2725031.6903295517 304130176.69373918 0 0 0 0 26658268.99233523 85407259.345664024 0 85407259.345664024 127188618.81023598 0 0 0 0 34055948.820373744 59850314.459267616 0 59850314.459267616 -2323557.150604248 0 0 0 0 -87120284.491944492 -63224099.479696274 0 -63224099.479696274 85110459.344176292 0 0 0 0 -5521.0793280387006 34641.495562395547 0 34641.495562395547 326727.02915966511 0 0 0 0 25425516.237584919 113368003.16471481 0 113368003.16471481 108813745.91612053 0 0 0 0 46005292.973294973 46610085.212778091 0 46610085.212778091 -11637166.62417984 0 0 0 0 -16776.245689115094 97873.781440833118 0 97873.781440833118 702242.98468043283 0 0 0 0 75806752.959282458 24218000.778186798 0 24218000.778186798 44143.053699493408 0 0 0 0 100519830.85045311 51793450.798919678 0 51793450.798919678 36463645.086452484 0 0 0 0 77224917.918691635 8688079.0787220001 0 8688079.0787220001 10931599.540906906 0 0 0 0 25673841.950680852 -1597877.6555137634 0 -1597877.6555137634 157731005.28915405 0 0 0 0 10596634.394065857 -3501630.1274986267 0 -3501630.1274986267 202446027.86968994 0 0 0 0 23606211.208699346 7550966.0349998474 0 7550966.0349998474 177145482.42906952 0 0 0 0 23840204.657938499 20992698.586435497 0 20992698.586435497 220578739.10036469 0 0 0 0 -12211279.536011696 23480914.224250793 0 23480914.224250793 307663361.25510025 0 0 0 0 132996026.78594404 118380991.6052742 0 118380991.6052742 170540940.66208267 0 0 0 0 36014001.809398651 23884041.474769592 0 23884041.474769592 225335614.3942852 0 0 0 0 120764.26577147171 252573.39553992078 0 252573.39553992078 632342.72916532308 0 0 0 0 1108020.9372944832 4751584.4854125977 0 4751584.4854125977 -30149203.754669189 0 0 0 0 -12082562.871679962 -50361839.423110962 0 -50361839.423110962 256077088.45934296 0 0 0 0 75897.209765195847 5718039.315612793 0 5718039.315612793 -30881105.486610413 0 0 0 0 72717.39245400764 5707100.5201369524 0 5707100.5201369524 -10329583.061286926 0 0 0 0 21747533.94986558 -24455016.51556778 0 -24455016.51556778 154376936.88858604 0 0 0 0 121912.80711770331 270724.13721588999 0 270724.13721588999 884085.19344065199 0 0 0 0 -2440839.6810077429 7206122.4682006836 0 7206122.4682006836 -6851651.7127456665 0 0 0 0 -135615.14521002769 -16165256.038284302 0 -16165256.038284302 178340801.27749062 0 0 0 0 -32124255.310776711 -6056366.8962402344 0 -6056366.8962402344 194469927.17819214 0 0 0 0 9060860.2581803799 -23059350.156635284 0 -23059350.156635284 176745334.67744446 0 0 0 0 8769998.2068665028 -29633851.421726227 0 -29633851.421726227 183492168.23855591 0 0 0 0 2439556.9441944361 -28366343.680606842 0 -28366343.680606842 193985561.26509094 0 0 0 0 -1696708.762283802 -26165846.248016357 0 -26165846.248016357 186408644.49964905 0 0 0 0 8685474.3998715878 -23237682.257331848 0 -23237682.257331848 234758991.64045906 0 0 0 0 13921200.91107142 -54933936.204614639 0 -54933936.204614639 172334522.52019501 0 0 0 0 -2355619.9879562259 -39935073.664089203 0 -39935073.664089203 203267703.26020813 0 0 0 0 -212580.71742763114 -353926.0392530933 0 -353926.0392530933 475244.65135973226 0 0 0 0 764791.72162556648 -37565067.176231384 0 -37565067.176231384 178781899.45309448 0 0 0 0 2522043.4341951609 -26161876.153106689 0 -26161876.153106689 174940301.44368172 0 0 0 0 1588408.5546132326 -30896965.80745697 0 -30896965.80745697 182434199.11751556 0 0 0 0 8109980.1061413288 -31551886.098808289 0 -31551886.098808289 174116561.13267517 0 0 0 0 8136404.3941297531 -24316278.45123291 0 -24316278.45123291 186538999.32318115 0 0 0 0 7550882.785161227 -27392318.942254066 0 -27392318.942254066 180470354.33750916 0 0 0 0 8979939.228107214 -32576035.731452942 0 -32576035.731452942 185397226.66049957 0 0 0 0 7944522.0496118069 -27284408.824241638 0 -27284408.824241638 183583826.29898071 0 0 0 0 8739228.7178355455 -30135492.399044037 0 -30135492.399044037 196683263.32543945 0 0 0 0 5738105.005168438 -28951204.276733398 0 -28951204.276733398 187444483.64636993 0 0 0 0 -17799875.42313385 -22212109.856323242 0 -22212109.856323242 197647389.50523376 0 0 0 0 5600753.4262824059 -30812658.611206055 0 -30812658.611206055 192773726.54672241 0 0 0 0 29636028.37646246 -44634092.342971802 0 -44634092.342971802 204441149.38357544 0 0 0 0 -841195.841537714 -46687045.011978149 0 -46687045.011978149 219130791.58428955 0 0 0 0 18256451.672230244 -26817623.314605713 0 -26817623.314605713 194006759.6053009 0 0 0 0 -5526.6154098850384 -8062.2372544631362 0 -8062.2372544631362 13267.700059056282 0 0 0 0 40998314.304973125 -75866204.519134521 0 -75866204.519134521 231826241.49947357 0 0 0 0 -659914.23272895813 -31109657.080226898 0 -31109657.080226898 196757896.41139221 0 0 0 0 7903306.852725029 -47699041.948757172 0 -47699041.948757172 192967171.8665781 0 0 0 0 -3529923.5148546696 -37457273.330574036 0 -37457273.330574036 191082191.29784775 0 0 0 0 25122919.027957082 -15452678.609638214 0 -15452678.609638214 186113921.76114655 0 0 0 0 18756665.230595052 -45333709.328582764 0 -45333709.328582764 182118781.69449234 0 0 0 0 14736329.418133765 -28709361.48390007 0 -28709361.48390007 128035024.54327393 0 0 0 0 9618887.0539608002 -38112340.455764771 0 -38112340.455764771 155204897.73121643 0 0 0 0 11846270.063442945 -36896662.570789337 0 -36896662.570789337 174356117.62774658 0 0 0 0 -4264112.8254121542 -37994497.634967804 0 -37994497.634967804 174489103.00286674 0 0 0 0 -9921145.8347378746 -28152289.609728813 0 -28152289.609728813 153142103.67402649 0 0 0 0 -5393132.4563422203 -1794692.7250955105 0 -1794692.7250955105 127414644.57990646 0 0 0 0 14733031.669914365 -29262748.790485382 0 -29262748.790485382 123087465.98569489 0 0 0 0 32188407.247721732 20104229.495450974 0 20104229.495450974 98410307.42010498 0 0 0 0 11577148.26065892 -11026160.789047241 0 -11026160.789047241 177376436.12677002 0 0 0 0 15505661.366104722 -16114767.641765594 0 -16114767.641765594 166937326.66082573 0 0 0 0 31739944.480154872 23294821.938310623 0 23294821.938310623 159388878.32844329 0 0 0 0 73868239.430341542 27135206.356095552 0 27135206.356095552 -576903.75909805298 0 0 0 0 79009457.033470631 14463766.201644897 0 14463766.201644897 -31754686.269777298 0 0 0 0 62470821.822731137 19008492.214702606 0 19008492.214702606 -5622189.7768363953 0 0 0 0 17674846.829164892 -25752075.014457703 0 -25752075.014457703 47531434.851772308 0 0 0 0 -44879269.019864351 -87235878.220638275 0 -87235878.220638275 82091724.750146866 0 0 0 0 -9802000.5511830598 39239334.757407665 0 39239334.757407665 27708110.2006073 0 0 0 0 -75105.894647718262 35154.178658241406 0 35154.178658241406 100637.14951949567 0 0 0 0 14518311.020181432 49321836.351686478 0 49321836.351686478 -88389491.78301239 0 0 0 0 -301910.4486458071 85536.195101877674 0 85536.195101877674 -5940.9353051707149 0 0 0 0 7749184.2191023417 -6672463.3130424023 0 -6672463.3130424023 -117688178.05360794 0 0 0 0 -15293372.346923977 60549559.394670486 0 60549559.394670486 -6314673.9396152496 0 0 0 0 2455796.2002270818 12827496.524194717 0 12827496.524194717 71431525.037384033 0 0 0 0 -190639.41287680727 122804.21438921429 0 122804.21438921429 271017.97545729019 0 0 0 0 24851705.772592127 -38109297.175865173 0 -38109297.175865173 50047571.188638687 0 0 0 0 -20142610.998942554 -45433199.808979034 0 -45433199.808979034 133152977.19100571 0 0 0 0 6603149.024058789 -20998108.4563694 0 -20998108.4563694 146149142.60650635 0 0 0 0 4168185.7625362873 -45991905.398101807 0 -45991905.398101807 164168892.25053406 0 0 0 0 -7543543.4196682572 -32302115.851840019 0 -32302115.851840019 198007051.12772369 0 0 0 0 2567939.2230873108 -8469905.2819747925 0 -8469905.2819747925 212500486.30642128 0 0 0 0 23835640.595228195 -57149362.407396317 0 -57149362.407396317 123168590.67333984 0 0 0 0 11835599.87211144 -6852405.6205692291 0 -6852405.6205692291 192107816.21873093 0 0 0 0 14881385.193389833 -61050721.455358505 0 -61050721.455358505 195872086.89225388 0 0 0 0 -236788.29580470175 19155.614300071262 0 19155.614300071262 59400.266099427827 0 0 0 0 32554000.478034973 12020842.056526184 0 12020842.056526184 -20292478.535877228 0 0 0 0 -33788657.070742846 20379126.04883194 0 20379126.04883194 2335510.1014537811 0 0 0 0 -18683190.732515872 -41723487.415630341 0 -41723487.415630341 240361858.58456802 0 0 0 0 -339459.70238295844 -326547.47461407259 0 -326547.47461407259 281210.79517886881 0 0 0 0 -126158172.28942966 -28161308.431785583 0 -28161308.431785583 -18214356.770107269 0 0 0 0 -80646604.10353303 -5147712.1807460785 0 -5147712.1807460785 19381562.245796204 0 0 0 0 -39793432.146455526 -91950030.917234421 0 -91950030.917234421 -31285974.753311157 0 0 0 0 -19895828.093563795 -5083744.2236747742 0 -5083744.2236747742 18922419.283958435 0 0 0 0 -11521474.86594075 -2010852.9064292908 0 -2010852.9064292908 13598147.450752258 0 0 0 0 -27531421.359008908 6406652.5697383881 0 6406652.5697383881 17790834.594207764 0 0 0 0 -3961044.1932656765 13488760.046901703 0 13488760.046901703 3767536.9138450623 0 0 0 0 5073297.0250473022 -1675567.0675945282 0 -1675567.0675945282 20019307.289402008 0 0 0 0 488467.85119402409 17968839.804549217 0 17968839.804549217 18191520.325271606 0 0 0 0 -5578748.341737628 9351699.6067905426 0 9351699.6067905426 5967237.9188461304 0 0 0 0 -1604866.3600792885 7803151.7887477875 0 7803151.7887477875 6121372.5868732929 0 0 0 0 -8831879.5332496166 9439922.4694538116 0 9439922.4694538116 17949673.890185356 0 0 0 0 -5785980.6573765278 3582278.7207384109 0 3582278.7207384109 2366357.3950462341 0 0 0 0 -169083.47121334076 4345535.7837810516 0 4345535.7837810516 -490619.93947601318 0 0 0 0 -6109626.4596259594 3728973.8046340942 0 3728973.8046340942 7415353.1703204513 0 0 0 0 -3736605.1273957491 1400344.0718324184 0 1400344.0718324184 2293111.1748275757 0 0 0 0 -531919.92790588876 422486.45492260903 0 422486.45492260903 2214196.3788741194 0 0 0 0 -13167176.311581671 1848297.7146749496 0 1848297.7146749496 7314430.2207069397 0 0 0 0 -3623718.0194038153 504671.14184570312 0 504671.14184570312 7889733.4179878235 0 0 0 0 780299.41651767492 1840725.0043506622 0 1840725.0043506622 3860599.0003433228 0 0 0 0 1333705.4969282746 1719673.8523139954 0 1719673.8523139954 392492.12388420105 0 0 0 0 -1436499.3012313843 2782206.9963092804 0 2782206.9963092804 982185.85385513306 0 0 0 0 -314445.18367833528 582112.15513338614 0 582112.15513338614 567930.85295450315 0 0 0 0 -12953427.804414272 231207.20879936218 0 231207.20879936218 3446676.2678184509 0 0 0 0 -7160781.1255543828 2170080.5369796753 0 2170080.5369796753 2616172.8208236694 0 0 0 0 -3148128.249522686 -26875917.117098808 0 -26875917.117098808 1464408.6319580078 0 0 0 0 -559656.66853696259 389913.72370949388 0 389913.72370949388 2211190.7542935535 0 0 0 0 5467628.016223073 -4702352.7589569092 0 -4702352.7589569092 3951252.7084121704 0 0 0 0 -222692.20478231861 151633.61888598464 0 151633.61888598464 431590.16342907399 0 0 0 0 47786433.064688683 19756351.018680573 0 19756351.018680573 11178697.859043121 0 0 0 0 48525910.82109642 7284613.2306900024 0 7284613.2306900024 824432.38036727905 0 0 0 0 47408689.291757584 -16517570.59759903 0 -16517570.59759903 -3331875.4209747314 0 0 0 0 -16676955.464477301 -49337212.457294464 0 -49337212.457294464 -6122126.8202209473 0 0 0 0 39141625.048240423 -47097261.683670044 0 -47097261.683670044 -63553179.744205475 0 0 0 0 77542532.437051535 -5578154.9478530884 0 -5578154.9478530884 -41957058.292675018 0 0 0 0 -266240.46182131616 591341.16355682723 0 591341.16355682723 1659737.388329085 0 0 0 0 -498886.16637897491 997177.56889533997 0 997177.56889533997 4224270.7070426941 0 0 0 0 -2603385.962166667 1241253.1482467651 0 1241253.1482467651 44972.085304260254 0 0 0 0 -3155316.4680385888 4747411.887406826 0 4747411.887406826 -3229798.3202819824 0 0 0 0 -5994632.4753715992 8293826.6292800903 0 8293826.6292800903 379287.55053329468 0 0 0 0 -9701011.3551084995 10505881.262130737 0 10505881.262130737 2137650.0012378693 0 0 0 0 -9551507.3736540675 9201193.4263305664 0 9201193.4263305664 1364831.3455810547 0 0 0 0 -9056439.4625679851 5705390.0914764404 0 5705390.0914764404 1816553.9009084702 0 0 0 0 -5263154.1321918964 5296303.0911026001 0 5296303.0911026001 1854605.5522499084 0 0 0 0 -3095067.2614229321 5140534.198551178 0 5140534.198551178 -4555268.9149932861 0 0 0 0 -3299928.9060806036 7321109.967414856 0 7321109.967414856 -6866970.8729972839 0 0 0 0 -6233578.8368984461 7447433.2720489502 0 7447433.2720489502 -2604845.7239227295 0 0 0 0 -2716123.2420778275 9098224.6026115417 0 9098224.6026115417 -4040428.4104003906 0 0 0 0 -6820708.1029906273 10788187.704227448 0 10788187.704227448 -4100139.7669754028 0 0 0 0 -5303917.5109349191 17798208.336204529 0 17798208.336204529 -12293932.24861908 0 0 0 0 -4159511.0891678333 13597853.372055054 0 13597853.372055054 -10593833.830003262 0 0 0 0 -4233529.8714216184 12961738.78895998 0 12961738.78895998 885647.81384658813 0 0 0 0 -5984950.019513011 14418683.787443161 0 14418683.787443161 -2708690.4401016235 0 0 0 0 -6024385.1717635989 12110313.839744568 0 12110313.839744568 -828995.43300628662 0 0 0 0 -6719591.4249514937 12752530.341350555 0 12752530.341350555 1436174.6148071289 0 0 0 0 -4720110.5278542936 15128568.316574097 0 15128568.316574097 1970604.601776123 0 0 0 0 -8641203.779101193 13276252.632808685 0 13276252.632808685 7324788.1207199097 0 0 0 0 -2319523.7449932694 14032247.660881042 0 14032247.660881042 5636537.3189201355 0 0 0 0 -12310583.576059937 9572201.7842597961 0 9572201.7842597961 7177266.4695892334 0 0 0 0 -11681186.410354376 3281971.1408042908 0 3281971.1408042908 9374901.3158664703 0 0 0 0 -12354121.53935934 6576885.3736124933 0 6576885.3736124933 5218371.0490722656 0 0 0 0 -8800689.0868649483 6589675.08152771 0 6589675.08152771 4506643.7524261475 0 0 0 0 -33800195.603807449 -12731998.655025482 0 -12731998.655025482 1036733.2109069824 0 0 0 0 53222.012311868064 219837.3063381901 0 219837.3063381901 83858.692616505548 0 0 0 0 -582759.40356129408 10487578.74838829 0 10487578.74838829 48180287.763473511 0 0 0 0 8707844.9061205387 4281724.6260185242 0 4281724.6260185242 4600937.4659690857 0 0 0 0 75714.906635926745 41216.810019642115 0 41216.810019642115 -17812.181032402441 0 0 0 0 -14612303.061154187 -67159565.036523819 0 -67159565.036523819 1139771.3202264309 0 0 0 0 -3201462.5503050387 1169715.4947490692 0 1169715.4947490692 -6441007.1194751263 0 0 0 0 -28536210.674495868 8911718.8085114956 0 8911718.8085114956 21988890.704425812 0 0 0 0 24103857.119089615 11095883.712841034 0 11095883.712841034 21076482.55821991 0 0 0 0 -4397894.6063381284 -6055247.9852440357 0 -6055247.9852440357 59916285.435153961 0 0 0 0 54265569.720426366 -40332569.055519104 0 -40332569.055519104 38513428.717703819 0 0 0 0 60707517.550006755 -100707425.55574799 0 -100707425.55574799 121134299.47985315 0 0 0 0 -50929.255404473806 -51748.294587768614 0 -51748.294587768614 326703.46267106012 0 0 0 0 10261016.698506461 -18459693.260432005 0 -18459693.260432005 98827389.745380402 0 0 0 0 387230.53754614323 15829539.629892349 0 15829539.629892349 32978861.211776733 0 0 0 0 14971642.971435264 -9962548.1864032745 0 -9962548.1864032745 33846058.308203101 0 0 0 0 15088.671001619348 13166455.11545372 0 13166455.11545372 12661875.817173004 0 0 0 0 29445.071454190354 17638.942124274559 0 17638.942124274559 -24878.539391942322 0 0 0 0 9550370.6870312244 13260145.891098022 0 13260145.891098022 3706988.7756729126 0 0 0 0 -2007136.5074199031 7528068.0055696964 0 7528068.0055696964 22182997.238651276 0 0 0 0 22234.966247203127 12486.967668739147 0 12486.967668739147 -27219.393584918231 0 0 0 0 -2281941.1684394907 9853679.6774353981 0 9853679.6774353981 3168661.7363395691 0 0 0 0 3984198.8934061304 17842001.008718491 0 17842001.008718491 -22735689.972708702 0 0 0 0 8158140.1991440468 -4271983.4865756035 0 -4271983.4865756035 -21458315.216026306 0 0 0 0 -15892.252343276832 11591872.870565414 0 11591872.870565414 -19263973.529586792 0 0 0 0 -3036662.2222948209 -2801272.1907844543 0 -2801272.1907844543 6308229.8234634399 0 0 0 0 172645.06132567674 -14663558.704410553 0 -14663558.704410553 16948625.926527023 0 0 0 0 36843.366816281654 -83959.290080020204 0 -83959.290080020204 225672.58716526628 0 0 0 0 5996620.3651178889 -6388793.7885322571 0 -6388793.7885322571 15605853.290351868 0 0 0 0 376125.2257264778 -1730184.4984378815 0 -1730184.4984378815 4390163.0475959778 0 0 0 0 -1391151.3298022076 -1010206.5495109558 0 -1010206.5495109558 4691554.9981431961 0 0 0 0 -8335.8719150231864 160.45383674651384 0 160.45383674651384 17073.955349860713 0 0 0 0 -757718.21446443535 323721.66076660156 0 323721.66076660156 2319130.987197876 0 0 0 0 -1371587.0218772497 -688640.54036712646 0 -688640.54036712646 657576.65879058838 0 0 0 0 1310895.7008889448 -5768784.2017192841 0 -5768784.2017192841 8395403.6794624329 0 0 0 0 -12974.145403319093 -1464.2592876590788 0 -1464.2592876590788 23834.580954797566 0 0 0 0 21820.417434315903 5689625.3483657837 0 5689625.3483657837 7020268.8643407822 0 0 0 0 -2062117.352343007 1165973.0469360352 0 1165973.0469360352 -3111503.6281003952 0 0 0 0 9113.9720500419135 5907363.5370304314 0 5907363.5370304314 4285203.1430740356 0 0 0 0 -7191.5492701080029 4672311.5375953317 0 4672311.5375953317 -4800297.9218063354 0 0 0 0 -2328894.3648548345 7200288.6442213953 0 7200288.6442213953 -3555391.0705947876 0 0 0 0 -32006.423560200863 59190.689012538642 0 59190.689012538642 544065.39156585559 0 0 0 0 32284209.83118977 -32822259.558640838 0 -32822259.558640838 63925518.822322845 0 0 0 0 31135994.026747152 -90199977.398881912 0 -90199977.398881912 89994479.197864532 0 0 0 0 -4925757.9854626358 -32108864.850166321 0 -32108864.850166321 83040139.365749359 0 0 0 0 19231142.170952559 -39385753.005458832 0 -39385753.005458832 60940830.777908325 0 0 0 0 19916106.456226707 -36244181.949919701 0 -36244181.949919701 70232825.222450256 0 0 0 0 73799.721892402798 197599.37358790264 0 197599.37358790264 831797.27209816501 0 0 0 0 -4156588.101248838 605029.69574737549 0 605029.69574737549 2183913.6560745239 0 0 0 0 -4027594.4886836261 5276738.5623264313 0 5276738.5623264313 -1277574.5868606567 0 0 0 0 187031.81438537687 -246863.89010238647 0 -246863.89010238647 1624496.3866119385 0 0 0 0 -2393196.6688355953 -696438.016954422 0 -696438.016954422 5188307.846446991 0 0 0 0 -80308.56909006089 1406637.7125720978 0 1406637.7125720978 6600596.9710597992 0 0 0 0 406381.95980351418 530296.3217086792 0 530296.3217086792 -105558.13707876205 0 0 0 0 -3491572.9438398406 2467621.6068534851 0 2467621.6068534851 3376408.5230045319 0 0 0 0 3628986.9650678635 -20957616.428513527 0 -20957616.428513527 47357872.14755249 0 0 0 0 261784.07338466446 272541.56199351978 0 272541.56199351978 1166108.1306119021 0 0 0 0 6335506.5133529305 -23667314.716030121 0 -23667314.716030121 39065948.767147064 0 0 0 0 15094047.369853377 -25063334.202987671 0 -25063334.202987671 48145274.023283958 0 0 0 0 -16171.130270526512 102577.25719680451 0 102577.25719680451 164519.52776009543 0 0 0 0 17320001.994327962 -45912178.408234596 0 -45912178.408234596 98808164.077919006 0 0 0 0 6801096.4947063029 -8924454.0893802643 0 -8924454.0893802643 -12683461.899185181 0 0 0 0 -3233794.4705857038 -1500673.0890655518 0 -1500673.0890655518 13671316.651716232 0 0 0 0 -3326550.2603792548 -2667179.10275352 0 -2667179.10275352 2929233.4708633423 0 0 0 0 -14413.859551028698 199382.15069475025 0 199382.15069475025 494121.58986494318 0 0 0 0 -1373659.9864448309 -2506690.4960689545 0 -2506690.4960689545 717388.01261520386 0 0 0 0 3204746.2591280937 -35626422.37577343 0 -35626422.37577343 65344896.191959381 0 0 0 0 -967979.63963055611 -109419.57538986206 0 -109419.57538986206 2502253.1477432251 0 0 0 0 31080916.840225935 -13549322.317268372 0 -13549322.317268372 8728756.4709560871 0 0 0 0 37079.705556366709 281823.29451741464 0 281823.29451741464 947870.99654397939 0 0 0 0 -5179.7534199953079 -610368.79172420502 0 -610368.79172420502 2762277.0109634399 0 0 0 0 -1283152.7235226631 -421531.36464691162 0 -421531.36464691162 3261497.6614723206 0 0 0 0 -1140136.3933255672 3702007.9291858673 0 3702007.9291858673 -726552.63030433655 0 0 0 0 -1065185.9319764376 78214.423720359802 0 78214.423720359802 2810388.2141571045 0 0 0 0 -541693.82009507075 510378.52860279987 0 510378.52860279987 2150610.4350820556 0 0 0 0 -1022610.2061856091 2866223.6727254391 0 2866223.6727254391 -1180648.1977920532 0 0 0 0 3488380.238035202 -817167.0351524353 0 -817167.0351524353 818559.60434341431 0 0 0 0 -28724558.034433842 15156567.315982819 0 15156567.315982819 -118364302.39482117 0 0 0 0 -1248327.7474173601 208174.83036097046 0 208174.83036097046 2466353.1424418017 0 0 0 0 -44238522.433745861 35978000.128444195 0 35978000.128444195 45049515.946414948 0 0 0 0 -71108.462567342911 174039.61290299799 0 174039.61290299799 280877.93332644552 0 0 0 0 -21204240.363899827 -54990789.437561154 0 -54990789.437561154 20512594.019790649 0 0 0 0 98810710.155660331 72362226.707146406 0 72362226.707146406 38351713.06627655 0 0 0 0 24309633.932402514 67531875.850983739 0 67531875.850983739 43256985.851673126 0 0 0 0 -13051960.838984281 -32364078.427587986 0 -32364078.427587986 161497482.76053619 0 0 0 0 123543831.71530151 -83732162.117549896 0 -83732162.117549896 35755796.649897575 0 0 0 0 19465319.129353415 -80965694.9943856 0 -80965694.9943856 37023151.331371307 0 0 0 0 3003106.0532655716 -33482315.124849319 0 -33482315.124849319 59594670.825855255 0 0 0 0 -8427411.1195614338 -27259151.416599274 0 -27259151.416599274 59958994.653162003 0 0 0 0 -12787447.617565244 -34781250.328875065 0 -34781250.328875065 85959088.960678101 0 0 0 0 3608125.6077399254 29798277.100669861 0 29798277.100669861 60432756.847436905 0 0 0 0 359520.83001216128 -146412.947617542 0 -146412.947617542 20619.63127261214 0 0 0 0 85287959.698868275 -56701385.829933167 0 -56701385.829933167 19399667.989990234 0 0 0 0 3217587.9290812016 31735912.925853729 0 31735912.925853729 128438364.22214699 0 0 0 0 18703692.837948322 10179583.150045395 0 10179583.150045395 -5297775.8918952942 0 0 0 0 2570106.8694701195 -71201.237468719482 0 -71201.237468719482 12531444.150882721 0 0 0 0 9008623.3482236862 6092190.6290245056 0 6092190.6290245056 17746762.797996521 0 0 0 0 2870961.96940732 -5144113.8315429688 0 -5144113.8315429688 9676497.2916641235 0 0 0 0 1893734.399243474 -3211581.2196569443 0 -3211581.2196569443 1649437.3647460938 0 0 0 0 905391.03215655149 -335124.86585068703 0 -335124.86585068703 175885.77149918675 0 0 0 0 531721.36749020009 -968516.63701666985 0 -968516.63701666985 2211041.1595895719 0 0 0 0 362305.73289549351 -883463.34662818909 0 -883463.34662818909 3303065.8501739502 0 0 0 0 6043292.9683593512 -5402292.7194108963 0 -5402292.7194108963 -8990142.45570755 0 0 0 0 7667541.3045184612 464546.76842689514 0 464546.76842689514 2059415.4317998886 0 0 0 0 -178906.85390242189 -1044270.6320381165 0 -1044270.6320381165 5118277.3300743103 0 0 0 0 -40518.063985452056 -1113175.5591335297 0 -1113175.5591335297 5126939.0864906311 0 0 0 0 -91139.878279770623 754086.09089260455 0 754086.09089260455 4792712.5274739433 0 0 0 0 -93071.841304302216 -231857.33545875549 0 -231857.33545875549 9454619.5411720276 0 0 0 0 -812872.64859423041 -101730.96208953857 0 -101730.96208953857 8128318.1195030212 0 0 0 0 268761.01885469258 273748.46115684509 0 273748.46115684509 5709524.1765880585 0 0 0 0 611604.85882884264 -1655228.9971880913 0 -1655228.9971880913 3794757.6601715088 0 0 0 0 970356.77846843004 -1217695.1185054779 0 -1217695.1185054779 3308823.9801521301 0 0 0 0 -129119.87867294915 482187.51466942951 0 482187.51466942951 3292530.0141301127 0 0 0 0 -545520.80224552751 1707439.6249904633 0 1707439.6249904633 7570277.0652351379 0 0 0 0 305139.0134980306 3956591.6672940254 0 3956591.6672940254 11478538.315330505 0 0 0 0 -968254.56106005609 -2536768.1817989349 0 -2536768.1817989349 9472842.9544754028 0 0 0 0 -162531.86705855717 -187301.10404103436 0 -187301.10404103436 1445494.9654717669 0 0 0 0 -1394951.5095458031 959260.89456748962 0 959260.89456748962 4004539.7639579773 0 0 0 0 1229854.8484876305 -2650096.5622844696 0 -2650096.5622844696 5220269.9090042114 0 0 0 0 -356263.27122990234 309885.21675833315 0 309885.21675833315 621840.13947526179 0 0 0 0 -540461.8948799558 -1412557.1936569214 0 -1412557.1936569214 4159457.7220077515 0 0 0 0 479998.76174212992 -1358536.2842769623 0 -1358536.2842769623 3866936.318605423 0 0 0 0 371718.03918636212 -847061.75311083533 0 -847061.75311083533 2425674.3521817401 0 0 0 0 252442.82183219492 -1348879.063688755 0 -1348879.063688755 3684042.7909355164 0 0 0 0 -254651.05126288533 -862657.25557136536 0 -862657.25557136536 3466756.3345146179 0 0 0 0 5173542.5020513535 5304939.2520866394 0 5304939.2520866394 16040366.512933731 0 0 0 0 405563.81609115226 200470.34126191959 0 200470.34126191959 1759265.3620176893 0 0 0 0 -1535661.8703149706 504236.76371765137 0 504236.76371765137 3100961.0220069885 0 0 0 0 -1463276.1647684607 -931471.69906884432 0 -931471.69906884432 4672795.096912384 0 0 0 0 383357.5646211952 -814300.29140853882 0 -814300.29140853882 3304566.3503410816 0 0 0 0 -1422111.4818351641 -107474.17242050171 0 -107474.17242050171 6389940.3417320251 0 0 0 0 2074330.3772015478 -5951636.7514371872 0 -5951636.7514371872 12307058.49332428 0 0 0 0 -1915393.9456259084 -628912.54447555542 0 -628912.54447555542 6649614.9932785034 0 0 0 0 41391.706240836182 -159048.64120859373 0 -159048.64120859373 650297.44129340164 0 0 0 0 451429.32724052668 -3574193.0712604523 0 -3574193.0712604523 7539814.0613746643 0 0 0 0 -1190349.6383153126 2325228.4323348999 0 2325228.4323348999 1916045.1920509338 0 0 0 0 -1013313.1659129173 -1673658.7011725903 0 -1673658.7011725903 7489747.7663383484 0 0 0 0 -2036829.6646455303 -695106.59357452393 0 -695106.59357452393 11269913.570329666 0 0 0 0 -1322013.4117968529 -802237.70837306976 0 -802237.70837306976 7817736.1769828796 0 0 0 0 2957.1690660447566 22083.544969148934 0 22083.544969148934 23944.388839900494 0 0 0 0 -2122165.5528630251 -1468945.1770858765 0 -1468945.1770858765 13094933.163547516 0 0 0 0 448314.98365409719 368021.94002819061 0 368021.94002819061 7067950.6206302643 0 0 0 0 -1053232.0832668105 -3569003.6310348511 0 -3569003.6310348511 18312294.046916962 0 0 0 0 1703.8764114379944 -151187.87945365906 0 -151187.87945365906 5134625.0862617493 0 0 0 0 1560778.5881264936 754531.27214622498 0 754531.27214622498 1744796.3149757385 0 0 0 0 19.649666085718536 8236.8376732729375 0 8236.8376732729375 10461.816577160731 0 0 0 0 -2138199.2249911372 1492706.6902008057 0 1492706.6902008057 10593073.463989258 0 0 0 0 1702.0615948951499 -2150972.9778308868 0 -2150972.9778308868 15267770.528047562 0 0 0 0 689548.43591093994 2826034.3840116262 0 2826034.3840116262 6506633.7973365784 0 0 0 0 -579842.77604172518 -990301.93304824829 0 -990301.93304824829 3250828.0069856644 0 0 0 0 37865.461451601703 3376118.2783937454 0 3376118.2783937454 -1620600.7004184723 0 0 0 0 695310.79014153779 -4610918.0236434937 0 -4610918.0236434937 16222897.862579346 0 0 0 0 51595.450934505869 -104605.98135420494 0 -104605.98135420494 343544.53075054288 0 0 0 0 1346.7986731685571 2574907.4619043972 0 2574907.4619043972 -3164640.4388961792 0 0 0 0 -24159100.875961542 -8497577.5557498932 0 -8497577.5557498932 20054513.268078327 0 0 0 0 8553179.3837221861 -1194722.0894618034 0 -1194722.0894618034 -4604978.2319335938 0 0 0 0 -24919400.127285905 -30916852.369847476 0 -30916852.369847476 1734624.6419811249 0 0 0 0 2457330.9095069626 -3381630.4737113155 0 -3381630.4737113155 3532684.5396376234 0 0 0 0 2406808.7433815002 3418348.1821737289 0 3418348.1821737289 -2678737.3498336077 0 0 0 0 -11162968.881057739 10108079.213870049 0 10108079.213870049 33596405.137800217 0 0 0 0 -11626291.491005421 6742570.5834417343 0 6742570.5834417343 39170589.536269188 0 0 0 0 -322775.76969766617 5758777.6148815155 0 5758777.6148815155 12846650.368298531 0 0 0 0 3360907.5261923075 -2863317.610370636 0 -2863317.610370636 26617080.319471359 0 0 0 0 331277.93996379746 551571.78494374175 0 551571.78494374175 17346.107814595569 0 0 0 0 4752838.5697532743 7437813.4335273504 0 7437813.4335273504 56009494.065462112 0 0 0 0 48621713.387842178 -9100316.678689003 0 -9100316.678689003 -549498.71251296997 0 0 0 0 21171373.776239514 -23037807.498361588 0 -23037807.498361588 33197772.290394783 0 0 0 0 19657946.767756462 9183264.2278671265 0 9183264.2278671265 -6381496.1348705292 0 0 0 0 45394418.251527786 -18518989.138599396 0 -18518989.138599396 109369.91243124008 0 0 0 0 66609582.655322641 -64358865.721339703 0 -64358865.721339703 35219278.97082901 0 0 0 0 39871860.521042824 -18079619.400743484 0 -18079619.400743484 10677207.725801468 0 0 0 0 72956052.198685765 -29102665.535061121 0 -29102665.535061121 -18969348.250938416 0 0 0 0 50543706.25231266 19818465.160914421 0 19818465.160914421 30982797.32101059 0 0 0 0 62161147.426767111 60175399.502241135 0 60175399.502241135 46300571.654060364 0 0 0 0 2141445.5470813252 -2466124.2970870351 0 -2466124.2970870351 2371778.7616291195 0 0 0 0 -16270661.894325733 -29711506.725446701 0 -29711506.725446701 -5022021.4872436523 0 0 0 0 49569205.115898252 190448.35633349419 0 190448.35633349419 9868481.4498291016 0 0 0 0 -10114712.949363232 12773904.27869606 0 12773904.27869606 46601334.55195713 0 0 0 0 -13167900.710291028 -3021319.6362031698 0 -3021319.6362031698 11159999.726974487 0 0 0 0 -73512543.561943531 -4245510.702208519 0 -4245510.702208519 22461634.389242172 0 0 0 0 22698616.861577511 27545737.419933319 0 27545737.419933319 -54987777.018577576 0 0 0 0 8773752.7819137573 25518276.854341507 0 25518276.854341507 42840859.95158577 0 0 0 0 -343721.17812651419 661064.66701960191 0 661064.66701960191 387361.11088759452 0 0 0 0 -9581561.2622756958 1636743.73462677 0 1636743.73462677 1773476.2091064453 0 0 0 0 -10315814.056715965 2597413.565826416 0 2597413.565826416 4799529.1970176697 0 0 0 0 -8467634.2918567657 4612029.1453819275 0 4612029.1453819275 3490931.5028686523 0 0 0 0 -40198236.183075786 32742627.55826664 0 32742627.55826664 -16509026.136535645 0 0 0 0 -177450.07291435753 -2569.2740001175553 0 -2569.2740001175553 181319.43503517774 0 0 0 0 -564665.56129619386 228547.91149353515 0 228547.91149353515 689547.57295535854 0 0 0 0 -8815105.1782670021 3331913.8363800049 0 3331913.8363800049 999295.49831581116 0 0 0 0 -7780004.5280447006 -964605.85923957825 0 -964605.85923957825 2264497.8161659241 0 0 0 0 -16634.362928818096 692102.62284276029 0 692102.62284276029 1355030.928836545 0 0 0 0 -6151578.817440033 -14743051.138538361 0 -14743051.138538361 -19708099.692547798 0 0 0 0 1490431.5970625877 -4336477.1068840027 0 -4336477.1068840027 -6869844.9446029663 0 0 0 0 -929239.54327440262 -5711067.2172174454 0 -5711067.2172174454 -5892281.6669082642 0 0 0 0 8940329.3267717361 24055847.064884186 0 24055847.064884186 18392221.976570129 0 0 0 0 -35791812.338644743 14779304.327954292 0 14779304.327954292 40582476.531829834 0 0 0 0 2426693.4723045826 41116397.911315918 0 41116397.911315918 38627752.57131958 0 0 0 0 6680723.8840079308 56781487.533233643 0 56781487.533233643 78986066.469856262 0 0 0 0 -14505.698450820986 225703.0363781699 0 225703.0363781699 540640.12838289514 0 0 0 0 6946470.8697769642 -88440349.973327637 0 -88440349.973327637 94368888.432460785 0 0 0 0 14733811.651162863 -107895411.80159187 0 -107895411.80159187 136233908.23729324 0 0 0 0 77022629.428117275 62198863.980453491 0 62198863.980453491 6909334.3736858368 0 0 0 0 -119452848.62068772 7111215.5619087219 0 7111215.5619087219 30510474.779396057 0 0 0 0 -20874332.780213356 21330814.362627029 0 21330814.362627029 27611923.766186714 0 0 0 0 -18834478.796165228 30695238.173461914 0 30695238.173461914 54855328.134622216 0 0 0 0 -42364688.988348007 20133220.902229309 0 20133220.902229309 105118186.25619507 0 0 0 0 2866646.2804790055 -4550696.3573664036 0 -4550696.3573664036 4394174.3823852716 0 0 0 0 -37296656.872333527 17228788.963180542 0 17228788.963180542 56191749.587726593 0 0 0 0 -1594336.6254398092 -285544.98249640735 0 -285544.98249640735 2610574.5108809574 0 0 0 0 -14162139.192272186 -9876079.5247554779 0 -9876079.5247554779 661105.22850513458 0 0 0 0 -16260609.277909279 -9227241.2887783051 0 -9227241.2887783051 17112826.465387344 0 0 0 0 1510800.4717696053 -3025034.0700012371 0 -3025034.0700012371 2203533.8971565524 0 0 0 0 -31559703.381072521 11044327.578672409 0 11044327.578672409 50633184.227027893 0 0 0 0 -20578381.739550114 -10537227.384370804 0 -10537227.384370804 9509687.8948554993 0 0 0 0 258793.30238032341 -929747.05416584015 0 -929747.05416584015 157013.47980880737 0 0 0 0 3648249.6293568611 -1938076.5052914619 0 -1938076.5052914619 4037195.5310916901 0 0 0 0 -72846.863620301243 -997592.90760752 0 -997592.90760752 3079264.4061001278 0 0 0 0 1238335.6218042374 -4275123.3036975861 0 -4275123.3036975861 7080791.1367931366 0 0 0 0 1208971.3933603726 -1369631.6830139076 0 -1369631.6830139076 2471876.5959003735 0 0 0 0 -4444267.2777729034 -9220566.559545517 0 -9220566.559545517 6770307.8439331055 0 0 0 0 -16146549.44587338 7753657.5983719826 0 7753657.5983719826 10032515.982715607 0 0 0 0 -71205551.489096165 -613915.37272453308 0 -613915.37272453308 191383156.50828934 0 0 0 0 -16636515.719140053 6234276.5072555542 0 6234276.5072555542 21922585.501812935 0 0 0 0 30523715.830239296 -24339873.548840523 0 -24339873.548840523 30203020.750083923 0 0 0 0 61336868.295564175 -33480925.27747345 0 -33480925.27747345 -155879664.59397888 0 0 0 0 50346460.505340576 -133584485.84396362 0 -133584485.84396362 -14895274.482639313 0 0 0 0 98944732.16293335 164475203.35146332 0 164475203.35146332 20336422.83487004 0 0 0 0 -212748068.48799515 -13350376.888439178 0 -13350376.888439178 35879631.038925171 0 0 0 0 -51068838.632763863 63399200.914890289 0 63399200.914890289 -361841756.99793243 0 0 0 0 -48253.651527355425 -62014.986838653684 0 -62014.986838653684 221989.88088509627 0 0 0 0 535589.49559020996 168992730.25727081 0 168992730.25727081 20360022.843184352 0 0 0 0 370630590.45199108 -55230842.655208588 0 -55230842.655208588 37980857.933631897 0 0 0 0 -48414842.561545372 -9354153.5621604919 0 -9354153.5621604919 349980087.49373627 0 0 0 0 -45724729.051175594 -22631587.653892517 0 -22631587.653892517 56472493.712905884 0 0 0 0 -16118107.742095947 -54366431.460853577 0 -54366431.460853577 -130804220.9690094 0 0 0 0 -546691.70213455334 -505339.96124093141 0 -505339.96124093141 3791244.1226721909 0 0 0 0 -826889.94020462036 -1274807.1032409668 0 -1274807.1032409668 9046483.509437561 0 0 0 0 -1802086.8657035828 -8541653.7302970886 0 -8541653.7302970886 10218855.646162033 0 0 0 0 1749426.3418140411 -8583764.8780326843 0 -8583764.8780326843 8851487.544506073 0 0 0 0 2006720.2611434408 -3607237.8270064397 0 -3607237.8270064397 6126504.1394594815 0 0 0 0 -2722587.3260726929 -9176432.3786430359 0 -9176432.3786430359 19862841.586616516 0 0 0 0 -517176.96482717991 430508.79540157318 0 430508.79540157318 17553159.925315857 0 0 0 0 4911352.1964755058 -12386501.155490875 0 -12386501.155490875 7272098.4472026825 0 0 0 0 -4835009.0167229176 -2294367.2748622894 0 -2294367.2748622894 35899838.238700867 0 0 0 0 -477942.31602471229 -712876.73266122863 0 -712876.73266122863 1586140.8572275355 0 0 0 0 2348941.9760994911 -14983121.0776577 0 -14983121.0776577 23608564.593261719 0 0 0 0 2263899.8309218884 -6612234.6106758118 0 -6612234.6106758118 11579473.358627319 0 0 0 0 911321.13135293103 -1269513.8287157724 0 -1269513.8287157724 2877623.7391164787 0 0 0 0 2751498.3352165222 -4021328.7715911865 0 -4021328.7715911865 4104932.1486520767 0 0 0 0 4278326.7901611328 -5423251.1364097595 0 -5423251.1364097595 3238310.3708362579 0 0 0 0 -99860.770529180765 -901258.78876018524 0 -901258.78876018524 5006386.7825241089 0 0 0 0 3973028.3196344376 -10051592.770755768 0 -10051592.770755768 10777859.206559181 0 0 0 0 1898520.7261257172 -5879690.8101329803 0 -5879690.8101329803 6948699.9655070305 0 0 0 0 -225303.15494097929 -2055766.6186809032 0 -2055766.6186809032 4699658.221713677 0 0 0 0 -193342.98342061043 -2991712.6706519127 0 -2991712.6706519127 6507226.1153812408 0 0 0 0 1035449.3585710664 -1172263.914660607 0 -1172263.914660607 4855001.1633233614 0 0 0 0 -3389890.4654798508 -4576153.3981018066 0 -4576153.3981018066 6706066.3895950317 0 0 0 0 -107473.21294020629 -737851.40657475544 0 -737851.40657475544 606255.22011064738 0 0 0 0 9444.0260795173235 -2259819.2736652866 0 -2259819.2736652866 5191432.346489301 0 0 0 0 -717498.44564169645 -2255434.5602929592 0 -2255434.5602929592 3684232.2289352417 0 0 0 0 -1692959.3433448076 -761423.57309913635 0 -761423.57309913635 4083973.4804420471 0 0 0 0 140349.34241771698 -970558.61341094971 0 -970558.61341094971 4980741.2565460205 0 0 0 0 -27885.320163965225 -2282840.0563087463 0 -2282840.0563087463 7253304.0745182037 0 0 0 0 717645.8878734007 -139296.73793028295 0 -139296.73793028295 5064663.3813945688 0 0 0 0 -157827.41223509598 -430100.56530370796 0 -430100.56530370796 1584532.3161202697 0 0 0 0 2210769.8775166273 -5979521.6374664307 0 -5979521.6374664307 9989748.880903244 0 0 0 0 2987527.3137390614 -5501779.7055659294 0 -5501779.7055659294 7656153.8608531952 0 0 0 0 1506298.1895980835 -3640103.3372859955 0 -3640103.3372859955 6726705.2172570229 0 0 0 0 741404.74149751663 -4212636.2133769989 0 -4212636.2133769989 6867750.7800102234 0 0 0 0 1471489.7882823944 -3893298.9553136826 0 -3893298.9553136826 6614694.9909362793 0 0 0 0 372753.69571018219 -2400339.1627559662 0 -2400339.1627559662 5266817.4603824615 0 0 0 0 -1367192.1442046165 -1445902.6991729736 0 -1445902.6991729736 6228994.8128890991 0 0 0 0 1274238.2422134876 -3826779.1979575157 0 -3826779.1979575157 6373382.9468345642 0 0 0 0 2777172.8871365786 -4777508.9345445633 0 -4777508.9345445633 7192770.4609642029 0 0 0 0 1409255.4071588516 -3360398.673705101 0 -3360398.673705101 7572506.7092323303 0 0 0 0 1207394.52231884 -8371203.6247491837 0 -8371203.6247491837 11442904.497390747 0 0 0 0 3472410.4877274036 -3923332.2204332352 0 -3923332.2204332352 8116385.3607349396 0 0 0 0 -19370841.430243492 -2799434.0714035034 0 -2799434.0714035034 11080167.116276741 0 0 0 0 -119681.60604555614 -88026.925437847618 0 -88026.925437847618 540371.15041879099 0 0 0 0 -12451747.0705989 16022096.290310383 0 16022096.290310383 -3530092.3127069473 0 0 0 0 -12383800.886878967 9392350.8678703308 0 9392350.8678703308 8656983.306596756 0 0 0 0 -11708562.267922223 10767854.192347527 0 10767854.192347527 9769667.1402492523 0 0 0 0 -13789781.253716707 9855276.062330246 0 9855276.062330246 11795665.517633438 0 0 0 0 -6278001.6384252012 4767995.9920072556 0 4767995.9920072556 6506098.5974655151 0 0 0 0 29389989.212753087 2303644.5502986908 0 2303644.5502986908 -6460573.7240886688 0 0 0 0 -6124.5192643840564 760927.66534928139 0 760927.66534928139 698508.15411083959 0 0 0 0 -337804.3574544256 -259686.05111864326 0 -259686.05111864326 993711.19629485905 0 0 0 0 472359125.16118908 -152852370.17513275 0 -152852370.17513275 41524918.918281555 0 0 0 0 8119550.7363843918 30425037.722689152 0 30425037.722689152 -9981578.7202072144 0 0 0 0 -46903534.868534088 9584986.4061079025 0 9584986.4061079025 11873851.269638419 0 0 0 0 39421360.667146802 -6152452.0283007622 0 -6152452.0283007622 7046935.2434520721 0 0 0 0 48162190.567735195 1735042.9465208054 0 1735042.9465208054 -60402410.831972122 0 0 0 0 95606124.161309779 -80506024.329963684 0 -80506024.329963684 30549549.914988518 0 0 0 0 -562169407.25469053 -43348252.547578812 0 -43348252.547578812 286131737.67342186 0 0 0 0 29572718.631558299 -4090801.853222847 0 -4090801.853222847 22159347.768323898 0 0 0 0 28784028.103922129 -9179481.283203125 0 -9179481.283203125 6202197.3312778473 0 0 0 0 20303381.830677986 -12481629.991988182 0 -12481629.991988182 23099591.711193085 0 0 0 0 36120318.375215173 -17208733.898697853 0 -17208733.898697853 3641359.3960933685 0 0 0 0 3087274.3461183757 -4722201.7670395374 0 -4722201.7670395374 -4122512.2193927765 0 0 0 0 41331442.469146192 -30316359.879125595 0 -30316359.879125595 23414834.309809357 0 0 0 0 -586847.06031744613 -154487.13018738641 0 -154487.13018738641 2538064.1751390612 0 0 0 0 -4604620.3400409222 8745328.3503389359 0 8745328.3503389359 833074.24481391907 0 0 0 0 17941600.006415844 -15255352.989851952 0 -15255352.989851952 13684234.529722128 0 0 0 0 831946.33475255966 -29483571.187919617 0 -29483571.187919617 13646165.359324455 0 0 0 0 6716649.0367240906 -27917378.679315567 0 -27917378.679315567 599794.81490373611 0 0 0 0 10889980.483633041 -41094419.965435028 0 -41094419.965435028 -4132819.5055885315 0 0 0 0 2388022.2153024673 -32492589.164967537 0 -32492589.164967537 -7120923.9016542435 0 0 0 0 6457829.5095558763 -30989069.59256056 0 -30989069.59256056 -10878241.758918762 0 0 0 0 -3514475.4987974167 -21176101.653178215 0 -21176101.653178215 1851232.8057146072 0 0 0 0 8134086.7174730301 -22085225.167460442 0 -22085225.167460442 -3938859.4407529831 0 0 0 0 12477069.181155682 -31699591.172984123 0 -31699591.172984123 1962902.0661010742 0 0 0 0 7461399.309032917 -16251934.784643173 0 -16251934.784643173 9585252.4049105644 0 0 0 0 1382544.6210794449 -27191527.632745743 0 -27191527.632745743 -21296116.026722908 0 0 0 0 -24388536.074175835 -17860539.27314949 0 -17860539.27314949 -6106505.4004321098 0 0 0 0 -5394357.1042883396 -28045048.924747109 0 -28045048.924747109 -3300002.52759552 0 0 0 0 -29857646.619081497 -24026442.710578918 0 -24026442.710578918 -1639385.1192007065 0 0 0 0 -28739821.518167019 -34063153.293845534 0 -34063153.293845534 -8223437.2297954559 0 0 0 0 -29080536.303302765 -28868466.844364166 0 -28868466.844364166 7412982.5491192341 0 0 0 0 -15860983.363389492 -28669777.082463861 0 -28669777.082463861 -504450.85085487366 0 0 0 0 -12337495.708359718 -18118691.754638672 0 -18118691.754638672 757273.97604441643 0 0 0 0 -5251638.0062632561 -25663284.72994566 0 -25663284.72994566 7039415.9978313446 0 0 0 0 998814.28204917908 -15005027.44751358 0 -15005027.44751358 8925778.4235095978 0 0 0 0 -31545242.47367382 -27497683.051883698 0 -27497683.051883698 7290964.3250255585 0 0 0 0 -8297039.4502096176 -33100787.431689739 0 -33100787.431689739 -3319912.8141765594 0 0 0 0 27302494.413118362 -16766692.770504951 0 -16766692.770504951 12129267.046285629 0 0 0 0 19073048.838744462 -20937342.460385501 0 -20937342.460385501 6065533.0368080139 0 0 0 0 10474832.790349007 -19905109.721922874 0 -19905109.721922874 1761092.0950965881 0 0 0 0 9538069.0024776459 -11029975.382461548 0 -11029975.382461548 12508869.885313034 0 0 0 0 18889587.643476486 -6174308.7799091339 0 -6174308.7799091339 19797501.74678421 0 0 0 0 43234131.012344956 -2541473.3290641308 0 -2541473.3290641308 12591683.089525223 0 0 0 0 18277276.969881058 -13219588.502661705 0 -13219588.502661705 12427102.086439133 0 0 0 0 15719497.247999191 -9386101.6880207062 0 -9386101.6880207062 16838129.945614338 0 0 0 0 15737569.501382351 -14705664.329997301 0 -14705664.329997301 6401775.2547588348 0 0 0 0 5317487.4070663452 -9782378.9065876007 0 -9782378.9065876007 17173832.995448112 0 0 0 0 -825224.10344583169 73707.300484028645 0 73707.300484028645 803704.32549994253 0 0 0 0 10098624.159504175 -17600539.514651775 0 -17600539.514651775 -4042814.3622016907 0 0 0 0 -28766911.622653008 -27640929.411957741 0 -27640929.411957741 53316719.713911533 0 0 0 0 -1429090.8389914865 118118.54266171344 0 118118.54266171344 1405554.6007867195 0 0 0 0 23626044.072546959 -55055574.110566378 0 -55055574.110566378 60798573.073999405 0 0 0 0 -27878565.828103065 -26443941.770195007 0 -26443941.770195007 54942269.03153801 0 0 0 0 17159255.446769714 -18895652.049571991 0 -18895652.049571991 37513467.540792465 0 0 0 0 -27728684.447792053 -4042317.1020851135 0 -4042317.1020851135 41332073.177250862 0 0 0 0 -5159464.259013176 -47856561.786930084 0 -47856561.786930084 83251973.774723053 0 0 0 0 27765781.349431038 -38559531.00272274 0 -38559531.00272274 55690171.101105928 0 0 0 0 38060794.632770061 -71081567.952953339 0 -71081567.952953339 21215436.990564346 0 0 0 0 -1366604.7629357066 139251.10561624449 0 139251.10561624449 1398957.3415322695 0 0 0 0 40257549.385148525 -19446624.487926483 0 -19446624.487926483 14148736.948610306 0 0 0 0 -71621601.625127316 -12589844.444966793 0 -12589844.444966793 23716958.241043091 0 0 0 0 -85181564.846775055 17911918.413927078 0 17911918.413927078 10719169.063372552 0 0 0 0 497541.64405610971 -1287617.3718285186 0 -1287617.3718285186 1623961.4502759874 0 0 0 0 18450415.698165894 -16102691.583017349 0 -16102691.583017349 16686238.615631104 0 0 0 0 -1215010.3944740295 -2580636.788962841 0 -2580636.788962841 4261518.7361316681 0 0 0 0 2097336.3103406001 -6207233.4016487356 0 -6207233.4016487356 6410468.2303876868 0 0 0 0 -2700015.5458526611 -2177343.9449806213 0 -2177343.9449806213 1400368.4082794189 0 0 0 0 -4464526.7237406671 -3461532.44577986 0 -3461532.44577986 5412978.433801651 0 0 0 0 8273659.3633995056 -24344403.846084595 0 -24344403.846084595 29206541.676589966 0 0 0 0 1354701.4307758983 -7011116.9763943944 0 -7011116.9763943944 5388099.2841065563 0 0 0 0 -826895.89501853008 342727.56886069756 0 342727.56886069756 656374.6142965816 0 0 0 0 -10128554.398670197 -21366932.158557892 0 -21366932.158557892 7099590.3564596176 0 0 0 0 -5292562.8130054474 -4355605.0933256149 0 -4355605.0933256149 387457.76693725586 0 0 0 0 30256754.203580856 -18805130.294257164 0 -18805130.294257164 -2958552.2189559937 0 0 0 0 -5618094.0395259857 -6001059.8902578354 0 -6001059.8902578354 3689124.6419682503 0 0 0 0 -395549.09684680193 -1597032.2786797732 0 -1597032.2786797732 3072956.7041665195 0 0 0 0 967596.96854658436 -4773497.612655174 0 -4773497.612655174 2856960.3753462378 0 0 0 0 -48379808.298583984 2790825.7240982056 0 2790825.7240982056 4834256.2670898438 0 0 0 0 -52755719.705537796 9369223.5476522446 0 9369223.5476522446 32603477.916136265 0 0 0 0 -44453545.589362621 -6005025.24183321 0 -6005025.24183321 38170813.429178238 0 0 0 0 -47933407.177838326 -13194398.287189484 0 -13194398.287189484 23399516.221155643 0 0 0 0 -52893642.512698174 -4880853.5158519745 0 -4880853.5158519745 14375268.893508911 0 0 0 0 -54124197.095935822 -17921427.00234127 0 -17921427.00234127 29352624.049982071 0 0 0 0 -38052389.513924599 -23147004.152111411 0 -23147004.152111411 16303010.690465927 0 0 0 0 -30554348.246216774 -39860335.025227547 0 -39860335.025227547 33108810.513822436 0 0 0 0 -38578172.420556068 -26146860.523224354 0 -26146860.523224354 11571261.668909073 0 0 0 0 -36708987.352645874 -21124797.219849586 0 -21124797.219849586 10712743.454818726 0 0 0 0 -36214830.616134644 -11233798.980352402 0 -11233798.980352402 7235053.1832866669 0 0 0 0 -52438047.588127136 -978432.18318939209 0 -978432.18318939209 10058157.968889564 0 0 0 0 -43440762.163590431 -8284990.0051836967 0 -8284990.0051836967 14459237.165346146 0 0 0 0 -2746668.0725231171 -1798017.4824430943 0 -1798017.4824430943 4712569.1966018677 0 0 0 0 -473081.20565824839 -3326879.6340815155 0 -3326879.6340815155 5523265.8190595265 0 0 0 0 -2420420.6441397667 -4112090.9640194178 0 -4112090.9640194178 5782177.2597923279 0 0 0 0 1326440.360326767 -3095039.0962023735 0 -3095039.0962023735 4176696.8627324104 0 0 0 0 12228.366389876232 29936.312735346146 0 29936.312735346146 -33745.415491787717 0 0 0 0 -1010680.2761545181 -1289172.1718378067 0 -1289172.1718378067 3326920.5979328156 0 0 0 0 -3783695.012515448 -3177504.8195764273 0 -3177504.8195764273 3047790.967757225 0 0 0 0 -20605293.603093147 -15956299.14234066 0 -15956299.14234066 3688308.7211713791 0 0 0 0 1521271.6885375902 -5082328.7054146938 0 -5082328.7054146938 4640630.8096797029 0 0 0 0 -26355194.418880463 -21870737.227685452 0 -21870737.227685452 4840272.3614120483 0 0 0 0 -26729811.63582325 -20618515.291368723 0 -20618515.291368723 757157.92282676697 0 0 0 0 -22783476.783277512 -19129047.321036339 0 -19129047.321036339 653149.92142182589 0 0 0 0 -166784906.61512291 4631943.2256266791 0 4631943.2256266791 -200562126.72221136 0 0 0 0 327703.77276650164 -938795.97937219834 0 -938795.97937219834 -39839.206472044345 0 0 0 0 37203776.411046267 47492017.88960278 0 47492017.88960278 -182602127.30738926 0 0 0 0 -27862670.341634221 -115719727.13129932 0 -115719727.13129932 -87212998.121492147 0 0 0 0 310451.9643119754 -2960116.8421236384 0 -2960116.8421236384 5823397.131870864 0 0 0 0 -8582195.7905137539 -6501825.3367716074 0 -6501825.3367716074 -54100754.082752466 0 0 0 0 -32124004.128406525 -27349599.057152748 0 -27349599.057152748 11326998.085843086 0 0 0 0 -33155261.420701981 -24680135.130860329 0 -24680135.130860329 6848772.4652900696 0 0 0 0 -32526228.916467667 -22068522.263115883 0 -22068522.263115883 8042256.5160799026 0 0 0 0 -31318393.748506546 -26134485.171556473 0 -26134485.171556473 6376254.7155644894 0 0 0 0 -29954674.796442032 -26244015.00685215 0 -26244015.00685215 -343193.51424217224 0 0 0 0 -30037433.049381256 -26449136.717362404 0 -26449136.717362404 1302798.8534107208 0 0 0 0 -35070607.63586998 -31378518.576626778 0 -31378518.576626778 635252.93427336216 0 0 0 0 -25009589.815903664 -29903116.802884102 0 -29903116.802884102 -14714568.626401901 0 0 0 0 -22301283.869077682 -23229666.986849785 0 -23229666.986849785 -4699054.9210281372 0 0 0 0 -37995881.30012393 -39401679.178029776 0 -39401679.178029776 -14369396.913835526 0 0 0 0 4285039.2681533778 -4708392.5967552084 0 -4708392.5967552084 4075567.1274587009 0 0 0 0 -184243853.35779309 -149376288.87195814 0 -149376288.87195814 135851709.62529469 0 0 0 0 -30924822.142477036 -25914973.30524826 0 -25914973.30524826 -20497402.643010139 0 0 0 0 353606563.47730374 41175257.08017087 0 41175257.08017087 -59792300.69532156 0 0 0 0 -33381871.73268342 -69506232.379883647 0 -69506232.379883647 -84750724.306545734 0 0 0 0 -90286166.748279572 47808962.920167685 0 47808962.920167685 -112770033.38405752 0 0 0 0 103729304.22249031 17205934.964860618 0 17205934.964860618 -122818261.2484026 0 0 0 0 -129667436.89632142 -67430326.675094426 0 -67430326.675094426 -65160040.509157658 0 0 0 0 5657028.9869476892 -6313421.2661003694 0 -6313421.2661003694 4737678.7696715444 0 0 0 0 249492770.95444703 -222055433.37531102 0 -222055433.37531102 -190285978.52859026 0 0 0 0 59237782.389625072 -252489785.95501924 0 -252489785.95501924 -164034667.58724594 0 0 0 0 -164297777.23163205 114414122.14303812 0 114414122.14303812 398784520.83277965 0 0 0 0 -19942146.124764562 64060334.626056314 0 64060334.626056314 306777333.23694873 0 0 0 0 -4674193.2797119617 -4800276.5295320749 0 -4800276.5295320749 42969431.571074247 0 0 0 0 -47402351.825731754 21709101.212552905 0 21709101.212552905 61398621.879432321 0 0 0 0 65287130.647878647 116505946.30161759 0 116505946.30161759 -63367417.482115984 0 0 0 0 1061939.8198852539 17869598.457592368 0 17869598.457592368 3758744.2433759868 0 0 0 0 -2931115.963531971 36163482.402544737 0 36163482.402544737 -58025882.068925619 0 0 0 0 3592405.5464661121 16048657.481212616 0 16048657.481212616 -16268257.435388327 0 0 0 0 3576022.5095136166 8378736.7738223076 0 8378736.7738223076 6684249.7936766148 0 0 0 0 -25732793.174078465 7735496.5492571592 0 7735496.5492571592 51059430.258646727 0 0 0 0 -2134666.4825158119 16128208.695049763 0 16128208.695049763 17514237.081267118 0 0 0 0 -7306977.145860672 3074501.5499446392 0 3074501.5499446392 -4478168.2195653915 0 0 0 0 -6339923.4410076141 6447020.4920172691 0 6447020.4920172691 3638519.0755162239 0 0 0 0 -9611201.5471453667 -783877.91450667381 0 -783877.91450667381 7350076.8857958317 0 0 0 0 -4151395.1961088181 267044.65017038584 0 267044.65017038584 -5361329.0772690773 0 0 0 0 -4002233.6165294647 -4299324.0341560841 0 -4299324.0341560841 4828521.0234606266 0 0 0 0 -50859.793661651434 -343198.2074885146 0 -343198.2074885146 529468.4255836067 0 0 0 0 -269782.73151063919 9805617.0230064392 0 9805617.0230064392 -8750630.0999653339 0 0 0 0 -2756467.6358327866 11665563.85411334 0 11665563.85411334 -6208650.1743800342 0 0 0 0 -145747.6818318367 16444872.748217106 0 16444872.748217106 2425422.3059962392 0 0 0 0 11898771.416388988 13516784.766726375 0 13516784.766726375 9727648.7479310036 0 0 0 0 894089.6600869894 4755766.1611889601 0 4755766.1611889601 -10652661.068413258 0 0 0 0 8972387.6865549088 -17167774.074630916 0 -17167774.074630916 -9049438.0893323421 0 0 0 0 -196977.45419620612 -698941.54285869445 0 -698941.54285869445 3292317.8852391983 0 0 0 0 -4053795.1620736122 1600184.199937582 0 1600184.199937582 9772944.51387918 0 0 0 0 -352554.69272797694 167896.91182095697 0 167896.91182095697 577901.65613546968 0 0 0 0 1663146.9853038788 -2490845.2866135389 0 -2490845.2866135389 2335418.2849418372 0 0 0 0 10891969.982272148 -365751.32914596796 0 -365751.32914596796 -1060866.1553552151 0 0 0 0 -5701349.0841221809 -7884516.000545755 0 -7884516.000545755 3467168.5073194802 0 0 0 0 1450664.5541648567 -4306125.5463731484 0 -4306125.5463731484 2965397.8307160139 0 0 0 0 5086777.0286402702 -764146.25965592265 0 -764146.25965592265 -1378046.8786671162 0 0 0 0 1789885.4422038998 -1619089.826600668 0 -1619089.826600668 -1511704.3142611543 0 0 0 0 -4304763.1869389415 -2665901.34702578 0 -2665901.34702578 3896745.3395693302 0 0 0 0 16219432.182145596 -5419421.4239208698 0 -5419421.4239208698 -6298832.4773507118 0 0 0 0 167584.6219592297 -1156644.8509591655 0 -1156644.8509591655 1552938.4279592943 0 0 0 0 2770331.4637093544 -5117517.5249580145 0 -5117517.5249580145 -1145135.7149722576 0 0 0 0 -2017837.6910948753 -264809.87181913853 0 -264809.87181913853 -791003.32771265507 0 0 0 0 -860655.66525280476 -3413217.5594978631 0 -3413217.5594978631 4608472.1679611206 0 0 0 0 2002975.8738212949 -3256919.2769603278 0 -3256919.2769603278 4072691.5807168996 0 0 0 0 5960452.862736702 -13356895.948054135 0 -13356895.948054135 -5444150.3828389347 0 0 0 0 13762686.857152462 -11365420.643886209 0 -11365420.643886209 -5971741.5000447333 0 0 0 0 8393788.7299685478 42973685.320439517 0 42973685.320439517 -54586261.377688646 0 0 0 0 516558.26423919015 -446908.00529786246 0 -446908.00529786246 -451561.08157095301 0 0 0 0 -6642475.8607897758 -16655484.788374081 0 -16655484.788374081 -2845863.2564399242 0 0 0 0 26995323.330113888 40375072.397328138 0 40375072.397328138 -87224476.628991842 0 0 0 0 -1384463.4755616188 -15145594.762956262 0 -15145594.762956262 -26209427.961729169 0 0 0 0 1439200.3082895279 -5944063.8208649158 0 -5944063.8208649158 -11464227.469933033 0 0 0 0 4645312.4883646965 2898945.0651288033 0 2898945.0651288033 -26193798.525971889 0 0 0 0 -3465152.4804496765 -4895600.1719553471 0 -4895600.1719553471 -639863.0374802351 0 0 0 0 1009930.6904480457 -4799636.241314128 0 -4799636.241314128 -2487415.0581037998 0 0 0 0 22850822.227860212 2417403.3166892529 0 2417403.3166892529 5036130.6555700302 0 0 0 0 41758705.566446841 50825536.571645975 0 50825536.571645975 39567435.716506958 0 0 0 0 98783879.923937321 43892338.80095911 0 43892338.80095911 9981028.9295264482 0 0 0 0 68499465.166757584 61224900.31725502 0 61224900.31725502 17036738.830004692 0 0 0 0 70591421.124248028 31842751.39303875 0 31842751.39303875 -4385562.5866594315 0 0 0 0 9155264.8571362495 -4412304.6699337959 0 -4412304.6699337959 -25642658.887723923 0 0 0 0 8596707.9269795269 10335100.220255688 0 10335100.220255688 -5023607.3354454041 0 0 0 0 -8196.6935753044672 -48314.622667321004 0 -48314.622667321004 256258.69582089642 0 0 0 0 57313581.918767214 56420617.786943674 0 56420617.786943674 49270233.800994396 0 0 0 0 72673796.264074683 105493021.81228822 0 105493021.81228822 91257903.680768013 0 0 0 0 -2721997.3177633286 3495168.3785238266 0 3495168.3785238266 -8725292.313015461 0 0 0 0 -10293058.997182369 8106356.2592163086 0 8106356.2592163086 704371.30127048492 0 0 0 0 20065.493047086988 -106164.45910570957 0 -106164.45910570957 750184.06307206815 0 0 0 0 181735.81547666382 -365559.71261145547 0 -365559.71261145547 2116935.3497578241 0 0 0 0 -3129956.6509661674 13824159.229492426 0 13824159.229492426 3741888.7669754028 0 0 0 0 -11180400.127124786 -522987.24468946457 0 -522987.24468946457 2464409.3134279251 0 0 0 0 -27308809.265360132 2067929.4935266376 0 2067929.4935266376 18179060.355168343 0 0 0 0 -13698640.789072752 1937064.1221137047 0 1937064.1221137047 3071991.8425183296 0 0 0 0 -1541475.8313245773 12148223.925664783 0 12148223.925664783 40779236.661950111 0 0 0 0 -11001440.929214716 -5934692.8749308586 0 -5934692.8749308586 21980153.517416 0 0 0 0 581276.09417676926 16598141.006714344 0 16598141.006714344 18321040.373873711 0 0 0 0 6146426.0979480743 9207606.2575588226 0 9207606.2575588226 23067374.076760292 0 0 0 0 32794382.48729372 19241917.389043808 0 19241917.389043808 20102443.106723785 0 0 0 0 26780025.30469656 39949839.602965117 0 39949839.602965117 59684791.816133499 0 0 0 0 82162432.255484104 65820687.900774479 0 65820687.900774479 18169578.060072899 0 0 0 0 6503283.6325650215 -16251317.466863632 0 -16251317.466863632 17480538.572858334 0 0 0 0 65044000.799786568 80274642.200549126 0 80274642.200549126 100025834.28509474 0 0 0 0 4761906.9234457016 -6712861.9048266411 0 -6712861.9048266411 66403751.301368952 0 0 0 0 155925647.39769578 39542012.628470898 0 39542012.628470898 28146893.190649033 0 0 0 0 74154251.218384743 35191857.511730671 0 35191857.511730671 12392818.870048285 0 0 0 0 82196687.516941071 -5867383.4642086029 0 -5867383.4642086029 116429671.56895638 0 0 0 0 66596163.77966404 36167208.329133987 0 36167208.329133987 28330120.659277916 0 0 0 0 1064293.715583086 1568377.7893018723 0 1568377.7893018723 -2523103.2207431793 0 0 0 0 -192773.59659462329 78743.586284481804 0 78743.586284481804 485180.53568825033 0 0 0 0 9442692.1961812973 -6606465.9785449505 0 -6606465.9785449505 13712094.446927071 0 0 0 0 12064395.55635643 6147391.3768024445 0 6147391.3768024445 -631110.46163225174 0 0 0 0 12786938.262899667 -9723163.7763376534 0 -9723163.7763376534 -216171.20345973969 0 0 0 0 16336461.311853409 5243439.5398876667 0 5243439.5398876667 12642310.496246338 0 0 0 0 5214918.694640398 -2726822.733435154 0 -2726822.733435154 -8222527.1779537201 0 0 0 0 -3441213.4682478905 -3018903.7513308525 0 -3018903.7513308525 -2524240.8195080757 0 0 0 0 -4332681.1341403723 -7274333.7132782787 0 -7274333.7132782787 204416.30674362183 0 0 0 0 -10102209.409796476 -22911574.13567543 0 -22911574.13567543 -9623768.9415607452 0 0 0 0 -588585.36830647674 -759302.28045182163 0 -759302.28045182163 3262194.4182364112 0 0 0 0 -7552458.3730266094 -974488.91547012329 0 -974488.91547012329 998752.43840169907 0 0 0 0 -861293.09356177063 -532731.46651975601 0 -532731.46651975601 3771393.8558033928 0 0 0 0 -23849413.990625381 -21022771.714704514 0 -21022771.714704514 6265813.6878399253 0 0 0 0 -2048284.408823967 -4435124.0480573773 0 -4435124.0480573773 -1001791.6009191275 0 0 0 0 -979049.2985970974 -251796.90975862741 0 -251796.90975862741 857906.12206506729 0 0 0 0 -5080783.8857839108 -3550086.0806255937 0 -3550086.0806255937 2480332.7858021259 0 0 0 0 1373540.0871458054 -2138489.3718203306 0 -2138489.3718203306 1174964.9379770756 0 0 0 0 1637204.2570223808 -3393853.4275348186 0 -3393853.4275348186 1564631.2530651093 0 0 0 0 819805.01726001501 -961362.24999752641 0 -961362.24999752641 5602911.4139380455 0 0 0 0 -31698.118230121909 -212154.63631279103 0 -212154.63631279103 489116.34616289713 0 0 0 0 524348.16273188591 -512270.11188399792 0 -512270.11188399792 7030749.8371858597 0 0 0 0 -1074611.515856259 436367.49544885842 0 436367.49544885842 2291943.8301948733 0 0 0 0 -811959.32916092873 1558357.3677139878 0 1558357.3677139878 5112830.7969100475 0 0 0 0 -4752755.7540142536 3089007.015999198 0 3089007.015999198 7779565.6354881525 0 0 0 0 -3387444.5936437845 -975059.56535732746 0 -975059.56535732746 3306948.0974490643 0 0 0 0 -2669854.3593050241 -1826674.1303015947 0 -1826674.1303015947 223077.81337070465 0 0 0 0 -2831315.900519371 -3223549.7151486874 0 -3223549.7151486874 7468640.9746420383 0 0 0 0 -576418.10704048991 -824737.85638468398 0 -824737.85638468398 3087792.8280161144 0 0 0 0 -7015114.7820010185 -10872140.355951786 0 -10872140.355951786 -8110370.0798902512 0 0 0 0 -6298830.2997967601 -3606083.3621169329 0 -3606083.3621169329 3532405.3865554333 0 0 0 0 -1394721.7277094126 -2200775.5171138644 0 -2200775.5171138644 2404678.722499609 0 0 0 0 -4242472.5802056789 -1728908.7533011436 0 -1728908.7533011436 3410151.2543942928 0 0 0 0 -493177.52897000313 -2881895.516020298 0 -2881895.516020298 -3324332.9322409034 0 0 0 0 -2846341.5758991838 -6424188.4503509998 0 -6424188.4503509998 -2915078.6503696442 0 0 0 0 399383.7230222784 -566415.20990852918 0 -566415.20990852918 -312372.86091668252 0 0 0 0 3034762.6731014252 2538644.8316774964 0 2538644.8316774964 5526369.7274942398 0 0 0 0 2613380.8152618408 663750.66407871246 0 663750.66407871246 4305465.7275924683 0 0 0 0 -1582745.527929306 1284235.0210580826 0 1284235.0210580826 7299967.600894928 0 0 0 0 -392813.75462055206 -3119087.0893394947 0 -3119087.0893394947 7032669.556043148 0 0 0 0 -2217597.7272615433 -1014332.6789364815 0 -1014332.6789364815 5326851.485963583 0 0 0 0 1075996.9535211404 -2434397.1413328946 0 -2434397.1413328946 4923747.682203602 0 0 0 0 1130558.1548696556 -2971596.0044388482 0 -2971596.0044388482 4119432.0871547731 0 0 0 0 454435.39028072357 -994672.34314203262 0 -994672.34314203262 5032748.3304114342 0 0 0 0 1886321.5174224377 -5036143.7772365808 0 -5036143.7772365808 4203366.6545600891 0 0 0 0 1304936.6566410065 -2738633.5056314468 0 -2738633.5056314468 2604298.7298946381 0 0 0 0 1673916.3588028618 -4014448.896526997 0 -4014448.896526997 2495396.4552777358 0 0 0 0 351679.38537776656 -2162812.5854128399 0 -2162812.5854128399 1526006.5007426802 0 0 0 0 81988.053986037849 -426037.4253432455 0 -426037.4253432455 1956746.4610139958 0 0 0 0 582194.34259283543 -1853600.6431338787 0 -1853600.6431338787 1264320.1924037933 0 0 0 0 -1678334.8132009506 -1587857.965893507 0 -1587857.965893507 433872.51164770126 0 0 0 0 659748.96999025345 -2035093.3314909339 0 -2035093.3314909339 3802478.3486978337 0 0 0 0 -625600.22654700279 -3351728.9847901165 0 -3351728.9847901165 2609543.6165308356 0 0 0 0 -154572.11522960663 -3873651.951017499 0 -3873651.951017499 3029803.0866119489 0 0 0 0 83168.191120890348 -1771117.9292333631 0 -1771117.9292333631 832684.96064271929 0 0 0 0 -672725.82579851151 -2622811.4818169177 0 -2622811.4818169177 2069314.1727358699 0 0 0 0 92703.632015228271 -2087513.1162866652 0 -2087513.1162866652 2434232.1300531104 0 0 0 0 -628850.40405035019 -1753011.2284129858 0 -1753011.2284129858 1345975.511870265 0 0 0 0 -1987466.6410923004 -2361295.818264842 0 -2361295.818264842 1079683.8440352082 0 0 0 0 -665133.34921455383 -2831711.0538982153 0 -2831711.0538982153 2541994.0996782184 0 0 0 0 547326.48184467317 -1476534.7434368809 0 -1476534.7434368809 2537726.1141939671 0 0 0 0 15694647.687489986 -8752027.5057325363 0 -8752027.5057325363 -4059120.5740609169 0 0 0 0 -11042276.925353765 1141655.4969156981 0 1141655.4969156981 2451566.1416511536 0 0 0 0 -49690060.70177269 -39750249.663109779 0 -39750249.663109779 49534062.612514496 0 0 0 0 -3328757.0182552338 -1380096.1401228905 0 -1380096.1401228905 4101014.7927393913 0 0 0 0 113558.84504936915 -975228.27437947737 0 -975228.27437947737 2112710.8674901659 0 0 0 0 -1909089.0547862053 -2018378.6944814324 0 -2018378.6944814324 290473.7819480896 0 0 0 0 44329.924431598352 -1711275.4730014543 0 -1711275.4730014543 1759639.0684810593 0 0 0 0 -1070179.3039501552 -725171.75321660668 0 -725171.75321660668 5564796.689685584 0 0 0 0 -223235.53300476074 -1754774.3780937195 0 -1754774.3780937195 3656344.6825399399 0 0 0 0 -3526619.9256945611 1126094.1734529089 0 1126094.1734529089 8269739.9087719657 0 0 0 0 -223045.23571340405 76793.226634161198 0 76793.226634161198 3913887.2567915381 0 0 0 0 -3462675.212887764 -1027577.5554995537 0 -1027577.5554995537 3905339.473328948 0 0 0 0 -3602777.4512016773 -1086681.3000793457 0 -1086681.3000793457 4069262.0421123505 0 0 0 0 -3000881.76456213 -1424151.5083005428 0 -1424151.5083005428 4008735.2260811329 0 0 0 0 -563806.17028038297 -1964773.200824033 0 -1964773.200824033 4463639.1420341292 0 0 0 0 -3260647.1596879959 -1606729.5113967657 0 -1606729.5113967657 4169196.0099201202 0 0 0 0 2980124.2939429283 -1289870.1793503761 0 -1289870.1793503761 4455095.1689109802 0 0 0 0 -690009.50816726685 -867207.76464796066 0 -867207.76464796066 7354237.5859594345 0 0 0 0 809721.82736239396 -2090395.4230901119 0 -2090395.4230901119 3102633.6292587621 0 0 0 0 366088.84762096405 2815916.7865042686 0 2815916.7865042686 8171382.9837770462 0 0 0 0 55515640.440670013 -15876699.558776855 0 -15876699.558776855 12981350.891900063 0 0 0 0 -3586280.8120498657 -1906486.1943416595 0 -1906486.1943416595 7140386.9218039513 0 0 0 0 -146571.82412405685 -2363400.6252740039 0 -2363400.6252740039 3232613.0798149323 0 0 0 0 191414.37960791588 -3240383.9731504917 0 -3240383.9731504917 4840186.5758304596 0 0 0 0 -5083823.0398206711 -1924847.1098341942 0 -1924847.1098341942 5480903.8790912628 0 0 0 0 -10948934.426426411 -6781883.1876301765 0 -6781883.1876301765 5217405.0441551208 0 0 0 0 497002.92081222963 -1992654.0526644578 0 -1992654.0526644578 2547564.7682843357 0 0 0 0 -1826637.8728380203 -3908406.8074526787 0 -3908406.8074526787 1336040.2961874008 0 0 0 0 -4901695.3489971161 -3905647.491645813 0 -3905647.491645813 2141477.4627189636 0 0 0 0 -2212198.9007015228 -2656254.2014603615 0 -2656254.2014603615 2372412.4101524353 0 0 0 0 -10720942.099797249 1864688.9211864471 0 1864688.9211864471 28536908.679664612 0 0 0 0 -3406728.8938751221 -11086164.51000309 0 -11086164.51000309 225306.47768259048 0 0 0 0 -4625980.1969213486 -7026391.5091924667 0 -7026391.5091924667 -2224848.0045156479 0 0 0 0 -2563386.9834917784 -1230558.7731468678 0 -1230558.7731468678 6932321.0895347595 0 0 0 0 -3810696.8090963364 -1301914.3508002758 0 -1301914.3508002758 3870995.6229214668 0 0 0 0 -544807.32801805064 -1490136.9338289341 0 -1490136.9338289341 4805397.7126656007 0 0 0 0 8334602.7188072205 584297.03594827652 0 584297.03594827652 4813062.5144643784 0 0 0 0 -4154105.4588971138 -1350501.4586601257 0 -1350501.4586601257 4407858.1306121349 0 0 0 0 -3798059.7020072937 -753041.46654450893 0 -753041.46654450893 3530802.6979875565 0 0 0 0 -371200.31484450307 -123410.09833222243 0 -123410.09833222243 4563452.1290157018 0 0 0 0 -7120707.0371923447 -825027.44537472725 0 -825027.44537472725 5271561.3744373322 0 0 0 0 -11767235.588139713 5812299.1381309628 0 5812299.1381309628 12029681.262422562 0 0 0 0 -5411069.8711018562 -34093.142991542816 0 -34093.142991542816 3874040.9122006893 0 0 0 0 -4916752.0542914867 -1657341.5136461258 0 -1657341.5136461258 5084094.5499324799 0 0 0 0 -56134887.701435089 -97319143.042545319 0 -97319143.042545319 56562828.029493332 0 0 0 0 -6597231.8362998962 -16901046.354311943 0 -16901046.354311943 -60530001.940826416 0 0 0 0 -803454.01778308686 -1330995.9983394532 0 -1330995.9983394532 5302964.7545110919 0 0 0 0 -6554990.5087327957 5947806.9430923462 0 5947806.9430923462 1465666.2077560425 0 0 0 0 -3874493.0785894394 -791624.95477485657 0 -791624.95477485657 4372017.5698328018 0 0 0 0 -5071346.9532146454 -367394.59504556656 0 -367394.59504556656 5330501.3571829796 0 0 0 0 -5434860.1595683098 -1334733.6875134706 0 -1334733.6875134706 3854765.8143205643 0 0 0 0 -5684342.6939234734 274044.07426977158 0 274044.07426977158 4140475.4462505579 0 0 0 0 -7594304.8046410084 -4622199.6918821335 0 -4622199.6918821335 9204817.6493251324 0 0 0 0 -792058.45662467415 -599768.23522902245 0 -599768.23522902245 5196703.4663106799 0 0 0 0 -6237559.1864776611 469121.30470705032 0 469121.30470705032 5587879.8150477409 0 0 0 0 -6643161.2943462133 1141857.9631669521 0 1141857.9631669521 4483154.3862085342 0 0 0 0 -9346964.3139705658 10297300.156230927 0 10297300.156230927 4073344.2536010742 0 0 0 0 -14510926.833595276 11663708.43296814 0 11663708.43296814 9210638.3378911018 0 0 0 0 -5366485.4314687252 -857902.72700822353 0 -857902.72700822353 6588975.1291484833 0 0 0 0 -7486888.1311759949 -673736.65373420715 0 -673736.65373420715 6516951.7097892761 0 0 0 0 -5360178.8707180023 532412.17025947571 0 532412.17025947571 6608846.1023565084 0 0 0 0 -4567213.7861614227 5417742.4881820679 0 5417742.4881820679 10910955.810734272 0 0 0 0 -1888448.005358696 2562729.2774209976 0 2562729.2774209976 -625763.47046852112 0 0 0 0 -1325664.6578617096 5265757.3860855103 0 5265757.3860855103 -2264824.7095756531 0 0 0 0 -12776843.675974846 5820834.1290946007 0 5820834.1290946007 11160719.602664948 0 0 0 0 -3022390.4108448029 -5703975.0282497406 0 -5703975.0282497406 9280161.6886367798 0 0 0 0 -19345317.673027039 -11831152.251300812 0 -11831152.251300812 10731530.800071716 0 0 0 0 -19802499.307519436 3046281.0635795593 0 3046281.0635795593 6501639.8639259338 0 0 0 0 -538591.505704151 418173.73388596904 0 418173.73388596904 617428.51729380805 0 0 0 0 212302.80969047546 -3345992.2718315125 0 -3345992.2718315125 3369265.9633674622 0 0 0 0 -1193474.8963865428 -507581.66806721641 0 -507581.66806721641 4675775.8931462122 0 0 0 0 -1775352.7876393497 -2691311.6875575483 0 -2691311.6875575483 4023595.992099762 0 0 0 0 -1848657.1643686295 -1953412.4171934128 0 -1953412.4171934128 3544551.3637237549 0 0 0 0 -1734354.0349000394 -1721777.0916007459 0 -1721777.0916007459 3827439.2981567383 0 0 0 0 590817.88573978702 -2155401.4901565248 0 -2155401.4901565248 2519174.4707654752 0 0 0 0 -8239910.2119765282 2357643.265750885 0 2357643.265750885 2320712.4360542297 0 0 0 0 -2081846.1902761459 -11194841.474067688 0 -11194841.474067688 -35058322.554749489 0 0 0 0 -373676.65835577575 -208662.80394699587 0 -208662.80394699587 808161.5056452062 0 0 0 0 -12685404.045088053 2282939.7829675674 0 2282939.7829675674 2640089.6545715332 0 0 0 0 -22775.099187175045 -141168.61771431076 0 -141168.61771431076 1541585.7579354849 0 0 0 0 281202.98896169662 -1530313.4393024445 0 -1530313.4393024445 4309442.505543232 0 0 0 0 -170531.3189845446 -375590.94133211591 0 -375590.94133211591 1390697.5932905283 0 0 0 0 -3869775.6864686012 2573492.3901517391 0 2573492.3901517391 7827845.211664319 0 0 0 0 -499796.4632140398 -2628292.1464512348 0 -2628292.1464512348 6633257.628275156 0 0 0 0 -596546.06708145712 -838348.66616852523 0 -838348.66616852523 2971444.0129950847 0 0 0 0 -3375943.9420111179 -214965.96092784405 0 -214965.96092784405 4631053.3717689514 0 0 0 0 -7235340.5890266895 2085145.9948303699 0 2085145.9948303699 3656068.4916015863 0 0 0 0 -7496040.2165107727 -4034347.0681574345 0 -4034347.0681574345 9914636.3141748905 0 0 0 0 187418.88873434067 -4393748.3128089905 0 -4393748.3128089905 5002059.7869384289 0 0 0 0 330429.79772901535 -8734833.5819480419 0 -8734833.5819480419 10806550.391928196 0 0 0 0 16099355.952954531 9399991.0614349842 0 9399991.0614349842 -8354338.5377107859 0 0 0 0 177487.09487001877 -269991.73915348784 0 -269991.73915348784 552969.47832853219 0 0 0 0 -1943107.5970466137 -1387810.4640066624 0 -1387810.4640066624 -5183032.5709447861 0 0 0 0 -7573485.2817540169 4190043.8563448191 0 4190043.8563448191 14103608.649376392 0 0 0 0 -82005.392695903778 15412732.284000397 0 15412732.284000397 11097396.65468359 0 0 0 0 195692.92677354813 -922412.14249753952 0 -922412.14249753952 3278743.4258476496 0 0 0 0 -233591.18851028732 127174.20092965901 0 127174.20092965901 586337.94129667 0 0 0 0 3579060.1674041748 2928998.6739788055 0 2928998.6739788055 3799335.4862430096 0 0 0 0 -9956909.4916386604 -327896.66383385658 0 -327896.66383385658 4775523.9994822145 0 0 0 0 -10491705.39070034 2889284.5844295025 0 2889284.5844295025 -694475.12450480461 0 0 0 0 -5373037.9255313873 4735917.5163767338 0 4735917.5163767338 -10176303.098464727 0 0 0 0 -4052420.2637267113 -6740228.966612339 0 -6740228.966612339 26283343.628207922 0 0 0 0 2228507.1166000366 -2114496.7274718285 0 -2114496.7274718285 6369366.5906996727 0 0 0 0 108780.33808991732 -142878.63042968907 0 -142878.63042968907 108882.88738290488 0 0 0 0 4019974.1278436184 930590.0942940712 0 930590.0942940712 -7486947.9157600403 0 0 0 0 -1320055.8467569351 1063213.057404995 0 1063213.057404995 20261002.68040061 0 0 0 0 -1834312.2527525425 -2029856.1875994205 0 -2029856.1875994205 6375463.9509725571 0 0 0 0 -2604934.8333796263 -1167615.0062010288 0 -1167615.0062010288 5905242.1175498962 0 0 0 0 -2539797.0240199566 -464718.61968779564 0 -464718.61968779564 14987335.802904606 0 0 0 0 -421369.94246840477 -1093292.5808763504 0 -1093292.5808763504 6630327.2526726723 0 0 0 0 -926212.2655749321 665.54914247989655 0 665.54914247989655 12270674.590503693 0 0 0 0 -371465.98530435562 -1590139.2548522949 0 -1590139.2548522949 8358713.9198246002 0 0 0 0 -1187684.080461815 6943586.3052860349 0 6943586.3052860349 4420458.9121170044 0 0 0 0 -32832.761343717575 -7560090.4055650234 0 -7560090.4055650234 16841225.433610916 0 0 0 0 131498.28928967426 -174030.16148440028 0 -174030.16148440028 206946.51671704138 0 0 0 0 -771744.2131485939 -4422894.573674202 0 -4422894.573674202 16556770.804239035 0 0 0 0 2040489.7798089981 -7607649.8167448044 0 -7607649.8167448044 14640162.228052139 0 0 0 0 1302826.2479178905 -2527206.489002347 0 -2527206.489002347 9679241.9192590714 0 0 0 0 613344.97531270981 -2446358.0341558456 0 -2446358.0341558456 12093281.050117254 0 0 0 0 -1656978.2894722223 -306014.60206329823 0 -306014.60206329823 10903663.175599098 0 0 0 0 111829.64315003157 -788544.84479868412 0 -788544.84479868412 10525024.882543564 0 0 0 0 -561156.65540313721 -1616016.6506137848 0 -1616016.6506137848 10984529.739075661 0 0 0 0 -484119.50722932816 -1495493.3542227745 0 -1495493.3542227745 10048456.888421535 0 0 0 0 -503561.07679772377 -1359347.1766397953 0 -1359347.1766397953 10072034.555938005 0 0 0 0 -1163296.2575318813 -1182444.2779028416 0 -1182444.2779028416 10397149.369936705 0 0 0 0 -1278638.0554828644 -650933.66331028938 0 -650933.66331028938 9278159.7741470337 0 0 0 0 24787.566979646683 -2063079.9135975838 0 -2063079.9135975838 9514953.6568819284 0 0 0 0 3794894.6348376274 -4622070.6121075153 0 -4622070.6121075153 4926892.7635293007 0 0 0 0 223947.54123497009 -2253568.3779850006 0 -2253568.3779850006 6753974.0305099487 0 0 0 0 -30301.128586053848 -1157912.9291526079 0 -1157912.9291526079 5592234.2284488678 0 0 0 0 -24075062.305086613 -22204596.955587864 0 -22204596.955587864 21670791.143807411 0 0 0 0 -36986615.398276567 11825806.186724365 0 11825806.186724365 11763371.793945312 0 0 0 0 -343911.42192623019 -3927084.8656595945 0 -3927084.8656595945 9731884.8751559258 0 0 0 0 501653.1243853569 -1272553.6534671783 0 -1272553.6534671783 6889950.0520534515 0 0 0 0 -1455938.4285959657 -182731.16085691249 0 -182731.16085691249 2762031.2366866386 0 0 0 0 -1040518.2135335349 -408936.61912262486 0 -408936.61912262486 2157169.1541958051 0 0 0 0 -90977.780737876892 -1032539.8358206749 0 -1032539.8358206749 9908725.5504797697 0 0 0 0 -2097346.3707284927 -1776697.1707220078 0 -1776697.1707220078 10336478.170874834 0 0 0 0 -9270258.7870976925 11049334.818980455 0 11049334.818980455 -10448966.858123779 0 0 0 0 -1398076.5616153404 -26267.600191095073 0 -26267.600191095073 3259986.8236159463 0 0 0 0 -5143949.4451743364 4160421.2286955118 0 4160421.2286955118 1049518.2888097763 0 0 0 0 -704574.34538692236 -398030.41228687763 0 -398030.41228687763 3217921.8401589692 0 0 0 0 -755032.48927634768 -1900937.3646054349 0 -1900937.3646054349 2701213.8126641051 0 0 0 0 -446794.29669380188 -3390428.5372998714 0 -3390428.5372998714 5159909.561296463 0 0 0 0 -429357.60635048151 -860727.37965949625 0 -860727.37965949625 3318698.9811445624 0 0 0 0 -2142052.1712953071 431848.42702743231 0 431848.42702743231 2955228.0278656073 0 0 0 0 -2543673.0637497902 -3717362.5875911713 0 -3717362.5875911713 8022617.0658246279 0 0 0 0 -1733402.060687542 -2703712.0217046738 0 -2703712.0217046738 7294765.2698376179 0 0 0 0 -429544.1180043355 -865107.81853620976 0 -865107.81853620976 3427276.9009739785 0 0 0 0 -216961.46051311493 -1067788.0484650135 0 -1067788.0484650135 2749794.4480476379 0 0 0 0 -1840857.2363650948 -807565.80088081956 0 -807565.80088081956 3790304.9887969494 0 0 0 0 -921822.3898434689 -707187.99437742983 0 -707187.99437742983 4590325.9109468395 0 0 0 0 -599399.57250183262 -1909342.6189902604 0 -1909342.6189902604 2976889.4375051116 0 0 0 0 -1733585.1138656735 -2604332.130884245 0 -2604332.130884245 4275208.0539507866 0 0 0 0 -777967.0226560533 -160575.11283129454 0 -160575.11283129454 2813023.4318058491 0 0 0 0 -1722380.3197629601 -512866.14663028717 0 -512866.14663028717 2013412.5306301117 0 0 0 0 -1889176.3808951825 358868.40063107014 0 358868.40063107014 2632805.333973527 0 0 0 0 -1160840.4978910217 -525989.84073918697 0 -525989.84073918697 3741086.8943555322 0 0 0 0 -10862272.15557003 3347497.6815934181 0 3347497.6815934181 6429157.8602566719 0 0 0 0 -10713438.848328829 2791392.5199006796 0 2791392.5199006796 8399008.3650779724 0 0 0 0 -9352242.5173999071 5230360.8623782396 0 5230360.8623782396 1112229.8612523079 0 0 0 0 -8865662.7656769753 3398181.679002285 0 3398181.679002285 6183075.8288841248 0 0 0 0 -12243221.064748466 1728674.9056281 0 1728674.9056281 9567305.1816215515 0 0 0 0 -11647576.780477047 7257391.3753743172 0 7257391.3753743172 7034098.0038900375 0 0 0 0 -10361887.905296803 3879066.1494514942 0 3879066.1494514942 10616900.98080349 0 0 0 0 -4139284.6244909763 -2521491.9973111153 0 -2521491.9973111153 4732424.1054337025 0 0 0 0 -1902335.1618859768 1717763.1033329964 0 1717763.1033329964 7930019.6185355186 0 0 0 0 -9919060.336148262 680791.94388580322 0 680791.94388580322 9938064.8653123975 0 0 0 0 -16122534.561852217 -10032782.643579006 0 -10032782.643579006 8339719.1971197128 0 0 0 0 -1795725.5306905094 -609051.00390949473 0 -609051.00390949473 7012577.2092783917 0 0 0 0 -1885435.4663396417 -2910.0369349615648 0 -2910.0369349615648 4522162.7631240319 0 0 0 0 -2023691.5280783176 -703047.61154127121 0 -703047.61154127121 3144768.2827020884 0 0 0 0 -4274683.5337147713 -491588.51001548767 0 -491588.51001548767 6408492.5073680878 0 0 0 0 2671936.5432521701 -3881863.2231058478 0 -3881863.2231058478 7267326.6401481628 0 0 0 0 -802156.646413401 -2820280.2828196958 0 -2820280.2828196958 5746597.0642339438 0 0 0 0 4747696.0592746735 -3174164.1763134003 0 -3174164.1763134003 5421518.062836647 0 0 0 0 -6365.8657730789855 -25770.329579380341 0 -25770.329579380341 404812.51100357529 0 0 0 0 -2574850.6828050688 12873933.954944313 0 12873933.954944313 6174988.4831180573 0 0 0 0 -399749.95899981027 152907.99459694792 0 152907.99459694792 538196.91960329935 0 0 0 0 -3023463.2049424797 -5955464.1998094618 0 -5955464.1998094618 16501540.089370728 0 0 0 0 -672350.51520061493 1990857.215262413 0 1990857.215262413 24305145.027801514 0 0 0 0 -4188068.1743783951 2210196.5406141281 0 2210196.5406141281 -3757976.6598510742 0 0 0 0 -7448465.0330133438 -393519.93343162537 0 -393519.93343162537 23771991.134433746 0 0 0 0 -2181339.9980381727 -5836959.3982428312 0 -5836959.3982428312 23888240.291345596 0 0 0 0 -162675.63099396368 261611.53298729286 0 261611.53298729286 -333619.00695461035 0 0 0 0 -2257711.418088913 -2487104.6062619686 0 -2487104.6062619686 3136368.2663040161 0 0 0 0 -3368571.7892551422 -3928805.8086509705 0 -3928805.8086509705 19477574.26007843 0 0 0 0 -1444108.2544902074 -759111.69830675074 0 -759111.69830675074 5937514.9385682577 0 0 0 0 -955528.27733016014 -673694.73631930351 0 -673694.73631930351 3360712.1381058693 0 0 0 0 -1142641.8509423763 -1872008.8586815295 0 -1872008.8586815295 7195744.1923193187 0 0 0 0 -5126553.7021460533 -2891673.0496594906 0 -2891673.0496594906 6645669.6743512154 0 0 0 0 1958591.3560409546 -3030216.1961212158 0 -3030216.1961212158 2354736.7201404572 0 0 0 0 -216286.885065048 -438206.85911555844 0 -438206.85911555844 632985.70578589872 0 0 0 0 -567630.3714708474 -3154702.4936833167 0 -3154702.4936833167 2498817.2752613537 0 0 0 0 -1155957.232446196 -334627.04536091076 0 -334627.04536091076 3202948.3737923019 0 0 0 0 -3499451.7727286816 -1323094.3170008659 0 -1323094.3170008659 4104544.2329282761 0 0 0 0 -2849175.5877301395 -105664.49693185091 0 -105664.49693185091 3499957.4210878611 0 0 0 0 -2406312.6029676199 -545395.23803138733 0 -545395.23803138733 4257527.5017559528 0 0 0 0 -1106531.8813362122 -1101187.3611123562 0 -1101187.3611123562 3144803.6361236572 0 0 0 0 -645360.40852660045 -538876.17107470974 0 -538876.17107470974 2877914.1160220918 0 0 0 0 -1892558.3957999945 -1562601.7970957756 0 -1562601.7970957756 3242143.1842288971 0 0 0 0 -3874933.4171138257 -40572.091675758362 0 -40572.091675758362 3027715.859307766 0 0 0 0 -847262.67584464571 -101581.24817336461 0 -101581.24817336461 2328549.6797072683 0 0 0 0 -5186399.7532923371 213692.65167745948 0 213692.65167745948 4327016.043961525 0 0 0 0 -879453.28982705693 -336493.63899054739 0 -336493.63899054739 4593788.349431877 0 0 0 0 -3011189.5036613941 1408381.083589077 0 1408381.083589077 3766981.8203920126 0 0 0 0 -5508452.2080632672 308406.36524897814 0 308406.36524897814 3923228.2455921173 0 0 0 0 -1733441.7264553132 1058060.5763534098 0 1058060.5763534098 4303927.206474754 0 0 0 0 -3684639.9373658523 -502455.15555414557 0 -502455.15555414557 6555201.8604373932 0 0 0 0 -4224548.1584563255 -1166087.8888168335 0 -1166087.8888168335 6407357.3901939392 0 0 0 0 -3589591.5116438866 -1104046.1720352173 0 -1104046.1720352173 6156134.2245225906 0 0 0 0 -3215469.2394142151 -320795.98212909698 0 -320795.98212909698 6328338.4147958755 0 0 0 0 -3466708.3894021511 -439342.27004909515 0 -439342.27004909515 8167154.0880584717 0 0 0 0 -2201961.6775243282 553118.10429191589 0 553118.10429191589 6385891.8683252335 0 0 0 0 -10416419.922918797 3879202.7046318054 0 3879202.7046318054 2758771.5610620975 0 0 0 0 -1901321.7382516861 873158.88944530487 0 873158.88944530487 6671214.6783685684 0 0 0 0 -1822860.4542295651 1728522.3170486405 0 1728522.3170486405 4543442.4382649176 0 0 0 0 -9618497.187523365 1923528.3876628876 0 1923528.3876628876 1458368.491317749 0 0 0 0 -1411924.2557213909 -571230.35506407474 0 -571230.35506407474 4610855.1515586823 0 0 0 0 213605.91535016149 -1459319.553203579 0 -1459319.553203579 2971464.5033252891 0 0 0 0 -5046143.5499200821 -3501210.0585269928 0 -3501210.0585269928 8832711.9923934937 0 0 0 0 2069521.3277072906 -10789636.756402969 0 -10789636.756402969 11284696.306625843 0 0 0 0 -1602255.3365869522 -9779011.4796104431 0 -9779011.4796104431 16441491.662712097 0 0 0 0 3218765.8074092865 -4124581.6821670532 0 -4124581.6821670532 8772384.0627098083 0 0 0 0 10283678.012423515 -6013008.8222904205 0 -6013008.8222904205 8975784.1804542542 0 0 0 0 -397901.34299033741 1678323.8298116829 0 1678323.8298116829 -404860.55122534931 0 0 0 0 -1781644.9249000903 -864269.74489262444 0 -864269.74489262444 7430430.1591793988 0 0 0 0 -24635310.396132469 2521749.7180500031 0 2521749.7180500031 8610175.1039810181 0 0 0 0 -5927701.5752620697 -5927786.2687606812 0 -5927786.2687606812 7931130.99792099 0 0 0 0 15324796.448390484 -11764029.633597374 0 -11764029.633597374 12562494.714740753 0 0 0 0 -1300231.7985263127 -3838990.4828647543 0 -3838990.4828647543 12000751.655345971 0 0 0 0 -382619.95176126412 -2783735.2658261042 0 -2783735.2658261042 6932373.7717400696 0 0 0 0 -13923445.857250214 18619488.891998291 0 18619488.891998291 -144569580.25488281 0 0 0 0 -14465127.705104828 834645.86267757416 0 834645.86267757416 11377149.692568779 0 0 0 0 3056634.2306602299 -8367045.3263623714 0 -8367045.3263623714 7638325.646320343 0 0 0 0 -8500462.7770500183 -31977262.005878448 0 -31977262.005878448 233085517.21444702 0 0 0 0 -4013334.6923360825 -4917707.927986145 0 -4917707.927986145 16893645.175254822 0 0 0 0 3817854.3153343201 -12531561.686822891 0 -12531561.686822891 24276725.912696838 0 0 0 0 -5383405.5170488358 13139520.922279358 0 13139520.922279358 27464148.133397102 0 0 0 0 -208867.43390092254 3467934.0295330584 0 3467934.0295330584 6568168.0807418823 0 0 0 0 -748644.73806762742 -451349.00234018266 0 -451349.00234018266 2117636.0793727078 0 0 0 0 -1932368.9045331478 -9260025.5406346321 0 -9260025.5406346321 14556932.639251709 0 0 0 0 -1787769.54431197 -1095966.5798188094 0 -1095966.5798188094 7802602.897289563 0 0 0 0 -5944138.4583940506 -11185367.092308044 0 -11185367.092308044 -7020631.7473087311 0 0 0 0 -242699.5042604208 4098815.3682069778 0 4098815.3682069778 10717623.728153229 0 0 0 0 -2858327.3905735016 2819109.1330547333 0 2819109.1330547333 10309663.883014679 0 0 0 0 -10164878.378463745 -9760853.2635765076 0 -9760853.2635765076 16769963.212357521 0 0 0 0 -17918823.6997419 -6283576.8904906511 0 -6283576.8904906511 17434248.008724213 0 0 0 0 -17697371.91692102 -7947668.3555237055 0 -7947668.3555237055 15278567.987037659 0 0 0 0 -26855606.340353966 -9822604.6092777252 0 -9822604.6092777252 17401306.665752411 0 0 0 0 -8467628.8499269485 -8222418.63463974 0 -8222418.63463974 14403670.725614548 0 0 0 0 -16739899.382135391 -5770452.4879798889 0 -5770452.4879798889 13783863.314891815 0 0 0 0 -9322943.7342014313 -7008756.3468589783 0 -7008756.3468589783 15845813.98279953 0 0 0 0 -5882436.9068541527 -6181718.1072478294 0 -6181718.1072478294 9503163.60597229 0 0 0 0 -13737542.774086952 2395074.3418617249 0 2395074.3418617249 153239.32743263245 0 0 0 0 -17078903.93698597 -5554092.0994749069 0 -5554092.0994749069 16996503.384757996 0 0 0 0 -16780930.635152817 -544474.60836791992 0 -544474.60836791992 15270314.957557678 0 0 0 0 -20411701.711227417 -2037488.0986118317 0 -2037488.0986118317 14985572.522556305 0 0 0 0 -21719603.872044802 1717431.7814068794 0 1717431.7814068794 21302963.963233948 0 0 0 0 -22553202.403393745 1697673.5968132019 0 1697673.5968132019 21871926.442699432 0 0 0 0 -24763352.717992783 11703335.00579071 0 11703335.00579071 27021439.102251053 0 0 0 0 -8762156.0320062637 13283827.313922882 0 13283827.313922882 21510456.279296875 0 0 0 0 -9100177.1458816677 21653902.93098101 0 21653902.93098101 15698143.105930328 0 0 0 0 -59112151.71803093 26353390.17987442 0 26353390.17987442 31924444.90180397 0 0 0 0 -36574903.97663331 8398518.5828733444 0 8398518.5828733444 26796769.574028015 0 0 0 0 -26803984.975421786 31355657.686721802 0 31355657.686721802 31778677.723434448 0 0 0 0 -30715177.291217804 3809383.7594184875 0 3809383.7594184875 29463967.165628612 0 0 0 0 -33811967.926204205 -272587.2890586853 0 -272587.2890586853 24083444.185333252 0 0 0 0 3403712.7192978859 27147831.981809616 0 27147831.981809616 4838672.3763065338 0 0 0 0 11143261.107042313 19278554.72014904 0 19278554.72014904 9112442.0371208191 0 0 0 0 3347611.7575554848 27969891.232620239 0 27969891.232620239 18897012.399454117 0 0 0 0 97216427.465246677 37670380.146669388 0 37670380.146669388 -9094481.4193592072 0 0 0 0 -317322.93836991931 18734.721197279636 0 18734.721197279636 8817.5325583294034 0 0 0 0 59637045.732004166 94110212.617422104 0 94110212.617422104 -81422133.906871796 0 0 0 0 -11098374.859838486 75738616.345344543 0 75738616.345344543 -6777953.2912044525 0 0 0 0 -64617692.721200943 103791300.21226883 0 103791300.21226883 -1272579.6220974922 0 0 0 0 -54273734.112483025 27833463.066268921 0 27833463.066268921 -58948219.684463501 0 0 0 0 -62962613.891410351 81634413.39607048 0 81634413.39607048 73872384.489551544 0 0 0 0 -32284496.754169464 -17267675.423631668 0 -17267675.423631668 11657992.532169342 0 0 0 0 -62046153.767702103 -1824210.6542797089 0 -1824210.6542797089 29351432.446700335 0 0 0 0 -46227888.256759644 16148723.606470108 0 16148723.606470108 39934828.567390442 0 0 0 0 -150231343.41368866 -54057.071750640869 0 -54057.071750640869 37832193.298341751 0 0 0 0 -170335786.05867386 -68366456.17757225 0 -68366456.17757225 6423249.0938024521 0 0 0 0 -249426772.69846344 43538202.051593781 0 43538202.051593781 69323353.287499905 0 0 0 0 -44818426.03838253 -27532698.123373032 0 -27532698.123373032 19615375.851886749 0 0 0 0 -32770582.751219749 -14959480.754108429 0 -14959480.754108429 11779349.071813583 0 0 0 0 -92145063.918941498 187419535.47368813 0 187419535.47368813 -219560136.15004826 0 0 0 0 -30016878.349896908 -48410059.686962128 0 -48410059.686962128 -32821264.253574371 0 0 0 0 -959073.94996098708 283848.84236726351 0 283848.84236726351 466381.82515938766 0 0 0 0 -237413070.93858731 294539577.92669296 0 294539577.92669296 249309619.10477829 0 0 0 0 -118477675.95134449 30129070.644207001 0 30129070.644207001 -23359239.77725029 0 0 0 0 -864421.10928768083 -832629.42947590631 0 -832629.42947590631 777733.92926923931 0 0 0 0 -231015884.6313982 29209813.697742462 0 29209813.697742462 99711116.317375183 0 0 0 0 -125858308.00618744 39628903.724651814 0 39628903.724651814 2529172.1266345978 0 0 0 0 -44243088.720245361 39816100.471544266 0 39816100.471544266 -42829841.12556076 0 0 0 0 91615652.992908359 135448968.01624155 0 135448968.01624155 -11834161.058441162 0 0 0 0 -41581903.064595222 46962306.530233383 0 46962306.530233383 59042483.780857086 0 0 0 0 -428059.3856515782 -398280.0756951801 0 -398280.0756951801 325068.42610531114 0 0 0 0 -164495237.77498913 145255368.60038185 0 145255368.60038185 22673609.217735291 0 0 0 0 -173761069.81117821 -69517776.285106659 0 -69517776.285106659 -447618293.78031158 0 0 0 0 -21028949.387768745 105102215.84892654 0 105102215.84892654 -80529266.495754242 0 0 0 0 -40560927.821280479 3224001.4314422607 0 3224001.4314422607 36502698.26789093 0 0 0 0 -170774004.76062202 -49662034.227675438 0 -49662034.227675438 47672686.532058716 0 0 0 0 172171017.50868464 158350863.85772514 0 158350863.85772514 113994083.51547241 0 0 0 0 -39937895.385907173 -40982021.216470718 0 -40982021.216470718 306934127.2557373 0 0 0 0 161689679.3717196 -223834152.18992901 0 -223834152.18992901 162475827.90155029 0 0 0 0 -3570011.4787745476 -100853165.74231052 0 -100853165.74231052 71108247.711479187 0 0 0 0 5654976.0549888611 -90153467.219623566 0 -90153467.219623566 35562124.087978363 0 0 0 0 -160449259.79243851 44690624.49192524 0 44690624.49192524 72702365.102949142 0 0 0 0 85363243.871261865 -104613722.40483826 0 -104613722.40483826 38937522.404664993 0 0 0 0 -105193375.79325962 60024400.934011459 0 60024400.934011459 -4606233.1404666901 0 0 0 0 -537962.53115147306 -542154.55401216983 0 -542154.55401216983 546935.88149800338 0 0 0 0 -36442204.936557293 -74477861.917144775 0 -74477861.917144775 78083760.146472931 0 0 0 0 -50520305.572400093 -1649908.8430757523 0 -1649908.8430757523 51125244.027141571 0 0 0 0 -80692746.598721504 26570643.785860062 0 26570643.785860062 33309565.569598198 0 0 0 0 -49184358.496548653 40109040.924078941 0 40109040.924078941 -7855624.4129142761 0 0 0 0 -58606060.252702475 22094943.819089413 0 22094943.819089413 16941879.719417572 0 0 0 0 -31411990.838510513 20200786.018956184 0 20200786.018956184 12945034.015220642 0 0 0 0 -33967865.457939744 3526066.7879503965 0 3526066.7879503965 12584826.303880692 0 0 0 0 -46841540.684735298 6192719.2270989418 0 6192719.2270989418 12106808.927303314 0 0 0 0 -4397446.7124414444 -2335549.1517715454 0 -2335549.1517715454 2958087.9652194977 0 0 0 0 -437352.10876970377 -3676309.7520070854 0 -3676309.7520070854 3822513.5153728146 0 0 0 0 -3619479.8445930481 -2920868.6361484528 0 -2920868.6361484528 2794441.0964241028 0 0 0 0 -10508001.313699722 1249652.3627023697 0 1249652.3627023697 1215049.8845977783 0 0 0 0 -3360123.3114276007 -921950.57446282078 0 -921950.57446282078 2456037.9806115571 0 0 0 0 -19273715.794790268 1263458.0936012268 0 1263458.0936012268 4790024.8424701691 0 0 0 0 -4410396.559009552 259224.68967437744 0 259224.68967437744 4054451.4884643555 0 0 0 0 -4072188.7383937836 -1913099.4614362717 0 -1913099.4614362717 3820911.5100784302 0 0 0 0 -4723791.4245672226 -3431606.194111824 0 -3431606.194111824 5180550.3960113525 0 0 0 0 24445.19784257561 -76682.848792612553 0 -76682.848792612553 212733.94816657947 0 0 0 0 -1830148.8174455417 178771.1095513897 0 178771.1095513897 4783173.7237047199 0 0 0 0 -1754721.4608876468 -892528.84240950085 0 -892528.84240950085 6000008.2273187675 0 0 0 0 -3505245.1291460991 -396979.12123394012 0 -396979.12123394012 4461184.3408994675 0 0 0 0 -1106981.1953845024 646061.50130939484 0 646061.50130939484 9906608.1885986328 0 0 0 0 -2564589.3372545242 -905796.69473266602 0 -905796.69473266602 8328982.2910919189 0 0 0 0 189600.30438613892 -1614603.5718631744 0 -1614603.5718631744 12215967.361499786 0 0 0 0 -8948333.5192213058 -1379670.2343788147 0 -1379670.2343788147 28279998.271121979 0 0 0 0 -2444460.8115435755 149209.56105604116 0 149209.56105604116 1316012.6423610118 0 0 0 0 7305473.022179842 12939614.591878891 0 12939614.591878891 8461294.6332092285 0 0 0 0 -49520586.432003021 30389747.967590809 0 30389747.967590809 -17039056.687995911 0 0 0 0 -10741307.807706833 15881620.555524826 0 15881620.555524826 -16902313.41804409 0 0 0 0 
</DataArray>
<DataArray type="Float64" Name="cross_section_updated" format="ascii">
1 1 0.050207609276774472 1 1 1 1 0.05020716095764656 1 1 1 1 1 1 1 1 1 1 1 1 0.050791515618989917 1 1 1 1 0.050793013409136639 1 1 1 1 1 1 1 0.050791133321744605 1 1 1 1 1 1 1 1 0.051670373429550151 1 1 1 1 1 1 1 1 1 1 1 0.051816287299091227 0.049735541770351541 1 1 1 1 1 1 1 1 0.053566224136422869 1 1 1 1 1 1 1 1 1 1 1 1 1 1 1 1 1 1 1 1 1 1 0.052581593908076867 1 1 1 1 1 1 1 1 1 1 1 0.050731293604246913 1 1 1 0.05030114823040592 1 1 1 1 1 1 1 1 1 1 1 1 1 1 1 1 1 1 1 1 1 1 1 1 1 1 1 1 1 1 1 1 1 1 1 1 1 1 1 1 1 1 1 1 1 0.04995268007679439 1 0.050842457340563724 1 1 1 1 1 1 1 1 1 1 1 1 1 1 1 1 1 1 1 1 1 1 1 1 1 1 0.050461490270740539 1 1 0.050067719282255285 1 0.050249970289526845 1 1 1 1 1 1 1 1 1 1 1 1 1 1 0.049836422760258167 1 0.052127876874694772 1 1 1 1 1 1 1 0.051605751738993462 1 0.052176807856058813 1 1 1 1 1 1 0.04969377064270921 1 1 0.053295629562504887 1 1 1 1 1 1 0.053239367004159453 0.055830576323781737 1 1 0.049992756019952442 1 0.053397488733186269 1 0.050057324679489874 0.051804190563514228 1 1 1 0.054165901847620032 1 1 1 1 1 1 1 1 1 1 1 1 1 0.057882236084789714 1 1 1 1 1 1 1 0.059912182603180021 1 1 1 1 1 1 1 0.061759752514094921 1 1 1 1 0.050368469379064654 1 1 1 1 1 1 0.050043971270987711 1 1 1 0.051049376185453868 1 1 1 1 1 1 1 0.051621345613193245 1 1 1 1 1 1 0.050023358891769801 1 1 1 1 1 1 0.050255923270240963 1 1 1 1 1 1 1 0.049942297343192651 1 1 1 1 1 1 1 1 1 1 1 1 1 1 1 1 1 1 1 1 1 0.049757501808167015 0.050025652933211762 1 1 1 1 1 0.049165573813418691 1 1 1 1 1 1 1 0.052982036862404908 1 0.046801409481971736 1 1 1 0.053130914554800936 1 1 1 0.050111823822057103 1 0.050007551333283037 1 1 1 1 1 1 1 0.056784724360690313 1 1 1 1 1 1 1 0.063152092861498837 1 1 1 0.049988000597834564 1 1 1 1 1 1 1 1 1 1 1 1 1 1 1 1 1 1 1 1 1 1 1 1 1 1 1 1 1 1 1 1 0.058263617273452473 1 1 1 1 1 1 1 1 1 1 1 1 1 1 1 1 1 1 1 1 1 1 1 1 1 1 1 1 1 1 1 1 0.049986032522678032 1 1 1 1 1 1 1 1 1 1 1 1 1 1 1 1 1 1 1 1 0.049984993360541782 1 1 1 1 1 1 1 0.050026483817961931 1 1 1 1 1 0.050064106949864448 1 1 0.050001808148520753 1 0.050253356144203801 1 1 1 1 0.050529201294211609 1 1 0.050819474818053351 1 1 1 1 1 1 0.050961904734845548 1 1 1 1 1 1 1 1 1 1 1 1 1 1 1 1 1 1 1 0.050686146961990003 1 1 1 1 1 1 1 1 1 1 1 0.05018520143147677 0.050559700924984331 1 1 1 1 1 1 1 1 1 1 1 1 1 1 1 1 1 1 1 1 1 0.049976066327540994 1 0.049983258566838537 0.049867551826190626 1 1 0.050164401288754351 1 1 1 1 1 1 1 1 1 1 1 1 1 0.049657018157509079 1 1 1 1 1 1 1 0.049758129602643461 0.049765298333204269 1 1 1 1 1 1 1 1 0.050182917887933706 0.050104303556876714 1 1 1 0.049944891870725497 1 1 1 1 1 1 1 1 1 1 1 1 1 1 1 1 1 1 1 1 1 1 1 1 1 1 1 1 1 1 1 1 1 1 1 0.049994827493646261 1 1 0.05003196901891882 1 1 1 1 0.050080849323093438 1 1 1 0.049985394366784328 1 1 1 0.049991642549488034 1 1 0.049993746468008624 1 1 1 1 1 1 1 1 1 1 1 1 1 1 1 1 1 1 1 1 1 0.050039020954722055 1 1 1 0.050030341969795555 1 1 1 1 1 0.050046598437019654 1 1 1 1 1 1 0.050008204525520149 1 1 1 1 1 1 1 1 1 1 1 1 1 1 1 1 1 1 0.050016883830176828 1 1 1 1 1 1 1 1 1 1 1 1 1 1 1 1 1 1 1 1 1 0.050048880304174627 1 1 1 1 1 1 1 1 1 1 1 1 1 1 1 0.050041920117680154 1 1 1 1 1 1 1 1 1 1 1 1 1 1 1 1 1 1 0.052214916181999693 1 1 1 1 1 1 1 0.05003551684229493 1 1 1 1 1 1 1 1 1 1 1 1 1 1 1 1 1 1 1 1 1 0.050485339541092036 1 1 1 1 1 1 1 1 1 0.051394409395443055 1 1 1 1 1 1 1 1 0.059669756205723519 1 1 1 1 1 1 1 1 1 1 1 1 1 1 1 1 1 1 1 0.058825285339981555 1 1 1 1 1 0.060999550331929227 1 1 1 0.04996941131167227 1 1 1 1 1 1 0.04906550295832935 1 1 1 1 1 1 1 1 1 1 0.05044001215466113 1 1 1 1 1 1 1 1 1 1 1 1 0.049837418472014762 1 0.051402066301730803 1 1 1 1 1 1 1 0.058798110219426103 1 0.051281988450361617 1 1 1 1 1 1 1 1 1 1 1 1 1 1 1 1 1 1 1 1 1 1 1 1 1 1 1 1 1 1 1 1 1 1 1 1 1 1 1 1 1 1 1 1 1 0.050717438521495309 0.050976729873093402 1 1 0.049960108212730295 1 1 1 1 1 1 1 1 1 1 1 1 1 1 1 1 0.049577314411279758 1 1 1 1 0.059358868905522472 1 1 0.050114940276336895 1 1 1 1 1 1 0.058086353419808112 1 0.057231903488773168 1 1 0.049974475050991243 1 1 1 1 1 1 1 1 1 1 0.049864890816208922 1 1 1 1 1 0.051031341716497806 0.050010819121914185 1 1 1 1 0.053373045663890881 1 1 0.053691423530672799 1 0.052983966964089642 1 1 1 1 1 0.050770552544285488 1 1 0.050002969753798955 1 1 1 1 1 1 1 1 1 1 1 1 0.050397944071298682 1 1 1 1 1 1 1 1 1 1 1 1 1 1 1 0.050341402681494396 1 0.050000629843527281 1 0.050784925620378681 0.05077181841340609 1 0.05064301609118263 1 1 0.050008108392451442 1 1 1 1 1 1 0.04840837688229066 1 0.049958925826908626 1 1 0.048151458380996791 1 1 1 0.053825981751472719 1 1 0.050009783240463263 1 1 1 1 1 0.051917782963997287 1 1 0.050846786695620996 1 1 1 1 1 0.050121627329077698 1 0.053114200425846643 1 1 0.053517166174758102 1 1 0.05142638271303205 1 1 1 1 1 1 1 1 0.051008881913198835 1 1 1 1 1 1 1 1 1 1 0.050611759612840812 1 1 1 1 0.049672369733156169 1 1 0.048822307111581378 1 1 1 1 1 0.052829907773029025 1 1 1 1 1 0.049998800019185406 1 0.049948143929097792 1 1 1 1 1 1 0.050140647564812492 1 1 1 1 1 1 1 1 0.052371568231268192 0.051667762208319069 0.050239891066796744 1 1 1 1 0.052149534354075648 1 0.050046882814900752 1 1 1 0.053994756514305971 0.050006867393213139 1 1 1 0.050527509601470073 1 1 1 0.05164233166370473 1 0.049996525041425925 1 0.050454077095543351 0.05303826538503411 1 0.050000029048892045 1 1 1 1 0.051806429213486507 1 1 1 0.05011203748335346 1 0.05058776178682213 1 0.053099249477185251 1 1 1 1 1 1 1 0.050055310881127218 1 1 1 1 0.053220125538080171 1 1 1 1 1 1 1 1 0.049997369761883882 1 0.050181271535035411 0.050288265144466181 1 1 1 0.050323389482319444 1 1 1 1 0.050269272767064527 0.050741386961814808 1 1 0.053199493217112585 0.050028221036434083 1 1 1 1 1 0.050010968931504918 1 1 1 1 1 1 1 1 0.050010910286097297 1 0.050020735317199479 1 1 1 1 1 1 1 1 1 1 1 1 1 1 1 1 1 0.050009376941115492 1 1 1 1 1 1 1 1 1 1 1 1 1 1 1 1 1 1 1 1 1 1 1 1 1 0.049991240301279563 1 0.050030049902340418 1 1 1 1 1 0.049999364997992624 0.050002265575150737 1 1 1 1 0.0503832736801825 0.049899658425187267 1 0.049664320447923932 1 1 0.05036862377112223 1 1 0.050071777104771766 1 1 1 1 0.050229555052092041 0.049988898391779973 1 1 1 1 1 1 1 1 0.049999223541241894 1 1 0.049996789431075515 1 1 1 0.050010153197417868 1 1 0.050001944622109482 1 1 1 1 1 1 0.049982205752408602 1 1 1 1 1 1 0.05012666059537451 1 1 1 1 1 0.049935363972975808 1 1 0.050166564122678892 0.050181931728065454 1 1 0.050320980812180074 1 1 0.050001397567274772 1 1 1 1 1 1 1 1 1 1 1 1 0.049952667784753227 1 0.050729447126335071 1 1 0.050354430257187735 1 1 1 1 1 1 0.049998332298437698 1 1 1 0.050080228975623031 0.050109875416320088 0.05000075871757316 1 1 1 0.052231487139249959 0.04973344441847373 1 0.050572333381339402 0.050924438506147487 1 1 0.050137107375951118 1 1 0.050105600631965896 1 0.050131922877755329 1 0.049754676898536923 1 1 1 0.05050840604860838 0.050085314998108088 1 1 0.05066136609754239 0.049687183452801507 0.049902056603527062 0.04996890294223514 1 1 1 0.049828889065736785 0.050408879789761732 1 1 0.050067532228141254 0.050096623165567754 0.050359392106662952 1 0.049394783993417547 0.050445360623945161 1 1 0.051447947162929233 1 0.050217150794842 0.050706670366275949 1 0.051177908619104158 1 1 0.049896472141094966 1 0.050645318852363473 0.050013119062944568 1 1 1 1 0.050103699103781825 0.050257503446515889 1 1 0.049992906694406876 1 1 1 0.050074697802767888 1 1 1 1 1 1 1 1 1 1 1 1 1 1 1 1 1 1 1 1 1 1 1 1 1 1 1 1 1 1 1 1 1 1 1 1 1 1 1 1 1 1 1 1 1 1 1 1 1 1 1 1 1 1 1 1 1 1 0.051376440425724229 1 0.050355419542904185 1 1 1 1 1 1 1 1 1 1 1 1 1 1 0.051094782013459725 1 1 1 1 1 1 1 1 1 1 0.050507410380554736 1 1 1 1 1 1 1 1 1 1 1 1 1 1 1 1 1 1 1 1 1 1 1 1 1 1 1 1 1 1 1 1 1 1 1 1 1 1 1 1 1 1 1 1 1 1 0.049963304716681534 1 1 1 0.04984902018030208 1 0.050204526847678052 1 1 1 1 1 0.050531695415771412 1 0.050672454491756863 1 1 1 1 1 1 1 1 1 1 1 1 1 1 1 1 1 1 1 1 1 1 1 1 1 0.050263104404225586 1 1 1 1 1 1 0.052287549921025189 1 0.050798505413098903 1 1 1 0.054286059153899203 1 1 0.053553204198534043 1 1 1 1 1 1 1 1 1 1 1 1 1 1 1 1 1 1 1 1 1 1 1 1 1 1 1 1 1 1 1 1 1 1 1 1 1 0.049306613594526823 1 0.0514215124436673 1 1 1 1 1 1 1 1 1 1 0.049979639680784414 1 1 1 1 1 1 1 1 1 1 1 1 1 1 1 1 1 0.05181902998088235 1 1 1 0.04999734416315077 0.051152916115302073 1 0.049871361620748504 1 1 1 1 1 1 1 1 0.050538079326688426 1 1 1 1 0.050379673684554573 1 1 1 1 1 1 1 0.050008634384319475 1 1 0.054737276293029727 1 0.053241489230576096 1 1 0.050038046973720871 1 1 0.04775750629857213 0.049993377209382996 1 1 1 1 1 1 1 1 1 1 1 1 1 1 1 0.054668507843392514 1 0.048979144328674978 1 1 1 0.051552441735187714 1 0.049443739329814697 1 1 1 1 1 1 1 1 1 1 1 1 0.049939878836971138 1 0.050472612731181213 1 1 1 1 1 1 1 1 0.049933429374356617 1 1 0.049963278531880012 1 1 1 0.051547300569376425 0.051058169241425484 1 1 1 1 1 1 1 1 1 1 1 1 1 1 1 1 1 1 1 1 1 0.050052997946419903 1 1 1 1 1 0.049999170477167156 1 0.049905508490144558 1 1 1 1 0.050120010390235989 1 1 0.051123287223430708 1 1 1 1 1 0.051737882289033921 1 1 1 1 0.052919695402909125 1 1 1 1 1 1 1 0.050276370157878135 1 1 1 0.050725676870585316 1 1 1 1 1 1 1 1 1 1 1 0.050466013576266733 1 1 1 1 1 1 1 1 0.049977183910157742 1 1 1 1 1 1 0.049955778669541907 1 1 1 1 1 1 0.049986654984302915 1 1 1 1 1 1 1 1 1 1 1 0.049714647982937683 1 1 1 0.049973638922791178 1 1 1 0.05109674067029684 1 0.051017433900802496 1 1 1 1 1 1 0.05000806022491875 1 1 1 1 1 1 1 1 1 1 1 1 1 1 1 0.050924496223836657 1 1 1 1 1 0.051457441998011721 1 1 1 1 1 1 1 1 0.050598385316228234 1 1 1 1 1 1 1 1 1 1 1 1 1 1 1 1 0.049861186274991517 1 1 1 1 0.050299995613072773 1 1 1 1 1 1 1 1 1 1 1 1 1 1 1 1 1 1 1 1 1 1 1 1 1 1 0.051305257510530181 1 1 1 0.049993509853846735 1 0.050176244748706599 1 1 1 1 0.050637927340791894 1 0.050254293599459252 1 1 1 1 1 0.050114199291973666 1 1 1 1 1 1 1 1 1 0.051667298340894147 1 1 1 1 1 1 1 1 1 1 1 1 1 1 1 1 1 1 1 1 1 1 1 1 0.049646201973839378 0.050285601935455712 1 1 1 1 1 0.049997835190150997 1 1 1 0.049852484560625743 1 1 1 0.049557157484734847 1 1 0.050805441066604527 1 0.049910975078012058 1 1 1 1 0.049923096577441289 1 1 1 1 0.049880044531892251 0.049997448109362699 1 1 1 1 1 1 1 1 1 1 1 1 0.049989144772463467 1 1 1 1 0.050000218865999285 1 1 1 1 1 0.050262063329000961 1 1 0.050090417080544347 1 1 1 1 1 1 1 1 1 1 1 1 1 1 1 1 0.049998445777952275 1 1 0.050072261614091548 1 1 1 0.050137125430149962 1 1 1 1 1 1 1 1 1 1 1 0.050064863816058416 1 1 1 1 1 1 1 1 1 1 1 1 1 1 1 1 0.050032009738796686 1 1 0.051844618390953549 1 0.051086134797265349 1 1 0.051072520050312244 1 0.05009983152579852 1 0.050893153570407801 1 1 1 1 1 1 1 1 1 1 1 1 1 0.050570256471585973 1 0.05054869672686288 0.0499873442297104 1 1 0.050455546730500123 0.050055950178643116 1 1 0.04999968609563421 0.05007228404873329 1 1 1 0.050440597914519263 1 0.050253940665222867 1 1 0.050580971402484604 1 1 1 1 0.050608516540201265 0.0500130141096123 1 0.051561933785287305 1 1 0.049964519936465404 0.050004916194781361 1 1 0.050100930086622114 1 1 1 0.050158424481505821 1 1 1 0.050549781535021113 0.05121570374381814 0.050085528722733474 1 1 0.049892791740495199 1 0.052763023097507189 0.050002035930896173 1 1 1 1 1 1 1 1 1 1 1 0.050168975277839187 0.050335777731927066 1 0.050370904201524 1 0.050274213187328984 1 0.050007364459309596 1 1 1 0.050006082889633263 1 1 1 1 1 0.050130216988677687 1 1 1 1 1 1 1 1 1 1 1 1 1 1 1 1 1 1 1 1 1 1 1 1 0.050491513586798493 1 1 1 1 1 1 1 1 1 1 1 1 1 1 1 1 1 1 0.050878057633362846 1 1 1 1 1 1 1 1 1 1 1 0.050799736173321973 1 1 1 1 1 0.050432244509535692 1 1 1 1 1 1 1 1 1 1 1 1 1 1 0.050370342426734223 1 1 1 1 1 1 1 1 1 1 1 1 1 1 0.049734937320377766 1 0.051618550811888986 1 1 1 1 0.051042857426619334 1 1 1 1 1 1 1 1 1 1 1 1 0.049686658782753773 1 0.049991572837256894 1 1 1 1 0.049836913474815427 1 1 1 1 1 1 1 0.051547425225051652 1 1 1 1 1 1 1 0.050001084631032311 1 1 1 0.049488044599595701 1 0.049999929558435657 1 1 1 1 1 1 1 1 1 0.049793668839325858 1 1 1 1 1 1 1 1 1 1 1 1 1 1 1 1 1 1 1 1 1 1 1 1 1 1 1 1 1 1 1 1 1 1 1 1 1 1 1 1 1 1 1 0.049983079978636206 1 1 0.049720858606237692 1 1 1 1 1 1 1 1 1 1 0.049994693934780503 1 1 1 1 1 0.050081320664457141 1 1 0.049905386651877728 1 1 1 1 1 1 0.049583546392705936 1 1 1 1 0.050002159259598403 1 1 0.049731597162739755 1 0.049855945851180597 1 1 1 1 1 1 1 1 1 1 1 0.049942366810101252 1 0.049714392312899869 1 1 1 1 0.049986695418773174 1 1 1 1 1 1 1 1 1 1 1 1 1 1 1 1 1 1 1 1 1 0.050677530174327086 1 1 1 1 0.050258481622918363 1 1 1 1 1 1 1 0.049893029021806423 1 1 1 1 1 0.050977282774999612 1 1 1 0.050540000673626823 1 1 1 0.050613688370113513 1 1 0.050254064727732355 1 1 1 0.050037743960000644 1 1 0.050008560200676837 1 1 1 1 1 1 1 1 1 1 1 1 1 1 1 1 1 1 1 1 1 1 1 1 1 1 1 1 1 1 1 0.050271251280832666 1 1 1 1 1 1 1 1 1 1 1 0.050462300695431977 1 1 1 1 1 1 1 1 1 1 1 1 1 1 1 0.051350753231573537 0.050349882844416778 1 1 1 0.050511675298232993 1 1 1 1 0.050775104901498648 1 1 0.050548270496726694 1 1 1 1 1 1 1 1 1 1 1 1 1 0.051174910399888508 0.050449400312268466 1 1 1 1 1 1 1 1 1 1 1 0.053003305648388836 1 1 0.051304616015471129 1 1 1 1 1 1 1 1 1 1 1 1 1 1 1 1 1 1 1 0.052067011769065454 1 1 1 0.05002919479484378 1 1 1 1 1 0.049490735659557125 1 1 1 1 1 1 1 1 1 1 1 1 1 1 1 1 1 1 1 1 0.050788521819202001 1 1 0.050409644513001978 1 1 1 1 1 1 1 1 1 1 1 1 1 1 1 1 1 1 1 0.050983762525431159 1 1 1 1 1 1 1 1 1 1 1 1 1 1 1 1 1 1 1 1 1 1 1 1 1 1 1 1 1 1 1 1 0.050069203883620246 1 1 1 1 1 1 0.052762065304965862 1 1 1 1 1 0.05271115579580854 1 1 1 1 0.052514207947218311 1 1 1 1 1 1 1 1 1 1 1 1 1 1 1 1 1 1 1 1 1 1 0.052047775345792406 1 1 1 1 1 1 1 0.05086879423569992 1 1 0.050882005599066339 1 1 0.049908420702932339 1 1 1 1 1 1 0.050430109053854227 1 1 1 1 1 1 1 1 1 1 0.047966806148977213 1 0.052573995912370712 1 1 1 1 1 1 1 1 0.049977779252034928 1 1 0.047706483748524389 1 1 1 0.052274781283240486 1 1 1 0.051778297486172332 1 1 1 0.050031838519130421 0.05021911169074271 1 1 0.049210487019446705 1 1 0.049216311720955766 1 1 0.050043867382169115 1 1 1 1 1 1 1 1 1 0.050043856174731206 1 1 1 0.04927393106368428 1 1 1 0.049237537093363287 1 1 1 0.050003817655186827 1 0.050009251802675563 1 1 0.049749788128770331 1 1 1 1 1 1 1 1 0.049480470388889412 1 1 0.049629842965891582 1 1 1 1 1 1 1 1 1 1 1 1 1 0.049453078117510027 1 0.049995650534578676 1 1 1 0.049577506386588317 0.050570125305764255 1 0.049762743034359264 1 1 1 1 0.050005942030974138 1 0.050520996388239731 1 1 1 1 1 1 1 1 1 0.050155766417335837 1 1 1 1 1 1 1 1 1 1 1 1 1 1 1 1 1 1 1 1 1 1 1 1 1 1 1 1 0.049865350615097885 1 1 1 1 1 1 0.050187641094699614 1 1 1 1 1 1 0.050142324546987381 1 1 1 1 1 1 0.050050642921315218 1 1 1 0.050004446053208966 1 1 1 0.049990836709803657 1 1 0.049124124456182583 1 1 1 1 1 1 0.050118216857781256 1 1 1 0.048444810880341783 0.050957633861523986 1 1 1 1 1 1 1 1 1 1 1 1 1 1 1 1 1 0.05061232612983018 1 1 1 1 1 1 1 0.050018979017751326 1 1 1 1 1 0.049468790185493675 1 1 1 1 1 0.04996833870459412 1 1 0.052352567663717965 1 1 1 1 0.050010160659305677 1 1 1 1 1 1 0.055801334613387044 1 0.049338912510251347 1 0.055855533415257799 0.049093014132635455 1 0.049761639334216214 1 1 1 0.050659564198849288 1 1 1 1 1 0.051590333260138219 1 1 1 0.050344135249098559 1 1 1 1 0.0509337696593457 0.049807487821864435 0.051514177709141018 1 1 1 1 0.050038872971174125 0.050283587950412489 1 0.050575553907568259 1 1 1 1 1 1 0.050002392725884762 1 0.048803472281464436 1 1 0.04997634664832324 1 1 1 0.049191818132981957 1 1 0.050809401773350769 1 1 1 1 1 1 1 1 1 1 1 1 0.050087813274290974 1 1 1 1 0.048868069536328301 1 1 1 1 0.048761837066424382 1 1 1 1 1 1 1 1 1 0.050262520356061692 0.049704474942993591 0.052038180276605422 1 1 1 0.050000189458077826 0.05000592707657206 1 1 0.050080150448039679 1 0.049630603640886756 1 1 1 1 1 1 1 0.053943441720406188 1 1 1 1 1 1 1 1 1 1 1 1 1 1 1 1 0.050035646280816339 1 1 1 1 1 1 1 1 1 0.050105051961648828 1 1 0.048548470194079756 1 0.050634152146040688 1 0.050031021328746234 1 1 0.053668503054055725 1 1 1 0.050000744198034706 0.050469679861129678 1 1 0.049851867024120117 1 1 1 0.053839617100721944 1 1 1 1 0.049947966453652189 1 1 1 1 1 1 1 1 1 1 1 0.050538604520488487 0.050009565937367419 1 1 1 1 1 1 1 1 1 1 1 1 1 1 1 1 1 1 1 1 1 1 1 1 1 1 1 1 1 1 1 1 0.050023462031304276 1 1 1 1 1 1 1 1 1 1 1 1 1 1 1 1 1 1 1 0.052238756315202001 1 1 1 1 1 1 0.050008291814443807 0.050855717518217776 1 1 0.050596623122715192 0.050586873905445993 1 1 1 0.050711168156014994 1 1 1 1 1 1 1 1 1 1 1 1 1 1 1 1 1 1 1 1 1 1 1 0.051422754236795022 1 0.05077252256272799 1 0.050476771533411957 1 1 1 1 1 1 0.048915225766010477 1 0.050400314633059662 0.050688576258592875 1 1 0.055383526253878837 1 1 1 1 1 1 0.049994028922025008 0.056055831983148188 1 1 0.050454881149953931 0.049709819879573638 1 1 0.049042258060118082 0.049997875048129678 1 1 1 1 1 1 1 1 0.048996210428461209 1 1 1 1 1 0.049577288001039964 1 1 0.056069051234284982 1 1 1 0.049983601379937598 1 1 1 1 1 1 1 1 1 1 1 1 1 1 1 1 1 1 1 1 1 1 1 1 1 1 1 1 1 1 1 1 1 1 0.050138018784395229 1 1 0.047672014071315424 1 0.053656487792922369 0.048940112542069453 1 1 1 1 1 1 1 1 1 0.053190093639799714 1 1 1 1 1 0.052712034123893317 1 1 1 1 1 1 1 0.050074536650185679 1 1 1 1 1 1 1 1 0.050226493645737849 1 1 1 1 1 0.050368748186500174 1 1 1 1 1 1 1 1 1 1 1 1 1 1 1 1 1 1 1 1 1 1 1 1 1 1 1 1 1 1 0.050011934226445995 0.050041154431442199 1 1 1 1 1 1 1 0.050183106908500301 1 1 1 0.050016900265175933 1 0.050117440836660858 1 1 1 1 1 1 1 1 1 1 1 1 1 1 1 1 1 1 1 1 1 0.05003693625363953 1 1 1 1 1 1 0.050041369880390055 1 1 1 1 1 1 1 0.050002167496990178 1 1 0.050010009985040078 1 1 1 1 1 1 0.049861639524872443 1 1 1 0.050646262834522851 1 1 0.051112769011542547 0.049805543727176375 1 1 1 1 1 1 1 1 1 1 1 1 1 1 1 1 1 1 1 1 1 1 1 1 1 1 1 1 0.050095959469027451 1 1 1 1 1 1 1 1 1 1 1 1 1 1 1 1 1 1 1 0.048286961318863904 1 1 1 0.049292877674044812 0.050014494088411868 1 1 1 1 1 0.050006668044239769 1 1 1 0.050047952293195523 1 1 1 1 1 0.050074308223263211 1 1 1 1 1 1 1 1 1 1 1 1 1 1 1 1 1 1 1 1 1 0.050017884249480039 1 1 1 1 1 1 0.04995666180875237 1 1 1 1 1 1 1 1 1 1 1 1 0.050016014417689075 1 1 1 1 0.050652210483769791 1 0.050016039014599098 1 1 1 1 1 1 1 1 1 1 1 1 1 0.049807768353678006 1 1 1 1 1 0.049385001012124966 1 1 1 1 1 1 0.05065042181389013 1 1 1 1 1 1 1 1 1 1 1 1 0.050678584629096565 1 1 0.05179229190988692 1 1 0.049714272522176244 1 1 0.049923688876092977 1 1 1 1 1 1 1 1 1 1 0.052841969898047028 1 1 1 1 1 1 1 1 0.050010385044258143 1 1 1 0.049995845389487897 1 1 1 0.050228444038382662 1 1 0.053779516835381749 1 1 1 0.050955221061690162 1 1 1 1 1 0.053742012872561654 1 0.049999513031272827 1 1 1 1 0.049993398140919132 0.052779355811554803 1 1 1 0.049865748291237515 1 1 1 1 0.049970093588006158 1 1 1 1 1 1 1 1 1 1 1 1 1 1 1 0.050073855858785876 1 1 0.053458708095034981 0.052772572398631167 1 1 1 1 0.05239326944337315 1 1 1 1 1 1 0.050485305147656243 1 1 1 1 1 1 0.050158935836205065 1 1 1 1 1 1 1 1 0.049891522342842026 1 1 1 1 1 1 1 1 1 1 0.050109298124430782 1 1 0.049933371914163041 1 1 0.050575285129947328 1 1 1 1 1 0.051530412933720252 0.04998984445595947 1 1 0.049999940217566596 0.050306118663482655 1 0.050571423729665575 1 0.049727087030843366 1 0.050064189912458992 0.04975747710944782 1 1 0.05007273989399403 1 0.050939057769134544 1 0.049687236111941042 1 0.050226311656936438 1 0.050666115835853169 1 1 0.050005694183496978 1 0.051681698018181552 1 0.051605305548219405 1 1 1 1 1 1 0.052992866397939112 1 1 1 0.050006808663496591 1 1 1 1 1 1 1 1 1 0.050433553361841604 1 1 0.052645611304607737 1 0.05013551760961138 1 0.049561393790532197 1 1 1 0.049058875504679501 0.050257812121505076 1 1 1 1 1 1 1 1 1 1 1 0.050032378821857425 1 1 1 1 1 0.049989729452491603 1 1 1 1 1 1 1 1 1 1 1 1 1 1 1 1 1 0.049989900174149296 1 1 1 1 1 1 0.050994551785303543 1 1 1 0.050963788157743127 1 1 0.050185457258623799 1 1 1 0.049300972728818032 1 0.05076577546597244 0.050220103343209047 1 1 1 1 1 1 1 1 1 0.049471101484049124 1 1 1 1 1 1 1 0.050021578878578873 1 0.050012781384124079 1 0.050006273056225285 1 1 1 1 1 1 1 1 1 1 1 1 1 1 1 1 1 1 1 1 1 1 1 1 1 1 1 1 1 1 1 1 1 1 1 1 1 0.051695784124202247 1 1 0.051720646636560681 0.049203236473989657 1 1 1 1 0.049043534509967755 1 1 1 1 1 0.05169844686468985 1 1 0.049996615226607713 0.05470357216582912 1 1 1 1 1 1 0.051962340629751635 1 0.050002213872619598 1 1 0.049154875389268132 0.049987300875193263 1 0.051453786413984529 1 1 1 0.050200519019428388 1 1 1 1 0.050251034465941556 1 1 1 0.049544256193842715 1 1 0.051824149580610955 0.049980175942018014 1 1 1 0.050474670271493507 1 1 1 1 0.050062044476129608 1 1 0.050151894967689667 1 1 1 0.050900091356888937 1 1 0.05066006723809862 1 1 1 0.052337462094293588 1 0.052338613914603316 1 1 0.049801589952059966 1 1 0.051155433608670815 0.049994855929329049 1 1 0.051566136250841638 1 0.049989285166544745 0.051080605646763588 1 1 1 1 0.054138885342831969 1 1 1 1 0.054832109760305059 1 1 1 1 1 1 1 1 1 1 1 1 0.04983243917929403 1 1 1 1 0.049999710412671601 1 0.051782661761077098 1 1 1 1 1 0.05206388433680216 0.04999954109377007 0.050005755602864209 1 1 1 1 1 1 1 1 0.051392766888001762 1 1 1 1 1 1 0.049594156457057663 1 1 1 1 0.049092664381014436 1 1 1 1 1 1 1 1 1 1 1 1 1 1 1 1 1 1 0.050329462405948953 1 0.055489825794442789 1 1 0.049480840879431873 0.053831564630617071 1 0.052309686748742701 1 1 0.050206482536186661 1 0.049934783001968193 1 0.049800529741444402 1 0.050090616475046097 1 1 1 1 0.050026987991865723 1 1 1 0.050233988924652251 1 1 1 1 1 1 1 1 1 1 1 1 1 1 1 1 1 1 1 1 1 1 1 1 1 0.0500382920104257 1 1 1 1 1 0.051801205638925638 1 1 1 1 1 1 1 1 1 1 1 0.050085740939198722 1 1 1 1 1 0.050013416696227303 1 1 0.049343806909497863 0.052480516503333595 1 1 1 0.050772896993020976 1 1 0.050019091960917625 0.050831461718768102 1 0.052102696107690707 1 1 1 1 1 1 1 1 1 1 1 1 1 1 1 1 0.050091899192808924 1 1 1 1 0.05000680483884886 1 1 1 1 1 1 1 1 0.050047874038185516 0.050042584019681272 1 1 0.050002512435011054 1 1 1 1 1 1 1 1 1 0.050032300488901699 0.050028468649747838 1 1 0.049999956005095561 1 1 1 0.049997823978718089 1 1 1 1 1 1 1 1 1 1 1 1 1 1 1 1 1 1 1 1 1 1 1 1 1 1 0.050026383083708548 1 1 1 1 1 1 1 1 1 1 1 1 1 1 1 1 1 1 1 1 0.049412738866377995 1 1 1 0.05120971218599768 0.050000153840302125 1 1 1 0.048574441304128989 1 1 0.049939895416161686 1 1 1 1 1 0.05018034409009179 1 0.050930721543704656 1 1 1 1 1 1 1 1 0.049764759083354496 1 1 1 0.049599820768595961 1 1 0.049874514349530157 1 0.050000183565077023 1 1 1 0.050739539358150051 1 1 1 0.052072672579287355 1 1 1 1 1 1 1 1 1 1 1 1 1 1 1 1 1 0.052855679545381687 1 1 1 1 1 1 1 1 1 0.050449639542078234 1 1 1 1 1 1 1 1 0.053082899430428043 1 1 1 1 1 1 1 1 1 1 1 1 1 0.049996739853452682 1 1 1 0.049790932421999071 1 1 1 1 1 1 1 1 1 1 1 1 1 1 1 1 1 1 1 0.051212435360748633 1 1 1 0.05037683159413938 1 0.050005998946125431 1 1 1 0.049562239526915006 1 1 1 0.049995935043567842 0.051821513257237946 1 1 1 1 1 1 1 1 1 1 1 1 1 1 1 1 1 1 1 1 1 1 0.050185926949282714 1 1 1 1 0.050400181518716218 1 1 1 1 0.050214254569433514 1 1 1 1 1 1 1 0.050709265904055709 1 1 1 1 0.050467010902842328 1 1 1 1 1 1 0.050166545858453246 1 1 1 1 1 1 0.050085308836211595 1 1 1 0.050037810428928041 1 1 1 1 1 1 1 1 1 0.05014230186479364 1 1 1 1 1 1 0.05035410488677159 1 1 1 1 1 1 1 1 1 1 1 0.049999164090405487 1 1 0.049090439874362082 1 1 1 1 1 0.050060589188425264 1 1 0.0505817295968429 1 1 1 1 1 1 1 0.049292451956165939 0.052443595819894648 1 1 1 1 0.053064841757627615 1 1 1 1 1 1 0.049999376828348319 1 1 1 1 1 1 1 1 1 1 0.049519826000649608 1 1 1 1 1 1 1 1 1 1 1 1 0.049613838437198979 1 0.050018384708116898 1 1 1 0.046831769916819532 1 1 0.055517065473301472 1 1 1 1 0.047062237521594802 1 1 1 1 1 0.055688405633999419 1 1 1 1 1 1 1 1 0.055287614633088428 1 1 1 1 0.049740652055556112 1 1 1 1 1 1 1 0.049910819788128766 1 1 1 1 1 1 1 1 1 1 0.049780906281129945 1 1 1 0.050156823981180335 1 0.050151602498503971 1 1 1 1 1 1 0.049802047628548854 1 0.050504302282194227 1 0.050018872885867899 1 1 1 1 0.049739831277755733 1 1 1 1 1 1 1 1 1 1 1 1 1 1 0.050192322408608304 1 0.046506865194409649 1 1 1 1 1 1 1 0.049941979197092437 1 1 1 1 1 1 1 1 1 1 1 1 1 0.047400409330366211 1 1 1 1 0.048356261524130036 1 1 1 1 1 1 1 1 1 1 1 1 1 1 1 1 1 1 1 1 1 1 1 1 0.049926189655567277 1 1 1 1 0.054132765170535523 1 1 1 0.050002614639494777 1 1 0.050002260800588026 1 1 0.049998280969082438 1 1 1 1 1 1 1 1 1 1 1 1 1 1 1 0.049999950704059534 1 1 0.049995138297631012 1 1 1 1 1 1 1 0.049646459505472751 1 1 1 1 1 0.049571611746074329 1 1 1 0.051113406733499678 1 1 1 0.051466247056200856 1 1 1 1 1 1 1 0.051370469570491427 1 1 1 0.049897467559438864 1 0.050329062340791514 0.050033196501890406 1 1 1 1 1 0.050039565134486048 1 1 1 1 1 1 1 1 1 1 0.051324681725878007 1 1 1 1 1 1 1 1 1 1 1 1 1 1 1 1 1 1 1 1 1 1 1 1 1 1 1 1 1 1 1 1 1 1 1 1 1 0.050000113292557942 1 1 1 1 1 1 1 1 1 1 1 1 1 1 1 1 0.049997643345850759 1 1 1 1 1 1 1 1 1 0.050000111681576039 1 1 1 1 1 1 1 0.049999362376768317 1 1 1 1 1 1 1 1 1 1 1 1 1 1 1 1 1 1 1 1 1 0.050702271364741563 1 1 1 1 1 1 1 1 1 1 1 1 1 1 1 1 1 0.050792135662298711 1 1 1 1 1 1 1 1 1 1 1 1 1 1 1 1 1 1 1 1 1 1 1 1 1 1 1 1 1 1 1 1 1 1 1 1 1 1 1 1 1 1 1 1 1 1 0.050607120879395374 1 1 1 1 1 1 1 1 1 1 1 1 1 0.05078329265352504 1 0.049992284356732947 1 1 1 1 1 0.049974856747294918 1 1 1 1 1 0.050130215269760969 0.050183874105114448 1 1 1 1 1 1 1 1 1 1 1 1 1 1 1 1 1 0.049915009457271474 0.050768212150668922 1 1 1 1 1 1 0.050049056538130021 1 0.050733307410068977 1 1 1 1 1 1 1 1 1 0.050516407822647866 1 1 1 1 1 1 1 1 1 1 1 1 1 1 1 1 1 1 1 0.050260901005692665 1 1 1 1 1 0.049916980154397481 1 0.049814066043353818 1 1 1 1 1 1 1 0.049782418313158217 1 1 1 0.049897085888956333 1 1 1 0.049279925978773509 1 1 0.049306694533672139 1 1 1 0.053846604037298663 1 1 0.052771041804904856 1 0.054717550737647808 1 0.054821998486970641 1 1 0.052292435237211471 1 1 1 1 1 1 1 1 1 1 1 1 1 1 1 1 1 1 1 1 1 0.050019508407430899 1 0.054836416945159103 1 1 1 1 1 1 1 0.054812514802712618 1 1 1 1 1 1 1 1 1 1 1 1 1 1 1 1 1 1 1 0.050057318836358944 1 1 1 0.050098441775632309 1 1 1 1 1 1 1 1 1 1 0.050501348778027436 1 1 1 1 0.051068970073131319 1 1 0.050184589261646512 1 1 1 1 1 0.051283292864265195 1 1 1 1 0.049735940485810072 1 0.050400864792606498 1 1 0.054202996480152726 1 1 1 1 1 1 1 0.053768778617200579 1 1 0.050393003178941104 1 0.053010589149144027 1 1 1 1 1 1 1 1 1 1 1 1 1 1 1 1 1 1 0.050435230625349659 1 1 1 1 1 1 1 0.050009158165769653 1 1 1 1 0.050483958620017935 1 1 1 1 1 1 1 1 1 0.050086147486014199 1 1 1 1 0.051002851920453535 1 1 1 1 1 1 1 1 1 1 1 1 0.049859619353110979 1 1 1 1 1 1 1 1 1 0.052305936065074055 1 1 1 1 1 1 1 1 1 1 1 1 0.051129683705579437 1 1 0.050273917838809211 1 1 1 1 1 1 1 1 1 0.050093300946453777 0.054993503162629805 0.052560032855290428 1 1 1 0.050000709692209683 1 1 1 1 1 1 0.052830873598737324 1 1 1 0.049958755475622993 0.049960427178060915 1 1 1 1 1 1 1 1 1 1 1 1 0.053410891059239768 1 1 1 0.050036252301737055 0.049082983283702489 1 1 1 1 1 0.049432866033497648 1 1 1 1 0.05125670947965455 1 1 1 1 0.050018069822123139 1 1 1 1 1 0.054385955330496595 0.050850439248692147 0.05035013187951657 1 1 1 0.049701554024913434 0.049095403964976581 1 1 1 1 1 1 1 1 1 0.054002577843352606 0.050016426092364716 1 1 1 0.050051692365040715 0.05004112338339356 1 1 1 1 1 1 1 1 1 1 1 1 1 1 1 1 1 0.054111464584941885 1 0.05421081889107357 1 1 1 1 0.052844700188091481 1 1 1 1 1 1 1 0.052795525503970861 1 1 1 1 1 1 1 0.05433032039131741 1 1 0.050325566456964538 1 0.052558301572670919 0.050652885131469899 1 1 1 0.050501133783981002 0.050002506598707364 1 1 1 0.049974671255039613 0.050651241711497139 1 1 1 1 1 1 1 1 1 1 0.05035076530324982 1 1 1 1 1 1 1 0.051256622432430628 1 1 1 1 0.050998736200459582 1 1 1 1 1 1 0.053137919374089869 1 1 1 1 0.050258418361998812 1 0.052248844583316661 1 1 1 1 1 1 1 1 1 1 1 1 1 1 0.052627043616957789 1 1 1 1 1 1 1 0.053564147112612578 1 1 1 1 0.050013730928576187 1 1 1 0.049141753065070966 1 1 1 1 1 1 1 1 1 1 1 1 1 1 1 1 1 1 1 1 1 1 0.049527705726696292 1 0.049862049883288601 1 1 0.049941967411439699 1 1 1 0.049806689378275093 1 1 0.049766557051188293 1 1 1 1 1 1 1 1 1 1 1 1 1 1 1 1 1 1 1 1 0.049962051156663648 0.049643317841644705 0.04973210381564467 1 1 1 1 1 1 1 1 1 1 1 1 1 0.050751522180246755 1 1 1 0.050473930205366106 1 1 0.050304423812190066 1 1 1 1 0.050277836737267101 1 1 0.05146188727523579 0.049669039775315484 1 1 1 1 0.049990531520172708 1 1 0.050050685591829604 1 0.050017886860207687 1 1 1 1 1 1 1 1 1 1 1 1 0.050772296689752971 1 1 1 1 1 1 1 0.050128940842025418 1 0.049898165014853751 1 1 1 1 0.050537065854453847 1 1 1 1 1 1 1 1 1 1 1 1 1 1 1 1 1 1 1 1 1 1 1 0.050306171277622207 1 1 1 0.049879337025687788 1 0.050866529255388579 1 1 1 0.049451981367358504 1 1 1 1 1 0.049990230444896332 1 1 0.0512677473522722 1 1 1 1 1 1 1 1 0.050217744797296217 1 1 1 1 1 0.050131840916307908 1 1 1 1 1 1 1 1 1 1 1 1 1 1 0.050537500346582512 1 1 1 1 0.050529634127724266 1 1 1 1 1 1 1 1 1 1 1 1 0.050029635176381704 1 1 1 1 0.050077697004806285 1 1 1 1 1 1 1 1 1 1 1 1 1 0.050067944998962562 1 1 0.050078990217739601 1 1 1 0.05022561101615447 1 1 1 1 1 1 1 1 1 1 1 1 1 0.050234575320690339 0.050682539025587933 1 0.049410629211613259 0.050403935743320347 1 1 1 0.049645042738277224 0.051435353164958175 1 0.049032624014112847 1 0.050270186633942462 1 0.050848214771552921 1 1 1 0.04934451491678582 1 0.050051803179412116 1 1 1 1 0.050668239679027366 1 1 1 1 1 1 0.050030896684741408 1 1 1 1 1 0.051554477210407082 1 1 0.049999723707613478 1 1 0.050726082535548077 1 1 0.050001728990448351 1 1 1 1 1 0.051507304816185491 1 0.05171016472112587 1 1 1 1 1 1 1 1 1 1 1 1 1 0.050100855004054867 1 1 0.050029371722949301 1 1 1 1 1 1 1 1 1 0.050377252214983737 1 1 1 1 1 1 1 1 1 0.050236519636512621 1 1 0.050108898550757668 1 0.049830538113333336 1 1 1 1 1 1 1 0.051883374685098661 1 1 1 1 1 1 1 0.050637381905289464 1 0.052061776015518264 1 1 0.052017669755094947 1 1 1 0.050045225840765907 1 1 1 1 0.050119258219147617 1 1 1 1 1 0.04999791057655896 1 1 1 1 1 1 1 1 1 1 1 1 1 1 1 1 1 1 1 1 1 0.050253812471787951 1 1 0.05026535731836243 1 1 1 0.050145252206054883 1 1 1 1 0.050089241851380757 1 1 1 1 1 1 1 1 1 1 1 1 1 1 1 1 1 1 1 1 1 1 1 0.050491727071742501 1 1 1 1 1 1 0.05134626546875859 1 1 1 1 1 1 1 1 1 1 1 1 1 0.04999203274509037 1 0.053192617216582916 1 1 0.049473473826234383 1 1 1 1 0.049815051891659752 0.050475943806025589 1 0.050240257825790988 1 0.050147421257562885 1 1 1 1 1 0.049179951381250198 1 1 0.056784715536306277 0.057122417926376082 1 1 1 1 1 0.047191500453042115 1 1 0.050000301802260151 1 1 1 1 1 1 1 1 0.052971415897696238 0.047092017479755048 1 1 1 0.050828783164482166 1 0.049995140150464107 1 1 1 1 1 0.049591721712477756 1 0.047393393769602617 1 1 1 1 1 0.049747708645432709 0.049676642874659276 1 1 1 1 0.050010325120304726 1 1 1 1 0.049909549220136629 1 1 1 1 1 1 1 1 1 1 1 1 1 1 1 1 1 0.050162209150640361 1 1 0.050060445885525287 1 1 1 0.050022577767693248 1 1 1 1 1 1 1 1 1 1 1 1 1 1 1 1 1 1 1 0.050117765741624229 1 1 1 1 1 1 1 1 1 1 1 1 1 1 0.049987461905295599 0.049961740505318056 1 1 1 0.050018805207293376 1 1 1 1 1 0.050165546661356857 1 1 1 1 1 1 1 1 1 1 1 0.050036748150157941 1 1 0.050014170382464689 1 1 1 1 1 1 1 1 1 1 0.052995543882951607 1 1 1 0.050991860041331598 1 0.050789803066241333 1 0.050546319386044994 1 1 1 0.050001432781812669 0.051209573886440291 1 0.053257245624151787 1 1 0.050166386078612235 1 1 0.050387784960327218 0.053251207351425758 1 1 1 0.051243420735361721 1 1 0.050686840355009803 1 0.0513883391303014 1 1 1 0.051108280865979412 1 1 0.051125834553912494 0.050833588035417356 1 0.050895972804422887 1 1 0.052173828781385448 1 0.050407665222710486 1 1 1 1 1 1 1 1 1 0.050113394357556594 1 1 1 1 1 0.04982300377192736 1 1 1 1 1 1 1 1 1 1 0.051667318809416683 1 1 1 1 0.050775161882688852 0.051154384441659928 1 1 0.049930102994825705 1 0.050266114238236036 1 1 1 1 1 0.049133186613338056 1 1 0.052084966120899266 1 0.050006214736333321 1 1 1 1 1 1 1 0.052128007752022414 1 1 1 1 1 1 1 1 1 0.049778866415527152 1 0.050002955102611962 1 0.049996645047520931 1 0.051820404919631899 1 1 1 1 0.050013999088610754 1 1 1 1 1 0.050037495475647162 0.050765729471123185 1 1 1 1 1 1 0.049953596081685508 1 1 1 1 1 0.051944246675175124 1 1 1 1 0.049601175779367547 1 1 0.051012336643890877 1 0.054177774658301786 1 1 1 0.051081254168464846 1 0.049649224569237586 1 1 0.050092875004058027 0.050000489391189742 0.049594837600186716 1 1 1 1 1 1 0.050000919891783242 0.050594550572633568 0.049846262244084304 1 1 1 1 0.050178562928219164 1 0.050001440345871527 1 0.050300321687620511 1 1 1 1 1 1 0.050001555128040415 1 1 1 1 1 1 1 1 1 1 1 1 1 1 1 1 1 1 1 1 1 1 1 1 1 1 1 1 1 1 1 1 1 1 1 1 1 1 1 1 1 1 1 1 1 1 1 1 1 0.05040329536667848 1 1 1 0.051233136410922642 0.04999159849113563 1 1 1 1 1 1 1 1 1 1 1 1 1 1 1 1 1 1 1 0.049831598990638923 1 1 1 1 1 1 1 0.049993253212090374 1 1 0.050423144791705822 1 1 0.050659682663498004 1 1 0.049935115538742358 1 0.051000446923582618 1 1 0.051333473700120105 1 1 1 0.050005191400361672 1 0.05127437220142507 1 0.050113186843387843 0.051662140027771461 1 1 1 0.051714906049461919 0.049984489441800929 1 1 0.051588472360707668 1 1 0.051715715935944463 1 1 1 1 1 1 1 1 1 1 1 1 0.051942790352023975 1 1 1 1 0.051913128270076027 1 1 1 1 0.051605475738195919 1 1 1 1 1 1 1 1 1 0.050026141475307255 1 0.050000448333410122 1 1 1 1 0.049741927866235575 1 1 1 0.049747053165289573 1 1 1 1 1 1 0.049419606272288898 1 1 0.050048677281610152 1 1 1 0.051590483126716574 1 1 1 1 1 1 1 0.049410831549805696 1 1 1 1 1 0.049709156185479095 1 1 1 1 1 1 1 1 1 1 1 1 1 1 1 0.048988025403001186 1 1 1 1 1 0.049814513334358476 1 1 0.05033611635518033 1 0.049754453598258072 1 1 1 1 0.049855495528461996 0.050040440241906903 1 1 0.051106676287532626 1 1 1 1 1 1 1 1 1 1 1 0.050028181909154298 1 0.050280298980639057 1 1 1 1 1 0.05008495260660676 1 1 1 0.050148013049549731 1 1 1 0.050204235147308741 1 1 1 1 1 1 1 1 1 1 1 1 1 0.053444940490424669 1 1 1 1 1 1 1 0.050694914600133902 1 0.050667848135127591 1 1 1 1 1 1 1 0.049954785751409637 0.05105293170025877 1 1 1 1 1 1 1 1 1 0.050130695992569183 1 1 1 1 1 1 0.051691932830848136 0.050673722092455381 0.049995921349966388 1 0.051029757878314368 1 1 1 1 1 1 0.052006006075334177 1 0.050041765385647988 1 0.050217150221596667 1 0.050548581304611859 1 1 1 1 1 1 0.050468063872019304 1 1 0.050011905392436412 1 1 1 1 0.050060890210306561 1 1 1 1 1 1 1 1 1 1 1 1 1 1 1 1 1 1 1 1 1 0.057374693638971214 1 0.049889860983215517 1 1 1 1 1 1 1 1 1 1 1 1 1 1 1 1 1 1 1 1 1 1 1 1 1 1 1 1 1 1 1 1 1 1 1 1 1 1 1 1 1 1 1 1 1 1 1 1 1 1 1 1 1 1 1 1 1 1 0.049948776089654041 1 1 1 1 1 1 1 1 1 1 1 1 1 1 1 1 1 1 1 1 1 1 1 0.0500239241599243 1 1 1 0.049644562815737724 1 0.050073496761142935 1 1 1 1 1 1 1 1 1 1 1 1 1 1 1 1 1 1 1 1 1 1 1 1 1 1 1 1 1 1 1 1 1 1 1 1 1 1 1 0.049825782592725125 1 0.049981896084714754 1 1 1 1 1 1 1 1 1 1 1 1 1 1 1 1 1 1 1 1 1 1 1 1 1 0.051015707836838453 1 1 1 1 1 1 1 1 1 1 1 1 1 1 1 1 1 1 1 1 1 1 1 1 1 1 1 1 1 1 1 1 1 1 1 1 1 1 1 1 1 1 1 1 1 1 1 1 1 1 1 1 1 1 1 1 1 1 1 1 1 1 1 1 1 1 1 1 1 0.052002172637566936 1 1 1 1 1 1 1 0.051556286887205066 1 1 0.049984278125205783 1 1 1 1 1 1 1 1 1 1 1 1 1 1 1 1 1 1 1 1 0.052639775262165719 1 1 1 1 1 1 1 1 1 1 1 1 1 1 1 1 1 1 1 1 1 1 1 1 1 1 1 1 1 1 1 1 0.050001456601289962 1 1 1 1 0.050279892911841019 1 0.049948720490798799 1 1 1 1 1 1 0.050026002123644664 1 1 0.050085026329186697 1 1 0.049947320966397132 0.050000126846323503 1 0.050000367116688718 1 1 1 0.050003255653457777 1 1 1 1 1 1 1 1 1 1 1 1 1 1 1 0.049923510219921349 1 1 1 1 1 1 1 1 0.049908926809950099 1 1 1 1 1 1 1 1 1 1 1 1 1 1 1 1 1 1 1 1 1 1 1 1 1 1 1 1 1 1 1 1 1 1 1 1 0.052132144058060229 1 1 1 1 1 1 1 0.048672940299775022 1 1 0.049707309279190669 1 0.052290893282382143 1 1 1 1 1 1 1 1 1 1 1 0.049999941148874558 0.049996799879948393 1 1 0.04987175002025529 1 1 0.049970622580654447 0.050010016650829464 1 1 1 1 0.050178400308289399 1 0.049732176830158771 1 1 0.050247565193447238 1 0.050034446650946571 0.049817027978566769 1 0.050754757295564397 1 0.052031727264301733 1 1 1 1 1 1 1 0.049983049446720787 1 0.050000788958516784 1 1 1 1 1 0.049990100891176351 1 1 1 0.052079070328856433 1 1 0.049900031775498607 1 0.0492729648046627 1 0.04959105333935248 0.050652364655662654 1 1 0.049963243181467373 1 1 1 1 1 1 0.050376549177702803 1 1 1 1 1 1 1 1 0.048455870625260432 0.049979502729720328 1 1 1 0.049638339135938153 1 1 1 1 0.051836523232882403 0.04809137142919228 1 0.048888613995256257 1 1 1 0.049638539049053118 1 1 1 1 1 1 1 1 1 1 1 1 1 1 1 1 0.048017917264950694 1 1 1 1 1 1 0.050425935634729732 1 0.051238121734542626 1 1 1 0.050364996528451528 0.0518470173357653 1 1 0.049993221169403593 1 0.050041762694084037 1 1 1 1 1 1 1 1 1 1 1 1 0.050013416749446989 0.049998206631225769 1 1 1 1 1 0.049302786178530913 1 1 1 1 1 1 1 0.049809126824316215 1 1 1 0.050000446495950188 1 0.051028086513398296 1 1 0.049996943358833007 1 1 1 1 1 1 1 1 1 0.048687497598199958 1 1 0.049518887917559269 1 1 1 1 1 1 1 1 1 1 1 0.050239243907132497 1 1 1 1 1 1 1 1 1 1 1 1 1 1 1 1 1 1 1 1 1 1 0.050963775395053736 1 1 1 1 1 1 1 1 1 1 1 0.052782480076576752 1 1 1 1 0.054470569377328901 1 1 1 1 1 1 1 1 1 1 1 0.050131433319626467 1 1 1 1 1 0.050421320004863796 1 0.049968572062184677 1 1 1 1 1 1 1 1 1 0.056081896528282743 1 1 0.05755682913920529 1 1 0.046709313354199804 1 1 1 1 0.050913516040877557 1 1 1 1 1 1 1 1 1 1 1 1 1 1 1 1 1 1 1 1 1 0.047223441416046091 1 1 0.052669833200184119 1 0.049020133695970421 1 1 1 1 1 1 1 1 1 0.052067383006923963 1 1 0.048997353016022788 0.051315160180927979 0.050492042116181884 1 1 1 0.05054322905052306 1 1 1 1 1 1 0.05023016480927385 0.050070217963883355 1 0.048428020548875794 1 1 0.048544755005395651 1 1 0.052050826044479831 1 1 1 1 0.051981744323769133 1 1 1 1 0.051063771975249722 1 1 1 1 1 1 1 1 1 1 1 0.050596632299050773 1 1 0.049919087881574231 1 0.051233141182243105 0.049958809725704309 1 1 0.049997972825892967 0.050711661455157216 0.049470132002529955 1 1 1 1 1 1 1 1 1 1 0.050323368651183129 1 1 1 1 1 1 1 1 1 0.052438819373311379 1 1 1 1 1 0.050880162464220044 1 1 1 1 1 1 1 1 1 1 0.050155329127223536 1 1 1 1 1 1 1 1 1 1 1 1 1 1 1 1 1 1 1 1 1 1 1 1 0.052103151341092002 0.049840526779708655 1 1 1 1 1 1 1 1 0.050857293131634625 1 1 1 1 1 1 1 1 1 1 1 1 1 1 1 1 0.050151376028426835 1 1 1 1 0.050086029751700678 1 1 1 0.050382610145803378 0.050178762318736983 1 1 1 1 1 1 0.050180709568780041 1 0.050285521682161327 1 1 1 0.050622514592244171 1 1 1 1 1 1 1 1 0.049845034707220556 1 0.049955971923501624 0.050845617839567495 1 1 1 1 1 1 1 1 1 1 1 1 0.050204433026054318 1 1 0.050341279014479851 1 0.050086484827454467 1 1 1 1 1 1 1 1 1 1 1 1 1 1 1 1 1 1 1 1 1 1 1 0.050118031221599385 1 1 1 1 1 0.056564918524092726 1 1 1 1 1 1 1 1 1 1 0.050287466382524591 1 1 1 0.050077325242163136 1 1 1 1 1 1 1 1 1 1 1 0.049948224609699478 0.055018118323407653 1 1 1 1 1 0.053538877005576947 1 1 1 0.04972901489224292 1 1 1 1 1 1 1 1 1 1 0.050469651886463796 1 1 1 1 1 1 1 0.05007107267422492 0.04838122389410654 1 0.055414481665203068 1 1 1 1 0.050397901643809105 1 1 1 1 1 0.051011245068288871 1 1 1 1 1 1 1 1 1 1 0.049995490975956181 1 1 1 1 1 1 1 1 1 1 0.052079674979803391 1 1 1 1 1 1 1 0.050661939868454318 1 1 1 1 1 1 1 1 1 1 1 1 1 1 1 1 1 1 1 1 0.050085855926564254 1 1 1 0.05018084290587619 1 1 1 1 1 1 1 1 1 1 1 1 1 0.049901911223793297 1 0.050059044213445675 0.051260625022072057 1 0.049649812856125505 0.052738459292204866 1 1 1 1 1 0.049999215257968854 1 1 1 1 1 1 1 0.050777170238766489 1 1 0.052636108983660772 1 1 0.049676974351023188 1 1 0.051757798508725146 1 1 0.050040322215494523 0.051211359162898748 0.049680935590648949 0.04990215819099126 1 1 0.050559879682932005 0.051037382197116274 1 1 0.052925494058670516 1 1 0.049639909376594307 1 1 1 1 0.051216591584580355 0.05299147327444121 0.049976985682291759 0.054279153712866922 1 1 1 0.049993424373345439 1 0.050543906816343673 1 0.052378442818572457 1 0.049946314001233866 0.05297684406015106 1 1 1 1 1 1 1 0.050604020506648924 1 1 0.057983449554334231 1 0.049941246554039448 1 1 0.053340976927114585 0.046979506550952593 1 1 1 1 1 1 1 1 1 1 1 1 1 1 1 1 1 0.049843329575211287 1 1 1 1 1 1 1 1 1 1 1 1 1 1 1 1 1 0.049555358955136748 1 1 1 1 1 1 1 1 1 1 1 1 1 1 0.050146948959803636 0.049566823153414138 1 1 1 1 0.049998403831508074 1 0.049665755042253401 1 1 1 0.050279696814094915 0.050474747235062484 1 0.05013562590856941 1 1 1 1 1 1 1 1 1 1 1 1 1 1 1 1 1 1 1 0.049767388393798927 1 0.049957681399850122 1 1 1 1 0.05004554726278309 1 1 1 1 1 1 1 1 1 1 1 1 1 1 1 1 1 1 1 1 0.049954272561223811 1 1 1 1 1 1 1 1 1 1 1 1 1 1 0.050070562403999055 1 1 1 1 1 1 1 1 1 1 1 1 1 1 1 1 1 1 1 1 1 1 1 1 1 1 1 1 1 1 1 1 1 1 1 1 1 1 1 1 1 1 1 1 1 1 1 1 1 1 1 1 1 1 1 1 1 1 1 1 1 1 0.051055527441315939 1 1 1 0.050738318081865574 1 1 0.050428063881191677 1 1 1 1 1 1 1 1 1 1 1 0.050310254200673893 1 1 1 1 0.049513277359245357 1 1 1 1 1 1 1 1 1 1 1 1 1 1 1 1 1 1 1 1 1 1 1 1 1 1 1 1 1 0.050562120541894344 1 1 1 1 0.050563595880653255 1 1 1 1 1 1 1 1 1 1 0.051407807904561439 1 1 0.053425287879197793 1 1 1 1 1 1 1 1 1 1 1 1 0.0499840895140823 1 1 1 1 1 1 1 1 0.05431182578974933 1 1 1 1 1 1 1 1 1 1 0.051101576553302511 1 0.050357716857934415 1 1 1 0.052069567868823517 1 1 1 0.049887390038047985 1 0.052688269389267066 1 0.051232011827289536 0.049980400185315639 1 1 1 1 1 0.051143083567192847 1 1 1 1 1 1 1 1 1 1 1 1 1 1 1 1 1 1 1 1 1 1 1 0.050254564752974122 1 1 0.055038875111318643 1 1 1 0.05013097264602031 1 0.054736123696065335 1 1 1 1 1 1 1 1 1 1 1 1 0.050038898666014145 1 1 1 1 1 1 1 1 1 1 1 1 1 1 1 1 1 1 1 0.051554365195727626 1 1 1 1 1 1 1 1 1 1 1 1 1 1 1 1 1 1 1 1 1 1 1 1 1 1 1 0.050670878394763093 1 1 1 1 1 1 1 1 1 1 1 1 1 1 1 1 1 1 0.051756705487671209 1 1 1 0.051545661859004284 1 1 1 0.050390578519605933 0.050312779624442763 1 1 1 1 1 0.050577634101563386 1 1 1 1 1 1 1 0.051208387479594601 0.051181077249096082 1 1 1 0.050536066497332569 1 0.050375714538572522 1 1 1 1 1 1 0.051357389061570592 0.050409625720853696 1 1 0.052382934203911914 0.051841320271327276 1 1 1 1 1 1 1 1 1 1 0.049994158516395382 1 1 1 1 1 1 0.050103266868731573 1 1 1 1 1 1 1 1 1 1 1 1 1 1 1 1 1 0.050012785903913476 1 1 1 1 0.050863390012038184 1 1 0.050039140668579167 1 1 1 1 1 1 1 1 1 1 1 0.052213408404335707 1 0.051963619729469564 1 0.051862399035029892 1 1 1 1 1 1 1 1 1 1 1 1 1 1 1 1 1 1 1 0.050090571989294806 1 1 0.050241409665370149 1 1 1 0.050001402039963186 1 1 0.050282698590587739 1 1 1 1 0.050317545186594106 1 1 1 1 1 1 1 0.05061481539332429 1 1 1 1 1 1 1 1 1 1 1 1 1 1 1 1 1 1 1 1 1 1 1 1 1 1 1 1 1 0.051410291285202241 1 1 1 1 1 1 1 1 1 1 1 1 1 1 1 1 1 1 1 1 1 1 1 1 1 1 1 1 1 1 1 1 1 1 1 1 1 0.052244104244727765 0.049019838028166021 0.051046306570469741 1 1 0.054970366495780638 1 1 1 0.050111347771057198 1 0.050017314195491117 1 1 1 1 1 0.049949419350036751 1 1 1 1 1 1 1 0.055519809141287138 1 1 1 1 1 1 1 1 1 1 1 1 1 1 0.048720715545990424 1 1 1 0.049969719065635229 1 0.056126843212626301 1 1 1 1 1 1 1 1 0.048337658280067045 1 1 1 1 1 1 1 0.049999416268836507 1 0.050007785948644475 1 0.054377621262424992 1 1 1 1 1 1 1 1 0.050198987819735343 1 1 0.051550100250024961 0.04884228431391658 0.049813776646061486 1 0.051801319613486711 1 0.053886218334613649 1 1 1 1 1 1 1 1 1 1 1 1 1 1 1 1 1 1 1 1 1 0.051749126740234512 1 1 0.049844921505715303 0.052839559301485081 1 1 1 0.049986124023285464 1 1 1 1 1 1 1 0.049575090512064372 1 0.049880545514874586 1 1 1 1 0.050063295826469276 1 1 0.048843765955835672 1 1 1 1 1 1 1 0.048510184151606225 1 1 0.047786839054388984 1 1 1 0.047169977417894998 1 1 1 1 1 1 1 1 1 0.050007859834493032 1 1 1 1 1 1 0.053354683466095086 1 1 0.054201668796535554 1 1 1 1 0.054257509031613221 1 1 1 1 1 1 0.048502132379175306 0.048948227809645285 0.053605538502968376 1 1 1 0.050016724648653074 1 0.049999918239463009 1 0.048765891414097894 1 1 1 1 1 1 0.053683459862669196 1 1 1 0.04665219253480752 1 1 1 0.049188758795410625 1 1 1 1 1 1 1 1 1 1 1 1 0.049980433760028212 1 1 1 0.05002641623418299 1 1 1 1 1 0.049945460391182368 0.053609676358646594 1 1 0.049835991290169732 1 0.051377892862015766 0.052052392833140983 0.049854524661743553 1 1 1 0.049974028582311987 1 1 1 1 1 0.052797006268023534 1 1 1 1 1 1 1 1 1 1 1 1 0.049988055141379668 1 1 1 1 1 1 0.051122698956181288 1 1 0.051071017968233753 1 1 0.050004323180841588 1 1 1 1 1 0.050008299354854457 1 1 0.048719797691238388 1 0.050005337106781594 1 0.049993345248525133 1 1 1 1 1 1 0.049981400389904798 1 1 1 1 0.049892081483769668 1 1 1 1 1 1 1 1 1 1 0.049649125639403512 1 1 1 1 1 0.049328819360714156 1 1 1 1 1 1 1 1 1 1 1 1 1 1 1 0.050066314422341468 1 1 1 1 1 0.050194327141205822 1 0.049756699089661897 1 1 1 1 1 0.049694068727252745 1 1 1 1 1 0.050213086915106814 1 1 1 1 1 0.049917260552428178 1 1 1 1 1 1 1 1 1 1 0.052067256068220401 1 0.050001293425462438 1 0.052216488789939522 1 1 0.05117313777037992 1 1 1 1 1 1 1 1 0.052657553123099582 1 0.049051578320706737 1 1 1 1 1 1 1 1 1 1 0.052124862324183209 1 1 1 1 1 1 1 1 1 1 0.050885534450516287 1 1 1 0.05118421867720991 1 0.051268051742547539 0.054941675615778611 1 1 1 0.049982398899194376 1 1 1 0.052400602774395101 0.049934635081718345 1 1 1 1 1 1 1 1 1 1 0.050845204639083166 0.049968155917703518 1 1 1 1 1 0.050367858783664551 1 1 1 1 1 1 1 1 1 1 0.050584562908479194 1 0.0512823133363563 0.049400534323101396 0.052622428832848803 1 1 1 1 1 1 1 1 0.050986790898945061 1 1 1 1 1 1 1 1 1 1 1 1 1 1 1 1 1 1 1 1 1 1 1 1 1 1 1 1 1 0.04989576960249812 1 1 1 1 0.049979891368767321 1 1 1 1 1 1 1 1 0.049938985717249952 1 1 1 1 1 1 1 1 0.049915860353676858 1 1 1 1 1 1 1 1 1 1 1 1 1 1 1 1 1 1 1 1 1 1 1 1 1 1 0.049579295083633915 1 1 1 1 1 1 0.048664509213520522 1 0.054739036586448998 1 1 0.049497006985631024 1 1 1 0.055357821496440696 1 0.049091978129525364 1 1 1 0.050017277925482863 1 1 1 0.050515558077007305 1 1 1 1 1 1 0.050108290889464627 1 1 1 1 1 1 1 1 1 1 1 1 1 1 1 1 1 1 1 1 1 1 1 1 1 1 1 0.050227199846119085 1 0.050581169455442082 1 1 1 1 0.050353969609322993 1 1 1 1 1 1 1 1 1 1 1 1 1 0.050327999421092645 1 1 0.050266985138342615 1 1 0.051286291435041403 1 1 1 1 1 0.053374905171865696 1 1 1 1 1 1 1 1 0.049323781870405654 1 0.048514301050314526 1 1 1 1 1 0.049840021968751619 0.049998390617488273 1 1 0.050492069704803882 1 1 1 0.048750514017913277 1 1 1 1 1 1 1 0.050030970226776522 1 1 1 1 1 1 1 1 1 1 1 1 1 1 1 1 0.04963892138855891 1 1 1 1 1 0.050612028448843355 1 0.050280933497158106 1 1 1 1 1 1 1 1 1 1 1 1 0.0504760699101372 1 0.050630088777604457 1 1 1 1 1 1 0.051411788389452984 0.050144974958451938 1 1 1 1 1 1 1 1 1 1 1 1 1 1 1 1 1 1 1 1 1 0.05020153896362043 1 1 0.050585357414395973 1 1 1 1 1 0.049843395545852182 1 1 1 1 1 1 0.049994556846720412 1 1 1 1 1 1 1 1 1 1 1 1 1 1 1 1 0.050007194978291231 1 1 0.050172896979819255 1 1 1 1 0.050085586743153776 1 1 1 1 1 1 1 1 1 1 1 0.050088374859422066 1 1 1 1 1 1 1 1 1 1 1 1 1 1 1 1 1 1 1 0.05078169961184853 1 1 1 1 1 1 1 1 1 1 1 1 0.050262572544568201 1 1 1 1 1 1 1 1 1 1 1 1 1 0.049984251093350536 0.050900911414761441 1 1 1 1 1 1 0.051413099694184047 1 1 1 1 1 1 1 1 1 1 1 1 1 1 1 1 1 1 1 1 1 1 1 1 1 1 1 1 1 1 1 1 1 1 1 0.050027007205861791 1 1 1 1 1 1 1 1 0.049951368464157604 1 1 1 1 1 1 1 1 1 1 1 1 0.049958563442448825 1 1 1 1 0.050495181197983588 1 0.050753160728234444 1 1 1 1 1 1 1 1 0.049935988009732965 1 1 1 1 1 1 1 1 1 1 0.049933199893464675 1 1 1 0.049195854502891045 1 1 0.049900338451323675 1 1 1 1 0.048646887349839886 1 1 0.048154865578188988 1 1 1 1 1 1 1 1 0.049698578872011685 1 1 1 0.049492582920590854 1 1 1 1 1 1 1 0.049613715668121325 1 0.050003862406880636 1 0.051289861045218071 1 0.051576219955094482 0.050131145504464465 1 1 1 0.05003747662818378 0.049981302253615065 0.050626398793212825 1 1 0.053976325169365652 1 1 1 0.047680240769016974 1 1 1 1 0.049976398705632474 1 1 1 1 1 1 1 1 1 1 1 1 1 1 1 1 1 1 1 1 1 1 1 1 1 1 1 1 1 1 1 1 1 1 1 1 1 1 0.050021578420009316 1 1 1 1 1 1 1 1 0.049534909073363581 1 1 1 1 0.049780856368785903 1 1 0.049937424131518728 1 1 0.049579872206836281 1 1 1 1 0.049851034404302857 1 1 1 1 1 0.049802775330966234 1 1 1 1 1 1 1 1 1 1 1 1 1 0.052303129934785884 0.050004163607231575 1 1 1 0.050804410464201831 1 1 1 1 1 1 1 1 1 1 1 1 1 1 0.050056150493761734 1 1 1 1 1 1 0.050235432222741974 1 1 0.05049800476731018 1 1 1 1 1 1 1 1 1 1 0.050154278025127792 1 1 1 1 1 0.050162247547815647 1 1 1 1 1 1 1 1 1 1 0.049768183424121766 1 1 1 1 1 1 1 1 1 1 1 1 1 1 1 0.050000806185346573 1 1 1 1 1 1 1 1 1 1 1 1 1 1 1 1 1 1 1 1 1 1 1 0.04999736064015773 1 0.049744160858433258 1 1 1 0.05001893906016705 1 1 1 1 1 1 1 1 1 0.049847738464438934 1 1 1 0.049672180698896722 1 1 1 1 1 1 1 1 1 1 1 1 1 1 1 1 0.051465298572172233 1 1 1 1 1 0.049729118808126339 1 1 1 0.051434627533697527 1 0.050023988617627468 1 1 1 1 1 1 0.051320535083299403 1 1 1 1 1 1 1 1 1 1 1 1 1 1 1 1 1 1 1 1 1 1 1 1 1 1 1 0.049887119961998752 1 1 0.04998276055693391 1 1 1 1 1 1 1 0.050055726484010479 1 1 1 1 0.049990256183339889 1 1 0.049990318969705509 1 1 1 1 1 1 0.05000867326294034 1 1 1 0.050004603211185439 1 1 1 0.050004615076918543 1 1 1 1 1 0.050230496368843573 1 1 1 1 1 0.050489949350888054 1 1 1 1 1 1 1 1 0.050751515408922747 1 1 0.050009438361401308 1 1 1 1 0.050033777439883284 1 1 1 1 0.050055720372205091 1 1 1 1 0.051488381718607132 1 1 1 0.051306193044699029 1 0.049977995352323328 1 1 1 1 1 1 1 1 1 1 0.050213718900055951 1 1 1 1 1 1 1 0.05057928535844175 0.05026567215197722 1 1 1 1 1 0.051394227080772362 1 1 1 1 1 0.050893491772927284 1 1 1 0.050056321707810214 1 1 0.050007912961433074 1 1 0.052021625317059575 1 1 1 0.050971743084175354 1 1 1 1 1 1 0.050042824513300492 1 1 1 1 1 0.050014634767430254 1 1 1 1 1 0.050004809736328051 1 1 1 1 1 1 0.050026366233389241 1 1 1 1 0.055058611918727379 1 1 1 1 1 0.050049513172928412 1 1 1 1 1 1 1 1 1 1 0.053677353170029418 1 1 1 1 1 1 1 0.049566399369536621 1 1 1 1 0.049863054453091936 0.049611898798532485 1 1 0.051268854860126639 1 1 1 1 1 1 1 0.050468994825094274 1 1 1 1 1 1 1 0.056500016810934639 1 0.049021755049790901 1 1 0.052324489152941744 1 1 1 1 0.049887591271044078 1 0.052650189094097348 1 1 1 1 1 1 1 1 1 1 0.049973259370004665 1 1 1 1 1 0.050090060300235217 1 1 1 0.056459587948215297 1 1 1 1 0.049968953639082846 1 1 0.05043309069672447 1 1 1 1 1 0.052062509920549317 1 0.053697933622150931 1 0.049998421843457361 0.050101401029725004 1 1 1 1 0.052942875669559374 0.049928344855650904 1 1 1 1 1 1 1 1 1 1 1 1 1 0.049977047459389648 1 1 1 1 1 1 0.049750442698674339 0.050527838622587348 1 1 1 1 1 1 1 1 1 1 1 1 1 0.051636930272740245 1 1 1 1 1 1 1 1 1 1 1 1 1 1 1 1 1 1 1 1 1 1 1 1 1 1 1 1 1 1 1 1 1 0.049961646613457485 1 1 0.049930800599812579 1 1 1 1 1 1 1 0.049973317593586655 1 1 1 0.049960282195567716 1 1 0.049017854007439125 1 1 1 0.054215718201256841 0.05000373256793543 1 1 1 1 0.052858947809254972 0.052226222924398831 1 1 1 1 1 1 1 1 1 1 1 1 1 1 0.054354716292007901 1 1 0.050000035520767518 1 1 1 0.053639142531497798 1 1 1 1 0.049960294988461385 1 1 0.054706344623959666 1 1 1 1 1 1 1 1 1 1 1 0.057055160704564546 1 1 1 1 1 1 1 0.059145151837613694 1 1 1 1 1 1 1 1 1 1 1 1 1 1 1 1 1 1 0.049982129377134567 1 1 1 1 1 1 0.05257088442818153 1 0.050035102581702399 1 1 1 1 1 0.049817904920080133 1 1 0.0499270806341994 1 1 1 0.054965902082939319 1 1 1 0.049926913905594228 1 1 1 1 1 1 1 1 1 1 1 1 1 1 0.050068848794824275 1 1 1 1 0.050206359492573238 0.051657999411868882 1 1 1 1 1 1 1 1 1 1 1 1 1 1 1 1 1 1 1 0.050242543078355885 1 1 1 1 1 1 1 1 0.051965478716793655 1 0.051947291247251087 1 1 1 1 1 1 1 0.050002509767724544 1 0.050090774926895641 1 1 1 1 1 0.051936665406552958 1 1 1 1 1 1 0.050073812039284585 1 1 1 1 1 0.050880835411520373 0.050086564413516992 1 1 1 0.048644867675320239 0.052138512958343777 0.051121229603791264 1 1 1 1 1 0.050562087023218565 1 1 1 1 1 0.052368078839930651 1 1 1 1 0.051629547399245829 1 0.05130014426933821 0.049477141294136676 1 0.050827195498137787 0.053106512359040056 1 1 1 0.053442615570143168 1 1 1 0.051362763124610362 1 1 1 0.050640531658627218 1 1 1 0.05298258263223464 1 1 1 1 1 1 1 1 0.053736838043688596 1 1 1 0.053610185664858923 1 1 1 1 1 1 0.054138949961904194 1 1 1 1 1 1 0.054085375891800382 1 1 1 1 1 1 1 1 1 1 1 1 1 1 0.049984300444703852 1 0.050603387710993021 1 1 1 0.053094048627410129 1 1 0.049932309456006449 1 0.050053498561647661 1 0.049973932578486195 1 1 0.051885211644744848 1 1 1 1 1 1 0.050038350305226326 1 1 1 1 0.050027860808407834 1 1 1 1 1 1 0.050013912537677507 1 1 1 1 1 1 1 1 1 1 0.049995120310003638 1 1 1 1 1 1 1 1 1 1 1 1 1 1 1 1 1 1 1 0.048892691849646598 0.049411672116725286 1 1 1 0.051773913731906131 1 1 0.048974458094151581 1 1 0.051755892151197982 1 1 0.050064157968500361 1 1 0.049206794585301757 0.050253088905147507 1 1 1 1 0.051787975823061397 1 1 1 1 1 1 1 1 1 1 1 0.048568473054520923 0.051577892858569119 1 1 1 0.049561938480163825 1 0.050003166087129104 1 0.050013723433545203 1 1 1 1 1 0.050014603744665001 1 1 0.054669586862184497 1 0.048786572469166477 1 1 0.049996562401944902 0.051805579131141401 0.052519284253241184 1 1 1 1 0.052255024731639614 1 1 0.051839362067772274 1 0.053625261869029051 1 1 0.050697429532230769 1 1 1 1 1 1 1 1 0.05362066256438551 1 0.053430330002825786 0.050038020963939868 1 1 1 1 1 0.05005927917817108 0.055889498456004903 1 1 1 0.050867667901941187 0.050208440278330033 1 1 1 1 1 1 1 1 0.050003769566724296 1 0.056182866871124823 1 1 1 1 1 1 1 1 1 1 1 1 1 1 1 1 1 1 1 1 1 1 1 1 1 1 1 1 1 0.049997797683736654 1 1 1 1 1 1 1 1 1 1 1 1 1 1 1 0.049414082249642811 1 1 0.050026916790258773 1 1 1 1 1 0.049978735351225864 1 1 1 1 1 1 1 1 1 1 1 1 1 0.050048181439032911 1 1 1 1 1 1 1 1 1 0.053001940426601356 1 1 0.047263015679554918 1 1 1 1 0.049999446082641438 0.053797556256904695 0.050482347572733129 1 1 1 1 1 0.048295917416456821 1 1 1 
</DataArray>
</CellData>
</Piece>
</UnstructuredGrid>
</VTKFile>
