<?xml version="1.0"?>
<VTKFile type="UnstructuredGrid" version="0.1" byte_order="LittleEndian">
<UnstructuredGrid>
<Piece NumberOfPoints="30881" NumberOfCells="10862">
<Points>
<DataArray type="Float64" NumberOfComponents="3" format="ascii">
-0.49999999999999828 -0.48677703703187492 0 -0.5 -0.5 0 -0.48129281494584059 -0.49338851851593718 0 -0.5 -0.5 0 -0.48129281494584059 -0.49338851851593718 0 -0.46258562989168328 -0.5 0 -0.49999999999999828 -0.48677703703187492 0 -0.48129281494584059 -0.49338851851593718 0 -0.49999999999999828 -0.48677703703187492 0 -0.4824545428279598 -0.47451624516148783 0 -0.48129281494584059 -0.49338851851593718 0 -0.49999999999999828 -0.48677703703187492 0 -0.4824545428279598 -0.47451624516148783 0 -0.5 -0.46599539173150673 0 -0.4824545428279598 -0.47451624516148783 0 -0.46853075243710779 -0.48354990242643758 0 -0.46411508256092049 -0.46598235294430129 0 -0.4824545428279598 -0.47451624516148783 0 -0.48129281494584059 -0.49338851851593718 0 -0.46853075243710779 -0.48354990242643758 0 -0.48129281494584059 -0.49338851851593718 0 -0.46258562989168328 -0.5 0 -0.48129281494584059 -0.49338851851593718 0 -0.46258562989168328 -0.5 0 -0.46853075243710779 -0.48354990242643758 0 -0.46258562989168328 -0.5 0 -0.46853075243710779 -0.48354990242643758 0 -0.45147378687733691 -0.48362213557840178 0 -0.46853075243710779 -0.48354990242643758 0 -0.45147378687733691 -0.48362213557840178 0 -0.46411508256092049 -0.46598235294430129 0 -0.4457251648104853 -0.47020164095208389 0 -0.45147378687733691 -0.48362213557840178 0 -0.46411508256092049 -0.46598235294430129 0 -0.4457251648104853 -0.47020164095208389 0 -0.45147378687733691 -0.48362213557840178 0 -0.43513446131126993 -0.48199891714758791 0 -0.45147378687733691 -0.48362213557840178 0 -0.43275163025255442 -0.5 0 -0.43513446131126993 -0.48199891714758791 0 -0.46258562989168328 -0.5 0 -0.45147378687733691 -0.48362213557840178 0 -0.43275163025255442 -0.5 0 -0.4467190029717853 -0.45478934699519452 0 -0.4422915115958943 -0.43555510214664611 0 -0.43246707723660932 -0.44794326854796312 0 -0.4457251648104853 -0.47020164095208389 0 -0.4467190029717853 -0.45478934699519452 0 -0.46411508256092049 -0.46598235294430129 0 -0.4457251648104853 -0.47020164095208389 0 -0.4467190029717853 -0.45478934699519452 0 -0.43016578207734568 -0.46313500011938619 0 -0.4467190029717853 -0.45478934699519452 0 -0.46411508256092049 -0.46598235294430129 0 -0.47114575579794699 -0.4403844242888923 0 -0.4467190029717853 -0.45478934699519452 0 -0.47114575579794699 -0.4403844242888923 0 -0.4422915115958943 -0.43555510214664611 0 -0.47114575579794699 -0.4403844242888923 0 -0.4422915115958943 -0.43555510214664611 0 -0.46411508256092049 -0.46598235294430129 0 -0.47114575579794699 -0.4403844242888923 0 -0.48354307623736548 -0.45841843211146538 0 -0.4824545428279598 -0.47451624516148783 0 -0.46411508256092049 -0.46598235294430129 0 -0.48354307623736548 -0.45841843211146538 0 -0.4824545428279598 -0.47451624516148783 0 -0.48354307623736548 -0.45841843211146538 0 -0.5 -0.46599539173150673 0 -0.48354307623736548 -0.45841843211146538 0 -0.5 -0.46599539173150673 0 -0.49999999999999972 -0.44521374643113848 0 -0.47114575579794699 -0.4403844242888923 0 -0.49999999999999972 -0.44521374643113848 0 -0.47114575579794699 -0.4403844242888923 0 -0.49999999999999972 -0.44521374643113848 0 -0.48704432221743971 -0.42935617662229603 0 -0.47114575579794699 -0.4403844242888923 0 -0.48354307623736548 -0.45841843211146538 0 -0.49999999999999972 -0.44521374643113848 0 -0.49999999999999972 -0.44521374643113848 0 -0.48704432221743971 -0.42935617662229603 0 -0.5 -0.41591957503128979 0 -0.48704432221743971 -0.42935617662229603 0 -0.5 -0.41591957503128979 0 -0.47703153307181151 -0.41590696073786332 0 -0.5 -0.41591957503128979 0 -0.47703153307181151 -0.41590696073786332 0 -0.48817838912021821 -0.4022119694541284 0 -0.47114575579794699 -0.4403844242888923 0 -0.48704432221743971 -0.42935617662229603 0 -0.47703153307181151 -0.41590696073786332 0 -0.5 -0.38662540363144121 0 -0.47568202340906118 -0.39039593841591919 0 -0.4947615751445838 -0.37332156409002909 0 -0.47568202340906118 -0.39039593841591919 0 -0.4947615751445838 -0.37332156409002909 0 -0.5 -0.38662540363144121 0 -0.48817838912021821 -0.4022119694541284 0 -0.47568202340906118 -0.39039593841591919 0 -0.5 -0.41591957503128979 0 -0.5 -0.38662540363144121 0 -0.48817838912021821 -0.4022119694541284 0 -0.47703153307181151 -0.41590696073786332 0 -0.48817838912021821 -0.4022119694541284 0 -0.47568202340906118 -0.39039593841591919 0 -0.47703153307181151 -0.41590696073786332 0 -0.47568202340906118 -0.39039593841591919 0 -0.45660247167353862 -0.40747031274180939 0 -0.47568202340906118 -0.39039593841591919 0 -0.48030931097003587 -0.37191064435083931 0 -0.46669490250066459 -0.37481721741951951 0 -0.47568202340906118 -0.39039593841591919 0 -0.4947615751445838 -0.37332156409002909 0 -0.48030931097003587 -0.37191064435083931 0 -0.45332061783919553 -0.38729481725706361 0 -0.46669490250066459 -0.37481721741951951 0 -0.45095991715087752 -0.36968037302039969 0 -0.47568202340906118 -0.39039593841591919 0 -0.45332061783919553 -0.38729481725706361 0 -0.46669490250066459 -0.37481721741951951 0 -0.47568202340906118 -0.39039593841591919 0 -0.45660247167353862 -0.40747031274180939 0 -0.47568202340906118 -0.39039593841591919 0 -0.45332061783919553 -0.38729481725706361 0 -0.45660247167353862 -0.40747031274180939 0 -0.44332653075004852 -0.401690115615219 0 -0.44646247228389868 -0.41654464256061052 0 -0.42870657106664078 -0.39987574649354879 0 -0.45332061783919553 -0.38729481725706361 0 -0.44332653075004852 -0.401690115615219 0 -0.43479631603355468 -0.39077639303142497 0 -0.45332061783919553 -0.38729481725706361 0 -0.44332653075004852 -0.401690115615219 0 -0.45660247167353862 -0.40747031274180939 0 -0.45332061783919553 -0.38729481725706361 0 -0.43421362475025049 -0.37527491429266319 0 -0.43479631603355468 -0.39077639303142497 0 -0.45332061783919553 -0.38729481725706361 0 -0.43421362475025049 -0.37527491429266319 0 -0.45095991715087752 -0.36968037302039969 0 -0.47114575579794699 -0.4403844242888923 0 -0.45663439814062529 -0.42533932462455271 0 -0.4422915115958943 -0.43555510214664611 0 -0.47114575579794699 -0.4403844242888923 0 -0.47703153307181151 -0.41590696073786332 0 -0.45663439814062529 -0.42533932462455271 0 -0.45663439814062529 -0.42533932462455271 0 -0.45660247167353862 -0.40747031274180939 0 -0.44646247228389868 -0.41654464256061052 0 -0.47703153307181151 -0.41590696073786332 0 -0.45663439814062529 -0.42533932462455271 0 -0.45660247167353862 -0.40747031274180939 0 -0.44332653075004852 -0.401690115615219 0 -0.45660247167353862 -0.40747031274180939 0 -0.44646247228389868 -0.41654464256061052 0 -0.45660247167353862 -0.40747031274180939 0 -0.44646247228389868 -0.41654464256061052 0 -0.44646247228389868 -0.41654464256061052 0 -0.4375229199380159 -0.42454468706769971 0 -0.45663439814062529 -0.42533932462455271 0 -0.4375229199380159 -0.42454468706769971 0 -0.4422915115958943 -0.43555510214664611 0 -0.45663439814062529 -0.42533932462455271 0 -0.44646247228389868 -0.41654464256061052 0 -0.4375229199380159 -0.42454468706769971 0 -0.4375229199380159 -0.42454468706769971 0 -0.4422915115958943 -0.43555510214664611 0 -0.43077617074680319 -0.43406335077952207 0 -0.43077617074680319 -0.43406335077952207 0 -0.42550232634077589 -0.42345940056268039 0 -0.41950844772475421 -0.43888456563633732 0 -0.4375229199380159 -0.42454468706769971 0 -0.43077617074680319 -0.43406335077952207 0 -0.42550232634077589 -0.42345940056268039 0 -0.44646247228389868 -0.41654464256061052 0 -0.41657232816672918 -0.41306671883907142 0 -0.42870657106664078 -0.39987574649354879 0 -0.44646247228389868 -0.41654464256061052 0 -0.4375229199380159 -0.42454468706769971 0 -0.42550232634077589 -0.42345940056268039 0 -0.44646247228389868 -0.41654464256061052 0 -0.42550232634077589 -0.42345940056268039 0 -0.41657232816672918 -0.41306671883907142 0 -0.44646247228389868 -0.41654464256061052 0 -0.41657232816672918 -0.41306671883907142 0 -0.42550232634077589 -0.42345940056268039 0 -0.41657232816672918 -0.41306671883907142 0 -0.41333489101611293 -0.42699700567040988 0 -0.41657232816672918 -0.41306671883907142 0 -0.41333489101611293 -0.42699700567040988 0 -0.39893236021425188 -0.42931692235905211 0 -0.41333489101611293 -0.42699700567040988 0 -0.39893236021425188 -0.42931692235905211 0 -0.41950844772475421 -0.43888456563633732 0 -0.42550232634077589 -0.42345940056268039 0 -0.41333489101611293 -0.42699700567040988 0 -0.41950844772475421 -0.43888456563633732 0 -0.43421362475025049 -0.37527491429266319 0 -0.42478231784314502 -0.38643128255249681 0 -0.41656514696884139 -0.37636588688318029 0 -0.43421362475025049 -0.37527491429266319 0 -0.42478231784314502 -0.38643128255249681 0 -0.43479631603355468 -0.39077639303142497 0 -0.42478231784314502 -0.38643128255249681 0 -0.43479631603355468 -0.39077639303142497 0 -0.42870657106664078 -0.39987574649354879 0 -0.44332653075004852 -0.401690115615219 0 -0.43479631603355468 -0.39077639303142497 0 -0.42870657106664078 -0.39987574649354879 0 -0.41657232816672918 -0.41306671883907142 0 -0.40962993039643741 -0.3898634720616666 0 -0.3946356370269814 -0.39577424904278191 0 -0.42478231784314502 -0.38643128255249681 0 -0.42870657106664078 -0.39987574649354879 0 -0.40962993039643741 -0.3898634720616666 0 -0.41657232816672918 -0.41306671883907142 0 -0.42870657106664078 -0.39987574649354879 0 -0.40962993039643741 -0.3898634720616666 0 -0.42478231784314502 -0.38643128255249681 0 -0.40962993039643741 -0.3898634720616666 0 -0.41656514696884139 -0.37636588688318029 0 -0.40962993039643741 -0.3898634720616666 0 -0.41656514696884139 -0.37636588688318029 0 -0.40465459864295228 -0.37650109000307358 0 -0.39431275766669582 -0.38061373190328529 0 -0.40465459864295228 -0.37650109000307358 0 -0.3968495855878465 -0.36923685638487008 0 -0.40962993039643741 -0.3898634720616666 0 -0.39431275766669582 -0.38061373190328529 0 -0.40465459864295228 -0.37650109000307358 0 -0.40962993039643741 -0.3898634720616666 0 -0.39431275766669582 -0.38061373190328529 0 -0.3946356370269814 -0.39577424904278191 0 -0.3946356370269814 -0.39577424904278191 0 -0.38704143117499401 -0.40999023144455299 0 -0.37464038230528551 -0.396492613407532 0 -0.3946356370269814 -0.39577424904278191 0 -0.37522403377147279 -0.38060127254172499 0 -0.37464038230528551 -0.396492613407532 0 -0.39431275766669582 -0.38061373190328529 0 -0.3946356370269814 -0.39577424904278191 0 -0.37522403377147279 -0.38060127254172499 0 -0.39431275766669582 -0.38061373190328529 0 -0.37522403377147279 -0.38060127254172499 0 -0.38569326772338258 -0.37053454129240582 0 -0.41657232816672918 -0.41306671883907142 0 -0.39893236021425188 -0.42931692235905211 0 -0.38704143117499401 -0.40999023144455299 0 -0.41657232816672918 -0.41306671883907142 0 -0.3946356370269814 -0.39577424904278191 0 -0.38704143117499401 -0.40999023144455299 0 -0.41657232816672918 -0.41306671883907142 0 -0.38704143117499401 -0.40999023144455299 0 -0.38704143117499401 -0.40999023144455299 0 -0.38131756488089769 -0.42670085612339947 0 -0.36377437909963828 -0.41972983174959272 0 -0.38131756488089769 -0.42670085612339947 0 -0.38339996822118783 -0.44368928783448319 0 -0.36866352395763108 -0.4313760290561211 0 -0.39893236021425188 -0.42931692235905211 0 -0.38131756488089769 -0.42670085612339947 0 -0.38339996822118783 -0.44368928783448319 0 -0.39893236021425188 -0.42931692235905211 0 -0.38704143117499401 -0.40999023144455299 0 -0.38131756488089769 -0.42670085612339947 0 -0.38339996822118783 -0.44368928783448319 0 -0.40446438048225181 -0.45117017211807442 0 -0.3895931593355052 -0.46351353191466821 0 -0.39893236021425188 -0.42931692235905211 0 -0.38339996822118783 -0.44368928783448319 0 -0.40446438048225181 -0.45117017211807442 0 -0.40446438048225181 -0.45117017211807442 0 -0.3895931593355052 -0.46351353191466821 0 -0.40280611050484572 -0.47090640128894168 0 -0.38339996822118783 -0.44368928783448319 0 -0.3895931593355052 -0.46351353191466821 0 -0.37415472949075129 -0.45946062715310632 0 -0.3895931593355052 -0.46351353191466821 0 -0.38039451612360919 -0.47713749807852829 0 -0.37415472949075129 -0.45946062715310632 0 -0.38039451612360919 -0.47713749807852829 0 -0.39198476482648659 -0.49312537606366408 0 -0.39366244928105898 -0.47747566409097131 0 -0.3895931593355052 -0.46351353191466821 0 -0.38039451612360919 -0.47713749807852829 0 -0.39366244928105898 -0.47747566409097131 0 -0.39198476482648659 -0.49312537606366408 0 -0.37055643484088358 -0.49425936316784103 0 -0.39198476482648659 -0.49312537606366408 0 -0.40291763061342539 -0.5 0 -0.37308363097429631 -0.50000000000000244 0 -0.39198476482648659 -0.49312537606366408 0 -0.37055643484088358 -0.49425936316784103 0 -0.37308363097429631 -0.50000000000000244 0 -0.38039451612360919 -0.47713749807852829 0 -0.39198476482648659 -0.49312537606366408 0 -0.37055643484088358 -0.49425936316784103 0 -0.39198476482648659 -0.49312537606366408 0 -0.41341309481208982 -0.49199138895948757 0 -0.39198476482648659 -0.49312537606366408 0 -0.39366244928105898 -0.47747566409097131 0 -0.40353369561484831 -0.48269551310905429 0 -0.39198476482648659 -0.49312537606366408 0 -0.40291763061342539 -0.5 0 -0.41341309481208982 -0.49199138895948757 0 -0.39198476482648659 -0.49312537606366408 0 -0.40353369561484831 -0.48269551310905429 0 -0.41341309481208982 -0.49199138895948757 0 -0.3895931593355052 -0.46351353191466821 0 -0.39366244928105898 -0.47747566409097131 0 -0.40280611050484572 -0.47090640128894168 0 -0.39366244928105898 -0.47747566409097131 0 -0.40353369561484831 -0.48269551310905429 0 -0.40280611050484572 -0.47090640128894168 0 -0.40280611050484572 -0.47090640128894168 0 -0.41792735015940108 -0.47619959015896091 0 -0.41524515795200517 -0.46243146669528151 0 -0.40353369561484831 -0.48269551310905429 0 -0.41792735015940108 -0.47619959015896091 0 -0.41341309481208982 -0.49199138895948757 0 -0.40353369561484831 -0.48269551310905429 0 -0.40280611050484572 -0.47090640128894168 0 -0.41792735015940108 -0.47619959015896091 0 -0.41792735015940108 -0.47619959015896091 0 -0.41341309481208982 -0.49199138895948757 0 -0.42480663413382869 -0.48754747406650911 0 -0.40291763061342539 -0.5 0 -0.41341309481208982 -0.49199138895948757 0 -0.43275163025255442 -0.5 0 -0.41341309481208982 -0.49199138895948757 0 -0.42480663413382869 -0.48754747406650911 0 -0.43275163025255442 -0.5 0 -0.42480663413382869 -0.48754747406650911 0 -0.43275163025255442 -0.5 0 -0.43513446131126993 -0.48199891714758791 0 -0.4457251648104853 -0.47020164095208389 0 -0.43513446131126993 -0.48199891714758791 0 -0.43016578207734568 -0.46313500011938619 0 -0.41792735015940108 -0.47619959015896091 0 -0.43513446131126993 -0.48199891714758791 0 -0.43016578207734568 -0.46313500011938619 0 -0.41792735015940108 -0.47619959015896091 0 -0.42480663413382869 -0.48754747406650911 0 -0.43513446131126993 -0.48199891714758791 0 -0.4467190029717853 -0.45478934699519452 0 -0.43016578207734568 -0.46313500011938619 0 -0.43246707723660932 -0.44794326854796312 0 -0.43016578207734568 -0.46313500011938619 0 -0.42051073979218989 -0.45215097324273301 0 -0.41524515795200517 -0.46243146669528151 0 -0.43016578207734568 -0.46313500011938619 0 -0.43246707723660932 -0.44794326854796312 0 -0.42051073979218989 -0.45215097324273301 0 -0.4422915115958943 -0.43555510214664611 0 -0.43077617074680319 -0.43406335077952207 0 -0.43246707723660932 -0.44794326854796312 0 -0.43077617074680319 -0.43406335077952207 0 -0.43246707723660932 -0.44794326854796312 0 -0.41950844772475421 -0.43888456563633732 0 -0.43246707723660932 -0.44794326854796312 0 -0.42051073979218989 -0.45215097324273301 0 -0.41950844772475421 -0.43888456563633732 0 -0.39893236021425188 -0.42931692235905211 0 -0.40446438048225181 -0.45117017211807442 0 -0.41950844772475421 -0.43888456563633732 0 -0.40446438048225181 -0.45117017211807442 0 -0.42051073979218989 -0.45215097324273301 0 -0.41950844772475421 -0.43888456563633732 0 -0.40446438048225181 -0.45117017211807442 0 -0.42051073979218989 -0.45215097324273301 0 -0.41524515795200517 -0.46243146669528151 0 -0.40446438048225181 -0.45117017211807442 0 -0.40280611050484572 -0.47090640128894168 0 -0.41524515795200517 -0.46243146669528151 0 -0.41792735015940108 -0.47619959015896091 0 -0.43016578207734568 -0.46313500011938619 0 -0.41524515795200517 -0.46243146669528151 0 -0.45018232007011222 -0.256765034028549 0 -0.429874989515865 -0.26165756953837482 0 -0.43598079583492633 -0.24721882136819351 0 -0.45018232007011222 -0.256765034028549 0 -0.43765198640052377 -0.27443700488157741 0 -0.429874989515865 -0.26165756953837482 0 -0.45018232007011222 -0.256765034028549 0 -0.43598079583492633 -0.24721882136819351 0 -0.45139902778349827 -0.24711062934306771 0 -0.45018232007011222 -0.256765034028549 0 -0.43765198640052377 -0.27443700488157741 0 -0.46196722525855399 -0.27174391220054139 0 -0.43765198640052377 -0.27443700488157741 0 -0.46196722525855399 -0.27174391220054139 0 -0.4476129789611048 -0.29283803371489903 0 -0.46196722525855399 -0.27174391220054139 0 -0.48050148842732221 -0.25523221810557922 0 -0.46267023581878858 -0.24817136713935201 0 -0.45018232007011222 -0.256765034028549 0 -0.46196722525855399 -0.27174391220054139 0 -0.46267023581878858 -0.24817136713935201 0 -0.45018232007011222 -0.256765034028549 0 -0.46267023581878858 -0.24817136713935201 0 -0.45139902778349827 -0.24711062934306771 0 -0.48050148842732221 -0.25523221810557922 0 -0.5 -0.26944871803204617 0 -0.5 -0.2401545466321974 0 -0.48050148842732221 -0.25523221810557922 0 -0.5 -0.26944871803204617 0 -0.48245797385404121 -0.28063059353633901 0 -0.46196722525855399 -0.27174391220054139 0 -0.48050148842732221 -0.25523221810557922 0 -0.48245797385404121 -0.28063059353633901 0 -0.46196722525855399 -0.27174391220054139 0 -0.48245797385404121 -0.28063059353633901 0 -0.46937090116945868 -0.29821258941183898 0 -0.48245797385404121 -0.28063059353633901 0 -0.5 -0.29874288943189498 0 -0.46937090116945868 -0.29821258941183898 0 -0.5 -0.26944871803204617 0 -0.48245797385404121 -0.28063059353633901 0 -0.5 -0.29874288943189498 0 -0.5 -0.29874288943189498 0 -0.46937090116945868 -0.29821258941183898 0 -0.47623524987602139 -0.32201367690444971 0 -0.46937090116945868 -0.29821258941183898 0 -0.4476129789611048 -0.29283803371489903 0 -0.45018982867155483 -0.32180400573951162 0 -0.46196722525855399 -0.27174391220054139 0 -0.46937090116945868 -0.29821258941183898 0 -0.4476129789611048 -0.29283803371489903 0 -0.43765198640052377 -0.27443700488157741 0 -0.4476129789611048 -0.29283803371489903 0 -0.43236213870239748 -0.29002705800971151 0 -0.4476129789611048 -0.29283803371489903 0 -0.45018982867155483 -0.32180400573951162 0 -0.4314578060398388 -0.3048790663939604 0 -0.45018982867155483 -0.32180400573951162 0 -0.4314578060398388 -0.3048790663939604 0 -0.45018982867155483 -0.32180400573951162 0 -0.46157657978994598 -0.34139555482026068 0 -0.43521386225128428 -0.33802231259611382 0 -0.46157657978994598 -0.34139555482026068 0 -0.43521386225128428 -0.33802231259611382 0 -0.45018982867155483 -0.32180400573951162 0 -0.46157657978994598 -0.34139555482026068 0 -0.47623524987602139 -0.32201367690444971 0 -0.46937090116945868 -0.29821258941183898 0 -0.45018982867155483 -0.32180400573951162 0 -0.47623524987602139 -0.32201367690444971 0 -0.5 -0.29874288943189498 0 -0.47623524987602139 -0.32201367690444971 0 -0.5 -0.32803706083174372 0 -0.47623524987602139 -0.32201367690444971 0 -0.5 -0.32803706083174372 0 -0.48561656391384522 -0.34384835974822991 0 -0.5 -0.32803706083174372 0 -0.5 -0.35733123223159241 0 -0.48561656391384522 -0.34384835974822991 0 -0.46157657978994598 -0.34139555482026068 0 -0.47623524987602139 -0.32201367690444971 0 -0.48561656391384522 -0.34384835974822991 0 -0.46157657978994598 -0.34139555482026068 0 -0.47568148196104371 -0.35852722048879659 0 -0.48561656391384522 -0.34384835974822991 0 -0.47568148196104371 -0.35852722048879659 0 -0.48561656391384522 -0.34384835974822991 0 -0.48768886795130861 -0.36141736908419309 0 -0.5 -0.35733123223159241 0 -0.48561656391384522 -0.34384835974822991 0 -0.48768886795130861 -0.36141736908419309 0 -0.5 -0.35733123223159241 0 -0.4947615751445838 -0.37332156409002909 0 -0.48768886795130861 -0.36141736908419309 0 -0.5 -0.38662540363144121 0 -0.5 -0.35733123223159241 0 -0.4947615751445838 -0.37332156409002909 0 -0.4947615751445838 -0.37332156409002909 0 -0.48768886795130861 -0.36141736908419309 0 -0.48030931097003587 -0.37191064435083931 0 -0.47568148196104371 -0.35852722048879659 0 -0.48030931097003587 -0.37191064435083931 0 -0.46669490250066459 -0.37481721741951951 0 -0.47568148196104371 -0.35852722048879659 0 -0.48768886795130861 -0.36141736908419309 0 -0.48030931097003587 -0.37191064435083931 0 -0.46669490250066459 -0.37481721741951951 0 -0.45985290530711531 -0.35919053618658509 0 -0.45095991715087752 -0.36968037302039969 0 -0.47568148196104371 -0.35852722048879659 0 -0.46669490250066459 -0.37481721741951951 0 -0.45985290530711531 -0.35919053618658509 0 -0.46157657978994598 -0.34139555482026068 0 -0.47568148196104371 -0.35852722048879659 0 -0.45985290530711531 -0.35919053618658509 0 -0.46157657978994598 -0.34139555482026068 0 -0.45985290530711531 -0.35919053618658509 0 -0.44091292170358748 -0.35617636658334351 0 -0.46157657978994598 -0.34139555482026068 0 -0.44091292170358748 -0.35617636658334351 0 -0.43521386225128428 -0.33802231259611382 0 -0.43421362475025049 -0.37527491429266319 0 -0.44091292170358748 -0.35617636658334351 0 -0.45095991715087752 -0.36968037302039969 0 -0.45985290530711531 -0.35919053618658509 0 -0.44091292170358748 -0.35617636658334351 0 -0.45095991715087752 -0.36968037302039969 0 -0.43421362475025049 -0.37527491429266319 0 -0.41656514696884139 -0.37636588688318029 0 -0.42218579342164808 -0.36334977441807748 0 -0.43421362475025049 -0.37527491429266319 0 -0.44091292170358748 -0.35617636658334351 0 -0.42218579342164808 -0.36334977441807748 0 -0.44091292170358748 -0.35617636658334351 0 -0.42218579342164808 -0.36334977441807748 0 -0.42066840753926321 -0.34864312644900147 0 -0.44091292170358748 -0.35617636658334351 0 -0.42066840753926321 -0.34864312644900147 0 -0.43521386225128428 -0.33802231259611382 0 -0.42218579342164808 -0.36334977441807748 0 -0.42066840753926321 -0.34864312644900147 0 -0.40690054455725883 -0.35815659477868023 0 -0.40690054455725883 -0.35815659477868023 0 -0.40885114471262263 -0.334649070371968 0 -0.42066840753926321 -0.34864312644900147 0 -0.40690054455725883 -0.35815659477868023 0 -0.40885114471262263 -0.334649070371968 0 -0.42218579342164808 -0.36334977441807748 0 -0.40690054455725883 -0.35815659477868023 0 -0.40625971269279348 -0.36587953617857771 0 -0.40690054455725883 -0.35815659477868023 0 -0.40625971269279348 -0.36587953617857771 0 -0.41656514696884139 -0.37636588688318029 0 -0.42218579342164808 -0.36334977441807748 0 -0.40625971269279348 -0.36587953617857771 0 -0.42218579342164808 -0.36334977441807748 0 -0.40690054455725883 -0.35815659477868023 0 -0.41656514696884139 -0.37636588688318029 0 -0.40465459864295228 -0.37650109000307358 0 -0.40625971269279348 -0.36587953617857771 0 -0.40465459864295228 -0.37650109000307358 0 -0.40625971269279348 -0.36587953617857771 0 -0.3968495855878465 -0.36923685638487008 0 -0.40690054455725883 -0.35815659477868023 0 -0.40029228617445223 -0.36350286704594809 0 -0.3911593018599101 -0.36073848084166482 0 -0.40625971269279348 -0.36587953617857771 0 -0.40029228617445223 -0.36350286704594809 0 -0.3968495855878465 -0.36923685638487008 0 -0.40690054455725883 -0.35815659477868023 0 -0.40625971269279348 -0.36587953617857771 0 -0.40029228617445223 -0.36350286704594809 0 -0.3911593018599101 -0.36073848084166482 0 -0.3968495855878465 -0.36923685638487008 0 -0.38569326772338258 -0.37053454129240582 0 -0.40029228617445223 -0.36350286704594809 0 -0.3911593018599101 -0.36073848084166482 0 -0.3968495855878465 -0.36923685638487008 0 -0.39431275766669582 -0.38061373190328529 0 -0.3968495855878465 -0.36923685638487008 0 -0.38569326772338258 -0.37053454129240582 0 -0.3911593018599101 -0.36073848084166482 0 -0.38569326772338258 -0.37053454129240582 0 -0.37568472164775779 -0.36524225821647011 0 -0.37522403377147279 -0.38060127254172499 0 -0.38569326772338258 -0.37053454129240582 0 -0.37568472164775779 -0.36524225821647011 0 -0.3911593018599101 -0.36073848084166482 0 -0.37568472164775779 -0.36524225821647011 0 -0.38024887903539811 -0.3491016629308506 0 -0.40690054455725883 -0.35815659477868023 0 -0.3911593018599101 -0.36073848084166482 0 -0.38024887903539811 -0.3491016629308506 0 -0.40690054455725883 -0.35815659477868023 0 -0.38024887903539811 -0.3491016629308506 0 -0.39533213247953691 -0.34338662223350158 0 -0.40690054455725883 -0.35815659477868023 0 -0.39533213247953691 -0.34338662223350158 0 -0.40885114471262263 -0.334649070371968 0 -0.40690054455725883 -0.35815659477868023 0 -0.38024887903539811 -0.3491016629308506 0 -0.39533213247953691 -0.34338662223350158 0 -0.38532796161286798 -0.33163916085250739 0 -0.40885114471262263 -0.334649070371968 0 -0.38532796161286798 -0.33163916085250739 0 -0.40885114471262263 -0.334649070371968 0 -0.38024887903539811 -0.3491016629308506 0 -0.39533213247953691 -0.34338662223350158 0 -0.38532796161286798 -0.33163916085250739 0 -0.38024887903539811 -0.3491016629308506 0 -0.38532796161286798 -0.33163916085250739 0 -0.37024470816872912 -0.33735420154985679 0 -0.38532796161286798 -0.33163916085250739 0 -0.37601492727600683 -0.3197696392392384 0 -0.39293033406270472 -0.31505081143976649 0 -0.37601492727600683 -0.3197696392392384 0 -0.39293033406270472 -0.31505081143976649 0 -0.37651642550459341 -0.307078797330949 0 -0.38532796161286798 -0.33163916085250739 0 -0.39293033406270472 -0.31505081143976649 0 -0.40885114471262263 -0.334649070371968 0 -0.39293033406270472 -0.31505081143976649 0 -0.40885114471262263 -0.334649070371968 0 -0.41078846406037228 -0.3113015987101887 0 -0.40885114471262263 -0.334649070371968 0 -0.42554877913925399 -0.3223331804902434 0 -0.41078846406037228 -0.3113015987101887 0 -0.40885114471262263 -0.334649070371968 0 -0.41078846406037228 -0.3113015987101887 0 -0.42066840753926321 -0.34864312644900147 0 -0.40885114471262263 -0.334649070371968 0 -0.43521386225128428 -0.33802231259611382 0 -0.40885114471262263 -0.334649070371968 0 -0.43521386225128428 -0.33802231259611382 0 -0.40885114471262263 -0.334649070371968 0 -0.43521386225128428 -0.33802231259611382 0 -0.42554877913925399 -0.3223331804902434 0 -0.42554877913925399 -0.3223331804902434 0 -0.4314578060398388 -0.3048790663939604 0 -0.41078846406037228 -0.3113015987101887 0 -0.45018982867155483 -0.32180400573951162 0 -0.43521386225128428 -0.33802231259611382 0 -0.42554877913925399 -0.3223331804902434 0 -0.45018982867155483 -0.32180400573951162 0 -0.42554877913925399 -0.3223331804902434 0 -0.4314578060398388 -0.3048790663939604 0 -0.4476129789611048 -0.29283803371489903 0 -0.4314578060398388 -0.3048790663939604 0 -0.43236213870239748 -0.29002705800971151 0 -0.4314578060398388 -0.3048790663939604 0 -0.43236213870239748 -0.29002705800971151 0 -0.41272578340812272 -0.2879541270484095 0 -0.4314578060398388 -0.3048790663939604 0 -0.41272578340812272 -0.2879541270484095 0 -0.43765198640052377 -0.27443700488157741 0 -0.43236213870239748 -0.29002705800971151 0 -0.41272578340812272 -0.2879541270484095 0 -0.4314578060398388 -0.3048790663939604 0 -0.41272578340812272 -0.2879541270484095 0 -0.41078846406037228 -0.3113015987101887 0 -0.41272578340812272 -0.2879541270484095 0 -0.41078846406037228 -0.3113015987101887 0 -0.41272578340812272 -0.2879541270484095 0 -0.41078846406037228 -0.3113015987101887 0 -0.39233272698174793 -0.29435547039456872 0 -0.39293033406270472 -0.31505081143976649 0 -0.41078846406037228 -0.3113015987101887 0 -0.39233272698174793 -0.29435547039456872 0 -0.39293033406270472 -0.31505081143976649 0 -0.37651642550459341 -0.307078797330949 0 -0.39233272698174793 -0.29435547039456872 0 -0.39233272698174793 -0.29435547039456872 0 -0.39278725088820249 -0.26993907014966689 0 -0.37040839911066209 -0.28171057629616708 0 -0.37651642550459341 -0.307078797330949 0 -0.39233272698174793 -0.29435547039456872 0 -0.37040839911066209 -0.28171057629616708 0 -0.41272578340812272 -0.2879541270484095 0 -0.39233272698174793 -0.29435547039456872 0 -0.39278725088820249 -0.26993907014966689 0 -0.41272578340812272 -0.2879541270484095 0 -0.39278725088820249 -0.26993907014966689 0 -0.39278725088820249 -0.26993907014966689 0 -0.37040839911066209 -0.28171057629616708 0 -0.39278725088820249 -0.26993907014966689 0 -0.37533687834285862 -0.25417213976024849 0 -0.37040839911066209 -0.28171057629616708 0 -0.39278725088820249 -0.26993907014966689 0 -0.37533687834285862 -0.25417213976024849 0 -0.39826986996263802 -0.25360934065352753 0 -0.39278725088820249 -0.26993907014966689 0 -0.37533687834285862 -0.25417213976024849 0 -0.39278725088820249 -0.26993907014966689 0 -0.39826986996263802 -0.25360934065352753 0 -0.41519883225968468 -0.25815034790020708 0 -0.39278725088820249 -0.26993907014966689 0 -0.41519883225968468 -0.25815034790020708 0 -0.39826986996263802 -0.25360934065352753 0 -0.41519883225968468 -0.25815034790020708 0 -0.41615383063077721 -0.2466412503256647 0 -0.41519883225968468 -0.25815034790020708 0 -0.41615383063077721 -0.2466412503256647 0 -0.41272578340812272 -0.2879541270484095 0 -0.41519883225968468 -0.25815034790020708 0 -0.41272578340812272 -0.2879541270484095 0 -0.41519883225968468 -0.25815034790020708 0 -0.429874989515865 -0.26165756953837482 0 -0.41272578340812272 -0.2879541270484095 0 -0.39278725088820249 -0.26993907014966689 0 -0.41519883225968468 -0.25815034790020708 0 -0.43765198640052377 -0.27443700488157741 0 -0.41272578340812272 -0.2879541270484095 0 -0.429874989515865 -0.26165756953837482 0 -0.41519883225968468 -0.25815034790020708 0 -0.43598079583492633 -0.24721882136819351 0 -0.41519883225968468 -0.25815034790020708 0 -0.429874989515865 -0.26165756953837482 0 -0.43598079583492633 -0.24721882136819351 0 -0.41519883225968468 -0.25815034790020708 0 -0.43598079583492633 -0.24721882136819351 0 -0.41615383063077721 -0.2466412503256647 0 -0.31968345090478489 -0.25798973640781447 0 -0.33623326073948312 -0.25365348176558788 0 -0.32213598881581812 -0.2442700999577708 0 -0.31968345090478489 -0.25798973640781447 0 -0.31319680135340772 -0.27337899374224139 0 -0.30564385326437488 -0.26015983685037081 0 -0.31968345090478489 -0.25798973640781447 0 -0.31319680135340772 -0.27337899374224139 0 -0.33256675641106698 -0.27199424518209242 0 -0.31319680135340772 -0.27337899374224139 0 -0.33256675641106698 -0.27199424518209242 0 -0.3219330120753135 -0.28752383142540722 0 -0.33256675641106698 -0.27199424518209242 0 -0.33623326073948312 -0.25365348176558788 0 -0.35329637777243872 -0.26495799818728782 0 -0.31968345090478489 -0.25798973640781447 0 -0.33256675641106698 -0.27199424518209242 0 -0.33623326073948312 -0.25365348176558788 0 -0.33623326073948312 -0.25365348176558788 0 -0.35329637777243872 -0.26495799818728782 0 -0.35305879752332059 -0.24486073726717009 0 -0.37533687834285862 -0.25417213976024849 0 -0.35329637777243872 -0.26495799818728782 0 -0.35305879752332059 -0.24486073726717009 0 -0.37533687834285862 -0.25417213976024849 0 -0.35329637777243872 -0.26495799818728782 0 -0.37040839911066209 -0.28171057629616708 0 -0.35329637777243872 -0.26495799818728782 0 -0.34802954733312141 -0.29348208244266671 0 -0.37040839911066209 -0.28171057629616708 0 -0.33256675641106698 -0.27199424518209242 0 -0.35329637777243872 -0.26495799818728782 0 -0.34802954733312141 -0.29348208244266671 0 -0.34802954733312141 -0.29348208244266671 0 -0.37040839911066209 -0.28171057629616708 0 -0.37651642550459341 -0.307078797330949 0 -0.37040839911066209 -0.28171057629616708 0 -0.36249180620921062 -0.30132401124355712 0 -0.34802954733312141 -0.29348208244266671 0 -0.37040839911066209 -0.28171057629616708 0 -0.36249180620921062 -0.30132401124355712 0 -0.37651642550459341 -0.307078797330949 0 -0.36249180620921062 -0.30132401124355712 0 -0.36514172279026702 -0.314674684486903 0 -0.36249180620921062 -0.30132401124355712 0 -0.35217384865543538 -0.31302074178168637 0 -0.36514172279026702 -0.314674684486903 0 -0.34802954733312141 -0.29348208244266671 0 -0.33894022777705518 -0.31261958861733652 0 -0.35217384865543538 -0.31302074178168637 0 -0.34802954733312141 -0.29348208244266671 0 -0.36249180620921062 -0.30132401124355712 0 -0.35217384865543538 -0.31302074178168637 0 -0.34802954733312141 -0.29348208244266671 0 -0.32565069555558063 -0.30525358858916618 0 -0.33894022777705518 -0.31261958861733652 0 -0.34802954733312141 -0.29348208244266671 0 -0.32565069555558063 -0.30525358858916618 0 -0.32565069555558063 -0.30525358858916618 0 -0.32940773276489932 -0.31652548782855527 0 -0.33894022777705518 -0.31261958861733652 0 -0.33256675641106698 -0.27199424518209242 0 -0.34802954733312141 -0.29348208244266671 0 -0.3219330120753135 -0.28752383142540722 0 -0.34802954733312141 -0.29348208244266671 0 -0.3219330120753135 -0.28752383142540722 0 -0.32565069555558063 -0.30525358858916618 0 -0.3219330120753135 -0.28752383142540722 0 -0.31228269981280887 -0.29918463989613459 0 -0.30483638085835207 -0.28788342401786787 0 -0.31319680135340772 -0.27337899374224139 0 -0.3219330120753135 -0.28752383142540722 0 -0.30483638085835207 -0.28788342401786787 0 -0.32565069555558063 -0.30525358858916618 0 -0.30327184377803978 -0.31702509473566581 0 -0.31228269981280887 -0.29918463989613459 0 -0.3219330120753135 -0.28752383142540722 0 -0.32565069555558063 -0.30525358858916618 0 -0.31228269981280887 -0.29918463989613459 0 -0.32565069555558063 -0.30525358858916618 0 -0.30327184377803978 -0.31702509473566581 0 -0.31475841231360341 -0.32260943229412947 0 -0.32694554799167658 -0.33099179923519167 0 -0.33828159541335823 -0.32561934181358893 0 -0.32565069555558063 -0.30525358858916618 0 -0.31475841231360341 -0.32260943229412947 0 -0.30327184377803978 -0.31702509473566581 0 -0.31475841231360341 -0.32260943229412947 0 -0.33828159541335823 -0.32561934181358893 0 -0.32940773276489932 -0.31652548782855527 0 -0.32565069555558063 -0.30525358858916618 0 -0.31475841231360341 -0.32260943229412947 0 -0.32940773276489932 -0.31652548782855527 0 -0.31475841231360341 -0.32260943229412947 0 -0.33828159541335823 -0.32561934181358893 0 -0.31475841231360341 -0.32260943229412947 0 -0.31372637242327511 -0.33497634201883658 0 -0.32694554799167658 -0.33099179923519167 0 -0.32694554799167658 -0.33099179923519167 0 -0.32737612656656928 -0.35021722948502532 0 -0.3170311031704231 -0.34491623006635341 0 -0.31372637242327511 -0.33497634201883658 0 -0.32694554799167658 -0.33099179923519167 0 -0.3170311031704231 -0.34491623006635341 0 -0.31372637242327511 -0.33497634201883658 0 -0.3170311031704231 -0.34491623006635341 0 -0.30849554643820359 -0.34481279163420842 0 -0.32694554799167658 -0.33099179923519167 0 -0.33828159541335823 -0.32561934181358893 0 -0.35359721351353718 -0.34004673108302108 0 -0.32694554799167658 -0.33099179923519167 0 -0.35359721351353718 -0.34004673108302108 0 -0.33765025977867152 -0.34480892108230998 0 -0.32694554799167658 -0.33099179923519167 0 -0.35359721351353718 -0.34004673108302108 0 -0.32694554799167658 -0.33099179923519167 0 -0.33765025977867152 -0.34480892108230998 0 -0.32737612656656928 -0.35021722948502532 0 -0.33828159541335823 -0.32561934181358893 0 -0.32940773276489932 -0.31652548782855527 0 -0.33894022777705518 -0.31261958861733652 0 -0.33828159541335823 -0.32561934181358893 0 -0.33894022777705518 -0.31261958861733652 0 -0.35217384865543538 -0.31302074178168637 0 -0.33828159541335823 -0.32561934181358893 0 -0.3618047785131131 -0.32862925133304821 0 -0.33828159541335823 -0.32561934181358893 0 -0.35217384865543538 -0.31302074178168637 0 -0.3618047785131131 -0.32862925133304821 0 -0.38532796161286798 -0.33163916085250739 0 -0.37601492727600683 -0.3197696392392384 0 -0.3618047785131131 -0.32862925133304821 0 -0.35217384865543538 -0.31302074178168637 0 -0.36514172279026702 -0.314674684486903 0 -0.3618047785131131 -0.32862925133304821 0 -0.37601492727600683 -0.3197696392392384 0 -0.36514172279026702 -0.314674684486903 0 -0.3618047785131131 -0.32862925133304821 0 -0.37601492727600683 -0.3197696392392384 0 -0.37651642550459341 -0.307078797330949 0 -0.36514172279026702 -0.314674684486903 0 -0.38532796161286798 -0.33163916085250739 0 -0.37024470816872912 -0.33735420154985679 0 -0.3618047785131131 -0.32862925133304821 0 -0.37024470816872912 -0.33735420154985679 0 -0.3618047785131131 -0.32862925133304821 0 -0.35359721351353718 -0.34004673108302108 0 -0.38532796161286798 -0.33163916085250739 0 -0.3618047785131131 -0.32862925133304821 0 -0.38024887903539811 -0.3491016629308506 0 -0.37024470816872912 -0.33735420154985679 0 -0.35359721351353718 -0.34004673108302108 0 -0.33828159541335823 -0.32561934181358893 0 -0.3618047785131131 -0.32862925133304821 0 -0.35359721351353718 -0.34004673108302108 0 -0.35359721351353718 -0.34004673108302108 0 -0.36247207576052709 -0.35740109745143939 0 -0.34268215104290278 -0.35797992452600158 0 -0.35359721351353718 -0.34004673108302108 0 -0.34268215104290278 -0.35797992452600158 0 -0.33765025977867152 -0.34480892108230998 0 -0.37568472164775779 -0.36524225821647011 0 -0.38024887903539811 -0.3491016629308506 0 -0.36247207576052709 -0.35740109745143939 0 -0.38024887903539811 -0.3491016629308506 0 -0.35359721351353718 -0.34004673108302108 0 -0.36247207576052709 -0.35740109745143939 0 -0.38024887903539811 -0.3491016629308506 0 -0.35359721351353718 -0.34004673108302108 0 -0.37522403377147279 -0.38060127254172499 0 -0.37568472164775779 -0.36524225821647011 0 -0.35964608014779109 -0.37334112637938882 0 -0.37568472164775779 -0.36524225821647011 0 -0.36247207576052709 -0.35740109745143939 0 -0.35964608014779109 -0.37334112637938882 0 -0.36247207576052709 -0.35740109745143939 0 -0.35964608014779109 -0.37334112637938882 0 -0.34268215104290278 -0.35797992452600158 0 -0.35964608014779109 -0.37334112637938882 0 -0.34268215104290278 -0.35797992452600158 0 -0.34254000635277743 -0.38197763020755832 0 -0.34268215104290278 -0.35797992452600158 0 -0.32737612656656928 -0.35021722948502532 0 -0.32270418411731933 -0.37181077970513959 0 -0.34268215104290278 -0.35797992452600158 0 -0.32270418411731933 -0.37181077970513959 0 -0.34254000635277743 -0.38197763020755832 0 -0.34268215104290278 -0.35797992452600158 0 -0.34254000635277743 -0.38197763020755832 0 -0.34268215104290278 -0.35797992452600158 0 -0.33765025977867152 -0.34480892108230998 0 -0.32737612656656928 -0.35021722948502532 0 -0.32737612656656928 -0.35021722948502532 0 -0.31662274924076123 -0.35606216629487569 0 -0.32270418411731933 -0.37181077970513959 0 -0.32737612656656928 -0.35021722948502532 0 -0.3170311031704231 -0.34491623006635341 0 -0.31662274924076123 -0.35606216629487569 0 -0.3170311031704231 -0.34491623006635341 0 -0.31662274924076123 -0.35606216629487569 0 -0.30902027636205309 -0.35243705172998302 0 -0.31662274924076123 -0.35606216629487569 0 -0.32270418411731933 -0.37181077970513959 0 -0.30796050174877349 -0.36016317053514468 0 -0.32270418411731933 -0.37181077970513959 0 -0.29719619905707523 -0.36594012765828582 0 -0.30796050174877349 -0.36016317053514468 0 -0.32270418411731933 -0.37181077970513959 0 -0.29719619905707523 -0.36594012765828582 0 -0.3103864423796594 -0.37828470113645102 0 -0.32270418411731933 -0.37181077970513959 0 -0.29719619905707523 -0.36594012765828582 0 -0.29719619905707523 -0.36594012765828582 0 -0.29943295026653399 -0.35953932364306618 0 -0.30796050174877349 -0.36016317053514468 0 -0.29719619905707523 -0.36594012765828582 0 -0.29584447723995128 -0.37444813956539807 0 -0.3103864423796594 -0.37828470113645102 0 -0.31662274924076123 -0.35606216629487569 0 -0.30796050174877349 -0.36016317053514468 0 -0.30902027636205309 -0.35243705172998302 0 -0.30796050174877349 -0.36016317053514468 0 -0.30902027636205309 -0.35243705172998302 0 -0.30278665144889838 -0.35518957417951802 0 -0.3170311031704231 -0.34491623006635341 0 -0.30902027636205309 -0.35243705172998302 0 -0.30849554643820359 -0.34481279163420842 0 -0.30902027636205309 -0.35243705172998302 0 -0.30849554643820359 -0.34481279163420842 0 -0.30076474035813339 -0.34759465108555682 0 -0.30849554643820359 -0.34481279163420842 0 -0.30076474035813339 -0.34759465108555682 0 -0.30398917998114899 -0.33934800480643368 0 -0.30902027636205309 -0.35243705172998302 0 -0.30076474035813339 -0.34759465108555682 0 -0.30278665144889838 -0.35518957417951802 0 -0.29943295026653399 -0.35953932364306618 0 -0.30796050174877349 -0.36016317053514468 0 -0.30278665144889838 -0.35518957417951802 0 -0.30076474035813339 -0.34759465108555682 0 -0.30278665144889838 -0.35518957417951802 0 -0.29719830368448108 -0.35301728683459582 0 -0.29943295026653399 -0.35953932364306618 0 -0.30278665144889838 -0.35518957417951802 0 -0.29719830368448108 -0.35301728683459582 0 -0.29943295026653399 -0.35953932364306618 0 -0.29719830368448108 -0.35301728683459582 0 -0.29016743694869812 -0.35649807524262711 0 -0.29016743694869812 -0.35649807524262711 0 -0.28284547851944208 -0.35047845284871731 0 -0.27168821399683141 -0.36006947561143121 0 -0.29719830368448108 -0.35301728683459582 0 -0.29016743694869812 -0.35649807524262711 0 -0.2925915294609488 -0.34919256188026188 0 -0.2925915294609488 -0.34919256188026188 0 -0.28611540962297188 -0.3426453659285974 0 -0.29619358151489988 -0.34015641309103278 0 -0.30076474035813339 -0.34759465108555682 0 -0.29719830368448108 -0.35301728683459582 0 -0.2925915294609488 -0.34919256188026188 0 -0.30076474035813339 -0.34759465108555682 0 -0.2925915294609488 -0.34919256188026188 0 -0.29619358151489988 -0.34015641309103278 0 -0.2925915294609488 -0.34919256188026188 0 -0.28284547851944208 -0.35047845284871731 0 -0.28611540962297188 -0.3426453659285974 0 -0.28284547851944208 -0.35047845284871731 0 -0.27676447355633299 -0.3457480812413124 0 -0.28611540962297188 -0.3426453659285974 0 -0.29016743694869812 -0.35649807524262711 0 -0.2925915294609488 -0.34919256188026188 0 -0.28284547851944208 -0.35047845284871731 0 -0.29202770366946113 -0.36668513997228358 0 -0.27168821399683141 -0.36006947561143121 0 -0.28307956849111848 -0.3828068929804474 0 -0.29719619905707523 -0.36594012765828582 0 -0.27168821399683141 -0.36006947561143121 0 -0.29202770366946113 -0.36668513997228358 0 -0.28307956849111848 -0.3828068929804474 0 -0.29202770366946113 -0.36668513997228358 0 -0.29584447723995128 -0.37444813956539807 0 -0.28307956849111848 -0.3828068929804474 0 -0.29719619905707523 -0.36594012765828582 0 -0.29016743694869812 -0.35649807524262711 0 -0.27168821399683141 -0.36006947561143121 0 -0.29719619905707523 -0.36594012765828582 0 -0.29202770366946113 -0.36668513997228358 0 -0.27168821399683141 -0.36006947561143121 0 -0.29719619905707523 -0.36594012765828582 0 -0.29943295026653399 -0.35953932364306618 0 -0.29016743694869812 -0.35649807524262711 0 -0.29719619905707523 -0.36594012765828582 0 -0.29202770366946113 -0.36668513997228358 0 -0.29584447723995128 -0.37444813956539807 0 -0.27168821399683141 -0.36006947561143121 0 -0.28307956849111848 -0.3828068929804474 0 -0.27168821399683141 -0.36006947561143121 0 -0.28307956849111848 -0.3828068929804474 0 -0.26050234447883253 -0.38027693877573482 0 -0.27168821399683141 -0.36006947561143121 0 -0.25721723303835431 -0.36623646057876708 0 -0.26050234447883253 -0.38027693877573482 0 -0.27168821399683141 -0.36006947561143121 0 -0.25721723303835431 -0.36623646057876708 0 -0.24850069890613241 -0.35473287875334369 0 -0.25721723303835431 -0.36623646057876708 0 -0.24817767477162081 -0.36986654917455902 0 -0.24850069890613241 -0.35473287875334369 0 -0.25721723303835431 -0.36623646057876708 0 -0.26050234447883253 -0.38027693877573482 0 -0.24817767477162081 -0.36986654917455902 0 -0.27168821399683141 -0.36006947561143121 0 -0.25445926970156468 -0.34270101061729968 0 -0.24850069890613241 -0.35473287875334369 0 -0.27168821399683141 -0.36006947561143121 0 -0.26120815563270988 -0.3391510272218049 0 -0.25445926970156468 -0.34270101061729968 0 -0.27168821399683141 -0.36006947561143121 0 -0.24850069890613241 -0.35473287875334369 0 -0.27168821399683141 -0.36006947561143121 0 -0.27676447355633299 -0.3457480812413124 0 -0.26120815563270988 -0.3391510272218049 0 -0.27168821399683141 -0.36006947561143121 0 -0.26120815563270988 -0.3391510272218049 0 -0.28284547851944208 -0.35047845284871731 0 -0.27168821399683141 -0.36006947561143121 0 -0.27676447355633299 -0.3457480812413124 0 -0.27676447355633299 -0.3457480812413124 0 -0.27858368134566353 -0.33798527866036399 0 -0.28611540962297188 -0.3426453659285974 0 -0.27676447355633299 -0.3457480812413124 0 -0.27858368134566353 -0.33798527866036399 0 -0.26120815563270988 -0.3391510272218049 0 -0.28089299200049878 -0.32879660088216478 0 -0.26120815563270988 -0.3391510272218049 0 -0.28089299200049878 -0.32879660088216478 0 -0.26120815563270988 -0.3391510272218049 0 -0.26730676106940449 -0.32685643845792262 0 -0.27858368134566353 -0.33798527866036399 0 -0.28089299200049878 -0.32879660088216478 0 -0.26120815563270988 -0.3391510272218049 0 -0.26120815563270988 -0.3391510272218049 0 -0.26057751607960811 -0.32279583566460812 0 -0.26730676106940449 -0.32685643845792262 0 -0.26120815563270988 -0.3391510272218049 0 -0.25273748935779161 -0.32224337373924072 0 -0.26120815563270988 -0.3391510272218049 0 -0.25207330520806498 -0.33378255792528982 0 -0.25273748935779161 -0.32224337373924072 0 -0.26120815563270988 -0.3391510272218049 0 -0.25445926970156468 -0.34270101061729968 0 -0.25207330520806498 -0.33378255792528982 0 -0.25445926970156468 -0.34270101061729968 0 -0.2460450098649074 -0.33743905859998191 0 -0.26120815563270988 -0.3391510272218049 0 -0.25207330520806498 -0.33378255792528982 0 -0.25445926970156468 -0.34270101061729968 0 -0.25273748935779161 -0.32224337373924072 0 -0.26050456352867191 -0.3149367065078193 0 -0.24426682308287331 -0.30533572025667649 0 -0.26120815563270988 -0.3391510272218049 0 -0.25273748935779161 -0.32224337373924072 0 -0.26057751607960811 -0.32279583566460812 0 -0.26057751607960811 -0.32279583566460812 0 -0.26050456352867191 -0.3149367065078193 0 -0.26730676106940449 -0.32685643845792262 0 -0.25273748935779161 -0.32224337373924072 0 -0.26057751607960811 -0.32279583566460812 0 -0.26050456352867191 -0.3149367065078193 0 -0.28089299200049878 -0.32879660088216478 0 -0.26050456352867191 -0.3149367065078193 0 -0.27445713665833338 -0.31633796571173628 0 -0.28089299200049878 -0.32879660088216478 0 -0.26050456352867191 -0.3149367065078193 0 -0.26050456352867191 -0.3149367065078193 0 -0.27445713665833338 -0.31633796571173628 0 -0.26793999894844561 -0.31004618489902153 0 -0.28089299200049878 -0.32879660088216478 0 -0.26050456352867191 -0.3149367065078193 0 -0.26730676106940449 -0.32685643845792262 0 -0.28089299200049878 -0.32879660088216478 0 -0.27445713665833338 -0.31633796571173628 0 -0.28125105682705043 -0.31976055402590231 0 -0.27445713665833338 -0.31633796571173628 0 -0.28252008875028978 -0.31254235777143202 0 -0.28125105682705043 -0.31976055402590231 0 -0.28252008875028978 -0.31254235777143202 0 -0.28823329624350208 -0.31711313423980658 0 -0.29327146190654751 -0.30876504511160502 0 -0.28089299200049878 -0.32879660088216478 0 -0.28823329624350208 -0.31711313423980658 0 -0.30327184377803978 -0.31702509473566581 0 -0.28089299200049878 -0.32879660088216478 0 -0.29457520052377689 -0.33013191680287202 0 -0.30327184377803978 -0.31702509473566581 0 -0.28089299200049878 -0.32879660088216478 0 -0.30327184377803978 -0.31702509473566581 0 -0.28252008875028978 -0.31254235777143202 0 -0.28125105682705043 -0.31976055402590231 0 -0.28823329624350208 -0.31711313423980658 0 -0.28823329624350208 -0.31711313423980658 0 -0.30327184377803978 -0.31702509473566581 0 -0.29327146190654751 -0.30876504511160502 0 -0.28089299200049878 -0.32879660088216478 0 -0.28125105682705043 -0.31976055402590231 0 -0.28823329624350208 -0.31711313423980658 0 -0.28089299200049878 -0.32879660088216478 0 -0.28793737591580382 -0.33358531802794061 0 -0.27858368134566353 -0.33798527866036399 0 -0.28089299200049878 -0.32879660088216478 0 -0.28793737591580382 -0.33358531802794061 0 -0.28089299200049878 -0.32879660088216478 0 -0.28793737591580382 -0.33358531802794061 0 -0.29457520052377689 -0.33013191680287202 0 -0.27858368134566353 -0.33798527866036399 0 -0.28793737591580382 -0.33358531802794061 0 -0.28611540962297188 -0.3426453659285974 0 -0.28793737591580382 -0.33358531802794061 0 -0.28611540962297188 -0.3426453659285974 0 -0.29619358151489988 -0.34015641309103278 0 -0.28793737591580382 -0.33358531802794061 0 -0.29619358151489988 -0.34015641309103278 0 -0.29457520052377689 -0.33013191680287202 0 -0.29619358151489988 -0.34015641309103278 0 -0.29457520052377689 -0.33013191680287202 0 -0.30458020940964259 -0.3310961572775562 0 -0.30076474035813339 -0.34759465108555682 0 -0.29619358151489988 -0.34015641309103278 0 -0.30398917998114899 -0.33934800480643368 0 -0.29619358151489988 -0.34015641309103278 0 -0.30458020940964259 -0.3310961572775562 0 -0.30398917998114899 -0.33934800480643368 0 -0.31372637242327511 -0.33497634201883658 0 -0.30849554643820359 -0.34481279163420842 0 -0.30398917998114899 -0.33934800480643368 0 -0.31475841231360341 -0.32260943229412947 0 -0.31372637242327511 -0.33497634201883658 0 -0.30458020940964259 -0.3310961572775562 0 -0.31372637242327511 -0.33497634201883658 0 -0.30458020940964259 -0.3310961572775562 0 -0.30398917998114899 -0.33934800480643368 0 -0.31475841231360341 -0.32260943229412947 0 -0.30458020940964259 -0.3310961572775562 0 -0.30327184377803978 -0.31702509473566581 0 -0.29457520052377689 -0.33013191680287202 0 -0.30458020940964259 -0.3310961572775562 0 -0.30327184377803978 -0.31702509473566581 0 -0.30327184377803978 -0.31702509473566581 0 -0.30068554560480582 -0.30112982209441241 0 -0.31228269981280887 -0.29918463989613459 0 -0.30327184377803978 -0.31702509473566581 0 -0.30068554560480582 -0.30112982209441241 0 -0.29327146190654751 -0.30876504511160502 0 -0.30068554560480582 -0.30112982209441241 0 -0.30483638085835207 -0.28788342401786787 0 -0.28888361246081401 -0.29493054457851903 0 -0.30068554560480582 -0.30112982209441241 0 -0.31228269981280887 -0.29918463989613459 0 -0.30483638085835207 -0.28788342401786787 0 -0.28888361246081401 -0.29493054457851903 0 -0.28078806465599399 -0.28300047521785149 0 -0.29451735460655398 -0.27472288856989607 0 -0.30483638085835207 -0.28788342401786787 0 -0.28888361246081401 -0.29493054457851903 0 -0.29451735460655398 -0.27472288856989607 0 -0.28888361246081401 -0.29493054457851903 0 -0.28295382644196537 -0.3038897035906043 0 -0.27388309143310768 -0.29511411685975181 0 -0.28888361246081401 -0.29493054457851903 0 -0.28295382644196537 -0.3038897035906043 0 -0.29327146190654751 -0.30876504511160502 0 -0.30068554560480582 -0.30112982209441241 0 -0.28888361246081401 -0.29493054457851903 0 -0.29327146190654751 -0.30876504511160502 0 -0.28252008875028978 -0.31254235777143202 0 -0.28295382644196537 -0.3038897035906043 0 -0.29327146190654751 -0.30876504511160502 0 -0.27445713665833338 -0.31633796571173628 0 -0.28252008875028978 -0.31254235777143202 0 -0.27524002690986649 -0.30828041126704497 0 -0.28252008875028978 -0.31254235777143202 0 -0.28295382644196537 -0.3038897035906043 0 -0.27524002690986649 -0.30828041126704497 0 -0.28295382644196537 -0.3038897035906043 0 -0.27524002690986649 -0.30828041126704497 0 -0.27388309143310768 -0.29511411685975181 0 -0.26808679199009749 -0.30362992927208171 0 -0.26252268864995981 -0.29761987486456531 0 -0.27388309143310768 -0.29511411685975181 0 -0.27524002690986649 -0.30828041126704497 0 -0.26808679199009749 -0.30362992927208171 0 -0.27388309143310768 -0.29511411685975181 0 -0.27445713665833338 -0.31633796571173628 0 -0.27524002690986649 -0.30828041126704497 0 -0.26793999894844561 -0.31004618489902153 0 -0.27524002690986649 -0.30828041126704497 0 -0.26808679199009749 -0.30362992927208171 0 -0.26793999894844561 -0.31004618489902153 0 -0.26808679199009749 -0.30362992927208171 0 -0.26793999894844561 -0.31004618489902153 0 -0.26278193746552841 -0.30551063084933561 0 -0.26050456352867191 -0.3149367065078193 0 -0.25485564421046719 -0.30132045870319019 0 -0.24011613505684479 -0.30107681213347393 0 -0.26050456352867191 -0.3149367065078193 0 -0.24011613505684479 -0.30107681213347393 0 -0.26050456352867191 -0.3149367065078193 0 -0.26278193746552841 -0.30551063084933561 0 -0.25485564421046719 -0.30132045870319019 0 -0.26050456352867191 -0.3149367065078193 0 -0.26793999894844561 -0.31004618489902153 0 -0.26278193746552841 -0.30551063084933561 0 -0.26278193746552841 -0.30551063084933561 0 -0.26252268864995981 -0.29761987486456531 0 -0.25485564421046719 -0.30132045870319019 0 -0.26252268864995981 -0.29761987486456531 0 -0.25485564421046719 -0.30132045870319019 0 -0.2567143935458242 -0.29223768812186002 0 -0.26808679199009749 -0.30362992927208171 0 -0.26278193746552841 -0.30551063084933561 0 -0.26252268864995981 -0.29761987486456531 0 -0.25608276685525683 -0.28295324223861612 0 -0.2567143935458242 -0.29223768812186002 0 -0.24732420154209239 -0.29033586459568173 0 -0.25485564421046719 -0.30132045870319019 0 -0.2567143935458242 -0.29223768812186002 0 -0.24732420154209239 -0.29033586459568173 0 -0.26252268864995981 -0.29761987486456531 0 -0.2567143935458242 -0.29223768812186002 0 -0.26350989061834318 -0.28909490770035701 0 -0.25608276685525683 -0.28295324223861612 0 -0.26350989061834318 -0.28909490770035701 0 -0.26907982973782107 -0.2804670883869903 0 -0.25608276685525683 -0.28295324223861612 0 -0.2567143935458242 -0.29223768812186002 0 -0.26350989061834318 -0.28909490770035701 0 -0.26350989061834318 -0.28909490770035701 0 -0.27388309143310768 -0.29511411685975181 0 -0.26907982973782107 -0.2804670883869903 0 -0.26252268864995981 -0.29761987486456531 0 -0.26350989061834318 -0.28909490770035701 0 -0.27388309143310768 -0.29511411685975181 0 -0.28888361246081401 -0.29493054457851903 0 -0.27388309143310768 -0.29511411685975181 0 -0.28078806465599399 -0.28300047521785149 0 -0.27388309143310768 -0.29511411685975181 0 -0.28078806465599399 -0.28300047521785149 0 -0.26907982973782107 -0.2804670883869903 0 -0.27772768471542669 -0.26767482265106679 0 -0.26907982973782107 -0.2804670883869903 0 -0.25958550566062261 -0.27102626557679149 0 -0.28078806465599399 -0.28300047521785149 0 -0.27772768471542669 -0.26767482265106679 0 -0.26907982973782107 -0.2804670883869903 0 -0.25608276685525683 -0.28295324223861612 0 -0.26907982973782107 -0.2804670883869903 0 -0.25958550566062261 -0.27102626557679149 0 -0.25608276685525683 -0.28295324223861612 0 -0.25958550566062261 -0.27102626557679149 0 -0.2444485511135471 -0.27534046621033159 0 -0.26398002587916253 -0.25656090854441049 0 -0.24465976002352091 -0.25387891845332877 0 -0.25992972331208369 -0.2410680052130979 0 -0.25958550566062261 -0.27102626557679149 0 -0.26398002587916253 -0.25656090854441049 0 -0.24465976002352091 -0.25387891845332877 0 -0.27772768471542669 -0.26767482265106679 0 -0.26398002587916253 -0.25656090854441049 0 -0.27722523139620658 -0.24922189107985179 0 -0.27772768471542669 -0.26767482265106679 0 -0.25958550566062261 -0.27102626557679149 0 -0.26398002587916253 -0.25656090854441049 0 -0.27772768471542669 -0.26767482265106679 0 -0.29131753467172561 -0.25675805269722002 0 -0.27722523139620658 -0.24922189107985179 0 -0.28078806465599399 -0.28300047521785149 0 -0.27772768471542669 -0.26767482265106679 0 -0.29451735460655398 -0.27472288856989607 0 -0.27772768471542669 -0.26767482265106679 0 -0.29131753467172561 -0.25675805269722002 0 -0.29451735460655398 -0.27472288856989607 0 -0.31319680135340772 -0.27337899374224139 0 -0.29451735460655398 -0.27472288856989607 0 -0.30564385326437488 -0.26015983685037081 0 -0.31319680135340772 -0.27337899374224139 0 -0.30483638085835207 -0.28788342401786787 0 -0.29451735460655398 -0.27472288856989607 0 -0.29131753467172561 -0.25675805269722002 0 -0.29451735460655398 -0.27472288856989607 0 -0.30564385326437488 -0.26015983685037081 0 -0.29131753467172561 -0.25675805269722002 0 -0.30564385326437488 -0.26015983685037081 0 -0.30769212114973271 -0.24578220261295139 0 -0.31968345090478489 -0.25798973640781447 0 -0.30564385326437488 -0.26015983685037081 0 -0.30769212114973271 -0.24578220261295139 0 -0.34207866423036198 -0.45986413066326443 0 -0.33141508850449702 -0.45187214799378478 0 -0.32594289259428999 -0.46085836632795257 0 -0.34207866423036198 -0.45986413066326443 0 -0.32594289259428999 -0.46085836632795257 0 -0.33264581849560632 -0.47431014716802089 0 -0.34207866423036198 -0.45986413066326443 0 -0.34225571697252682 -0.42997304157067162 0 -0.34207866423036198 -0.45986413066326443 0 -0.33358626016413989 -0.44229992863572659 0 -0.33141508850449702 -0.45187214799378478 0 -0.34207866423036198 -0.45986413066326443 0 -0.33358626016413989 -0.44229992863572659 0 -0.34225571697252682 -0.42997304157067162 0 -0.33358626016413989 -0.44229992863572659 0 -0.33141508850449702 -0.45187214799378478 0 -0.32300139100864811 -0.44723989508536771 0 -0.33358626016413989 -0.44229992863572659 0 -0.32300139100864811 -0.44723989508536771 0 -0.32413493920603592 -0.43586432580396972 0 -0.32300139100864811 -0.44723989508536771 0 -0.31385630152515048 -0.44199725430357722 0 -0.32413493920603592 -0.43586432580396972 0 -0.32300139100864811 -0.44723989508536771 0 -0.31385630152515048 -0.44199725430357722 0 -0.31044958537109257 -0.45255960714027171 0 -0.32594289259428999 -0.46085836632795257 0 -0.31333683559556219 -0.46686726284272168 0 -0.31044958537109257 -0.45255960714027171 0 -0.32594289259428999 -0.46085836632795257 0 -0.31333683559556219 -0.46686726284272168 0 -0.32224857144892449 -0.47649828689453749 0 -0.32300139100864811 -0.44723989508536771 0 -0.32594289259428999 -0.46085836632795257 0 -0.31044958537109257 -0.45255960714027171 0 -0.33141508850449702 -0.45187214799378478 0 -0.32300139100864811 -0.44723989508536771 0 -0.32594289259428999 -0.46085836632795257 0 -0.31333683559556219 -0.46686726284272168 0 -0.32224857144892449 -0.47649828689453749 0 -0.30503152439861497 -0.48190266549989857 0 -0.32224857144892449 -0.47649828689453749 0 -0.32279626626388608 -0.48781718170045291 0 -0.30503152439861497 -0.48190266549989857 0 -0.32594289259428999 -0.46085836632795257 0 -0.32224857144892449 -0.47649828689453749 0 -0.33264581849560632 -0.47431014716802089 0 -0.32224857144892449 -0.47649828689453749 0 -0.32279626626388608 -0.48781718170045291 0 -0.33105735271625752 -0.4845747321984929 0 -0.32006214434654462 -0.5 0 -0.32279626626388608 -0.48781718170045291 0 -0.30503152439861497 -0.48190266549989857 0 -0.32006214434654462 -0.5 0 -0.32279626626388608 -0.48781718170045291 0 -0.33558173840908911 -0.49611022390933512 0 -0.32006214434654462 -0.5 0 -0.33558173840908911 -0.49611022390933512 0 -0.34657288766042038 -0.5 0 -0.33558173840908911 -0.49611022390933512 0 -0.34190161148819742 -0.48975521975585701 0 -0.35306908662498632 -0.4951847935385878 0 -0.32279626626388608 -0.48781718170045291 0 -0.33558173840908911 -0.49611022390933512 0 -0.33105735271625752 -0.4845747321984929 0 -0.33558173840908911 -0.49611022390933512 0 -0.33105735271625752 -0.4845747321984929 0 -0.34190161148819742 -0.48975521975585701 0 -0.34207866423036198 -0.45986413066326443 0 -0.34190161148819742 -0.48975521975585701 0 -0.34207866423036198 -0.45986413066326443 0 -0.34190161148819742 -0.48975521975585701 0 -0.33264581849560632 -0.47431014716802089 0 -0.33105735271625752 -0.4845747321984929 0 -0.34190161148819742 -0.48975521975585701 0 -0.33264581849560632 -0.47431014716802089 0 -0.32224857144892449 -0.47649828689453749 0 -0.33105735271625752 -0.4845747321984929 0 -0.33264581849560632 -0.47431014716802089 0 -0.34190161148819742 -0.48975521975585701 0 -0.35001641252228072 -0.47142734906239081 0 -0.35328963507943428 -0.48328499015431992 0 -0.34207866423036198 -0.45986413066326443 0 -0.34190161148819742 -0.48975521975585701 0 -0.35001641252228072 -0.47142734906239081 0 -0.35328963507943428 -0.48328499015431992 0 -0.35950950469085041 -0.48638993404071668 0 -0.36112286221809747 -0.47283058930211808 0 -0.35001641252228072 -0.47142734906239081 0 -0.35328963507943428 -0.48328499015431992 0 -0.36112286221809747 -0.47283058930211808 0 -0.33558173840908911 -0.49611022390933512 0 -0.35306908662498632 -0.4951847935385878 0 -0.33558173840908911 -0.49611022390933512 0 -0.34657288766042038 -0.5 0 -0.35306908662498632 -0.4951847935385878 0 -0.34657288766042038 -0.5 0 -0.35306908662498632 -0.4951847935385878 0 -0.37308363097429631 -0.50000000000000244 0 -0.34190161148819742 -0.48975521975585701 0 -0.35328963507943428 -0.48328499015431992 0 -0.35306908662498632 -0.4951847935385878 0 -0.35328963507943428 -0.48328499015431992 0 -0.35306908662498632 -0.4951847935385878 0 -0.35950950469085041 -0.48638993404071668 0 -0.35306908662498632 -0.4951847935385878 0 -0.35950950469085041 -0.48638993404071668 0 -0.37055643484088358 -0.49425936316784103 0 -0.35306908662498632 -0.4951847935385878 0 -0.37055643484088358 -0.49425936316784103 0 -0.35950950469085041 -0.48638993404071668 0 -0.37055643484088358 -0.49425936316784103 0 -0.36112286221809747 -0.47283058930211808 0 -0.35306908662498632 -0.4951847935385878 0 -0.37055643484088358 -0.49425936316784103 0 -0.37308363097429631 -0.50000000000000244 0 -0.37055643484088358 -0.49425936316784103 0 -0.37308363097429631 -0.50000000000000244 0 -0.38039451612360919 -0.47713749807852829 0 -0.37055643484088358 -0.49425936316784103 0 -0.36112286221809747 -0.47283058930211808 0 -0.37055643484088358 -0.49425936316784103 0 -0.36112286221809747 -0.47283058930211808 0 -0.38039451612360919 -0.47713749807852829 0 -0.36112286221809747 -0.47283058930211808 0 -0.37415472949075129 -0.45946062715310632 0 -0.37415472949075129 -0.45946062715310632 0 -0.3629811744391212 -0.45722253899736259 0 -0.36406731613876331 -0.44506275929787698 0 -0.36112286221809747 -0.47283058930211808 0 -0.37415472949075129 -0.45946062715310632 0 -0.3629811744391212 -0.45722253899736259 0 -0.36112286221809747 -0.47283058930211808 0 -0.3629811744391212 -0.45722253899736259 0 -0.35168928959531232 -0.4514018154363949 0 -0.36112286221809747 -0.47283058930211808 0 -0.35168928959531232 -0.4514018154363949 0 -0.35001641252228072 -0.47142734906239081 0 -0.36112286221809747 -0.47283058930211808 0 -0.35168928959531232 -0.4514018154363949 0 -0.34207866423036198 -0.45986413066326443 0 -0.35001641252228072 -0.47142734906239081 0 -0.35168928959531232 -0.4514018154363949 0 -0.35168928959531232 -0.4514018154363949 0 -0.34225571697252682 -0.42997304157067162 0 -0.35168928959531232 -0.4514018154363949 0 -0.36406731613876331 -0.44506275929787698 0 -0.34225571697252682 -0.42997304157067162 0 -0.34207866423036198 -0.45986413066326443 0 -0.35168928959531232 -0.4514018154363949 0 -0.34225571697252682 -0.42997304157067162 0 -0.38339996822118783 -0.44368928783448319 0 -0.36406731613876331 -0.44506275929787698 0 -0.36866352395763108 -0.4313760290561211 0 -0.38339996822118783 -0.44368928783448319 0 -0.37415472949075129 -0.45946062715310632 0 -0.36406731613876331 -0.44506275929787698 0 -0.3629811744391212 -0.45722253899736259 0 -0.35168928959531232 -0.4514018154363949 0 -0.36406731613876331 -0.44506275929787698 0 -0.38131756488089769 -0.42670085612339947 0 -0.36866352395763108 -0.4313760290561211 0 -0.36377437909963828 -0.41972983174959272 0 -0.38704143117499401 -0.40999023144455299 0 -0.3575105341832589 -0.40691374405003478 0 -0.38704143117499401 -0.40999023144455299 0 -0.36377437909963828 -0.41972983174959272 0 -0.3575105341832589 -0.40691374405003478 0 -0.35062038894632092 -0.41624612172537079 0 -0.34239786166265201 -0.40597533588911489 0 -0.34225571697252682 -0.42997304157067162 0 -0.36377437909963828 -0.41972983174959272 0 -0.3575105341832589 -0.40691374405003478 0 -0.35062038894632092 -0.41624612172537079 0 -0.3575105341832589 -0.40691374405003478 0 -0.35062038894632092 -0.41624612172537079 0 -0.34239786166265201 -0.40597533588911489 0 -0.36406731613876331 -0.44506275929787698 0 -0.36866352395763108 -0.4313760290561211 0 -0.34225571697252682 -0.42997304157067162 0 -0.36866352395763108 -0.4313760290561211 0 -0.36377437909963828 -0.41972983174959272 0 -0.34225571697252682 -0.42997304157067162 0 -0.36377437909963828 -0.41972983174959272 0 -0.35062038894632092 -0.41624612172537079 0 -0.34225571697252682 -0.42997304157067162 0 -0.37522403377147279 -0.38060127254172499 0 -0.37464038230528551 -0.396492613407532 0 -0.35879027536972019 -0.3891835699585654 0 -0.37522403377147279 -0.38060127254172499 0 -0.35964608014779109 -0.37334112637938882 0 -0.35879027536972019 -0.3891835699585654 0 -0.38704143117499401 -0.40999023144455299 0 -0.3575105341832589 -0.40691374405003478 0 -0.37464038230528551 -0.396492613407532 0 -0.3575105341832589 -0.40691374405003478 0 -0.37464038230528551 -0.396492613407532 0 -0.35879027536972019 -0.3891835699585654 0 -0.3575105341832589 -0.40691374405003478 0 -0.35030966939210212 -0.39601257002631829 0 -0.35879027536972019 -0.3891835699585654 0 -0.35030966939210212 -0.39601257002631829 0 -0.34254000635277743 -0.38197763020755832 0 -0.34239786166265201 -0.40597533588911489 0 -0.3575105341832589 -0.40691374405003478 0 -0.35030966939210212 -0.39601257002631829 0 -0.34239786166265201 -0.40597533588911489 0 -0.35964608014779109 -0.37334112637938882 0 -0.35879027536972019 -0.3891835699585654 0 -0.34254000635277743 -0.38197763020755832 0 -0.35030966939210212 -0.39601257002631829 0 -0.35879027536972019 -0.3891835699585654 0 -0.34254000635277743 -0.38197763020755832 0 -0.32270418411731933 -0.37181077970513959 0 -0.34254000635277743 -0.38197763020755832 0 -0.32435131947256218 -0.38428518727128619 0 -0.34254000635277743 -0.38197763020755832 0 -0.33211028503505757 -0.39455092735479258 0 -0.32435131947256218 -0.38428518727128619 0 -0.34254000635277743 -0.38197763020755832 0 -0.33211028503505757 -0.39455092735479258 0 -0.34239786166265201 -0.40597533588911489 0 -0.34254000635277743 -0.38197763020755832 0 -0.34239786166265201 -0.40597533588911489 0 -0.33211028503505757 -0.39455092735479258 0 -0.32627218782356721 -0.40254155632103228 0 -0.33325599186729038 -0.40952977136485508 0 -0.33211028503505757 -0.39455092735479258 0 -0.34239786166265201 -0.40597533588911489 0 -0.33325599186729038 -0.40952977136485508 0 -0.32627218782356721 -0.40254155632103228 0 -0.31778611784491262 -0.39429551077659458 0 -0.31836523457261151 -0.40628576827473822 0 -0.31778611784491262 -0.39429551077659458 0 -0.31836523457261151 -0.40628576827473822 0 -0.30856762168503782 -0.40330407176644772 0 -0.33211028503505757 -0.39455092735479258 0 -0.32627218782356721 -0.40254155632103228 0 -0.31778611784491262 -0.39429551077659458 0 -0.33211028503505757 -0.39455092735479258 0 -0.31778611784491262 -0.39429551077659458 0 -0.32435131947256218 -0.38428518727128619 0 -0.31778611784491262 -0.39429551077659458 0 -0.32435131947256218 -0.38428518727128619 0 -0.3103864423796594 -0.37828470113645102 0 -0.32270418411731933 -0.37181077970513959 0 -0.32435131947256218 -0.38428518727128619 0 -0.3103864423796594 -0.37828470113645102 0 -0.34225571697252682 -0.42997304157067162 0 -0.32127707919304882 -0.42450406978857058 0 -0.32413493920603592 -0.43586432580396972 0 -0.33358626016413989 -0.44229992863572659 0 -0.34225571697252682 -0.42997304157067162 0 -0.32413493920603592 -0.43586432580396972 0 -0.34225571697252682 -0.42997304157067162 0 -0.32547848823970138 -0.41505510354763547 0 -0.32127707919304882 -0.42450406978857058 0 -0.34225571697252682 -0.42997304157067162 0 -0.33325599186729038 -0.40952977136485508 0 -0.34239786166265201 -0.40597533588911489 0 -0.34225571697252682 -0.42997304157067162 0 -0.34225571697252682 -0.42997304157067162 0 -0.33325599186729038 -0.40952977136485508 0 -0.32547848823970138 -0.41505510354763547 0 -0.34239786166265201 -0.40597533588911489 0 -0.34225571697252682 -0.42997304157067162 0 -0.33325599186729038 -0.40952977136485508 0 -0.32627218782356721 -0.40254155632103228 0 -0.33325599186729038 -0.40952977136485508 0 -0.32547848823970138 -0.41505510354763547 0 -0.32547848823970138 -0.41505510354763547 0 -0.3149711123139971 -0.41411215899080989 0 -0.32127707919304882 -0.42450406978857058 0 -0.32627218782356721 -0.40254155632103228 0 -0.32547848823970138 -0.41505510354763547 0 -0.31836523457261151 -0.40628576827473822 0 -0.32547848823970138 -0.41505510354763547 0 -0.31836523457261151 -0.40628576827473822 0 -0.3149711123139971 -0.41411215899080989 0 -0.31836523457261151 -0.40628576827473822 0 -0.3149711123139971 -0.41411215899080989 0 -0.30856762168503782 -0.40330407176644772 0 -0.3149711123139971 -0.41411215899080989 0 -0.32127707919304882 -0.42450406978857058 0 -0.31068047406536009 -0.42124040027518911 0 -0.32127707919304882 -0.42450406978857058 0 -0.31073004788055869 -0.43167813375356229 0 -0.31068047406536009 -0.42124040027518911 0 -0.32127707919304882 -0.42450406978857058 0 -0.32413493920603592 -0.43586432580396972 0 -0.31073004788055869 -0.43167813375356229 0 -0.31385630152515048 -0.44199725430357722 0 -0.32413493920603592 -0.43586432580396972 0 -0.31073004788055869 -0.43167813375356229 0 -0.31073004788055869 -0.43167813375356229 0 -0.29829421210859891 -0.43220714453990322 0 -0.30286215921622678 -0.44210958888768459 0 -0.31073004788055869 -0.43167813375356229 0 -0.29829421210859891 -0.43220714453990322 0 -0.30293836312512551 -0.42244552438862548 0 -0.29829421210859891 -0.43220714453990322 0 -0.30293836312512551 -0.42244552438862548 0 -0.29038846928103268 -0.42353273433611682 0 -0.31073004788055869 -0.43167813375356229 0 -0.30293836312512551 -0.42244552438862548 0 -0.31068047406536009 -0.42124040027518911 0 -0.3149711123139971 -0.41411215899080989 0 -0.31068047406536009 -0.42124040027518911 0 -0.30545777612822328 -0.41428354029227837 0 -0.30293836312512551 -0.42244552438862548 0 -0.31068047406536009 -0.42124040027518911 0 -0.30545777612822328 -0.41428354029227837 0 -0.3149711123139971 -0.41411215899080989 0 -0.30545777612822328 -0.41428354029227837 0 -0.30856762168503782 -0.40330407176644772 0 -0.30545777612822328 -0.41428354029227837 0 -0.30856762168503782 -0.40330407176644772 0 -0.30079847364115991 -0.40578130343003371 0 -0.30545777612822328 -0.41428354029227837 0 -0.2987732092282892 -0.41413177709842958 0 -0.30079847364115991 -0.40578130343003371 0 -0.30293836312512551 -0.42244552438862548 0 -0.2987732092282892 -0.41413177709842958 0 -0.29038846928103268 -0.42353273433611682 0 -0.30293836312512551 -0.42244552438862548 0 -0.2987732092282892 -0.41413177709842958 0 -0.30293836312512551 -0.42244552438862548 0 -0.30545777612822328 -0.41428354029227837 0 -0.2987732092282892 -0.41413177709842958 0 -0.30545777612822328 -0.41428354029227837 0 -0.2987732092282892 -0.41413177709842958 0 -0.2987732092282892 -0.41413177709842958 0 -0.29092638885970451 -0.39846933503943821 0 -0.2987732092282892 -0.41413177709842958 0 -0.28243901841779939 -0.41376093348156762 0 -0.29092638885970451 -0.39846933503943821 0 -0.2987732092282892 -0.41413177709842958 0 -0.28243901841779939 -0.41376093348156762 0 -0.29038846928103268 -0.42353273433611682 0 -0.2987732092282892 -0.41413177709842958 0 -0.28243901841779939 -0.41376093348156762 0 -0.28243901841779939 -0.41376093348156762 0 -0.29038846928103268 -0.42353273433611682 0 -0.27500508569675858 -0.42792788340523652 0 -0.29038846928103268 -0.42353273433611682 0 -0.27500508569675858 -0.42792788340523652 0 -0.28620792983366777 -0.44117103379144762 0 -0.29829421210859891 -0.43220714453990322 0 -0.29038846928103268 -0.42353273433611682 0 -0.28620792983366777 -0.44117103379144762 0 -0.31778611784491262 -0.39429551077659458 0 -0.3103864423796594 -0.37828470113645102 0 -0.30424293331838692 -0.39073887816822978 0 -0.29584447723995128 -0.37444813956539807 0 -0.29713407365637251 -0.38186722723828942 0 -0.3103864423796594 -0.37828470113645102 0 -0.29713407365637251 -0.38186722723828942 0 -0.30424293331838692 -0.39073887816822978 0 -0.29406976999373469 -0.38920344929064732 0 -0.29713407365637251 -0.38186722723828942 0 -0.3103864423796594 -0.37828470113645102 0 -0.30424293331838692 -0.39073887816822978 0 -0.29998863005712628 -0.39809616774203599 0 -0.30424293331838692 -0.39073887816822978 0 -0.30856762168503782 -0.40330407176644772 0 -0.29998863005712628 -0.39809616774203599 0 -0.30424293331838692 -0.39073887816822978 0 -0.29406976999373469 -0.38920344929064732 0 -0.31778611784491262 -0.39429551077659458 0 -0.30424293331838692 -0.39073887816822978 0 -0.30856762168503782 -0.40330407176644772 0 -0.29998863005712628 -0.39809616774203599 0 -0.30079847364115991 -0.40578130343003371 0 -0.29092638885970451 -0.39846933503943821 0 -0.29998863005712628 -0.39809616774203599 0 -0.30856762168503782 -0.40330407176644772 0 -0.30079847364115991 -0.40578130343003371 0 -0.2987732092282892 -0.41413177709842958 0 -0.30079847364115991 -0.40578130343003371 0 -0.29092638885970451 -0.39846933503943821 0 -0.29092638885970451 -0.39846933503943821 0 -0.28307956849111848 -0.3828068929804474 0 -0.29092638885970451 -0.39846933503943821 0 -0.28307956849111848 -0.3828068929804474 0 -0.27459219804921331 -0.39809849142257658 0 -0.28243901841779939 -0.41376093348156762 0 -0.29092638885970451 -0.39846933503943821 0 -0.27459219804921331 -0.39809849142257658 0 -0.29998863005712628 -0.39809616774203599 0 -0.29092638885970451 -0.39846933503943821 0 -0.29406976999373469 -0.38920344929064732 0 -0.29092638885970451 -0.39846933503943821 0 -0.29406976999373469 -0.38920344929064732 0 -0.28307956849111848 -0.3828068929804474 0 -0.29713407365637251 -0.38186722723828942 0 -0.29406976999373469 -0.38920344929064732 0 -0.28307956849111848 -0.3828068929804474 0 -0.29584447723995128 -0.37444813956539807 0 -0.29713407365637251 -0.38186722723828942 0 -0.28307956849111848 -0.3828068929804474 0 -0.28307956849111848 -0.3828068929804474 0 -0.27459219804921331 -0.39809849142257658 0 -0.26050234447883253 -0.38027693877573482 0 -0.28307956849111848 -0.3828068929804474 0 -0.27459219804921331 -0.39809849142257658 0 -0.27459219804921331 -0.39809849142257658 0 -0.26610482760730952 -0.4133900898647066 0 -0.27459219804921331 -0.39809849142257658 0 -0.26088670843651829 -0.40068536336094251 0 -0.26610482760730952 -0.4133900898647066 0 -0.26088670843651829 -0.40068536336094251 0 -0.26050234447883253 -0.38027693877573482 0 -0.2487824818667288 -0.3954643368039899 0 -0.27459219804921331 -0.39809849142257658 0 -0.26088670843651829 -0.40068536336094251 0 -0.26050234447883253 -0.38027693877573482 0 -0.26088670843651829 -0.40068536336094251 0 -0.24694430377570939 -0.41295507854145541 0 -0.2487824818667288 -0.3954643368039899 0 -0.27500508569675858 -0.42792788340523652 0 -0.25298523514652932 -0.43702750984159111 0 -0.27028712802556781 -0.44002206955302048 0 -0.27500508569675858 -0.42792788340523652 0 -0.27028712802556781 -0.44002206955302048 0 -0.28620792983366777 -0.44117103379144762 0 -0.28243901841779939 -0.41376093348156762 0 -0.27500508569675858 -0.42792788340523652 0 -0.26610482760730952 -0.4133900898647066 0 -0.28243901841779939 -0.41376093348156762 0 -0.27459219804921331 -0.39809849142257658 0 -0.26610482760730952 -0.4133900898647066 0 -0.28243901841779939 -0.41376093348156762 0 -0.26610482760730952 -0.4133900898647066 0 -0.26610482760730952 -0.4133900898647066 0 -0.24694430377570939 -0.41295507854145541 0 -0.26610482760730952 -0.4133900898647066 0 -0.25298523514652932 -0.43702750984159111 0 -0.24694430377570939 -0.41295507854145541 0 -0.26088670843651829 -0.40068536336094251 0 -0.26610482760730952 -0.4133900898647066 0 -0.24694430377570939 -0.41295507854145541 0 -0.27500508569675858 -0.42792788340523652 0 -0.26610482760730952 -0.4133900898647066 0 -0.25298523514652932 -0.43702750984159111 0 -0.26610482760730952 -0.4133900898647066 0 -0.25298523514652932 -0.43702750984159111 0 -0.25298523514652932 -0.43702750984159111 0 -0.25823473398406083 -0.46259190486934387 0 -0.27139768853026319 -0.45350369328431828 0 -0.25298523514652932 -0.43702750984159111 0 -0.27139768853026319 -0.45350369328431828 0 -0.27028712802556781 -0.44002206955302048 0 -0.25298523514652932 -0.43702750984159111 0 -0.25823473398406083 -0.46259190486934387 0 -0.2398656426857485 -0.46066492981847512 0 -0.27139768853026319 -0.45350369328431828 0 -0.28665438526504589 -0.45880473289459528 0 -0.27499686831673542 -0.4693274569635677 0 -0.25823473398406083 -0.46259190486934387 0 -0.27139768853026319 -0.45350369328431828 0 -0.27499686831673542 -0.4693274569635677 0 -0.27139768853026319 -0.45350369328431828 0 -0.27028712802556781 -0.44002206955302048 0 -0.28620792983366777 -0.44117103379144762 0 -0.28620792983366777 -0.44117103379144762 0 -0.29665932401628559 -0.4519210782245337 0 -0.28665438526504589 -0.45880473289459528 0 -0.28620792983366777 -0.44117103379144762 0 -0.29665932401628559 -0.4519210782245337 0 -0.30286215921622678 -0.44210958888768459 0 -0.27139768853026319 -0.45350369328431828 0 -0.28620792983366777 -0.44117103379144762 0 -0.28665438526504589 -0.45880473289459528 0 -0.29829421210859891 -0.43220714453990322 0 -0.28620792983366777 -0.44117103379144762 0 -0.30286215921622678 -0.44210958888768459 0 -0.28665438526504589 -0.45880473289459528 0 -0.28928475434474438 -0.47221518125428918 0 -0.27499686831673542 -0.4693274569635677 0 -0.28665438526504589 -0.45880473289459528 0 -0.30029558254474148 -0.46389675841394568 0 -0.28928475434474438 -0.47221518125428918 0 -0.29665932401628559 -0.4519210782245337 0 -0.28665438526504589 -0.45880473289459528 0 -0.30029558254474148 -0.46389675841394568 0 -0.29665932401628559 -0.4519210782245337 0 -0.30029558254474148 -0.46389675841394568 0 -0.31044958537109257 -0.45255960714027171 0 -0.31333683559556219 -0.46686726284272168 0 -0.30029558254474148 -0.46389675841394568 0 -0.31044958537109257 -0.45255960714027171 0 -0.31385630152515048 -0.44199725430357722 0 -0.31044958537109257 -0.45255960714027171 0 -0.30286215921622678 -0.44210958888768459 0 -0.31385630152515048 -0.44199725430357722 0 -0.31073004788055869 -0.43167813375356229 0 -0.30286215921622678 -0.44210958888768459 0 -0.29665932401628559 -0.4519210782245337 0 -0.31044958537109257 -0.45255960714027171 0 -0.30286215921622678 -0.44210958888768459 0 -0.32006214434654462 -0.5 0 -0.30503152439861497 -0.48190266549989857 0 -0.29355140103266869 -0.5 0 -0.30029558254474148 -0.46389675841394568 0 -0.30503152439861497 -0.48190266549989857 0 -0.28928475434474438 -0.47221518125428918 0 -0.31333683559556219 -0.46686726284272168 0 -0.30029558254474148 -0.46389675841394568 0 -0.30503152439861497 -0.48190266549989857 0 -0.30503152439861497 -0.48190266549989857 0 -0.28928475434474438 -0.47221518125428918 0 -0.27944541119858413 -0.48714429249943858 0 -0.30503152439861497 -0.48190266549989857 0 -0.29355140103266869 -0.5 0 -0.27944541119858413 -0.48714429249943858 0 -0.26704065771879287 -0.5 0 -0.27944541119858413 -0.48714429249943858 0 -0.26377894750559139 -0.4817410620592058 0 -0.29355140103266869 -0.5 0 -0.26704065771879287 -0.5 0 -0.27944541119858413 -0.48714429249943858 0 -0.27944541119858413 -0.48714429249943858 0 -0.27499686831673542 -0.4693274569635677 0 -0.26377894750559139 -0.4817410620592058 0 -0.28928475434474438 -0.47221518125428918 0 -0.27944541119858413 -0.48714429249943858 0 -0.27499686831673542 -0.4693274569635677 0 -0.25823473398406083 -0.46259190486934387 0 -0.27499686831673542 -0.4693274569635677 0 -0.26377894750559139 -0.4817410620592058 0 -0.25823473398406083 -0.46259190486934387 0 -0.26377894750559139 -0.4817410620592058 0 -0.24769273461092009 -0.47775775457152359 0 -0.26704065771879287 -0.5 0 -0.26377894750559139 -0.4817410620592058 0 -0.24052991440491719 -0.5 0 -0.26377894750559139 -0.4817410620592058 0 -0.24052991440491719 -0.5 0 -0.24769273461092009 -0.47775775457152359 0 -0.24052991440491719 -0.5 0 -0.24769273461092009 -0.47775775457152359 0 -0.2238647917587385 -0.47868470982513422 0 -0.24769273461092009 -0.47775775457152359 0 -0.2238647917587385 -0.47868470982513422 0 -0.2253613830811457 -0.45761053917550981 0 -0.24052991440491719 -0.5 0 -0.2238647917587385 -0.47868470982513422 0 -0.2140191710910414 -0.49999999999999972 0 -0.25298523514652932 -0.43702750984159111 0 -0.23591515519085041 -0.44398209369878189 0 -0.2398656426857485 -0.46066492981847512 0 -0.25298523514652932 -0.43702750984159111 0 -0.2398656426857485 -0.46066492981847512 0 -0.25823473398406083 -0.46259190486934387 0 -0.24769273461092009 -0.47775775457152359 0 -0.2398656426857485 -0.46066492981847512 0 -0.24769273461092009 -0.47775775457152359 0 -0.2398656426857485 -0.46066492981847512 0 -0.2253613830811457 -0.45761053917550981 0 -0.24769273461092009 -0.47775775457152359 0 -0.2253613830811457 -0.45761053917550981 0 -0.2238647917587385 -0.47868470982513422 0 -0.2253613830811457 -0.45761053917550981 0 -0.20999779143719291 -0.46083672605530768 0 -0.23591515519085041 -0.44398209369878189 0 -0.2398656426857485 -0.46066492981847512 0 -0.2253613830811457 -0.45761053917550981 0 -0.23591515519085041 -0.44398209369878189 0 -0.2253613830811457 -0.45761053917550981 0 -0.22549954629610269 -0.43500765649169948 0 -0.2253613830811457 -0.45761053917550981 0 -0.20999779143719291 -0.46083672605530768 0 -0.2030300315513712 -0.43746332377949593 0 -0.2253613830811457 -0.45761053917550981 0 -0.2030300315513712 -0.43746332377949593 0 -0.20999779143719291 -0.46083672605530768 0 -0.19715634076338631 -0.4518064782969281 0 -0.2030300315513712 -0.43746332377949593 0 -0.2253613830811457 -0.45761053917550981 0 -0.2030300315513712 -0.43746332377949593 0 -0.22549954629610269 -0.43500765649169948 0 -0.20999779143719291 -0.46083672605530768 0 -0.19715634076338631 -0.4518064782969281 0 -0.2055877559272139 -0.47590323914846377 0 -0.19715634076338631 -0.4518064782969281 0 -0.2055877559272139 -0.47590323914846377 0 -0.19179305986328829 -0.46711759196808689 0 -0.19715634076338631 -0.4518064782969281 0 -0.2055877559272139 -0.47590323914846377 0 -0.19179305986328829 -0.46711759196808689 0 -0.19715634076338631 -0.4518064782969281 0 -0.184822707974968 -0.45592422963236362 0 -0.19715634076338631 -0.4518064782969281 0 -0.2030300315513712 -0.43746332377949593 0 -0.18872492559955881 -0.42770971744539221 0 -0.19715634076338631 -0.4518064782969281 0 -0.18872492559955881 -0.42770971744539221 0 -0.19715634076338631 -0.4518064782969281 0 -0.1870173619903012 -0.44414077979923022 0 -0.18872492559955881 -0.42770971744539221 0 -0.19715634076338631 -0.4518064782969281 0 -0.184822707974968 -0.45592422963236362 0 -0.1870173619903012 -0.44414077979923022 0 -0.2140191710910414 -0.49999999999999972 0 -0.2055877559272139 -0.47590323914846377 0 -0.2140191710910414 -0.49999999999999972 0 -0.2055877559272139 -0.47590323914846377 0 -0.1915741566131953 -0.48274482478870012 0 -0.2238647917587385 -0.47868470982513422 0 -0.2140191710910414 -0.49999999999999972 0 -0.2055877559272139 -0.47590323914846377 0 -0.2238647917587385 -0.47868470982513422 0 -0.20999779143719291 -0.46083672605530768 0 -0.2055877559272139 -0.47590323914846377 0 -0.19179305986328829 -0.46711759196808689 0 -0.2055877559272139 -0.47590323914846377 0 -0.1915741566131953 -0.48274482478870012 0 -0.19179305986328829 -0.46711759196808689 0 -0.1915741566131953 -0.48274482478870012 0 -0.17982433803767831 -0.46920918797397909 0 -0.2140191710910414 -0.49999999999999972 0 -0.1915741566131953 -0.48274482478870012 0 -0.1841956238768391 -0.5 0 -0.1915741566131953 -0.48274482478870012 0 -0.1841956238768391 -0.5 0 -0.17247084166804699 -0.48396500267038112 0 -0.1841956238768391 -0.5 0 -0.17247084166804699 -0.48396500267038112 0 -0.15437207666263669 -0.50000000000000022 0 -0.15669106487963419 -0.47716915445828201 0 -0.17247084166804699 -0.48396500267038112 0 -0.15437207666263669 -0.50000000000000022 0 -0.15669106487963419 -0.47716915445828201 0 -0.17247084166804699 -0.48396500267038112 0 -0.1680230602922401 -0.4683158249620154 0 -0.17247084166804699 -0.48396500267038112 0 -0.17982433803767831 -0.46920918797397909 0 -0.1680230602922401 -0.4683158249620154 0 -0.1915741566131953 -0.48274482478870012 0 -0.17247084166804699 -0.48396500267038112 0 -0.17982433803767831 -0.46920918797397909 0 -0.19179305986328829 -0.46711759196808689 0 -0.17982433803767831 -0.46920918797397909 0 -0.184822707974968 -0.45592422963236362 0 -0.17982433803767831 -0.46920918797397909 0 -0.184822707974968 -0.45592422963236362 0 -0.17211900377920919 -0.45689747079087062 0 -0.17982433803767831 -0.46920918797397909 0 -0.17211900377920919 -0.45689747079087062 0 -0.1680230602922401 -0.4683158249620154 0 -0.1870173619903012 -0.44414077979923022 0 -0.17843006300647921 -0.44542980211747812 0 -0.1823118302108766 -0.43680876328769058 0 -0.184822707974968 -0.45592422963236362 0 -0.1870173619903012 -0.44414077979923022 0 -0.17843006300647921 -0.44542980211747812 0 -0.17211900377920919 -0.45689747079087062 0 -0.17843006300647921 -0.44542980211747812 0 -0.16919262628862339 -0.44362555979768409 0 -0.184822707974968 -0.45592422963236362 0 -0.17211900377920919 -0.45689747079087062 0 -0.17843006300647921 -0.44542980211747812 0 -0.17843006300647921 -0.44542980211747812 0 -0.16919262628862339 -0.44362555979768409 0 -0.17507497024716731 -0.42995475378866199 0 -0.1590100530966318 -0.45433830891656402 0 -0.148881704538534 -0.44296791951084241 0 -0.1613290413136293 -0.43150746337484569 0 -0.1590100530966318 -0.45433830891656402 0 -0.1613290413136293 -0.43150746337484569 0 -0.16919262628862339 -0.44362555979768409 0 -0.1590100530966318 -0.45433830891656402 0 -0.1613290413136293 -0.43150746337484569 0 -0.17211900377920919 -0.45689747079087062 0 -0.16919262628862339 -0.44362555979768409 0 -0.1590100530966318 -0.45433830891656402 0 -0.15669106487963419 -0.47716915445828201 0 -0.1680230602922401 -0.4683158249620154 0 -0.1590100530966318 -0.45433830891656402 0 -0.15669106487963419 -0.47716915445828201 0 -0.1590100530966318 -0.45433830891656402 0 -0.17211900377920919 -0.45689747079087062 0 -0.1680230602922401 -0.4683158249620154 0 -0.1590100530966318 -0.45433830891656402 0 -0.15669106487963419 -0.47716915445828201 0 -0.1590100530966318 -0.45433830891656402 0 -0.1472923250818238 -0.46077477567243558 0 -0.1590100530966318 -0.45433830891656402 0 -0.1472923250818238 -0.46077477567243558 0 -0.148881704538534 -0.44296791951084241 0 -0.1472923250818238 -0.46077477567243558 0 -0.148881704538534 -0.44296791951084241 0 -0.13194602454298601 -0.43962244526902572 0 -0.13194602454298601 -0.43962244526902572 0 -0.13077987840644981 -0.46069854066347632 0 -0.11615585050415531 -0.45102464773050138 0 -0.1472923250818238 -0.46077477567243558 0 -0.13194602454298601 -0.43962244526902572 0 -0.1472923250818238 -0.46077477567243558 0 -0.13077987840644981 -0.46069854066347632 0 -0.13742439756140509 -0.48004162281001828 0 -0.1472923250818238 -0.46077477567243558 0 -0.13194602454298601 -0.43962244526902572 0 -0.13077987840644981 -0.46069854066347632 0 -0.13742439756140509 -0.48004162281001828 0 -0.12108079434187891 -0.47202921183540031 0 -0.1206292342060253 -0.48641385964910883 0 -0.13077987840644981 -0.46069854066347632 0 -0.13742439756140509 -0.48004162281001828 0 -0.12108079434187891 -0.47202921183540031 0 -0.13742439756140509 -0.48004162281001828 0 -0.131118449396015 -0.5 0 -0.1206292342060253 -0.48641385964910883 0 -0.15669106487963419 -0.47716915445828201 0 -0.13742439756140509 -0.48004162281001828 0 -0.15437207666263669 -0.50000000000000022 0 -0.15669106487963419 -0.47716915445828201 0 -0.15437207666263669 -0.50000000000000022 0 -0.13742439756140509 -0.48004162281001828 0 -0.131118449396015 -0.5 0 -0.15437207666263669 -0.50000000000000022 0 -0.15669106487963419 -0.47716915445828201 0 -0.1472923250818238 -0.46077477567243558 0 -0.13742439756140509 -0.48004162281001828 0 -0.13678826443221431 -0.39755243580027871 0 -0.14931675495270949 -0.41057852288770358 0 -0.15761740849691311 -0.38818340141201402 0 -0.1369224961495438 -0.38192389563367207 0 -0.13678826443221431 -0.39755243580027871 0 -0.15761740849691311 -0.38818340141201402 0 -0.1369224961495438 -0.38192389563367207 0 -0.15761740849691311 -0.38818340141201402 0 -0.148308101659717 -0.36695316985008092 0 -0.1369224961495438 -0.38192389563367207 0 -0.12526638733901391 -0.39147447277512609 0 -0.13678826443221431 -0.39755243580027871 0 -0.1369224961495438 -0.38192389563367207 0 -0.1303219987982592 -0.3665496015062627 0 -0.12201267174342199 -0.37938718301114999 0 -0.1369224961495438 -0.38192389563367207 0 -0.12526638733901391 -0.39147447277512609 0 -0.12201267174342199 -0.37938718301114999 0 -0.12526638733901391 -0.39147447277512609 0 -0.13678826443221431 -0.39755243580027871 0 -0.12592730430259419 -0.40432488328170318 0 -0.13678826443221431 -0.39755243580027871 0 -0.12592730430259419 -0.40432488328170318 0 -0.1345256340888337 -0.41538851269275129 0 -0.13678826443221431 -0.39755243580027871 0 -0.1345256340888337 -0.41538851269275129 0 -0.14931675495270949 -0.41057852288770358 0 -0.12592730430259419 -0.40432488328170318 0 -0.1345256340888337 -0.41538851269275129 0 -0.1165997240041481 -0.41847011486561592 0 -0.13194602454298601 -0.43962244526902572 0 -0.1345256340888337 -0.41538851269275129 0 -0.14483107865759889 -0.42859660432134139 0 -0.13194602454298601 -0.43962244526902572 0 -0.1345256340888337 -0.41538851269275129 0 -0.1165997240041481 -0.41847011486561592 0 -0.148881704538534 -0.44296791951084241 0 -0.14483107865759889 -0.42859660432134139 0 -0.1613290413136293 -0.43150746337484569 0 -0.148881704538534 -0.44296791951084241 0 -0.13194602454298601 -0.43962244526902572 0 -0.14483107865759889 -0.42859660432134139 0 -0.14483107865759889 -0.42859660432134139 0 -0.14931675495270949 -0.41057852288770358 0 -0.1613290413136293 -0.43150746337484569 0 -0.1345256340888337 -0.41538851269275129 0 -0.14483107865759889 -0.42859660432134139 0 -0.14931675495270949 -0.41057852288770358 0 -0.16364802953062679 -0.40867661783312748 0 -0.1613290413136293 -0.43150746337484569 0 -0.14931675495270949 -0.41057852288770358 0 -0.16364802953062679 -0.40867661783312748 0 -0.1613290413136293 -0.43150746337484569 0 -0.16364802953062679 -0.40867661783312748 0 -0.1613290413136293 -0.43150746337484569 0 -0.17507497024716731 -0.42995475378866199 0 -0.16919262628862339 -0.44362555979768409 0 -0.1613290413136293 -0.43150746337484569 0 -0.17507497024716731 -0.42995475378866199 0 -0.1870173619903012 -0.44414077979923022 0 -0.1823118302108766 -0.43680876328769058 0 -0.18872492559955881 -0.42770971744539221 0 -0.17843006300647921 -0.44542980211747812 0 -0.17507497024716731 -0.42995475378866199 0 -0.1823118302108766 -0.43680876328769058 0 -0.17507497024716731 -0.42995475378866199 0 -0.1806986800215967 -0.4173161083834821 0 -0.18872492559955881 -0.42770971744539221 0 -0.17507497024716731 -0.42995475378866199 0 -0.1823118302108766 -0.43680876328769058 0 -0.18872492559955881 -0.42770971744539221 0 -0.1806986800215967 -0.4173161083834821 0 -0.18228064084688081 -0.39610998094782668 0 -0.19209360216251761 -0.40824625574224149 0 -0.16364802953062679 -0.40867661783312748 0 -0.17507497024716731 -0.42995475378866199 0 -0.1806986800215967 -0.4173161083834821 0 -0.16364802953062679 -0.40867661783312748 0 -0.1806986800215967 -0.4173161083834821 0 -0.18228064084688081 -0.39610998094782668 0 -0.16364802953062679 -0.40867661783312748 0 -0.18228064084688081 -0.39610998094782668 0 -0.15761740849691311 -0.38818340141201402 0 -0.14931675495270949 -0.41057852288770358 0 -0.16364802953062679 -0.40867661783312748 0 -0.15761740849691311 -0.38818340141201402 0 -0.15761740849691311 -0.38818340141201402 0 -0.183603859264966 -0.3766054584014627 0 -0.1661931572416451 -0.36889933283976362 0 -0.18228064084688081 -0.39610998094782668 0 -0.15761740849691311 -0.38818340141201402 0 -0.183603859264966 -0.3766054584014627 0 -0.18228064084688081 -0.39610998094782668 0 -0.183603859264966 -0.3766054584014627 0 -0.20216487974800659 -0.3829991661375407 0 -0.18228064084688081 -0.39610998094782668 0 -0.20343785588976751 -0.39944649130885712 0 -0.19209360216251761 -0.40824625574224149 0 -0.18228064084688081 -0.39610998094782668 0 -0.20216487974800659 -0.3829991661375407 0 -0.20343785588976751 -0.39944649130885712 0 -0.20343785588976751 -0.39944649130885712 0 -0.21350444502423929 -0.40864471589815532 0 -0.22035180610084079 -0.39356726900625483 0 -0.20216487974800659 -0.3829991661375407 0 -0.20343785588976751 -0.39944649130885712 0 -0.22035180610084079 -0.39356726900625483 0 -0.20216487974800659 -0.3829991661375407 0 -0.22035180610084079 -0.39356726900625483 0 -0.219169022554425 -0.37113875127287832 0 -0.1806986800215967 -0.4173161083834821 0 -0.2030300315513712 -0.43746332377949593 0 -0.18872492559955881 -0.42770971744539221 0 -0.1806986800215967 -0.4173161083834821 0 -0.2030300315513712 -0.43746332377949593 0 -0.2030300315513712 -0.43746332377949593 0 -0.19369636752838881 -0.41903658901391427 0 -0.2031687955665597 -0.42354741618771741 0 -0.1806986800215967 -0.4173161083834821 0 -0.2030300315513712 -0.43746332377949593 0 -0.19369636752838881 -0.41903658901391427 0 -0.19369636752838881 -0.41903658901391427 0 -0.20299923128825029 -0.41376529568937459 0 -0.2031687955665597 -0.42354741618771741 0 -0.1806986800215967 -0.4173161083834821 0 -0.19369636752838881 -0.41903658901391427 0 -0.19209360216251761 -0.40824625574224149 0 -0.19369636752838881 -0.41903658901391427 0 -0.19209360216251761 -0.40824625574224149 0 -0.20299923128825029 -0.41376529568937459 0 -0.20343785588976751 -0.39944649130885712 0 -0.19209360216251761 -0.40824625574224149 0 -0.20299923128825029 -0.41376529568937459 0 -0.20343785588976751 -0.39944649130885712 0 -0.20299923128825029 -0.41376529568937459 0 -0.21350444502423929 -0.40864471589815532 0 -0.21350444502423929 -0.40864471589815532 0 -0.21294955189822859 -0.42392445626808489 0 -0.2277837799441092 -0.41252006721820539 0 -0.20299923128825029 -0.41376529568937459 0 -0.2031687955665597 -0.42354741618771741 0 -0.21294955189822859 -0.42392445626808489 0 -0.20299923128825029 -0.41376529568937459 0 -0.21350444502423929 -0.40864471589815532 0 -0.21294955189822859 -0.42392445626808489 0 -0.2030300315513712 -0.43746332377949593 0 -0.21294955189822859 -0.42392445626808489 0 -0.22549954629610269 -0.43500765649169948 0 -0.2030300315513712 -0.43746332377949593 0 -0.2031687955665597 -0.42354741618771741 0 -0.21294955189822859 -0.42392445626808489 0 -0.23591515519085041 -0.44398209369878189 0 -0.22549954629610269 -0.43500765649169948 0 -0.23735783041644329 -0.42609093398936743 0 -0.22549954629610269 -0.43500765649169948 0 -0.2277837799441092 -0.41252006721820539 0 -0.23735783041644329 -0.42609093398936743 0 -0.21294955189822859 -0.42392445626808489 0 -0.22549954629610269 -0.43500765649169948 0 -0.2277837799441092 -0.41252006721820539 0 -0.2277837799441092 -0.41252006721820539 0 -0.24694430377570939 -0.41295507854145541 0 -0.2277837799441092 -0.41252006721820539 0 -0.24694430377570939 -0.41295507854145541 0 -0.23735783041644329 -0.42609093398936743 0 -0.2277837799441092 -0.41252006721820539 0 -0.24694430377570939 -0.41295507854145541 0 -0.2359891007147569 -0.39914414181493052 0 -0.25298523514652932 -0.43702750984159111 0 -0.24694430377570939 -0.41295507854145541 0 -0.23735783041644329 -0.42609093398936743 0 -0.25298523514652932 -0.43702750984159111 0 -0.23591515519085041 -0.44398209369878189 0 -0.23735783041644329 -0.42609093398936743 0 -0.22035180610084079 -0.39356726900625483 0 -0.23802591309349369 -0.38358476956933441 0 -0.219169022554425 -0.37113875127287832 0 -0.22035180610084079 -0.39356726900625483 0 -0.2359891007147569 -0.39914414181493052 0 -0.23802591309349369 -0.38358476956933441 0 -0.21350444502423929 -0.40864471589815532 0 -0.2277837799441092 -0.41252006721820539 0 -0.22035180610084079 -0.39356726900625483 0 -0.2277837799441092 -0.41252006721820539 0 -0.22035180610084079 -0.39356726900625483 0 -0.2359891007147569 -0.39914414181493052 0 -0.2359891007147569 -0.39914414181493052 0 -0.2487824818667288 -0.3954643368039899 0 -0.23802591309349369 -0.38358476956933441 0 -0.24694430377570939 -0.41295507854145541 0 -0.2359891007147569 -0.39914414181493052 0 -0.2487824818667288 -0.3954643368039899 0 -0.26050234447883253 -0.38027693877573482 0 -0.2487824818667288 -0.3954643368039899 0 -0.23802591309349369 -0.38358476956933441 0 -0.26050234447883253 -0.38027693877573482 0 -0.23802591309349369 -0.38358476956933441 0 -0.24817767477162081 -0.36986654917455902 0 -0.23802591309349369 -0.38358476956933441 0 -0.24817767477162081 -0.36986654917455902 0 -0.23583729862822109 -0.36574384613307409 0 -0.24817767477162081 -0.36986654917455902 0 -0.23583729862822109 -0.36574384613307409 0 -0.24850069890613241 -0.35473287875334369 0 -0.23583729862822109 -0.36574384613307409 0 -0.219169022554425 -0.37113875127287832 0 -0.22531318381543361 -0.34939628189525529 0 -0.23802591309349369 -0.38358476956933441 0 -0.23583729862822109 -0.36574384613307409 0 -0.219169022554425 -0.37113875127287832 0 -0.22531318381543361 -0.34939628189525529 0 -0.24850069890613241 -0.35473287875334369 0 -0.24219101746094579 -0.34438554910399921 0 -0.23583729862822109 -0.36574384613307409 0 -0.22531318381543361 -0.34939628189525529 0 -0.24850069890613241 -0.35473287875334369 0 -0.22531318381543361 -0.34939628189525529 0 -0.24850069890613241 -0.35473287875334369 0 -0.25445926970156468 -0.34270101061729968 0 -0.24850069890613241 -0.35473287875334369 0 -0.24219101746094579 -0.34438554910399921 0 -0.25445926970156468 -0.34270101061729968 0 -0.24219101746094579 -0.34438554910399921 0 -0.2460450098649074 -0.33743905859998191 0 -0.25207330520806498 -0.33378255792528982 0 -0.2460450098649074 -0.33743905859998191 0 -0.24306356592407591 -0.32787829483024122 0 -0.2348359590034956 -0.33686915078515089 0 -0.24306356592407591 -0.32787829483024122 0 -0.23163603200856511 -0.32708080208212859 0 -0.2460450098649074 -0.33743905859998191 0 -0.2348359590034956 -0.33686915078515089 0 -0.24306356592407591 -0.32787829483024122 0 -0.24219101746094579 -0.34438554910399921 0 -0.2460450098649074 -0.33743905859998191 0 -0.2348359590034956 -0.33686915078515089 0 -0.25273748935779161 -0.32224337373924072 0 -0.24326482791746179 -0.31394285089519419 0 -0.24426682308287331 -0.30533572025667649 0 -0.25273748935779161 -0.32224337373924072 0 -0.24426682308287331 -0.30533572025667649 0 -0.25273748935779161 -0.32224337373924072 0 -0.24326482791746179 -0.31394285089519419 0 -0.2440208243134171 -0.32058552998791068 0 -0.25273748935779161 -0.32224337373924072 0 -0.24306356592407591 -0.32787829483024122 0 -0.2440208243134171 -0.32058552998791068 0 -0.25207330520806498 -0.33378255792528982 0 -0.25273748935779161 -0.32224337373924072 0 -0.24306356592407591 -0.32787829483024122 0 -0.24306356592407591 -0.32787829483024122 0 -0.2440208243134171 -0.32058552998791068 0 -0.23701741405433899 -0.31827760048696663 0 -0.24306356592407591 -0.32787829483024122 0 -0.23701741405433899 -0.31827760048696663 0 -0.23163603200856511 -0.32708080208212859 0 -0.24326482791746179 -0.31394285089519419 0 -0.23701741405433899 -0.31827760048696663 0 -0.2384772558931193 -0.30928307653082621 0 -0.24326482791746179 -0.31394285089519419 0 -0.2440208243134171 -0.32058552998791068 0 -0.23701741405433899 -0.31827760048696663 0 -0.22244826701882919 -0.32070202864358233 0 -0.22802593536356699 -0.30882837184141948 0 -0.21110805984082151 -0.30983785689108939 0 -0.23701741405433899 -0.31827760048696663 0 -0.22244826701882919 -0.32070202864358233 0 -0.22802593536356699 -0.30882837184141948 0 -0.23701741405433899 -0.31827760048696663 0 -0.23163603200856511 -0.32708080208212859 0 -0.22244826701882919 -0.32070202864358233 0 -0.23163603200856511 -0.32708080208212859 0 -0.22244826701882919 -0.32070202864358233 0 -0.22079431421521131 -0.33353493235345111 0 -0.22531318381543361 -0.34939628189525529 0 -0.2348359590034956 -0.33686915078515089 0 -0.22079431421521131 -0.33353493235345111 0 -0.22531318381543361 -0.34939628189525529 0 -0.24219101746094579 -0.34438554910399921 0 -0.2348359590034956 -0.33686915078515089 0 -0.2348359590034956 -0.33686915078515089 0 -0.23163603200856511 -0.32708080208212859 0 -0.22079431421521131 -0.33353493235345111 0 -0.22079431421521131 -0.33353493235345111 0 -0.20839645480677241 -0.32403064402179738 0 -0.20212566872473489 -0.34405968503716688 0 -0.22531318381543361 -0.34939628189525529 0 -0.22079431421521131 -0.33353493235345111 0 -0.20212566872473489 -0.34405968503716688 0 -0.22244826701882919 -0.32070202864358233 0 -0.20839645480677241 -0.32403064402179738 0 -0.21110805984082151 -0.30983785689108939 0 -0.22244826701882919 -0.32070202864358233 0 -0.22079431421521131 -0.33353493235345111 0 -0.20839645480677241 -0.32403064402179738 0 -0.20839645480677241 -0.32403064402179738 0 -0.19575919956014079 -0.31702437624003538 0 -0.21110805984082151 -0.30983785689108939 0 -0.20839645480677241 -0.32403064402179738 0 -0.19575919956014079 -0.31702437624003538 0 -0.19562896033857519 -0.33020038185646122 0 -0.19575919956014079 -0.31702437624003538 0 -0.19562896033857519 -0.33020038185646122 0 -0.18477851095256179 -0.32477614194451959 0 -0.20212566872473489 -0.34405968503716688 0 -0.1789381536340362 -0.33872308817907848 0 -0.19562896033857519 -0.33020038185646122 0 -0.20212566872473489 -0.34405968503716688 0 -0.1789381536340362 -0.33872308817907848 0 -0.20839645480677241 -0.32403064402179738 0 -0.19562896033857519 -0.33020038185646122 0 -0.20212566872473489 -0.34405968503716688 0 -0.20212566872473489 -0.34405968503716688 0 -0.2037839996862793 -0.36234410805543599 0 -0.1863350517553729 -0.35962674217565882 0 -0.20212566872473489 -0.34405968503716688 0 -0.1863350517553729 -0.35962674217565882 0 -0.1789381536340362 -0.33872308817907848 0 -0.183603859264966 -0.3766054584014627 0 -0.20216487974800659 -0.3829991661375407 0 -0.2037839996862793 -0.36234410805543599 0 -0.183603859264966 -0.3766054584014627 0 -0.2037839996862793 -0.36234410805543599 0 -0.1863350517553729 -0.35962674217565882 0 -0.219169022554425 -0.37113875127287832 0 -0.22531318381543361 -0.34939628189525529 0 -0.2037839996862793 -0.36234410805543599 0 -0.20216487974800659 -0.3829991661375407 0 -0.219169022554425 -0.37113875127287832 0 -0.2037839996862793 -0.36234410805543599 0 -0.22531318381543361 -0.34939628189525529 0 -0.20212566872473489 -0.34405968503716688 0 -0.2037839996862793 -0.36234410805543599 0 -0.22531318381543361 -0.34939628189525529 0 -0.20212566872473489 -0.34405968503716688 0 -0.24465976002352091 -0.25387891845332877 0 -0.23199225124923151 -0.26692477658714647 0 -0.21854221021918649 -0.25236034283526498 0 -0.23199225124923151 -0.26692477658714647 0 -0.21864709985809599 -0.27150291036173302 0 -0.21854221021918649 -0.25236034283526498 0 -0.24465976002352091 -0.25387891845332877 0 -0.2444485511135471 -0.27534046621033159 0 -0.23199225124923151 -0.26692477658714647 0 -0.25958550566062261 -0.27102626557679149 0 -0.24465976002352091 -0.25387891845332877 0 -0.2444485511135471 -0.27534046621033159 0 -0.2444485511135471 -0.27534046621033159 0 -0.23199225124923151 -0.26692477658714647 0 -0.23366363503180709 -0.28154124507507411 0 -0.2197277065850177 -0.2872169177591285 0 -0.23366363503180709 -0.28154124507507411 0 -0.21864709985809599 -0.27150291036173302 0 -0.23199225124923151 -0.26692477658714647 0 -0.23366363503180709 -0.28154124507507411 0 -0.21864709985809599 -0.27150291036173302 0 -0.2197277065850177 -0.2872169177591285 0 -0.23366363503180709 -0.28154124507507411 0 -0.24011613505684479 -0.30107681213347393 0 -0.2197277065850177 -0.2872169177591285 0 -0.24011613505684479 -0.30107681213347393 0 -0.2197277065850177 -0.2872169177591285 0 -0.24011613505684479 -0.30107681213347393 0 -0.2201073871300871 -0.30044142834658671 0 -0.2444485511135471 -0.27534046621033159 0 -0.23366363503180709 -0.28154124507507411 0 -0.24732420154209239 -0.29033586459568173 0 -0.23366363503180709 -0.28154124507507411 0 -0.24732420154209239 -0.29033586459568173 0 -0.24011613505684479 -0.30107681213347393 0 -0.25608276685525683 -0.28295324223861612 0 -0.2444485511135471 -0.27534046621033159 0 -0.24732420154209239 -0.29033586459568173 0 -0.26050456352867191 -0.3149367065078193 0 -0.24011613505684479 -0.30107681213347393 0 -0.24426682308287331 -0.30533572025667649 0 -0.25485564421046719 -0.30132045870319019 0 -0.24732420154209239 -0.29033586459568173 0 -0.24011613505684479 -0.30107681213347393 0 -0.24011613505684479 -0.30107681213347393 0 -0.2384772558931193 -0.30928307653082621 0 -0.22802593536356699 -0.30882837184141948 0 -0.24326482791746179 -0.31394285089519419 0 -0.24426682308287331 -0.30533572025667649 0 -0.2384772558931193 -0.30928307653082621 0 -0.24011613505684479 -0.30107681213347393 0 -0.24426682308287331 -0.30533572025667649 0 -0.2384772558931193 -0.30928307653082621 0 -0.23701741405433899 -0.31827760048696663 0 -0.2384772558931193 -0.30928307653082621 0 -0.22802593536356699 -0.30882837184141948 0 -0.22802593536356699 -0.30882837184141948 0 -0.2201073871300871 -0.30044142834658671 0 -0.21110805984082151 -0.30983785689108939 0 -0.24011613505684479 -0.30107681213347393 0 -0.22802593536356699 -0.30882837184141948 0 -0.2201073871300871 -0.30044142834658671 0 -0.2201073871300871 -0.30044142834658671 0 -0.21110805984082151 -0.30983785689108939 0 -0.20155909880418441 -0.29524718310782239 0 -0.21110805984082151 -0.30983785689108939 0 -0.2000775247532616 -0.30687463122530689 0 -0.20155909880418441 -0.29524718310782239 0 -0.19575919956014079 -0.31702437624003538 0 -0.21110805984082151 -0.30983785689108939 0 -0.2000775247532616 -0.30687463122530689 0 -0.18961770926909149 -0.30481471110084102 0 -0.20155909880418441 -0.29524718310782239 0 -0.1798976030385912 -0.29461474791537873 0 -0.19575919956014079 -0.31702437624003538 0 -0.2000775247532616 -0.30687463122530689 0 -0.18961770926909149 -0.30481471110084102 0 -0.19575919956014079 -0.31702437624003538 0 -0.18961770926909149 -0.30481471110084102 0 -0.1803928959391416 -0.31521744924658562 0 -0.2000775247532616 -0.30687463122530689 0 -0.18961770926909149 -0.30481471110084102 0 -0.20155909880418441 -0.29524718310782239 0 -0.19933927811319041 -0.27335702338478318 0 -0.1798976030385912 -0.29461474791537873 0 -0.20155909880418441 -0.29524718310782239 0 -0.19933927811319041 -0.27335702338478318 0 -0.1798976030385912 -0.29461474791537873 0 -0.2197277065850177 -0.2872169177591285 0 -0.20155909880418441 -0.29524718310782239 0 -0.19933927811319041 -0.27335702338478318 0 -0.2197277065850177 -0.2872169177591285 0 -0.2201073871300871 -0.30044142834658671 0 -0.20155909880418441 -0.29524718310782239 0 -0.21864709985809599 -0.27150291036173302 0 -0.19933927811319041 -0.27335702338478318 0 -0.21854221021918649 -0.25236034283526498 0 -0.2197277065850177 -0.2872169177591285 0 -0.21864709985809599 -0.27150291036173302 0 -0.19933927811319041 -0.27335702338478318 0 -0.2197277065850177 -0.2872169177591285 0 -0.19933927811319041 -0.27335702338478318 0 -0.19672455084482071 -0.27157955221738023 0 -0.19563648814007639 -0.2627950405098789 0 -0.1773613401945949 -0.28300380337564962 0 -0.19672455084482071 -0.27157955221738023 0 -0.19933927811319041 -0.27335702338478318 0 -0.1773613401945949 -0.28300380337564962 0 -0.19672455084482071 -0.27157955221738023 0 -0.19933927811319041 -0.27335702338478318 0 -0.19563648814007639 -0.2627950405098789 0 -0.19672455084482071 -0.27157955221738023 0 -0.19933927811319041 -0.27335702338478318 0 -0.19933927811319041 -0.27335702338478318 0 -0.19563648814007639 -0.2627950405098789 0 -0.2024770003035091 -0.25628481747185139 0 -0.19563648814007639 -0.2627950405098789 0 -0.19160736129165659 -0.25262396586623759 0 -0.18182513936558051 -0.25739227955256888 0 -0.19563648814007639 -0.2627950405098789 0 -0.19160736129165659 -0.25262396586623759 0 -0.2024770003035091 -0.25628481747185139 0 -0.19160736129165659 -0.25262396586623759 0 -0.2024770003035091 -0.25628481747185139 0 -0.19988453840298659 -0.24176205441804 0 -0.19933927811319041 -0.27335702338478318 0 -0.2024770003035091 -0.25628481747185139 0 -0.21854221021918649 -0.25236034283526498 0 -0.2024770003035091 -0.25628481747185139 0 -0.21854221021918649 -0.25236034283526498 0 -0.19988453840298659 -0.24176205441804 0 -0.19933927811319041 -0.27335702338478318 0 -0.21854221021918649 -0.25236034283526498 0 -0.16270034237907721 -0.26451024010365409 0 -0.1689202540561075 -0.25519621835756329 0 -0.15263230708737521 -0.24356194903458239 0 -0.16270034237907721 -0.26451024010365409 0 -0.15585924966824549 -0.27338725763800159 0 -0.15263230708737521 -0.24356194903458239 0 -0.16270034237907721 -0.26451024010365409 0 -0.1689202540561075 -0.25519621835756329 0 -0.17291740387759841 -0.2648938158906885 0 -0.1689202540561075 -0.25519621835756329 0 -0.18182513936558051 -0.25739227955256888 0 -0.1745260775709061 -0.24562280720632229 0 -0.19160736129165659 -0.25262396586623759 0 -0.18182513936558051 -0.25739227955256888 0 -0.1745260775709061 -0.24562280720632229 0 -0.19563648814007639 -0.2627950405098789 0 -0.18182513936558051 -0.25739227955256888 0 -0.18269465011250469 -0.26841637399603913 0 -0.1689202540561075 -0.25519621835756329 0 -0.18182513936558051 -0.25739227955256888 0 -0.17291740387759841 -0.2648938158906885 0 -0.18182513936558051 -0.25739227955256888 0 -0.17291740387759841 -0.2648938158906885 0 -0.18269465011250469 -0.26841637399603913 0 -0.19563648814007639 -0.2627950405098789 0 -0.18269465011250469 -0.26841637399603913 0 -0.1773613401945949 -0.28300380337564962 0 -0.17291740387759841 -0.2648938158906885 0 -0.17526212336935321 -0.27297056277525461 0 -0.1680750992927145 -0.27556825783864097 0 -0.19563648814007639 -0.2627950405098789 0 -0.1773613401945949 -0.28300380337564962 0 -0.17291740387759841 -0.2648938158906885 0 -0.17526212336935321 -0.27297056277525461 0 -0.18269465011250469 -0.26841637399603913 0 -0.17526212336935321 -0.27297056277525461 0 -0.18269465011250469 -0.26841637399603913 0 -0.1773613401945949 -0.28300380337564962 0 -0.17526212336935321 -0.27297056277525461 0 -0.1680750992927145 -0.27556825783864097 0 -0.1773613401945949 -0.28300380337564962 0 -0.1680750992927145 -0.27556825783864097 0 -0.1682011228878135 -0.28257539269247411 0 -0.1773613401945949 -0.28300380337564962 0 -0.1680750992927145 -0.27556825783864097 0 -0.1622412594804854 -0.28273310688964581 0 -0.1682011228878135 -0.28257539269247411 0 -0.16270034237907721 -0.26451024010365409 0 -0.17291740387759841 -0.2648938158906885 0 -0.1680750992927145 -0.27556825783864097 0 -0.16270034237907721 -0.26451024010365409 0 -0.1680750992927145 -0.27556825783864097 0 -0.16179622859894191 -0.27503335760685149 0 -0.16270034237907721 -0.26451024010365409 0 -0.16179622859894191 -0.27503335760685149 0 -0.15585924966824549 -0.27338725763800159 0 -0.16179622859894191 -0.27503335760685149 0 -0.1622412594804854 -0.28273310688964581 0 -0.15585924966824549 -0.27338725763800159 0 -0.1680750992927145 -0.27556825783864097 0 -0.16179622859894191 -0.27503335760685149 0 -0.1622412594804854 -0.28273310688964581 0 -0.1622412594804854 -0.28273310688964581 0 -0.16512679258345911 -0.28899640266596011 0 -0.15908619224911419 -0.30321256624142101 0 -0.1622412594804854 -0.28273310688964581 0 -0.15908619224911419 -0.30321256624142101 0 -0.15585924966824549 -0.27338725763800159 0 -0.15908619224911419 -0.30321256624142101 0 -0.15585924966824549 -0.27338725763800159 0 -0.16512679258345911 -0.28899640266596011 0 -0.1773613401945949 -0.28300380337564962 0 -0.15908619224911419 -0.30321256624142101 0 -0.1773613401945949 -0.28300380337564962 0 -0.15908619224911419 -0.30321256624142101 0 -0.16512679258345911 -0.28899640266596011 0 -0.1682011228878135 -0.28257539269247411 0 -0.1773613401945949 -0.28300380337564962 0 -0.1622412594804854 -0.28273310688964581 0 -0.16512679258345911 -0.28899640266596011 0 -0.1682011228878135 -0.28257539269247411 0 -0.1773613401945949 -0.28300380337564962 0 -0.1798976030385912 -0.29461474791537873 0 -0.15908619224911419 -0.30321256624142101 0 -0.19933927811319041 -0.27335702338478318 0 -0.1773613401945949 -0.28300380337564962 0 -0.1798976030385912 -0.29461474791537873 0 -0.1798976030385912 -0.29461474791537873 0 -0.17759103405270391 -0.30762984517719472 0 -0.16045592796399111 -0.3158724724459735 0 -0.18961770926909149 -0.30481471110084102 0 -0.1798976030385912 -0.29461474791537873 0 -0.17759103405270391 -0.30762984517719472 0 -0.18961770926909149 -0.30481471110084102 0 -0.17759103405270391 -0.30762984517719472 0 -0.1803928959391416 -0.31521744924658562 0 -0.1798976030385912 -0.29461474791537873 0 -0.16045592796399111 -0.3158724724459735 0 -0.1798976030385912 -0.29461474791537873 0 -0.15908619224911419 -0.30321256624142101 0 -0.16045592796399111 -0.3158724724459735 0 -0.15908619224911419 -0.30321256624142101 0 -0.16045592796399111 -0.3158724724459735 0 -0.1471380549162328 -0.30532142906175452 0 -0.14032160831301491 -0.30752887986621158 0 -0.14130665940473261 -0.32287327510069419 0 -0.15908619224911419 -0.30321256624142101 0 -0.1471380549162328 -0.30532142906175452 0 -0.14130665940473261 -0.32287327510069419 0 -0.15908619224911419 -0.30321256624142101 0 -0.1471380549162328 -0.30532142906175452 0 -0.1510678287434867 -0.29559461902651829 0 -0.14390798587081549 -0.29739780507392732 0 -0.1471380549162328 -0.30532142906175452 0 -0.1510678287434867 -0.29559461902651829 0 -0.14390798587081549 -0.29739780507392732 0 -0.1471380549162328 -0.30532142906175452 0 -0.14032160831301491 -0.30752887986621158 0 -0.14032160831301491 -0.30752887986621158 0 -0.13439128381467691 -0.29991683468539793 0 -0.13033731665847181 -0.31286393971371201 0 -0.13439128381467691 -0.29991683468539793 0 -0.13033731665847181 -0.31286393971371201 0 -0.12304085188452731 -0.29931348820209958 0 -0.14390798587081549 -0.29739780507392732 0 -0.14032160831301491 -0.30752887986621158 0 -0.13439128381467691 -0.29991683468539793 0 -0.14390798587081549 -0.29739780507392732 0 -0.13439128381467691 -0.29991683468539793 0 -0.14011095662501261 -0.28947786809128212 0 -0.13439128381467691 -0.29991683468539793 0 -0.14011095662501261 -0.28947786809128212 0 -0.12994370463312691 -0.28995419054763111 0 -0.13439128381467691 -0.29991683468539793 0 -0.12994370463312691 -0.28995419054763111 0 -0.12304085188452731 -0.29931348820209958 0 -0.12994370463312691 -0.28995419054763111 0 -0.13687965345326569 -0.27993872332247433 0 -0.1257911728949061 -0.280427018304516 0 -0.12994370463312691 -0.28995419054763111 0 -0.1257911728949061 -0.280427018304516 0 -0.1194571486541455 -0.28746452468861589 0 -0.14011095662501261 -0.28947786809128212 0 -0.12994370463312691 -0.28995419054763111 0 -0.13687965345326569 -0.27993872332247433 0 -0.15908619224911419 -0.30321256624142101 0 -0.15162645984294551 -0.28670064183700439 0 -0.15585924966824549 -0.27338725763800159 0 -0.14011095662501261 -0.28947786809128212 0 -0.1458827091329962 -0.28225219708249882 0 -0.13687965345326569 -0.27993872332247433 0 -0.15908619224911419 -0.30321256624142101 0 -0.1510678287434867 -0.29559461902651829 0 -0.15162645984294551 -0.28670064183700439 0 -0.1458827091329962 -0.28225219708249882 0 -0.1468811506158991 -0.28912565090950809 0 -0.15162645984294551 -0.28670064183700439 0 -0.14011095662501261 -0.28947786809128212 0 -0.1458827091329962 -0.28225219708249882 0 -0.1468811506158991 -0.28912565090950809 0 -0.14390798587081549 -0.29739780507392732 0 -0.1468811506158991 -0.28912565090950809 0 -0.1510678287434867 -0.29559461902651829 0 -0.14390798587081549 -0.29739780507392732 0 -0.14011095662501261 -0.28947786809128212 0 -0.1468811506158991 -0.28912565090950809 0 -0.1468811506158991 -0.28912565090950809 0 -0.1510678287434867 -0.29559461902651829 0 -0.15162645984294551 -0.28670064183700439 0 -0.1458827091329962 -0.28225219708249882 0 -0.15162645984294551 -0.28670064183700439 0 -0.15098162864793119 -0.27663156012407891 0 -0.15162645984294551 -0.28670064183700439 0 -0.15098162864793119 -0.27663156012407891 0 -0.15585924966824549 -0.27338725763800159 0 -0.15098162864793119 -0.27663156012407891 0 -0.1522527558101047 -0.27366235468835692 0 -0.14903370440966179 -0.27344637702894548 0 -0.15098162864793119 -0.27663156012407891 0 -0.1522527558101047 -0.27366235468835692 0 -0.15585924966824549 -0.27338725763800159 0 -0.14903370440966179 -0.27344637702894548 0 -0.1531364405145805 -0.27118422396240138 0 -0.14385763015454139 -0.26954128824380802 0 -0.1522527558101047 -0.27366235468835692 0 -0.15585924966824549 -0.27338725763800159 0 -0.1531364405145805 -0.27118422396240138 0 -0.1522527558101047 -0.27366235468835692 0 -0.14903370440966179 -0.27344637702894548 0 -0.1531364405145805 -0.27118422396240138 0 -0.14903370440966179 -0.27344637702894548 0 -0.14385763015454139 -0.26954128824380802 0 -0.1442805510697899 -0.27562940435382949 0 -0.14385763015454139 -0.26954128824380802 0 -0.1442805510697899 -0.27562940435382949 0 -0.13835653564694769 -0.27242798417408381 0 -0.1458827091329962 -0.28225219708249882 0 -0.1442805510697899 -0.27562940435382949 0 -0.13687965345326569 -0.27993872332247433 0 -0.15098162864793119 -0.27663156012407891 0 -0.14903370440966179 -0.27344637702894548 0 -0.1442805510697899 -0.27562940435382949 0 -0.1458827091329962 -0.28225219708249882 0 -0.15098162864793119 -0.27663156012407891 0 -0.1442805510697899 -0.27562940435382949 0 -0.13687965345326569 -0.27993872332247433 0 -0.12970248462840331 -0.2717774759070859 0 -0.13835653564694769 -0.27242798417408381 0 -0.1442805510697899 -0.27562940435382949 0 -0.13687965345326569 -0.27993872332247433 0 -0.13835653564694769 -0.27242798417408381 0 -0.13687965345326569 -0.27993872332247433 0 -0.1257911728949061 -0.280427018304516 0 -0.12970248462840331 -0.2717774759070859 0 -0.12970248462840331 -0.2717774759070859 0 -0.13570208279224111 -0.26528350045903498 0 -0.12855037573501921 -0.26115248962005239 0 -0.14385763015454139 -0.26954128824380802 0 -0.13835653564694769 -0.27242798417408381 0 -0.13570208279224111 -0.26528350045903498 0 -0.12970248462840331 -0.2717774759070859 0 -0.13835653564694769 -0.27242798417408381 0 -0.13570208279224111 -0.26528350045903498 0 -0.13570208279224111 -0.26528350045903498 0 -0.12855037573501921 -0.26115248962005239 0 -0.1377523016625678 -0.25581657194563601 0 -0.14385763015454139 -0.26954128824380802 0 -0.13570208279224111 -0.26528350045903498 0 -0.1377523016625678 -0.25581657194563601 0 -0.12855037573501921 -0.26115248962005239 0 -0.1377523016625678 -0.25581657194563601 0 -0.1223681628105569 -0.24044891992886891 0 -0.1531364405145805 -0.27118422396240138 0 -0.1377523016625678 -0.25581657194563601 0 -0.15263230708737521 -0.24356194903458239 0 -0.15585924966824549 -0.27338725763800159 0 -0.1531364405145805 -0.27118422396240138 0 -0.15263230708737521 -0.24356194903458239 0 -0.15585924966824549 -0.27338725763800159 0 -0.15263230708737521 -0.24356194903458239 0 -0.1531364405145805 -0.27118422396240138 0 -0.1377523016625678 -0.25581657194563601 0 -0.1531364405145805 -0.27118422396240138 0 -0.14385763015454139 -0.26954128824380802 0 -0.1377523016625678 -0.25581657194563601 0 -0.1661931572416451 -0.36889933283976362 0 -0.1633245426028184 -0.34238590264286861 0 -0.15433175674287769 -0.35458729317269139 0 -0.1661931572416451 -0.36889933283976362 0 -0.1633245426028184 -0.34238590264286861 0 -0.1661931572416451 -0.36889933283976362 0 -0.17388048196752651 -0.3522733272046466 0 -0.1633245426028184 -0.34238590264286861 0 -0.1661931572416451 -0.36889933283976362 0 -0.15433175674287769 -0.35458729317269139 0 -0.148308101659717 -0.36695316985008092 0 -0.15761740849691311 -0.38818340141201402 0 -0.1661931572416451 -0.36889933283976362 0 -0.148308101659717 -0.36695316985008092 0 -0.183603859264966 -0.3766054584014627 0 -0.1661931572416451 -0.36889933283976362 0 -0.1863350517553729 -0.35962674217565882 0 -0.1661931572416451 -0.36889933283976362 0 -0.1863350517553729 -0.35962674217565882 0 -0.17388048196752651 -0.3522733272046466 0 -0.1863350517553729 -0.35962674217565882 0 -0.17388048196752651 -0.3522733272046466 0 -0.1789381536340362 -0.33872308817907848 0 -0.17388048196752651 -0.3522733272046466 0 -0.1789381536340362 -0.33872308817907848 0 -0.1633245426028184 -0.34238590264286861 0 -0.19562896033857519 -0.33020038185646122 0 -0.1789381536340362 -0.33872308817907848 0 -0.18477851095256179 -0.32477614194451959 0 -0.1789381536340362 -0.33872308817907848 0 -0.18477851095256179 -0.32477614194451959 0 -0.1735479853981102 -0.32728394705986258 0 -0.1789381536340362 -0.33872308817907848 0 -0.1735479853981102 -0.32728394705986258 0 -0.1633245426028184 -0.34238590264286861 0 -0.17759103405270391 -0.30762984517719472 0 -0.1803928959391416 -0.31521744924658562 0 -0.16045592796399111 -0.3158724724459735 0 -0.19575919956014079 -0.31702437624003538 0 -0.1803928959391416 -0.31521744924658562 0 -0.18477851095256179 -0.32477614194451959 0 -0.1803928959391416 -0.31521744924658562 0 -0.18477851095256179 -0.32477614194451959 0 -0.1735479853981102 -0.32728394705986258 0 -0.1803928959391416 -0.31521744924658562 0 -0.1735479853981102 -0.32728394705986258 0 -0.16045592796399111 -0.3158724724459735 0 -0.1735479853981102 -0.32728394705986258 0 -0.16045592796399111 -0.3158724724459735 0 -0.1633245426028184 -0.34238590264286861 0 -0.16045592796399111 -0.3158724724459735 0 -0.1633245426028184 -0.34238590264286861 0 -0.1476770575246594 -0.3298450188736391 0 -0.16045592796399111 -0.3158724724459735 0 -0.1633245426028184 -0.34238590264286861 0 -0.1633245426028184 -0.34238590264286861 0 -0.15030263560259111 -0.34285112818916452 0 -0.1476770575246594 -0.3298450188736391 0 -0.1476770575246594 -0.3298450188736391 0 -0.14130665940473261 -0.32287327510069419 0 -0.13989838249203351 -0.33226752099114382 0 -0.1476770575246594 -0.3298450188736391 0 -0.14096893258994439 -0.33934882548262568 0 -0.13989838249203351 -0.33226752099114382 0 -0.15030263560259111 -0.34285112818916452 0 -0.1476770575246594 -0.3298450188736391 0 -0.14096893258994439 -0.33934882548262568 0 -0.15908619224911419 -0.30321256624142101 0 -0.14130665940473261 -0.32287327510069419 0 -0.16045592796399111 -0.3158724724459735 0 -0.1476770575246594 -0.3298450188736391 0 -0.14130665940473261 -0.32287327510069419 0 -0.15908619224911419 -0.30321256624142101 0 -0.16045592796399111 -0.3158724724459735 0 -0.14130665940473261 -0.32287327510069419 0 -0.16045592796399111 -0.3158724724459735 0 -0.1476770575246594 -0.3298450188736391 0 -0.14130665940473261 -0.32287327510069419 0 -0.12766342535057629 -0.32481504462803062 0 -0.13033731665847181 -0.31286393971371201 0 -0.14032160831301491 -0.30752887986621158 0 -0.14130665940473261 -0.32287327510069419 0 -0.13033731665847181 -0.31286393971371201 0 -0.14130665940473261 -0.32287327510069419 0 -0.12766342535057629 -0.32481504462803062 0 -0.12902917457320359 -0.33644978787578289 0 -0.12766342535057629 -0.32481504462803062 0 -0.12902917457320359 -0.33644978787578289 0 -0.123033176677132 -0.34308019655903149 0 -0.14096893258994439 -0.33934882548262568 0 -0.12902917457320359 -0.33644978787578289 0 -0.13366226850604379 -0.34759248760944123 0 -0.14096893258994439 -0.33934882548262568 0 -0.13989838249203351 -0.33226752099114382 0 -0.12902917457320359 -0.33644978787578289 0 -0.14130665940473261 -0.32287327510069419 0 -0.12902917457320359 -0.33644978787578289 0 -0.14130665940473261 -0.32287327510069419 0 -0.13989838249203351 -0.33226752099114382 0 -0.12902917457320359 -0.33644978787578289 0 -0.12902917457320359 -0.33644978787578289 0 -0.123033176677132 -0.34308019655903149 0 -0.12902917457320359 -0.33644978787578289 0 -0.13366226850604379 -0.34759248760944123 0 -0.123033176677132 -0.34308019655903149 0 -0.13366226850604379 -0.34759248760944123 0 -0.1303219987982592 -0.3665496015062627 0 -0.123033176677132 -0.34308019655903149 0 -0.1303219987982592 -0.3665496015062627 0 -0.123033176677132 -0.34308019655903149 0 -0.13366226850604379 -0.34759248760944123 0 -0.1435303466076166 -0.35184693234157938 0 -0.1303219987982592 -0.3665496015062627 0 -0.14096893258994439 -0.33934882548262568 0 -0.13366226850604379 -0.34759248760944123 0 -0.1435303466076166 -0.35184693234157938 0 -0.15030263560259111 -0.34285112818916452 0 -0.14096893258994439 -0.33934882548262568 0 -0.1435303466076166 -0.35184693234157938 0 -0.1435303466076166 -0.35184693234157938 0 -0.15433175674287769 -0.35458729317269139 0 -0.148308101659717 -0.36695316985008092 0 -0.1633245426028184 -0.34238590264286861 0 -0.15030263560259111 -0.34285112818916452 0 -0.15433175674287769 -0.35458729317269139 0 -0.15030263560259111 -0.34285112818916452 0 -0.1435303466076166 -0.35184693234157938 0 -0.15433175674287769 -0.35458729317269139 0 -0.1435303466076166 -0.35184693234157938 0 -0.148308101659717 -0.36695316985008092 0 -0.1303219987982592 -0.3665496015062627 0 -0.1369224961495438 -0.38192389563367207 0 -0.148308101659717 -0.36695316985008092 0 -0.1303219987982592 -0.3665496015062627 0 -0.1303219987982592 -0.3665496015062627 0 -0.1159926709000937 -0.36685414663024191 0 -0.11895596668836859 -0.34683008488337108 0 -0.1303219987982592 -0.3665496015062627 0 -0.1159926709000937 -0.36685414663024191 0 -0.12201267174342199 -0.37938718301114999 0 -0.1024060606807759 -0.36205135125861898 0 -0.1016559479587178 -0.38500202459504551 0 -0.1159926709000937 -0.36685414663024191 0 -0.1024060606807759 -0.36205135125861898 0 -0.1094440337948836 -0.37923577087639421 0 -0.1024060606807759 -0.36205135125861898 0 -0.1016559479587178 -0.38500202459504551 0 -0.095426438310298192 -0.37780241062099151 0 -0.1024060606807759 -0.36205135125861898 0 -0.090139611558562177 -0.37333304007799939 0 -0.095426438310298192 -0.37780241062099151 0 -0.1024060606807759 -0.36205135125861898 0 -0.093943439343664059 -0.36410026383479388 0 -0.090139611558562177 -0.37333304007799939 0 -0.1024060606807759 -0.36205135125861898 0 -0.093943439343664059 -0.36410026383479388 0 -0.095626283443773746 -0.35612124291623848 0 -0.1024060606807759 -0.36205135125861898 0 -0.090139611558562177 -0.37333304007799939 0 -0.1024060606807759 -0.36205135125861898 0 -0.1029439411344124 -0.34559419992324319 0 -0.1024060606807759 -0.36205135125861898 0 -0.1029439411344124 -0.34559419992324319 0 -0.11895596668836859 -0.34683008488337108 0 -0.1024060606807759 -0.36205135125861898 0 -0.095626283443773746 -0.35612124291623848 0 -0.1029439411344124 -0.34559419992324319 0 -0.095626283443773746 -0.35612124291623848 0 -0.1029439411344124 -0.34559419992324319 0 -0.093212578299404075 -0.34130700998995739 0 -0.1159926709000937 -0.36685414663024191 0 -0.1024060606807759 -0.36205135125861898 0 -0.11895596668836859 -0.34683008488337108 0 -0.1024060606807759 -0.36205135125861898 0 -0.11895596668836859 -0.34683008488337108 0 -0.1303219987982592 -0.3665496015062627 0 -0.11895596668836859 -0.34683008488337108 0 -0.123033176677132 -0.34308019655903149 0 -0.1029439411344124 -0.34559419992324319 0 -0.11895596668836859 -0.34683008488337108 0 -0.123033176677132 -0.34308019655903149 0 -0.11895596668836859 -0.34683008488337108 0 -0.123033176677132 -0.34308019655903149 0 -0.1029439411344124 -0.34559419992324319 0 -0.1137910684918501 -0.33520612369310882 0 -0.123033176677132 -0.34308019655903149 0 -0.123033176677132 -0.34308019655903149 0 -0.1159692764993048 -0.31568518943543378 0 -0.1137910684918501 -0.33520612369310882 0 -0.123033176677132 -0.34308019655903149 0 -0.1159692764993048 -0.31568518943543378 0 -0.12766342535057629 -0.32481504462803062 0 -0.123033176677132 -0.34308019655903149 0 -0.1159692764993048 -0.31568518943543378 0 -0.1137910684918501 -0.33520612369310882 0 -0.1159692764993048 -0.31568518943543378 0 -0.1034818215880495 -0.3291370485878673 0 -0.12766342535057629 -0.32481504462803062 0 -0.13033731665847181 -0.31286393971371201 0 -0.1159692764993048 -0.31568518943543378 0 -0.1159692764993048 -0.31568518943543378 0 -0.10079975883819629 -0.31506063040533638 0 -0.1034818215880495 -0.3291370485878673 0 -0.10079975883819629 -0.31506063040533638 0 -0.093212578299404075 -0.34130700998995739 0 -0.10079975883819629 -0.31506063040533638 0 -0.093212578299404075 -0.34130700998995739 0 -0.087373844159168004 -0.3291061545470132 0 -0.10079975883819629 -0.31506063040533638 0 -0.1034818215880495 -0.3291370485878673 0 -0.093212578299404075 -0.34130700998995739 0 -0.1029439411344124 -0.34559419992324319 0 -0.1034818215880495 -0.3291370485878673 0 -0.1029439411344124 -0.34559419992324319 0 -0.1034818215880495 -0.3291370485878673 0 -0.093212578299404075 -0.34130700998995739 0 -0.1029439411344124 -0.34559419992324319 0 -0.1137910684918501 -0.33520612369310882 0 -0.1034818215880495 -0.3291370485878673 0 -0.093212578299404075 -0.34130700998995739 0 -0.087373844159168004 -0.3291061545470132 0 -0.080908772255243899 -0.33898270124258217 0 -0.087373844159168004 -0.3291061545470132 0 -0.080908772255243899 -0.33898270124258217 0 -0.077490532230771417 -0.32991328235931511 0 -0.093212578299404075 -0.34130700998995739 0 -0.080908772255243899 -0.33898270124258217 0 -0.080378844364046895 -0.35001101873094542 0 -0.10079975883819629 -0.31506063040533638 0 -0.085305929108392881 -0.31951846990187233 0 -0.091873739319295072 -0.31122357941036211 0 -0.10079975883819629 -0.31506063040533638 0 -0.087373844159168004 -0.3291061545470132 0 -0.085305929108392881 -0.31951846990187233 0 -0.085305929108392881 -0.31951846990187233 0 -0.076805788315873161 -0.32077910918615782 0 -0.077490532230771417 -0.32991328235931511 0 -0.087373844159168004 -0.3291061545470132 0 -0.085305929108392881 -0.31951846990187233 0 -0.077490532230771417 -0.32991328235931511 0 -0.085305929108392881 -0.31951846990187233 0 -0.076805788315873161 -0.32077910918615782 0 -0.078544889372492196 -0.31002595631180607 0 -0.085305929108392881 -0.31951846990187233 0 -0.091873739319295072 -0.31122357941036211 0 -0.078544889372492196 -0.31002595631180607 0 -0.066882954587322394 -0.32486941793266988 0 -0.078544889372492196 -0.31002595631180607 0 -0.05424539878688571 -0.319762651601179 0 -0.078544889372492196 -0.31002595631180607 0 -0.05424539878688571 -0.319762651601179 0 -0.076805788315873161 -0.32077910918615782 0 -0.066882954587322394 -0.32486941793266988 0 -0.078544889372492196 -0.31002595631180607 0 -0.076805788315873161 -0.32077910918615782 0 -0.066882954587322394 -0.32486941793266988 0 -0.077490532230771417 -0.32991328235931511 0 -0.066882954587322394 -0.32486941793266988 0 -0.070160141916437824 -0.34098238217286791 0 -0.054527031800802053 -0.34042178362413461 0 -0.066882954587322394 -0.32486941793266988 0 -0.077490532230771417 -0.32991328235931511 0 -0.070160141916437824 -0.34098238217286791 0 -0.080908772255243899 -0.33898270124258217 0 -0.077490532230771417 -0.32991328235931511 0 -0.070160141916437824 -0.34098238217286791 0 -0.080908772255243899 -0.33898270124258217 0 -0.070160141916437824 -0.34098238217286791 0 -0.080378844364046895 -0.35001101873094542 0 -0.070160141916437824 -0.34098238217286791 0 -0.066522813126512412 -0.35680227137673098 0 -0.054527031800802053 -0.34042178362413461 0 -0.070160141916437824 -0.34098238217286791 0 -0.066522813126512412 -0.35680227137673098 0 -0.080378844364046895 -0.35001101873094542 0 -0.066522813126512412 -0.35680227137673098 0 -0.076582500297099523 -0.36039923154202719 0 -0.080378844364046895 -0.35001101873094542 0 -0.066522813126512412 -0.35680227137673098 0 -0.073802945937226916 -0.36723024648585417 0 -0.058387822440418388 -0.36975607908058028 0 -0.073802945937226916 -0.36723024648585417 0 -0.058387822440418388 -0.36975607908058028 0 -0.08170780991661282 -0.38109255286014232 0 -0.066522813126512412 -0.35680227137673098 0 -0.073802945937226916 -0.36723024648585417 0 -0.076582500297099523 -0.36039923154202719 0 -0.073802945937226916 -0.36723024648585417 0 -0.076582500297099523 -0.36039923154202719 0 -0.085625397760611066 -0.36755338957457828 0 -0.085625397760611066 -0.36755338957457828 0 -0.087954911787112483 -0.37534235041220648 0 -0.08170780991661282 -0.38109255286014232 0 -0.073802945937226916 -0.36723024648585417 0 -0.085625397760611066 -0.36755338957457828 0 -0.08170780991661282 -0.38109255286014232 0 -0.085625397760611066 -0.36755338957457828 0 -0.08170780991661282 -0.38109255286014232 0 -0.093943439343664059 -0.36410026383479388 0 -0.085625397760611066 -0.36755338957457828 0 -0.090139611558562177 -0.37333304007799939 0 -0.093943439343664059 -0.36410026383479388 0 -0.090139611558562177 -0.37333304007799939 0 -0.085625397760611066 -0.36755338957457828 0 -0.090139611558562177 -0.37333304007799939 0 -0.087954911787112483 -0.37534235041220648 0 -0.085625397760611066 -0.36755338957457828 0 -0.087954911787112483 -0.37534235041220648 0 -0.090139611558562177 -0.37333304007799939 0 -0.087954911787112483 -0.37534235041220648 0 -0.093943439343664059 -0.36410026383479388 0 -0.095626283443773746 -0.35612124291623848 0 -0.085625397760611066 -0.36755338957457828 0 -0.093212578299404075 -0.34130700998995739 0 -0.085625397760611066 -0.36755338957457828 0 -0.076582500297099523 -0.36039923154202719 0 -0.085625397760611066 -0.36755338957457828 0 -0.080378844364046895 -0.35001101873094542 0 -0.093212578299404075 -0.34130700998995739 0 -0.085625397760611066 -0.36755338957457828 0 -0.080378844364046895 -0.35001101873094542 0 -0.085625397760611066 -0.36755338957457828 0 -0.080378844364046895 -0.35001101873094542 0 -0.095626283443773746 -0.35612124291623848 0 -0.093212578299404075 -0.34130700998995739 0 -0.085625397760611066 -0.36755338957457828 0 -0.10474757541744149 -0.26087495970427582 0 -0.090174700483665673 -0.26498018187443112 0 -0.1005321994236209 -0.2431127607729493 0 -0.10474757541744149 -0.26087495970427582 0 -0.11757885349586771 -0.25701660664448461 0 -0.1005321994236209 -0.2431127607729493 0 -0.12855037573501921 -0.26115248962005239 0 -0.11757885349586771 -0.25701660664448461 0 -0.1127895441811773 -0.27358429336009982 0 -0.12855037573501921 -0.26115248962005239 0 -0.11757885349586771 -0.25701660664448461 0 -0.1223681628105569 -0.24044891992886891 0 -0.10474757541744149 -0.26087495970427582 0 -0.11757885349586771 -0.25701660664448461 0 -0.1127895441811773 -0.27358429336009982 0 -0.11757885349586771 -0.25701660664448461 0 -0.1127895441811773 -0.27358429336009982 0 -0.1257911728949061 -0.280427018304516 0 -0.12970248462840331 -0.2717774759070859 0 -0.1127895441811773 -0.27358429336009982 0 -0.12855037573501921 -0.26115248962005239 0 -0.1127895441811773 -0.27358429336009982 0 -0.12970248462840331 -0.2717774759070859 0 -0.12855037573501921 -0.26115248962005239 0 -0.1127895441811773 -0.27358429336009982 0 -0.1257911728949061 -0.280427018304516 0 -0.1127895441811773 -0.27358429336009982 0 -0.1194571486541455 -0.28746452468861589 0 -0.1127895441811773 -0.27358429336009982 0 -0.1083869393769897 -0.28881425082071571 0 -0.1127895441811773 -0.27358429336009982 0 -0.093274829049746905 -0.28897707944045958 0 -0.090174700483665673 -0.26498018187443112 0 -0.10474757541744149 -0.26087495970427582 0 -0.1127895441811773 -0.27358429336009982 0 -0.090174700483665673 -0.26498018187443112 0 -0.1127895441811773 -0.27358429336009982 0 -0.1067008731150054 -0.28283902414649681 0 -0.093274829049746905 -0.28897707944045958 0 -0.1127895441811773 -0.27358429336009982 0 -0.093274829049746905 -0.28897707944045958 0 -0.1083869393769897 -0.28881425082071571 0 -0.102844379958099 -0.30028926102243358 0 -0.093274829049746905 -0.28897707944045958 0 -0.1127895441811773 -0.27358429336009982 0 -0.1083869393769897 -0.28881425082071571 0 -0.1067008731150054 -0.28283902414649681 0 -0.1083869393769897 -0.28881425082071571 0 -0.1067008731150054 -0.28283902414649681 0 -0.1083869393769897 -0.28881425082071571 0 -0.1067008731150054 -0.28283902414649681 0 -0.093274829049746905 -0.28897707944045958 0 -0.1127895441811773 -0.27358429336009982 0 -0.1083869393769897 -0.28881425082071571 0 -0.1194571486541455 -0.28746452468861589 0 -0.12994370463312691 -0.28995419054763111 0 -0.1194571486541455 -0.28746452468861589 0 -0.12304085188452731 -0.29931348820209958 0 -0.1083869393769897 -0.28881425082071571 0 -0.1194571486541455 -0.28746452468861589 0 -0.12304085188452731 -0.29931348820209958 0 -0.1159692764993048 -0.31568518943543378 0 -0.1083869393769897 -0.28881425082071571 0 -0.12304085188452731 -0.29931348820209958 0 -0.1159692764993048 -0.31568518943543378 0 -0.1083869393769897 -0.28881425082071571 0 -0.13033731665847181 -0.31286393971371201 0 -0.1159692764993048 -0.31568518943543378 0 -0.12304085188452731 -0.29931348820209958 0 -0.1159692764993048 -0.31568518943543378 0 -0.10079975883819629 -0.31506063040533638 0 -0.1083869393769897 -0.28881425082071571 0 -0.10079975883819629 -0.31506063040533638 0 -0.1083869393769897 -0.28881425082071571 0 -0.10079975883819629 -0.31506063040533638 0 -0.1083869393769897 -0.28881425082071571 0 -0.102844379958099 -0.30028926102243358 0 -0.10079975883819629 -0.31506063040533638 0 -0.102844379958099 -0.30028926102243358 0 -0.091873739319295072 -0.31122357941036211 0 -0.078544889372492196 -0.31002595631180607 0 -0.073760113918316481 -0.30436986552081963 0 -0.093274829049746905 -0.28897707944045958 0 -0.102844379958099 -0.30028926102243358 0 -0.078544889372492196 -0.31002595631180607 0 -0.093274829049746905 -0.28897707944045958 0 -0.102844379958099 -0.30028926102243358 0 -0.091873739319295072 -0.31122357941036211 0 -0.078544889372492196 -0.31002595631180607 0 -0.102844379958099 -0.30028926102243358 0 -0.078544889372492196 -0.31002595631180607 0 -0.078544889372492196 -0.31002595631180607 0 -0.073760113918316481 -0.30436986552081963 0 -0.05424539878688571 -0.319762651601179 0 -0.073760113918316481 -0.30436986552081963 0 -0.05424539878688571 -0.319762651601179 0 -0.073760113918316481 -0.30436986552081963 0 -0.071188273097670243 -0.28513602236808322 0 -0.055748641784298267 -0.30178875706485681 0 -0.073760113918316481 -0.30436986552081963 0 -0.071188273097670243 -0.28513602236808322 0 -0.093274829049746905 -0.28897707944045958 0 -0.073760113918316481 -0.30436986552081963 0 -0.093274829049746905 -0.28897707944045958 0 -0.071188273097670243 -0.28513602236808322 0 -0.093274829049746905 -0.28897707944045958 0 -0.090174700483665673 -0.26498018187443112 0 -0.071188273097670243 -0.28513602236808322 0 -0.063484538676239377 -0.26413124226689111 0 -0.090174700483665673 -0.26498018187443112 0 -0.063484538676239377 -0.26413124226689111 0 -0.076282262678724011 -0.24169347649274159 0 -0.063484538676239377 -0.26413124226689111 0 -0.090174700483665673 -0.26498018187443112 0 -0.076282262678724011 -0.24169347649274159 0 -0.036942597034766073 -0.27265489088473938 0 -0.050686814673754729 -0.28656900804104057 0 -0.0185119813334658 -0.28327625011988139 0 -0.038581934025118947 -0.25114857380685968 0 -0.038334603868346327 -0.2604973367990705 0 -0.03064478186574425 -0.25326356670072259 0 -0.038334603868346327 -0.2604973367990705 0 -0.029413390480137139 -0.26518294325465769 0 -0.03064478186574425 -0.25326356670072259 0 -0.038334603868346327 -0.2604973367990705 0 -0.046517308340487992 -0.25474718453952289 0 -0.048289188575406587 -0.26955092917192058 0 -0.038581934025118947 -0.25114857380685968 0 -0.038334603868346327 -0.2604973367990705 0 -0.046517308340487992 -0.25474718453952289 0 -0.063484538676239377 -0.26413124226689111 0 -0.046517308340487992 -0.25474718453952289 0 -0.0567919256119837 -0.24387644547435741 0 -0.063484538676239377 -0.26413124226689111 0 -0.046517308340487992 -0.25474718453952289 0 -0.048289188575406587 -0.26955092917192058 0 -0.063484538676239377 -0.26413124226689111 0 -0.050686814673754729 -0.28656900804104057 0 -0.071188273097670243 -0.28513602236808322 0 -0.063484538676239377 -0.26413124226689111 0 -0.050686814673754729 -0.28656900804104057 0 -0.063484538676239377 -0.26413124226689111 0 -0.048289188575406587 -0.26955092917192058 0 -0.050686814673754729 -0.28656900804104057 0 -0.048289188575406587 -0.26955092917192058 0 -0.036942597034766073 -0.27265489088473938 0 -0.050686814673754729 -0.28656900804104057 0 -0.038334603868346327 -0.2604973367990705 0 -0.048289188575406587 -0.26955092917192058 0 -0.036942597034766073 -0.27265489088473938 0 -0.038334603868346327 -0.2604973367990705 0 -0.036942597034766073 -0.27265489088473938 0 -0.029413390480137139 -0.26518294325465769 0 -0.050686814673754729 -0.28656900804104057 0 -0.037889090671270123 -0.30900677381518998 0 -0.0185119813334658 -0.28327625011988139 0 -0.071188273097670243 -0.28513602236808322 0 -0.050686814673754729 -0.28656900804104057 0 -0.055748641784298267 -0.30178875706485681 0 -0.073760113918316481 -0.30436986552081963 0 -0.055748641784298267 -0.30178875706485681 0 -0.05424539878688571 -0.319762651601179 0 -0.055748641784298267 -0.30178875706485681 0 -0.037889090671270123 -0.30900677381518998 0 -0.05424539878688571 -0.319762651601179 0 -0.050686814673754729 -0.28656900804104057 0 -0.055748641784298267 -0.30178875706485681 0 -0.037889090671270123 -0.30900677381518998 0 -0.050686814673754729 -0.28656900804104057 0 -0.037889090671270123 -0.30900677381518998 0 -0.037889090671270123 -0.30900677381518998 0 -0.014390974368570029 -0.31032982847088841 0 -0.0185119813334658 -0.28327625011988139 0 -0.014390974368570029 -0.31032982847088841 0 0.001904989571353899 -0.32214434476741449 0 0.0019518825097332619 -0.30029273945570772 0 -0.014390974368570029 -0.31032982847088841 0 -0.0185119813334658 -0.28327625011988139 0 0.0019518825097332619 -0.30029273945570772 0 -0.0185119813334658 -0.28327625011988139 0 -0.0020851015340006161 -0.28052611142458661 0 0.0019518825097332619 -0.30029273945570772 0 -0.014390974368570029 -0.31032982847088841 0 -0.0185119813334658 -0.28327625011988139 0 -0.036942597034766073 -0.27265489088473938 0 -0.0185119813334658 -0.28327625011988139 0 -0.029413390480137139 -0.26518294325465769 0 -0.0185119813334658 -0.28327625011988139 0 -0.02263298829836323 -0.25622267176887481 0 -0.029413390480137139 -0.26518294325465769 0 -0.0185119813334658 -0.28327625011988139 0 -0.02263298829836323 -0.25622267176887481 0 -0.0185119813334658 -0.28327625011988139 0 -0.0093077836028632385 -0.27105033158696179 0 -0.02263298829836323 -0.25622267176887481 0 -0.0185119813334658 -0.28327625011988139 0 -0.0020851015340006161 -0.28052611142458661 0 -0.0093077836028632385 -0.27105033158696179 0 -0.0020851015340006161 -0.28052611142458661 0 -0.0093077836028632385 -0.27105033158696179 0 0.0055944649301708496 -0.26664830233551728 0 -0.014059514610042069 -0.25416210053859828 0 -0.02263298829836323 -0.25622267176887481 0 0.0055944649301708496 -0.26664830233551728 0 -0.0093077836028632385 -0.27105033158696179 0 -0.02263298829836323 -0.25622267176887481 0 0.0055944649301708496 -0.26664830233551728 0 -0.02263298829836323 -0.25622267176887481 0 0.0055944649301708496 -0.26664830233551728 0 -0.014059514610042069 -0.25416210053859828 0 -0.0080727856436109482 -0.2481099565327444 0 0.0055944649301708496 -0.26664830233551728 0 -0.014059514610042069 -0.25416210053859828 0 -0.01887874476148543 -0.24814250919209771 0 -0.0080727856436109482 -0.2481099565327444 0 -0.014059514610042069 -0.25416210053859828 0 -0.02263298829836323 -0.25622267176887481 0 -0.02285766608625657 -0.25474770747244752 0 -0.014059514610042069 -0.25416210053859828 0 -0.02285766608625657 -0.25474770747244752 0 -0.01887874476148543 -0.24814250919209771 0 -0.02285766608625657 -0.25474770747244752 0 -0.026067501294639708 -0.24850247980592871 0 -0.01887874476148543 -0.24814250919209771 0 -0.02263298829836323 -0.25622267176887481 0 -0.02285766608625657 -0.25474770747244752 0 -0.02263298829836323 -0.25622267176887481 0 -0.029413390480137139 -0.26518294325465769 0 -0.03064478186574425 -0.25326356670072259 0 -0.02263298829836323 -0.25622267176887481 0 -0.03064478186574425 -0.25326356670072259 0 -0.02263298829836323 -0.25622267176887481 0 -0.02285766608625657 -0.25474770747244752 0 -0.03064478186574425 -0.25326356670072259 0 -0.02285766608625657 -0.25474770747244752 0 -0.03064478186574425 -0.25326356670072259 0 -0.026067501294639708 -0.24850247980592871 0 -0.040780788735907937 -0.34809370153295588 0 -0.035070660285960877 -0.35841379707961513 0 -0.051335308585544609 -0.35442186843706669 0 -0.040780788735907937 -0.34809370153295588 0 -0.033802973987086503 -0.33588719504380232 0 -0.029167969020145641 -0.35132386348016093 0 -0.040780788735907937 -0.34809370153295588 0 -0.035070660285960877 -0.35841379707961513 0 -0.029167969020145641 -0.35132386348016093 0 -0.035070660285960877 -0.35841379707961513 0 -0.040000350022935588 -0.37213681664196291 0 -0.021437446366364531 -0.36359117576668931 0 -0.035070660285960877 -0.35841379707961513 0 -0.058387822440418388 -0.36975607908058028 0 -0.035070660285960877 -0.35841379707961513 0 -0.040000350022935588 -0.37213681664196291 0 -0.058387822440418388 -0.36975607908058028 0 -0.040000350022935588 -0.37213681664196291 0 -0.058387822440418388 -0.36975607908058028 0 -0.058563253679506787 -0.38068245751723601 0 -0.035070660285960877 -0.35841379707961513 0 -0.058387822440418388 -0.36975607908058028 0 -0.051335308585544609 -0.35442186843706669 0 -0.066522813126512412 -0.35680227137673098 0 -0.058387822440418388 -0.36975607908058028 0 -0.051335308585544609 -0.35442186843706669 0 -0.066522813126512412 -0.35680227137673098 0 -0.051335308585544609 -0.35442186843706669 0 -0.054527031800802053 -0.34042178362413461 0 -0.040780788735907937 -0.34809370153295588 0 -0.051335308585544609 -0.35442186843706669 0 -0.054527031800802053 -0.34042178362413461 0 -0.066882954587322394 -0.32486941793266988 0 -0.054527031800802053 -0.34042178362413461 0 -0.05424539878688571 -0.319762651601179 0 -0.054527031800802053 -0.34042178362413461 0 -0.05424539878688571 -0.319762651601179 0 -0.033802973987086503 -0.33588719504380232 0 -0.05424539878688571 -0.319762651601179 0 -0.039668382727836717 -0.32560359559526031 0 -0.05424539878688571 -0.319762651601179 0 -0.033802973987086503 -0.33588719504380232 0 -0.037889090671270123 -0.30900677381518998 0 -0.025091366668787349 -0.3314445395893405 0 -0.05424539878688571 -0.319762651601179 0 -0.039668382727836717 -0.32560359559526031 0 -0.033802973987086503 -0.33588719504380232 0 -0.037889090671270123 -0.30900677381518998 0 -0.05424539878688571 -0.319762651601179 0 -0.039668382727836717 -0.32560359559526031 0 -0.037889090671270123 -0.30900677381518998 0 -0.039668382727836717 -0.32560359559526031 0 -0.025091366668787349 -0.3314445395893405 0 -0.040780788735907937 -0.34809370153295588 0 -0.054527031800802053 -0.34042178362413461 0 -0.033802973987086503 -0.33588719504380232 0 -0.039668382727836717 -0.32560359559526031 0 -0.025091366668787349 -0.3314445395893405 0 -0.039668382727836717 -0.32560359559526031 0 -0.033802973987086503 -0.33588719504380232 0 -0.025091366668787349 -0.3314445395893405 0 -0.025091366668787349 -0.3314445395893405 0 -0.01336054918728761 -0.35201173848642592 0 -0.033802973987086503 -0.33588719504380232 0 -0.025091366668787349 -0.3314445395893405 0 -0.01336054918728761 -0.35201173848642592 0 -0.025091366668787349 -0.3314445395893405 0 -0.01532372128421448 -0.33535839064186268 0 -0.01336054918728761 -0.35201173848642592 0 -0.025091366668787349 -0.3314445395893405 0 -0.022734703789933738 -0.32728556430890232 0 -0.01532372128421448 -0.33535839064186268 0 -0.025091366668787349 -0.3314445395893405 0 -0.01532372128421448 -0.33535839064186268 0 -0.022734703789933738 -0.32728556430890232 0 -0.01532372128421448 -0.33535839064186268 0 -0.037889090671270123 -0.30900677381518998 0 -0.014390974368570029 -0.31032982847088841 0 -0.022734703789933738 -0.32728556430890232 0 -0.037889090671270123 -0.30900677381518998 0 -0.025091366668787349 -0.3314445395893405 0 -0.022734703789933738 -0.32728556430890232 0 -0.014390974368570029 -0.31032982847088841 0 -0.022734703789933738 -0.32728556430890232 0 -0.01532372128421448 -0.33535839064186268 0 -0.014390974368570029 -0.31032982847088841 0 -0.010269967403673339 -0.33738340682189533 0 -0.014390974368570029 -0.31032982847088841 0 -0.010269967403673339 -0.33738340682189533 0 -0.01532372128421448 -0.33535839064186268 0 -0.014390974368570029 -0.31032982847088841 0 -0.010269967403673339 -0.33738340682189533 0 0.001904989571353899 -0.32214434476741449 0 -0.010269967403673339 -0.33738340682189533 0 -0.0096343958099064687 -0.34155580596031437 0 0.0075807645751098419 -0.34453611388615663 0 -0.010269967403673339 -0.33738340682189533 0 0.0075807645751098419 -0.34453611388615663 0 -0.0096343958099064687 -0.34155580596031437 0 -0.01532372128421448 -0.33535839064186268 0 -0.01336054918728761 -0.35201173848642592 0 -0.010269967403673339 -0.33738340682189533 0 -0.0096343958099064687 -0.34155580596031437 0 -0.010269967403673339 -0.33738340682189533 0 -0.0096343958099064687 -0.34155580596031437 0 -0.01532372128421448 -0.33535839064186268 0 -0.0096343958099064687 -0.34155580596031437 0 -0.01532372128421448 -0.33535839064186268 0 -0.010269967403673339 -0.33738340682189533 0 -0.01532372128421448 -0.33535839064186268 0 -0.010269967403673339 -0.33738340682189533 0 0.0034794820758208261 -0.33361449123698089 0 0.001904989571353899 -0.32214434476741449 0 -0.0096343958099064687 -0.34155580596031437 0 -0.0070150904897389628 -0.35875101633193152 0 -0.0096343958099064687 -0.34155580596031437 0 -0.0070150904897389628 -0.35875101633193152 0 -0.01336054918728761 -0.35201173848642592 0 -0.0096343958099064687 -0.34155580596031437 0 -0.0070150904897389628 -0.35875101633193152 0 0.0099352179383349771 -0.36287309999936251 0 -0.033802973987086503 -0.33588719504380232 0 -0.01336054918728761 -0.35201173848642592 0 -0.029167969020145641 -0.35132386348016093 0 -0.01336054918728761 -0.35201173848642592 0 -0.029167969020145641 -0.35132386348016093 0 -0.021437446366364531 -0.36359117576668931 0 -0.033802973987086503 -0.33588719504380232 0 -0.01336054918728761 -0.35201173848642592 0 -0.035070660285960877 -0.35841379707961513 0 -0.029167969020145641 -0.35132386348016093 0 -0.021437446366364531 -0.36359117576668931 0 -0.040000350022935588 -0.37213681664196291 0 -0.021437446366364531 -0.36359117576668931 0 -0.02618172091304426 -0.37743656618445498 0 -0.021437446366364531 -0.36359117576668931 0 -0.002178803782163227 -0.37161627006544062 0 -0.02618172091304426 -0.37743656618445498 0 -0.040000350022935588 -0.37213681664196291 0 -0.021437446366364531 -0.36359117576668931 0 -0.01336054918728761 -0.35201173848642592 0 -0.021437446366364531 -0.36359117576668931 0 -0.002178803782163227 -0.37161627006544062 0 -0.01336054918728761 -0.35201173848642592 0 -0.002178803782163227 -0.37161627006544062 0 -0.0070150904897389628 -0.35875101633193152 0 -0.01336054918728761 -0.35201173848642592 0 -0.002178803782163227 -0.37161627006544062 0 -0.002178803782163227 -0.37161627006544062 0 -0.026336278995230201 -0.38905167830789189 0 -0.002178803782163227 -0.37161627006544062 0 -0.0066930742226519926 -0.39143820132839208 0 -0.026336278995230201 -0.38905167830789189 0 -0.0066930742226519926 -0.39143820132839208 0 -0.001728596279610697 -0.40597762003102339 0 -0.017737199096442072 -0.40073047040120602 0 -0.0066930742226519926 -0.39143820132839208 0 -0.017737199096442072 -0.40073047040120602 0 -0.026336278995230201 -0.38905167830789189 0 -0.017737199096442072 -0.40073047040120602 0 -0.026336278995230201 -0.38905167830789189 0 -0.033287388117186109 -0.40399871831440642 0 -0.002178803782163227 -0.37161627006544062 0 -0.026336278995230201 -0.38905167830789189 0 -0.02618172091304426 -0.37743656618445498 0 -0.026336278995230201 -0.38905167830789189 0 -0.02618172091304426 -0.37743656618445498 0 -0.033482850758781962 -0.383939184607547 0 -0.02618172091304426 -0.37743656618445498 0 -0.042372487296275553 -0.37905951185084519 0 -0.033482850758781962 -0.383939184607547 0 -0.02618172091304426 -0.37743656618445498 0 -0.042372487296275553 -0.37905951185084519 0 -0.040000350022935588 -0.37213681664196291 0 -0.02618172091304426 -0.37743656618445498 0 -0.042372487296275553 -0.37905951185084519 0 -0.042372487296275553 -0.37905951185084519 0 -0.039040915830577852 -0.39020898208699611 0 -0.049048127186911553 -0.38756594990863991 0 -0.042372487296275553 -0.37905951185084519 0 -0.039040915830577852 -0.39020898208699611 0 -0.033482850758781962 -0.383939184607547 0 -0.026336278995230201 -0.38905167830789189 0 -0.039040915830577852 -0.39020898208699611 0 -0.033482850758781962 -0.383939184607547 0 -0.026336278995230201 -0.38905167830789189 0 -0.050493754208297943 -0.40648708655034188 0 -0.039040915830577852 -0.39020898208699611 0 -0.048181286987745188 -0.3967611761759377 0 -0.050493754208297943 -0.40648708655034188 0 -0.026336278995230201 -0.38905167830789189 0 -0.039040915830577852 -0.39020898208699611 0 -0.050493754208297943 -0.40648708655034188 0 -0.026336278995230201 -0.38905167830789189 0 -0.033287388117186109 -0.40399871831440642 0 -0.050493754208297943 -0.40648708655034188 0 -0.039040915830577852 -0.39020898208699611 0 -0.048181286987745188 -0.3967611761759377 0 -0.049048127186911553 -0.38756594990863991 0 -0.048181286987745188 -0.3967611761759377 0 -0.055512870853615448 -0.39455951290216967 0 -0.049048127186911553 -0.38756594990863991 0 -0.055512870853615448 -0.39455951290216967 0 -0.052509649903146327 -0.40794203844841681 0 -0.074281153156084773 -0.38791836881244668 0 -0.048181286987745188 -0.3967611761759377 0 -0.055512870853615448 -0.39455951290216967 0 -0.050493754208297943 -0.40648708655034188 0 -0.055512870853615448 -0.39455951290216967 0 -0.052509649903146327 -0.40794203844841681 0 -0.050493754208297943 -0.40648708655034188 0 -0.048181286987745188 -0.3967611761759377 0 -0.050493754208297943 -0.40648708655034188 0 -0.040000350022935588 -0.37213681664196291 0 -0.042372487296275553 -0.37905951185084519 0 -0.058563253679506787 -0.38068245751723601 0 -0.042372487296275553 -0.37905951185084519 0 -0.058563253679506787 -0.38068245751723601 0 -0.040000350022935588 -0.37213681664196291 0 -0.058563253679506787 -0.38068245751723601 0 -0.042372487296275553 -0.37905951185084519 0 -0.058563253679506787 -0.38068245751723601 0 -0.049048127186911553 -0.38756594990863991 0 -0.055512870853615448 -0.39455951290216967 0 -0.058563253679506787 -0.38068245751723601 0 -0.049048127186911553 -0.38756594990863991 0 -0.055571169944573007 -0.4278419796903028 0 -0.060002998013559863 -0.44648162232419802 0 -0.069408814394604765 -0.42365151461769918 0 -0.055571169944573007 -0.4278419796903028 0 -0.060002998013559863 -0.44648162232419802 0 -0.055571169944573007 -0.4278419796903028 0 -0.04142135733128624 -0.43391233418184683 0 -0.048623679129421588 -0.44273110985945369 0 -0.055571169944573007 -0.4278419796903028 0 -0.059775586818595829 -0.41787661413097049 0 -0.069408814394604765 -0.42365151461769918 0 -0.055571169944573007 -0.4278419796903028 0 -0.059775586818595829 -0.41787661413097049 0 -0.052509649903146327 -0.40794203844841681 0 -0.055571169944573007 -0.4278419796903028 0 -0.052509649903146327 -0.40794203844841681 0 -0.038621424185474637 -0.4207153063468223 0 -0.055571169944573007 -0.4278419796903028 0 -0.052509649903146327 -0.40794203844841681 0 -0.052509649903146327 -0.40794203844841681 0 -0.070248957975066639 -0.42074520084202788 0 -0.059775586818595829 -0.41787661413097049 0 -0.052509649903146327 -0.40794203844841681 0 -0.070248957975066639 -0.42074520084202788 0 -0.052509649903146327 -0.40794203844841681 0 -0.050493754208297943 -0.40648708655034188 0 -0.041470954428671609 -0.41006675355118111 0 -0.052509649903146327 -0.40794203844841681 0 -0.050493754208297943 -0.40648708655034188 0 -0.052509649903146327 -0.40794203844841681 0 -0.038621424185474637 -0.4207153063468223 0 -0.033287388117186109 -0.40399871831440642 0 -0.050493754208297943 -0.40648708655034188 0 -0.041470954428671609 -0.41006675355118111 0 -0.052509649903146327 -0.40794203844841681 0 -0.041470954428671609 -0.41006675355118111 0 -0.038621424185474637 -0.4207153063468223 0 -0.033287388117186109 -0.40399871831440642 0 -0.041470954428671609 -0.41006675355118111 0 -0.027792962261932352 -0.41547375898907968 0 -0.041470954428671609 -0.41006675355118111 0 -0.038621424185474637 -0.4207153063468223 0 -0.027792962261932352 -0.41547375898907968 0 -0.055571169944573007 -0.4278419796903028 0 -0.038621424185474637 -0.4207153063468223 0 -0.04142135733128624 -0.43391233418184683 0 -0.038621424185474637 -0.4207153063468223 0 -0.026103506495360269 -0.43222827563723731 0 -0.038621424185474637 -0.4207153063468223 0 -0.04142135733128624 -0.43391233418184683 0 -0.026103506495360269 -0.43222827563723731 0 -0.04142135733128624 -0.43391233418184683 0 -0.026103506495360269 -0.43222827563723731 0 -0.035662081446574762 -0.44437129177822371 0 -0.026103506495360269 -0.43222827563723731 0 -0.027792962261932352 -0.41547375898907968 0 -0.009537301248459449 -0.42510302968362512 0 -0.026103506495360269 -0.43222827563723731 0 -0.009537301248459449 -0.42510302968362512 0 -0.019709463090837601 -0.44530454005801179 0 -0.038621424185474637 -0.4207153063468223 0 -0.026103506495360269 -0.43222827563723731 0 -0.027792962261932352 -0.41547375898907968 0 -0.017737199096442072 -0.40073047040120602 0 -0.027792962261932352 -0.41547375898907968 0 -0.009537301248459449 -0.42510302968362512 0 -0.017737199096442072 -0.40073047040120602 0 -0.033287388117186109 -0.40399871831440642 0 -0.027792962261932352 -0.41547375898907968 0 -0.001728596279610697 -0.40597762003102339 0 -0.017737199096442072 -0.40073047040120602 0 -0.009537301248459449 -0.42510302968362512 0 -0.017737199096442072 -0.40073047040120602 0 -0.009537301248459449 -0.42510302968362512 0 -0.001728596279610697 -0.40597762003102339 0 -0.009537301248459449 -0.42510302968362512 0 0.0082246319185010179 -0.41465428951275207 0 -0.009537301248459449 -0.42510302968362512 0 -0.0013374034004768371 -0.44947558896604423 0 -0.009537301248459449 -0.42510302968362512 0 -0.0013374034004768371 -0.44947558896604423 0 0.01039378864355619 -0.42848339288335913 0 -0.009537301248459449 -0.42510302968362512 0 -0.0013374034004768371 -0.44947558896604423 0 -0.019709463090837601 -0.44530454005801179 0 -0.0013374034004768371 -0.44947558896604423 0 -0.014612752260004851 -0.46155177919014362 0 -0.019709463090837601 -0.44530454005801179 0 -0.0013374034004768371 -0.44947558896604423 0 -0.014612752260004851 -0.46155177919014362 0 0.0068624944475057766 -0.47384814824846327 0 -0.014612752260004851 -0.46155177919014362 0 -0.028521420705905499 -0.4674310816654948 0 -0.030789477839635839 -0.45543267362212791 0 -0.014612752260004851 -0.46155177919014362 0 -0.030789477839635839 -0.45543267362212791 0 -0.019709463090837601 -0.44530454005801179 0 -0.030789477839635839 -0.45543267362212791 0 -0.019709463090837601 -0.44530454005801179 0 -0.035662081446574762 -0.44437129177822371 0 -0.026103506495360269 -0.43222827563723731 0 -0.019709463090837601 -0.44530454005801179 0 -0.035662081446574762 -0.44437129177822371 0 -0.015217900669161011 -0.5 0 -0.01418124297067914 -0.47781864258071971 0 0.0024053695883212941 -0.48891336768777249 0 -0.01418124297067914 -0.47781864258071971 0 0.0068624944475057766 -0.47384814824846327 0 0.0024053695883212941 -0.48891336768777249 0 -0.014612752260004851 -0.46155177919014362 0 -0.01418124297067914 -0.47781864258071971 0 0.0068624944475057766 -0.47384814824846327 0 -0.014612752260004851 -0.46155177919014362 0 -0.028521420705905499 -0.4674310816654948 0 -0.01418124297067914 -0.47781864258071971 0 -0.028521420705905499 -0.4674310816654948 0 -0.01418124297067914 -0.47781864258071971 0 -0.027752274071966478 -0.47742461628286209 0 -0.015217900669161011 -0.5 0 -0.027752274071966478 -0.47742461628286209 0 -0.038171784631523778 -0.48284131767108018 0 -0.015217900669161011 -0.5 0 -0.01418124297067914 -0.47781864258071971 0 -0.027752274071966478 -0.47742461628286209 0 -0.015217900669161011 -0.5 0 -0.043972809743024373 -0.5 0 -0.038171784631523778 -0.48284131767108018 0 -0.043972809743024373 -0.5 0 -0.038171784631523778 -0.48284131767108018 0 -0.049841179956411519 -0.48183723669954598 0 -0.038171784631523778 -0.48284131767108018 0 -0.048675315621036823 -0.47094071089761919 0 -0.038171784631523778 -0.48284131767108018 0 -0.048675315621036823 -0.47094071089761919 0 -0.049841179956411519 -0.48183723669954598 0 -0.027752274071966478 -0.47742461628286209 0 -0.038171784631523778 -0.48284131767108018 0 -0.038764373548703768 -0.47063519779216179 0 -0.028521420705905499 -0.4674310816654948 0 -0.027752274071966478 -0.47742461628286209 0 -0.038764373548703768 -0.47063519779216179 0 -0.038764373548703768 -0.47063519779216179 0 -0.048675315621036823 -0.47094071089761919 0 -0.045335619097383061 -0.46570514195792412 0 -0.038171784631523778 -0.48284131767108018 0 -0.038764373548703768 -0.47063519779216179 0 -0.048675315621036823 -0.47094071089761919 0 -0.048675315621036823 -0.47094071089761919 0 -0.055120034750126161 -0.47128965669693351 0 -0.049841179956411519 -0.48183723669954598 0 -0.048675315621036823 -0.47094071089761919 0 -0.055120034750126161 -0.47128965669693351 0 -0.057384894248553399 -0.46524593439390849 0 -0.055120034750126161 -0.47128965669693351 0 -0.059149819292987238 -0.47777467248794547 0 -0.064422500494955764 -0.4650694252783244 0 -0.059149819292987238 -0.47777467248794547 0 -0.049841179956411519 -0.48183723669954598 0 -0.058853327493046781 -0.48842932436532971 0 -0.055120034750126161 -0.47128965669693351 0 -0.059149819292987238 -0.47777467248794547 0 -0.049841179956411519 -0.48183723669954598 0 -0.059149819292987238 -0.47777467248794547 0 -0.058853327493046781 -0.48842932436532971 0 -0.068575109655922298 -0.48253471263916042 0 -0.043972809743024373 -0.5 0 -0.058853327493046781 -0.48842932436532971 0 -0.072727718816887776 -0.49999999999999672 0 -0.043972809743024373 -0.5 0 -0.049841179956411519 -0.48183723669954598 0 -0.058853327493046781 -0.48842932436532971 0 -0.045123684251444827 -0.45223268167437758 0 -0.035662081446574762 -0.44437129177822371 0 -0.048623679129421588 -0.44273110985945369 0 -0.04142135733128624 -0.43391233418184683 0 -0.035662081446574762 -0.44437129177822371 0 -0.048623679129421588 -0.44273110985945369 0 -0.030789477839635839 -0.45543267362212791 0 -0.045123684251444827 -0.45223268167437758 0 -0.035662081446574762 -0.44437129177822371 0 -0.030789477839635839 -0.45543267362212791 0 -0.045123684251444827 -0.45223268167437758 0 -0.04007978340352341 -0.46172459869688548 0 -0.028521420705905499 -0.4674310816654948 0 -0.030789477839635839 -0.45543267362212791 0 -0.04007978340352341 -0.46172459869688548 0 -0.028521420705905499 -0.4674310816654948 0 -0.038764373548703768 -0.47063519779216179 0 -0.04007978340352341 -0.46172459869688548 0 -0.038764373548703768 -0.47063519779216179 0 -0.04007978340352341 -0.46172459869688548 0 -0.045335619097383061 -0.46570514195792412 0 -0.04007978340352341 -0.46172459869688548 0 -0.045335619097383061 -0.46570514195792412 0 -0.047248161051959649 -0.4591011094540644 0 -0.045123684251444827 -0.45223268167437758 0 -0.04007978340352341 -0.46172459869688548 0 -0.047248161051959649 -0.4591011094540644 0 -0.045123684251444827 -0.45223268167437758 0 -0.050581796861615229 -0.45333412325219669 0 -0.047248161051959649 -0.4591011094540644 0 -0.050581796861615229 -0.45333412325219669 0 -0.047248161051959649 -0.4591011094540644 0 -0.051910461861691633 -0.46612409294888979 0 -0.051910461861691633 -0.46612409294888979 0 -0.05917884661055 -0.4590401041241583 0 -0.060002998013559863 -0.44648162232419802 0 -0.051910461861691633 -0.46612409294888979 0 -0.060002998013559863 -0.44648162232419802 0 -0.050581796861615229 -0.45333412325219669 0 -0.051910461861691633 -0.46612409294888979 0 -0.060002998013559863 -0.44648162232419802 0 -0.048675315621036823 -0.47094071089761919 0 -0.05917884661055 -0.4590401041241583 0 -0.048675315621036823 -0.47094071089761919 0 -0.051910461861691633 -0.46612409294888979 0 -0.05917884661055 -0.4590401041241583 0 -0.048675315621036823 -0.47094071089761919 0 -0.045335619097383061 -0.46570514195792412 0 -0.051910461861691633 -0.46612409294888979 0 -0.045335619097383061 -0.46570514195792412 0 -0.047248161051959649 -0.4591011094540644 0 -0.051910461861691633 -0.46612409294888979 0 -0.055120034750126161 -0.47128965669693351 0 -0.057384894248553399 -0.46524593439390849 0 -0.064422500494955764 -0.4650694252783244 0 -0.048675315621036823 -0.47094071089761919 0 -0.057384894248553399 -0.46524593439390849 0 -0.05917884661055 -0.4590401041241583 0 -0.057384894248553399 -0.46524593439390849 0 -0.05917884661055 -0.4590401041241583 0 -0.059237257045792073 -0.46090013765886428 0 -0.064422500494955764 -0.4650694252783244 0 -0.057384894248553399 -0.46524593439390849 0 -0.059237257045792073 -0.46090013765886428 0 -0.064422500494955764 -0.4650694252783244 0 -0.057384894248553399 -0.46524593439390849 0 -0.059237257045792073 -0.46090013765886428 0 -0.05917884661055 -0.4590401041241583 0 -0.059237257045792073 -0.46090013765886428 0 -0.062180371227510647 -0.45563934639583059 0 -0.064422500494955764 -0.4650694252783244 0 -0.059237257045792073 -0.46090013765886428 0 -0.05917884661055 -0.4590401041241583 0 -0.062180371227510647 -0.45563934639583059 0 -0.05917884661055 -0.4590401041241583 0 -0.062180371227510647 -0.45563934639583059 0 -0.05917884661055 -0.4590401041241583 0 -0.061269440441321127 -0.45180810022505591 0 -0.05917884661055 -0.4590401041241583 0 -0.062180371227510647 -0.45563934639583059 0 -0.061269440441321127 -0.45180810022505591 0 -0.062180371227510647 -0.45563934639583059 0 -0.061269440441321127 -0.45180810022505591 0 -0.055571169944573007 -0.4278419796903028 0 -0.060002998013559863 -0.44648162232419802 0 -0.048623679129421588 -0.44273110985945369 0 -0.05917884661055 -0.4590401041241583 0 -0.061269440441321127 -0.45180810022505591 0 -0.060002998013559863 -0.44648162232419802 0 -0.061269440441321127 -0.45180810022505591 0 -0.060002998013559863 -0.44648162232419802 0 -0.050581796861615229 -0.45333412325219669 0 -0.060002998013559863 -0.44648162232419802 0 -0.048623679129421588 -0.44273110985945369 0 -0.045123684251444827 -0.45223268167437758 0 -0.050581796861615229 -0.45333412325219669 0 -0.048623679129421588 -0.44273110985945369 0 -0.061269440441321127 -0.45180810022505591 0 -0.069408814394604765 -0.42365151461769918 0 -0.062180371227510647 -0.45563934639583059 0 -0.061269440441321127 -0.45180810022505591 0 -0.077098496045509793 -0.43873696019506903 0 -0.062180371227510647 -0.45563934639583059 0 -0.077098496045509793 -0.43873696019506903 0 -0.073769461018799692 -0.45951707792468061 0 -0.061269440441321127 -0.45180810022505591 0 -0.077098496045509793 -0.43873696019506903 0 -0.069408814394604765 -0.42365151461769918 0 -0.061269440441321127 -0.45180810022505591 0 -0.060002998013559863 -0.44648162232419802 0 -0.069408814394604765 -0.42365151461769918 0 -0.062180371227510647 -0.45563934639583059 0 -0.077098496045509793 -0.43873696019506903 0 -0.062180371227510647 -0.45563934639583059 0 -0.064422500494955764 -0.4650694252783244 0 -0.062180371227510647 -0.45563934639583059 0 -0.064422500494955764 -0.4650694252783244 0 -0.073769461018799692 -0.45951707792468061 0 -0.084521355142842869 -0.45759592347480388 0 -0.086143661312174283 -0.48253471263916248 0 -0.099165393688022629 -0.46120376842987459 0 -0.073769461018799692 -0.45951707792468061 0 -0.084521355142842869 -0.45759592347480388 0 -0.086143661312174283 -0.48253471263916248 0 -0.084521355142842869 -0.45759592347480388 0 -0.089624247433654214 -0.44685599598904568 0 -0.099165393688022629 -0.46120376842987459 0 -0.077098496045509793 -0.43873696019506903 0 -0.084521355142842869 -0.45759592347480388 0 -0.089624247433654214 -0.44685599598904568 0 -0.077098496045509793 -0.43873696019506903 0 -0.073769461018799692 -0.45951707792468061 0 -0.084521355142842869 -0.45759592347480388 0 -0.089624247433654214 -0.44685599598904568 0 -0.099878095611554862 -0.4393977270813314 0 -0.089545628933694749 -0.43673796215895883 0 -0.077098496045509793 -0.43873696019506903 0 -0.089624247433654214 -0.44685599598904568 0 -0.089545628933694749 -0.43673796215895883 0 -0.072727718816887776 -0.49999999999999672 0 -0.068575109655922298 -0.48253471263916042 0 -0.058853327493046781 -0.48842932436532971 0 -0.072727718816887776 -0.49999999999999672 0 -0.068575109655922298 -0.48253471263916042 0 -0.072727718816887776 -0.49999999999999672 0 -0.068575109655922298 -0.48253471263916042 0 -0.086143661312174283 -0.48253471263916248 0 -0.064422500494955764 -0.4650694252783244 0 -0.068575109655922298 -0.48253471263916042 0 -0.059149819292987238 -0.47777467248794547 0 -0.064422500494955764 -0.4650694252783244 0 -0.068575109655922298 -0.48253471263916042 0 -0.064422500494955764 -0.4650694252783244 0 -0.073769461018799692 -0.45951707792468061 0 -0.086143661312174283 -0.48253471263916248 0 -0.064422500494955764 -0.4650694252783244 0 -0.068575109655922298 -0.48253471263916042 0 -0.086143661312174283 -0.48253471263916248 0 -0.064422500494955764 -0.4650694252783244 0 -0.086143661312174283 -0.48253471263916248 0 -0.072727718816887776 -0.49999999999999672 0 -0.086143661312174283 -0.48253471263916248 0 -0.090296270473140428 -0.5 0 -0.086143661312174283 -0.48253471263916248 0 -0.090296270473140428 -0.5 0 -0.10786482212939311 -0.50000000000000011 0 -0.086143661312174283 -0.48253471263916248 0 -0.10786482212939311 -0.50000000000000011 0 -0.086143661312174283 -0.48253471263916248 0 -0.10786482212939311 -0.50000000000000011 0 -0.1056577076014347 -0.47999846360012538 0 -0.086143661312174283 -0.48253471263916248 0 -0.1056577076014347 -0.47999846360012538 0 -0.099165393688022629 -0.46120376842987459 0 -0.1056577076014347 -0.47999846360012538 0 -0.12108079434187891 -0.47202921183540031 0 -0.099165393688022629 -0.46120376842987459 0 -0.1056577076014347 -0.47999846360012538 0 -0.12108079434187891 -0.47202921183540031 0 -0.1206292342060253 -0.48641385964910883 0 -0.131118449396015 -0.5 0 -0.10786482212939311 -0.50000000000000011 0 -0.1206292342060253 -0.48641385964910883 0 -0.10786482212939311 -0.50000000000000011 0 -0.1056577076014347 -0.47999846360012538 0 -0.1206292342060253 -0.48641385964910883 0 -0.099878095611554862 -0.4393977270813314 0 -0.099165393688022629 -0.46120376842987459 0 -0.099878095611554862 -0.4393977270813314 0 -0.099165393688022629 -0.46120376842987459 0 -0.11615585050415531 -0.45102464773050138 0 -0.089624247433654214 -0.44685599598904568 0 -0.099878095611554862 -0.4393977270813314 0 -0.099165393688022629 -0.46120376842987459 0 -0.12108079434187891 -0.47202921183540031 0 -0.099165393688022629 -0.46120376842987459 0 -0.11615585050415531 -0.45102464773050138 0 -0.13077987840644981 -0.46069854066347632 0 -0.12108079434187891 -0.47202921183540031 0 -0.11615585050415531 -0.45102464773050138 0 -0.13194602454298601 -0.43962244526902572 0 -0.11615585050415531 -0.45102464773050138 0 -0.1129403580353462 -0.43280081863281078 0 -0.099878095611554862 -0.4393977270813314 0 -0.11615585050415531 -0.45102464773050138 0 -0.1129403580353462 -0.43280081863281078 0 -0.13194602454298601 -0.43962244526902572 0 -0.1165997240041481 -0.41847011486561592 0 -0.13194602454298601 -0.43962244526902572 0 -0.1129403580353462 -0.43280081863281078 0 -0.1165997240041481 -0.41847011486561592 0 -0.1129403580353462 -0.43280081863281078 0 -0.1079125428112538 -0.41892639524425412 0 -0.1165997240041481 -0.41847011486561592 0 -0.099878095611554862 -0.4393977270813314 0 -0.100590797535087 -0.41759168573278821 0 -0.092016620863508841 -0.4218345739943074 0 -0.099878095611554862 -0.4393977270813314 0 -0.089545628933694749 -0.43673796215895883 0 -0.092016620863508841 -0.4218345739943074 0 -0.099878095611554862 -0.4393977270813314 0 -0.1129403580353462 -0.43280081863281078 0 -0.10283731640903 -0.42510314405888588 0 -0.099878095611554862 -0.4393977270813314 0 -0.100590797535087 -0.41759168573278821 0 -0.099878095611554862 -0.4393977270813314 0 -0.10283731640903 -0.42510314405888588 0 -0.100590797535087 -0.41759168573278821 0 -0.1129403580353462 -0.43280081863281078 0 -0.10283731640903 -0.42510314405888588 0 -0.1079125428112538 -0.41892639524425412 0 -0.100590797535087 -0.41759168573278821 0 -0.1012534234653099 -0.39731778446220639 0 -0.1165997240041481 -0.41847011486561592 0 -0.1012534234653099 -0.39731778446220639 0 -0.100590797535087 -0.41759168573278821 0 -0.094499944748829334 -0.39722631626938482 0 -0.088610052547492879 -0.41006814396079783 0 -0.100590797535087 -0.41759168573278821 0 -0.1079125428112538 -0.41892639524425412 0 -0.1012534234653099 -0.39731778446220639 0 -0.100590797535087 -0.41759168573278821 0 -0.094499944748829334 -0.39722631626938482 0 -0.1079125428112538 -0.41892639524425412 0 -0.1165997240041481 -0.41847011486561592 0 -0.1012534234653099 -0.39731778446220639 0 -0.10283731640903 -0.42510314405888588 0 -0.100590797535087 -0.41759168573278821 0 -0.1079125428112538 -0.41892639524425412 0 -0.10283731640903 -0.42510314405888588 0 -0.100590797535087 -0.41759168573278821 0 -0.12592730430259419 -0.40432488328170318 0 -0.1165997240041481 -0.41847011486561592 0 -0.1152538145686829 -0.39895411709426332 0 -0.1165997240041481 -0.41847011486561592 0 -0.1152538145686829 -0.39895411709426332 0 -0.1012534234653099 -0.39731778446220639 0 -0.12526638733901391 -0.39147447277512609 0 -0.12592730430259419 -0.40432488328170318 0 -0.1152538145686829 -0.39895411709426332 0 -0.12526638733901391 -0.39147447277512609 0 -0.1152538145686829 -0.39895411709426332 0 -0.1147112201852714 -0.38836266809632891 0 -0.1152538145686829 -0.39895411709426332 0 -0.1147112201852714 -0.38836266809632891 0 -0.1077648281157602 -0.39377477908459929 0 -0.12526638733901391 -0.39147447277512609 0 -0.12201267174342199 -0.37938718301114999 0 -0.1147112201852714 -0.38836266809632891 0 -0.1147112201852714 -0.38836266809632891 0 -0.1094440337948836 -0.37923577087639421 0 -0.1073228884697877 -0.3875649225559597 0 -0.1147112201852714 -0.38836266809632891 0 -0.1073228884697877 -0.3875649225559597 0 -0.1077648281157602 -0.39377477908459929 0 -0.12201267174342199 -0.37938718301114999 0 -0.1147112201852714 -0.38836266809632891 0 -0.1094440337948836 -0.37923577087639421 0 -0.1159926709000937 -0.36685414663024191 0 -0.12201267174342199 -0.37938718301114999 0 -0.1094440337948836 -0.37923577087639421 0 -0.1024060606807759 -0.36205135125861898 0 -0.1094440337948836 -0.37923577087639421 0 -0.1016559479587178 -0.38500202459504551 0 -0.1094440337948836 -0.37923577087639421 0 -0.1016559479587178 -0.38500202459504551 0 -0.1073228884697877 -0.3875649225559597 0 -0.1016559479587178 -0.38500202459504551 0 -0.1014693111655476 -0.390712419775258 0 -0.1016559479587178 -0.38500202459504551 0 -0.1073228884697877 -0.3875649225559597 0 -0.1014693111655476 -0.390712419775258 0 -0.1016559479587178 -0.38500202459504551 0 -0.091585827134305964 -0.3839926061052007 0 -0.1016559479587178 -0.38500202459504551 0 -0.1014693111655476 -0.390712419775258 0 -0.093729726096669103 -0.3869476153003294 0 -0.1016559479587178 -0.38500202459504551 0 -0.091585827134305964 -0.3839926061052007 0 -0.093729726096669103 -0.3869476153003294 0 -0.1014693111655476 -0.390712419775258 0 -0.093729726096669103 -0.3869476153003294 0 -0.1016559479587178 -0.38500202459504551 0 -0.095426438310298192 -0.37780241062099151 0 -0.091585827134305964 -0.3839926061052007 0 -0.100590797535087 -0.41759168573278821 0 -0.1012534234653099 -0.39731778446220639 0 -0.099487365185966847 -0.39952233119993291 0 -0.100590797535087 -0.41759168573278821 0 -0.094499944748829334 -0.39722631626938482 0 -0.099487365185966847 -0.39952233119993291 0 -0.1152538145686829 -0.39895411709426332 0 -0.1077648281157602 -0.39377477908459929 0 -0.1012534234653099 -0.39731778446220639 0 -0.1073228884697877 -0.3875649225559597 0 -0.1077648281157602 -0.39377477908459929 0 -0.1014693111655476 -0.390712419775258 0 -0.1077648281157602 -0.39377477908459929 0 -0.1012534234653099 -0.39731778446220639 0 -0.1014693111655476 -0.390712419775258 0 -0.1077648281157602 -0.39377477908459929 0 -0.1014693111655476 -0.390712419775258 0 -0.1012534234653099 -0.39731778446220639 0 -0.094499944748829334 -0.39722631626938482 0 -0.099487365185966847 -0.39952233119993291 0 -0.1012534234653099 -0.39731778446220639 0 -0.094499944748829334 -0.39722631626938482 0 -0.093729726096669103 -0.3869476153003294 0 -0.1012534234653099 -0.39731778446220639 0 -0.1014693111655476 -0.390712419775258 0 -0.093729726096669103 -0.3869476153003294 0 -0.1012534234653099 -0.39731778446220639 0 -0.093729726096669103 -0.3869476153003294 0 -0.1012534234653099 -0.39731778446220639 0 -0.1014693111655476 -0.390712419775258 0 -0.094499944748829334 -0.39722631626938482 0 -0.099487365185966847 -0.39952233119993291 0 -0.094499944748829334 -0.39722631626938482 0 -0.085553154766675646 -0.40134027138503481 0 -0.088610052547492879 -0.41006814396079783 0 -0.094499944748829334 -0.39722631626938482 0 -0.082560309743270749 -0.39172977139542609 0 -0.085553154766675646 -0.40134027138503481 0 -0.094499944748829334 -0.39722631626938482 0 -0.082560309743270749 -0.39172977139542609 0 -0.091033556626635648 -0.38563610430902873 0 -0.094499944748829334 -0.39722631626938482 0 -0.082560309743270749 -0.39172977139542609 0 -0.094499944748829334 -0.39722631626938482 0 -0.091033556626635648 -0.38563610430902873 0 -0.082560309743270749 -0.39172977139542609 0 -0.079097438192195432 -0.39013559964190198 0 -0.074673198083630793 -0.40544040024196493 0 -0.082560309743270749 -0.39172977139542609 0 -0.079097438192195432 -0.39013559964190198 0 -0.082560309743270749 -0.39172977139542609 0 -0.076542312027108539 -0.406336853914531 0 -0.082560309743270749 -0.39172977139542609 0 -0.085553154766675646 -0.40134027138503481 0 -0.076542312027108539 -0.406336853914531 0 -0.085553154766675646 -0.40134027138503481 0 -0.076542312027108539 -0.406336853914531 0 -0.088610052547492879 -0.41006814396079783 0 -0.090139611558562177 -0.37333304007799939 0 -0.088525620654428705 -0.37725057202694517 0 -0.088525620654428705 -0.37725057202694517 0 -0.087954911787112483 -0.37534235041220648 0 -0.08170780991661282 -0.38109255286014232 0 -0.090139611558562177 -0.37333304007799939 0 -0.088525620654428705 -0.37725057202694517 0 -0.087954911787112483 -0.37534235041220648 0 -0.088525620654428705 -0.37725057202694517 0 -0.087954911787112483 -0.37534235041220648 0 -0.090139611558562177 -0.37333304007799939 0 -0.095426438310298192 -0.37780241062099151 0 -0.088525620654428705 -0.37725057202694517 0 -0.088525620654428705 -0.37725057202694517 0 -0.091585827134305964 -0.3839926061052007 0 -0.095426438310298192 -0.37780241062099151 0 -0.088525620654428705 -0.37725057202694517 0 -0.091585827134305964 -0.3839926061052007 0 -0.088525620654428705 -0.37725057202694517 0 -0.086634605294488312 -0.38349630075200858 0 -0.088525620654428705 -0.37725057202694517 0 -0.086634605294488312 -0.38349630075200858 0 -0.091585827134305964 -0.3839926061052007 0 -0.082560309743270749 -0.39172977139542609 0 -0.086634605294488312 -0.38349630075200858 0 -0.091033556626635648 -0.38563610430902873 0 -0.094499944748829334 -0.39722631626938482 0 -0.091033556626635648 -0.38563610430902873 0 -0.093729726096669103 -0.3869476153003294 0 -0.086634605294488312 -0.38349630075200858 0 -0.091585827134305964 -0.3839926061052007 0 -0.086634605294488312 -0.38349630075200858 0 -0.091033556626635648 -0.38563610430902873 0 -0.086634605294488312 -0.38349630075200858 0 -0.091585827134305964 -0.3839926061052007 0 -0.091033556626635648 -0.38563610430902873 0 -0.091585827134305964 -0.3839926061052007 0 -0.091033556626635648 -0.38563610430902873 0 -0.093729726096669103 -0.3869476153003294 0 -0.091033556626635648 -0.38563610430902873 0 -0.093729726096669103 -0.3869476153003294 0 -0.091585827134305964 -0.3839926061052007 0 -0.093729726096669103 -0.3869476153003294 0 -0.091585827134305964 -0.3839926061052007 0 -0.091033556626635648 -0.38563610430902873 0 -0.082560309743270749 -0.39172977139542609 0 -0.086634605294488312 -0.38349630075200858 0 -0.082560309743270749 -0.39172977139542609 0 -0.086634605294488312 -0.38349630075200858 0 -0.081174899406055781 -0.38294902548401538 0 -0.082560309743270749 -0.39172977139542609 0 -0.079097438192195432 -0.39013559964190198 0 -0.081174899406055781 -0.38294902548401538 0 -0.079097438192195432 -0.39013559964190198 0 -0.081174899406055781 -0.38294902548401538 0 -0.074281153156084773 -0.38791836881244668 0 -0.079097438192195432 -0.39013559964190198 0 -0.081174899406055781 -0.38294902548401538 0 -0.086634605294488312 -0.38349630075200858 0 -0.081174899406055781 -0.38294902548401538 0 -0.088525620654428705 -0.37725057202694517 0 -0.086634605294488312 -0.38349630075200858 0 -0.08170780991661282 -0.38109255286014232 0 -0.086634605294488312 -0.38349630075200858 0 -0.081174899406055781 -0.38294902548401538 0 -0.08170780991661282 -0.38109255286014232 0 -0.086634605294488312 -0.38349630075200858 0 -0.08170780991661282 -0.38109255286014232 0 -0.081174899406055781 -0.38294902548401538 0 -0.08170780991661282 -0.38109255286014232 0 -0.087954911787112483 -0.37534235041220648 0 -0.08170780991661282 -0.38109255286014232 0 -0.055512870853615448 -0.39455951290216967 0 -0.058563253679506787 -0.38068245751723601 0 -0.074281153156084773 -0.38791836881244668 0 -0.058563253679506787 -0.38068245751723601 0 -0.074281153156084773 -0.38791836881244668 0 -0.058387822440418388 -0.36975607908058028 0 -0.08170780991661282 -0.38109255286014232 0 -0.058387822440418388 -0.36975607908058028 0 -0.081174899406055781 -0.38294902548401538 0 -0.08170780991661282 -0.38109255286014232 0 -0.058563253679506787 -0.38068245751723601 0 -0.081174899406055781 -0.38294902548401538 0 -0.074281153156084773 -0.38791836881244668 0 -0.058563253679506787 -0.38068245751723601 0 -0.081174899406055781 -0.38294902548401538 0 -0.058387822440418388 -0.36975607908058028 0 -0.058563253679506787 -0.38068245751723601 0 -0.081174899406055781 -0.38294902548401538 0 -0.081174899406055781 -0.38294902548401538 0 -0.074281153156084773 -0.38791836881244668 0 -0.079097438192195432 -0.39013559964190198 0 -0.074281153156084773 -0.38791836881244668 0 -0.079097438192195432 -0.39013559964190198 0 -0.074281153156084773 -0.38791836881244668 0 -0.074673198083630793 -0.40544040024196493 0 -0.052509649903146327 -0.40794203844841681 0 -0.074281153156084773 -0.38791836881244668 0 -0.052509649903146327 -0.40794203844841681 0 -0.074281153156084773 -0.38791836881244668 0 -0.074673198083630793 -0.40544040024196493 0 -0.082560309743270749 -0.39172977139542609 0 -0.074673198083630793 -0.40544040024196493 0 -0.076542312027108539 -0.406336853914531 0 -0.079097438192195432 -0.39013559964190198 0 -0.074673198083630793 -0.40544040024196493 0 -0.052509649903146327 -0.40794203844841681 0 -0.074673198083630793 -0.40544040024196493 0 -0.070248957975066639 -0.42074520084202788 0 -0.076542312027108539 -0.406336853914531 0 -0.070248957975066639 -0.42074520084202788 0 -0.074673198083630793 -0.40544040024196493 0 -0.070248957975066639 -0.42074520084202788 0 -0.074673198083630793 -0.40544040024196493 0 -0.076542312027108539 -0.406336853914531 0 -0.070248957975066639 -0.42074520084202788 0 -0.070248957975066639 -0.42074520084202788 0 -0.077246521605040669 -0.42579562012280953 0 -0.078194253298280558 -0.41865647959270891 0 -0.076542312027108539 -0.406336853914531 0 -0.070248957975066639 -0.42074520084202788 0 -0.078194253298280558 -0.41865647959270891 0 -0.059775586818595829 -0.41787661413097049 0 -0.070248957975066639 -0.42074520084202788 0 -0.069408814394604765 -0.42365151461769918 0 -0.060002998013559863 -0.44648162232419802 0 -0.069408814394604765 -0.42365151461769918 0 -0.070248957975066639 -0.42074520084202788 0 -0.069408814394604765 -0.42365151461769918 0 -0.077098496045509793 -0.43873696019506903 0 -0.069408814394604765 -0.42365151461769918 0 -0.077246521605040669 -0.42579562012280953 0 -0.070248957975066639 -0.42074520084202788 0 -0.069408814394604765 -0.42365151461769918 0 -0.077246521605040669 -0.42579562012280953 0 -0.070248957975066639 -0.42074520084202788 0 -0.077246521605040669 -0.42579562012280953 0 -0.077246521605040669 -0.42579562012280953 0 -0.082943237868067593 -0.4239856173255338 0 -0.078194253298280558 -0.41865647959270891 0 -0.077098496045509793 -0.43873696019506903 0 -0.082943237868067593 -0.4239856173255338 0 -0.092016620863508841 -0.4218345739943074 0 -0.077098496045509793 -0.43873696019506903 0 -0.089545628933694749 -0.43673796215895883 0 -0.092016620863508841 -0.4218345739943074 0 -0.077098496045509793 -0.43873696019506903 0 -0.092016620863508841 -0.4218345739943074 0 -0.077098496045509793 -0.43873696019506903 0 -0.077246521605040669 -0.42579562012280953 0 -0.082943237868067593 -0.4239856173255338 0 -0.100590797535087 -0.41759168573278821 0 -0.092016620863508841 -0.4218345739943074 0 -0.088610052547492879 -0.41006814396079783 0 -0.082943237868067593 -0.4239856173255338 0 -0.092016620863508841 -0.4218345739943074 0 -0.083714880680240453 -0.41622037016703428 0 -0.092016620863508841 -0.4218345739943074 0 -0.088610052547492879 -0.41006814396079783 0 -0.083714880680240453 -0.41622037016703428 0 -0.076542312027108539 -0.406336853914531 0 -0.088610052547492879 -0.41006814396079783 0 -0.083714880680240453 -0.41622037016703428 0 -0.076542312027108539 -0.406336853914531 0 -0.078194253298280558 -0.41865647959270891 0 -0.083714880680240453 -0.41622037016703428 0 -0.082943237868067593 -0.4239856173255338 0 -0.078194253298280558 -0.41865647959270891 0 -0.083714880680240453 -0.41622037016703428 0 -0.081808777729522386 -0.083143660930833002 0 -0.073985000225153141 -0.099795971436559522 0 -0.085935801107842547 -0.09579043756499836 0 -0.081808777729522386 -0.083143660930833002 0 -0.085935801107842547 -0.09579043756499836 0 -0.094306078709463503 -0.087148618235937392 0 -0.081808777729522386 -0.083143660930833002 0 -0.094306078709463503 -0.087148618235937392 0 -0.095869533599057435 -0.074719864200214883 0 -0.081808777729522386 -0.083143660930833002 0 -0.087640100333796281 -0.066301869750421821 0 -0.076351800502585221 -0.068318825045574613 0 -0.081808777729522386 -0.083143660930833002 0 -0.087640100333796281 -0.066301869750421821 0 -0.095869533599057435 -0.074719864200214883 0 -0.087640100333796281 -0.066301869750421821 0 -0.095869533599057435 -0.074719864200214883 0 -0.097041901727127691 -0.062312633498474219 0 -0.087640100333796281 -0.066301869750421821 0 -0.076351800502585221 -0.068318825045574613 0 -0.079773765115028039 -0.057914828426178573 0 -0.081808777729522386 -0.083143660930833002 0 -0.076351800502585221 -0.068318825045574613 0 -0.068001603171865072 -0.074911341683796137 0 -0.068001603171865072 -0.074911341683796137 0 -0.065822825648978775 -0.060485584973140792 0 -0.05753372126900759 -0.073422836261521005 0 -0.076351800502585221 -0.068318825045574613 0 -0.068001603171865072 -0.074911341683796137 0 -0.065822825648978775 -0.060485584973140792 0 -0.068001603171865072 -0.074911341683796137 0 -0.066670257350634976 -0.085780572793309681 0 -0.05753372126900759 -0.073422836261521005 0 -0.081808777729522386 -0.083143660930833002 0 -0.066670257350634976 -0.085780572793309681 0 -0.073985000225153141 -0.099795971436559522 0 -0.081808777729522386 -0.083143660930833002 0 -0.068001603171865072 -0.074911341683796137 0 -0.066670257350634976 -0.085780572793309681 0 -0.066670257350634976 -0.085780572793309681 0 -0.073985000225153141 -0.099795971436559522 0 -0.05982498813170789 -0.10249801488187529 0 -0.073985000225153141 -0.099795971436559522 0 -0.065415314349395459 -0.11473522154729129 0 -0.05982498813170789 -0.10249801488187529 0 -0.073985000225153141 -0.099795971436559522 0 -0.065415314349395459 -0.11473522154729129 0 -0.07727601190464152 -0.1134926659633375 0 -0.065415314349395459 -0.11473522154729129 0 -0.060446148579459319 -0.1303024678998376 0 -0.071674103496310607 -0.1250344835198243 0 -0.07727601190464152 -0.1134926659633375 0 -0.082994471061899833 -0.1234246307735777 0 -0.071674103496310607 -0.1250344835198243 0 -0.065415314349395459 -0.11473522154729129 0 -0.07727601190464152 -0.1134926659633375 0 -0.071674103496310607 -0.1250344835198243 0 -0.07727601190464152 -0.1134926659633375 0 -0.082994471061899833 -0.1234246307735777 0 -0.08680817640523622 -0.1078855820033275 0 -0.082994471061899833 -0.1234246307735777 0 -0.08680817640523622 -0.1078855820033275 0 -0.095277368860953449 -0.1178446661751102 0 -0.082994471061899833 -0.1234246307735777 0 -0.095277368860953449 -0.1178446661751102 0 -0.095971306836852913 -0.13086642389395989 0 -0.085935801107842547 -0.09579043756499836 0 -0.08680817640523622 -0.1078855820033275 0 -0.1020424425883536 -0.1015565670732166 0 -0.073985000225153141 -0.099795971436559522 0 -0.085935801107842547 -0.09579043756499836 0 -0.08680817640523622 -0.1078855820033275 0 -0.073985000225153141 -0.099795971436559522 0 -0.07727601190464152 -0.1134926659633375 0 -0.08680817640523622 -0.1078855820033275 0 -0.085935801107842547 -0.09579043756499836 0 -0.1020424425883536 -0.1015565670732166 0 -0.094306078709463503 -0.087148618235937392 0 -0.08680817640523622 -0.1078855820033275 0 -0.1020424425883536 -0.1015565670732166 0 -0.095277368860953449 -0.1178446661751102 0 -0.1020424425883536 -0.1015565670732166 0 -0.095277368860953449 -0.1178446661751102 0 -0.1085913382140784 -0.11903379143832921 0 -0.095277368860953449 -0.1178446661751102 0 -0.1085913382140784 -0.11903379143832921 0 -0.095971306836852913 -0.13086642389395989 0 -0.1085913382140784 -0.11903379143832921 0 -0.11893842975153809 -0.10446969177473921 0 -0.12736410167423581 -0.1213878944680517 0 -0.1020424425883536 -0.1015565670732166 0 -0.11893842975153809 -0.10446969177473921 0 -0.1189291253072135 -0.086669643832799348 0 -0.1020424425883536 -0.1015565670732166 0 -0.1085913382140784 -0.11903379143832921 0 -0.11893842975153809 -0.10446969177473921 0 -0.1189291253072135 -0.086669643832799348 0 -0.1056068239719813 -0.08097964138995771 0 -0.1139735316209595 -0.069866863539540053 0 -0.1020424425883536 -0.1015565670732166 0 -0.1189291253072135 -0.086669643832799348 0 -0.1056068239719813 -0.08097964138995771 0 -0.1020424425883536 -0.1015565670732166 0 -0.1056068239719813 -0.08097964138995771 0 -0.094306078709463503 -0.087148618235937392 0 -0.1056068239719813 -0.08097964138995771 0 -0.094306078709463503 -0.087148618235937392 0 -0.095869533599057435 -0.074719864200214883 0 -0.095869533599057435 -0.074719864200214883 0 -0.1039382096783972 -0.069282752438140638 0 -0.097041901727127691 -0.062312633498474219 0 -0.1056068239719813 -0.08097964138995771 0 -0.1039382096783972 -0.069282752438140638 0 -0.1139735316209595 -0.069866863539540053 0 -0.1056068239719813 -0.08097964138995771 0 -0.095869533599057435 -0.074719864200214883 0 -0.1039382096783972 -0.069282752438140638 0 -0.1039382096783972 -0.069282752438140638 0 -0.097041901727127691 -0.062312633498474219 0 -0.1071992574728602 -0.058534759562516372 0 -0.1039382096783972 -0.069282752438140638 0 -0.1139735316209595 -0.069866863539540053 0 -0.1071992574728602 -0.058534759562516372 0 -0.1189291253072135 -0.086669643832799348 0 -0.1139735316209595 -0.069866863539540053 0 -0.12930964035960699 -0.069761515268982097 0 -0.1139735316209595 -0.069866863539540053 0 -0.1161384697585349 -0.056806249932135858 0 -0.12930964035960699 -0.069761515268982097 0 -0.1161384697585349 -0.056806249932135858 0 -0.1208541397454049 -0.045822468476665427 0 -0.12930964035960699 -0.069761515268982097 0 -0.1248214427799455 -0.0491876577223027 0 -0.1208541397454049 -0.045822468476665427 0 -0.12930964035960699 -0.069761515268982097 0 -0.1161384697585349 -0.056806249932135858 0 -0.10991932193075039 -0.048940588969216672 0 -0.1071992574728602 -0.058534759562516372 0 -0.1139735316209595 -0.069866863539540053 0 -0.1161384697585349 -0.056806249932135858 0 -0.1071992574728602 -0.058534759562516372 0 -0.1161384697585349 -0.056806249932135858 0 -0.10991932193075039 -0.048940588969216672 0 -0.1149357203506014 -0.047989794102068162 0 -0.1161384697585349 -0.056806249932135858 0 -0.1149357203506014 -0.047989794102068162 0 -0.1208541397454049 -0.045822468476665427 0 -0.1248214427799455 -0.0491876577223027 0 -0.1208541397454049 -0.045822468476665427 0 -0.1246368416492639 -0.024787675353444869 0 -0.1128309499677153 -0.040389869030254703 0 -0.10841128816168021 -0.033720593740292633 0 -0.11239863913120279 -0.021883421684348751 0 -0.1208541397454049 -0.045822468476665427 0 -0.11239863913120279 -0.021883421684348751 0 -0.1208541397454049 -0.045822468476665427 0 -0.1128309499677153 -0.040389869030254703 0 -0.11239863913120279 -0.021883421684348751 0 -0.1248214427799455 -0.0491876577223027 0 -0.1246368416492639 -0.024787675353444869 0 -0.1149357203506014 -0.047989794102068162 0 -0.1208541397454049 -0.045822468476665427 0 -0.1128309499677153 -0.040389869030254703 0 -0.10991932193075039 -0.048940588969216672 0 -0.1149357203506014 -0.047989794102068162 0 -0.1128309499677153 -0.040389869030254703 0 -0.10991932193075039 -0.048940588969216672 0 -0.1128309499677153 -0.040389869030254703 0 -0.1049963107845597 -0.040407454994133042 0 -0.10991932193075039 -0.048940588969216672 0 -0.1049963107845597 -0.040407454994133042 0 -0.1002598709818909 -0.049694841596422852 0 -0.1049963107845597 -0.040407454994133042 0 -0.10841128816168021 -0.033720593740292633 0 -0.1012581714839781 -0.029848849592015819 0 -0.1128309499677153 -0.040389869030254703 0 -0.1049963107845597 -0.040407454994133042 0 -0.10841128816168021 -0.033720593740292633 0 -0.097298262181343159 -0.039849987036595598 0 -0.1012581714839781 -0.029848849592015819 0 -0.091929659262116575 -0.033133953101480262 0 -0.1049963107845597 -0.040407454994133042 0 -0.097298262181343159 -0.039849987036595598 0 -0.1012581714839781 -0.029848849592015819 0 -0.1049963107845597 -0.040407454994133042 0 -0.097298262181343159 -0.039849987036595598 0 -0.1002598709818909 -0.049694841596422852 0 -0.097298262181343159 -0.039849987036595598 0 -0.1002598709818909 -0.049694841596422852 0 -0.087030839425688053 -0.044306376809862227 0 -0.1002598709818909 -0.049694841596422852 0 -0.097041901727127691 -0.062312633498474219 0 -0.1071992574728602 -0.058534759562516372 0 -0.1002598709818909 -0.049694841596422852 0 -0.097041901727127691 -0.062312633498474219 0 -0.090164156554830718 -0.055563028782557922 0 -0.10991932193075039 -0.048940588969216672 0 -0.1002598709818909 -0.049694841596422852 0 -0.1071992574728602 -0.058534759562516372 0 -0.1244522405185825 -0.00038769298458709092 0 -0.11239863913120279 -0.021883421684348751 0 -0.10394313851700079 0.0020556251079679459 0 -0.1244522405185825 -0.00038769298458709092 0 -0.1246368416492639 -0.024787675353444869 0 -0.1244522405185825 -0.00038769298458709092 0 -0.11239863913120279 -0.021883421684348751 0 -0.1246368416492639 -0.024787675353444869 0 -0.1208541397454049 -0.045822468476665427 0 -0.11239863913120279 -0.021883421684348751 0 -0.1246368416492639 -0.024787675353444869 0 -0.10841128816168021 -0.033720593740292633 0 -0.11239863913120279 -0.021883421684348751 0 -0.1012581714839781 -0.029848849592015819 0 -0.1012581714839781 -0.029848849592015819 0 -0.090677970328949406 -0.022917020247476879 0 -0.091929659262116575 -0.033133953101480262 0 -0.1012581714839781 -0.029848849592015819 0 -0.1001126671493681 -0.016491083843961009 0 -0.090677970328949406 -0.022917020247476879 0 -0.1001126671493681 -0.016491083843961009 0 -0.092285416285709382 -0.0098617528039315269 0 -0.090677970328949406 -0.022917020247476879 0 -0.11239863913120279 -0.021883421684348751 0 -0.1012581714839781 -0.029848849592015819 0 -0.1001126671493681 -0.016491083843961009 0 -0.1001126671493681 -0.016491083843961009 0 -0.092285416285709382 -0.0098617528039315269 0 -0.10394313851700079 0.0020556251079679459 0 -0.11239863913120279 -0.021883421684348751 0 -0.1001126671493681 -0.016491083843961009 0 -0.10394313851700079 0.0020556251079679459 0 -0.092285416285709382 -0.0098617528039315269 0 -0.10394313851700079 0.0020556251079679459 0 -0.085958893623968774 0.001514634656162053 0 -0.11239863913120279 -0.021883421684348751 0 -0.10394313851700079 0.0020556251079679459 0 -0.092285416285709382 -0.0098617528039315269 0 -0.077949881484559239 -0.01307625006729682 0 -0.085958893623968774 0.001514634656162053 0 -0.092285416285709382 -0.0098617528039315269 0 -0.090677970328949406 -0.022917020247476879 0 -0.077949881484559239 -0.01307625006729682 0 -0.090677970328949406 -0.022917020247476879 0 -0.073841780976804383 -0.025706854857452392 0 -0.077949881484559239 -0.01307625006729682 0 -0.090677970328949406 -0.022917020247476879 0 -0.073841780976804383 -0.025706854857452392 0 -0.082102255714859004 -0.034759692131612618 0 -0.090677970328949406 -0.022917020247476879 0 -0.091929659262116575 -0.033133953101480262 0 -0.082102255714859004 -0.034759692131612618 0 -0.073841780976804383 -0.025706854857452392 0 -0.077949881484559239 -0.01307625006729682 0 -0.060674527584339763 -0.015412449877807689 0 -0.073841780976804383 -0.025706854857452392 0 -0.060674527584339763 -0.015412449877807689 0 -0.060703590497751453 -0.03101491529774986 0 -0.077949881484559239 -0.01307625006729682 0 -0.085958893623968774 0.001514634656162053 0 -0.065648076432031049 0.00090955339710942099 0 -0.077949881484559239 -0.01307625006729682 0 -0.060674527584339763 -0.015412449877807689 0 -0.065648076432031049 0.00090955339710942099 0 -0.079773765115028039 -0.057914828426178573 0 -0.087030839425688053 -0.044306376809862227 0 -0.074827122987446398 -0.047817820925290022 0 -0.079773765115028039 -0.057914828426178573 0 -0.090164156554830718 -0.055563028782557922 0 -0.087030839425688053 -0.044306376809862227 0 -0.087640100333796281 -0.066301869750421821 0 -0.079773765115028039 -0.057914828426178573 0 -0.090164156554830718 -0.055563028782557922 0 -0.087640100333796281 -0.066301869750421821 0 -0.097041901727127691 -0.062312633498474219 0 -0.090164156554830718 -0.055563028782557922 0 -0.1002598709818909 -0.049694841596422852 0 -0.090164156554830718 -0.055563028782557922 0 -0.087030839425688053 -0.044306376809862227 0 -0.097298262181343159 -0.039849987036595598 0 -0.087030839425688053 -0.044306376809862227 0 -0.091929659262116575 -0.033133953101480262 0 -0.087030839425688053 -0.044306376809862227 0 -0.091929659262116575 -0.033133953101480262 0 -0.082102255714859004 -0.034759692131612618 0 -0.087030839425688053 -0.044306376809862227 0 -0.082102255714859004 -0.034759692131612618 0 -0.074827122987446398 -0.047817820925290022 0 -0.082102255714859004 -0.034759692131612618 0 -0.070942460250367517 -0.03706080152277047 0 -0.074827122987446398 -0.047817820925290022 0 -0.073841780976804383 -0.025706854857452392 0 -0.082102255714859004 -0.034759692131612618 0 -0.070942460250367517 -0.03706080152277047 0 -0.073841780976804383 -0.025706854857452392 0 -0.070942460250367517 -0.03706080152277047 0 -0.060703590497751453 -0.03101491529774986 0 -0.070942460250367517 -0.03706080152277047 0 -0.061850736208416378 -0.044087883634974623 0 -0.060703590497751453 -0.03101491529774986 0 -0.070942460250367517 -0.03706080152277047 0 -0.074827122987446398 -0.047817820925290022 0 -0.061850736208416378 -0.044087883634974623 0 -0.074827122987446398 -0.047817820925290022 0 -0.065822825648978775 -0.060485584973140792 0 -0.061850736208416378 -0.044087883634974623 0 -0.079773765115028039 -0.057914828426178573 0 -0.074827122987446398 -0.047817820925290022 0 -0.065822825648978775 -0.060485584973140792 0 -0.076351800502585221 -0.068318825045574613 0 -0.079773765115028039 -0.057914828426178573 0 -0.065822825648978775 -0.060485584973140792 0 -0.065822825648978775 -0.060485584973140792 0 -0.051906109188989122 -0.051634581827710108 0 -0.055146373663134192 -0.063188587977351315 0 -0.065822825648978775 -0.060485584973140792 0 -0.051906109188989122 -0.051634581827710108 0 -0.061850736208416378 -0.044087883634974623 0 -0.051906109188989122 -0.051634581827710108 0 -0.044968642856814678 -0.064628327886466996 0 -0.055146373663134192 -0.063188587977351315 0 -0.061850736208416378 -0.044087883634974623 0 -0.048286593140243993 -0.039377229684959138 0 -0.060703590497751453 -0.03101491529774986 0 -0.051906109188989122 -0.051634581827710108 0 -0.061850736208416378 -0.044087883634974623 0 -0.048286593140243993 -0.039377229684959138 0 -0.048286593140243993 -0.039377229684959138 0 -0.039642814346724391 -0.052475069278980747 0 -0.030584103036016622 -0.035608219704199993 0 -0.039642814346724391 -0.052475069278980747 0 -0.024435088609687641 -0.049746151716912712 0 -0.030584103036016622 -0.035608219704199993 0 -0.048286593140243993 -0.039377229684959138 0 -0.044331283213942488 -0.020119990811347448 0 -0.030584103036016622 -0.035608219704199993 0 -0.039642814346724391 -0.052475069278980747 0 -0.03034189778213453 -0.060014988360291517 0 -0.024435088609687641 -0.049746151716912712 0 -0.039642814346724391 -0.052475069278980747 0 -0.03034189778213453 -0.060014988360291517 0 -0.044968642856814678 -0.064628327886466996 0 -0.051906109188989122 -0.051634581827710108 0 -0.039642814346724391 -0.052475069278980747 0 -0.044968642856814678 -0.064628327886466996 0 -0.051906109188989122 -0.051634581827710108 0 -0.048286593140243993 -0.039377229684959138 0 -0.039642814346724391 -0.052475069278980747 0 -0.060674527584339763 -0.015412449877807689 0 -0.044331283213942488 -0.020119990811347448 0 -0.045118160941850949 -0.00049033847668307538 0 -0.060674527584339763 -0.015412449877807689 0 -0.045118160941850949 -0.00049033847668307538 0 -0.065648076432031049 0.00090955339710942099 0 -0.048286593140243993 -0.039377229684959138 0 -0.060703590497751453 -0.03101491529774986 0 -0.044331283213942488 -0.020119990811347448 0 -0.060674527584339763 -0.015412449877807689 0 -0.060703590497751453 -0.03101491529774986 0 -0.044331283213942488 -0.020119990811347448 0 -0.044331283213942488 -0.020119990811347448 0 -0.027025641752002061 -0.0079319500279313396 0 -0.030584103036016622 -0.035608219704199993 0 -0.044331283213942488 -0.020119990811347448 0 -0.045118160941850949 -0.00049033847668307538 0 -0.027025641752002061 -0.0079319500279313396 0 -0.027025641752002061 -0.0079319500279313396 0 -0.0118242871531395 -0.020545428430059291 0 -0.0091716063734174208 -0.003332990253060792 0 -0.027025641752002061 -0.0079319500279313396 0 -0.0091716063734174208 -0.003332990253060792 0 -0.01566814095190756 0.010235570601176981 0 -0.027025641752002061 -0.0079319500279313396 0 -0.0118242871531395 -0.020545428430059291 0 -0.030584103036016622 -0.035608219704199993 0 -0.0118242871531395 -0.020545428430059291 0 -0.030584103036016622 -0.035608219704199993 0 -0.0118242871531395 -0.020545428430059291 0 0.006935528729737548 -0.0054826371559186567 0 0.0027408304473846411 -0.028176541972939319 0 -0.0118242871531395 -0.020545428430059291 0 -0.01026660782967455 -0.041229232136501717 0 0.0027408304473846411 -0.028176541972939319 0 -0.0118242871531395 -0.020545428430059291 0 -0.0091716063734174208 -0.003332990253060792 0 0.006935528729737548 -0.0054826371559186567 0 -0.0118242871531395 -0.020545428430059291 0 0.006935528729737548 -0.0054826371559186567 0 -0.024435088609687641 -0.049746151716912712 0 -0.01026660782967455 -0.041229232136501717 0 -0.01499476028908407 -0.06055090283160456 0 -0.03034189778213453 -0.060014988360291517 0 -0.01499476028908407 -0.06055090283160456 0 -0.03034189778213453 -0.060014988360291517 0 -0.024435088609687641 -0.049746151716912712 0 -0.01499476028908407 -0.06055090283160456 0 -0.024435088609687641 -0.049746151716912712 0 -0.030584103036016622 -0.035608219704199993 0 -0.01026660782967455 -0.041229232136501717 0 -0.0118242871531395 -0.020545428430059291 0 -0.030584103036016622 -0.035608219704199993 0 -0.01026660782967455 -0.041229232136501717 0 -0.01026660782967455 -0.041229232136501717 0 0.0096258971738255473 -0.043108802377643002 0 0.00035237720396625368 -0.061086817302918282 0 -0.01026660782967455 -0.041229232136501717 0 -0.01499476028908407 -0.06055090283160456 0 0.00035237720396625368 -0.061086817302918282 0 -0.01499476028908407 -0.06055090283160456 0 0.00035237720396625368 -0.061086817302918282 0 -0.011408129540087309 -0.083886203777590068 0 0.0065051428120863272 -0.082127796022149757 0 0.00035237720396625368 -0.061086817302918282 0 -0.011408129540087309 -0.083886203777590068 0 0.00035237720396625368 -0.061086817302918282 0 -0.01499476028908407 -0.06055090283160456 0 -0.011408129540087309 -0.083886203777590068 0 0.00035237720396625368 -0.061086817302918282 0 -0.011408129540087309 -0.083886203777590068 0 0.001856719827670471 -0.098182337095309047 0 0.0065051428120863272 -0.082127796022149757 0 -0.011408129540087309 -0.083886203777590068 0 -0.03053113156520738 -0.089911417014305078 0 -0.02316863628414112 -0.10668559025226169 0 -0.011408129540087309 -0.083886203777590068 0 -0.03053113156520738 -0.089911417014305078 0 -0.026049830403481512 -0.075342802050597457 0 -0.01499476028908407 -0.06055090283160456 0 -0.011408129540087309 -0.083886203777590068 0 -0.026049830403481512 -0.075342802050597457 0 -0.03034189778213453 -0.060014988360291517 0 -0.01499476028908407 -0.06055090283160456 0 -0.026049830403481512 -0.075342802050597457 0 -0.03034189778213453 -0.060014988360291517 0 -0.026049830403481512 -0.075342802050597457 0 -0.041349905228919973 -0.078428718904655664 0 -0.03034189778213453 -0.060014988360291517 0 -0.044968642856814678 -0.064628327886466996 0 -0.041349905228919973 -0.078428718904655664 0 -0.03053113156520738 -0.089911417014305078 0 -0.026049830403481512 -0.075342802050597457 0 -0.041349905228919973 -0.078428718904655664 0 -0.03053113156520738 -0.089911417014305078 0 -0.041349905228919973 -0.078428718904655664 0 -0.047432501145458397 -0.097370211357339573 0 -0.041349905228919973 -0.078428718904655664 0 -0.053879666709155317 -0.08598560359304859 0 -0.05753372126900759 -0.073422836261521005 0 -0.041349905228919973 -0.078428718904655664 0 -0.053879666709155317 -0.08598560359304859 0 -0.047432501145458397 -0.097370211357339573 0 -0.066670257350634976 -0.085780572793309681 0 -0.053879666709155317 -0.08598560359304859 0 -0.05982498813170789 -0.10249801488187529 0 -0.066670257350634976 -0.085780572793309681 0 -0.053879666709155317 -0.08598560359304859 0 -0.05753372126900759 -0.073422836261521005 0 -0.044968642856814678 -0.064628327886466996 0 -0.041349905228919973 -0.078428718904655664 0 -0.05753372126900759 -0.073422836261521005 0 -0.065822825648978775 -0.060485584973140792 0 -0.05753372126900759 -0.073422836261521005 0 -0.055146373663134192 -0.063188587977351315 0 -0.044968642856814678 -0.064628327886466996 0 -0.05753372126900759 -0.073422836261521005 0 -0.055146373663134192 -0.063188587977351315 0 -0.065415314349395459 -0.11473522154729129 0 -0.048239208743362072 -0.1165718691901324 0 -0.05982498813170789 -0.10249801488187529 0 -0.065415314349395459 -0.11473522154729129 0 -0.048239208743362072 -0.1165718691901324 0 -0.060446148579459319 -0.1303024678998376 0 -0.048239208743362072 -0.1165718691901324 0 -0.05982498813170789 -0.10249801488187529 0 -0.047432501145458397 -0.097370211357339573 0 -0.053879666709155317 -0.08598560359304859 0 -0.05982498813170789 -0.10249801488187529 0 -0.047432501145458397 -0.097370211357339573 0 -0.048239208743362072 -0.1165718691901324 0 -0.047432501145458397 -0.097370211357339573 0 -0.02316863628414112 -0.10668559025226169 0 -0.03053113156520738 -0.089911417014305078 0 -0.047432501145458397 -0.097370211357339573 0 -0.02316863628414112 -0.10668559025226169 0 -0.048239208743362072 -0.1165718691901324 0 -0.02316863628414112 -0.10668559025226169 0 -0.029948833034415319 -0.13246817914486481 0 -0.02316863628414112 -0.10668559025226169 0 -0.01250087523651249 -0.12826546419306251 0 -0.029948833034415319 -0.13246817914486481 0 -0.011408129540087309 -0.083886203777590068 0 -0.02316863628414112 -0.10668559025226169 0 -0.02316863628414112 -0.10668559025226169 0 0.0015243557028834459 -0.11711868301268021 0 0.001856719827670471 -0.098182337095309047 0 -0.011408129540087309 -0.083886203777590068 0 -0.02316863628414112 -0.10668559025226169 0 0.001856719827670471 -0.098182337095309047 0 -0.02316863628414112 -0.10668559025226169 0 -0.01250087523651249 -0.12826546419306251 0 0.0015243557028834459 -0.11711868301268021 0 -0.01250087523651249 -0.12826546419306251 0 -0.013317386200938249 -0.14799664519887931 0 0.0088678229424013627 -0.13941235935176011 0 -0.01250087523651249 -0.12826546419306251 0 0.0088678229424013627 -0.13941235935176011 0 0.0015243557028834459 -0.11711868301268021 0 -0.01250087523651249 -0.12826546419306251 0 -0.029948833034415319 -0.13246817914486481 0 -0.013317386200938249 -0.14799664519887931 0 -0.013317386200938249 -0.14799664519887931 0 -0.035502595344277812 -0.15658093104599841 0 -0.029948833034415319 -0.13246817914486481 0 -0.013317386200938249 -0.14799664519887931 0 -0.035502595344277812 -0.15658093104599841 0 -0.013317386200938249 -0.14799664519887931 0 0.0088678229424013627 -0.13941235935176011 0 -0.013317386200938249 -0.14799664519887931 0 0.0027310736070901482 -0.15493719994590471 0 0.0088678229424013627 -0.13941235935176011 0 -0.013317386200938249 -0.14799664519887931 0 -0.0013673002328405961 -0.1767093328090546 0 0.0027310736070901482 -0.15493719994590471 0 -0.013317386200938249 -0.14799664519887931 0 -0.0013673002328405961 -0.1767093328090546 0 -0.029934926785222919 -0.1776443960910804 0 -0.0013673002328405961 -0.1767093328090546 0 -0.0217915143334447 -0.19785215020996011 0 -0.0013673002328405961 -0.1767093328090546 0 -0.029934926785222919 -0.1776443960910804 0 -0.0217915143334447 -0.19785215020996011 0 -0.013317386200938249 -0.14799664519887931 0 -0.029934926785222919 -0.1776443960910804 0 -0.035502595344277812 -0.15658093104599841 0 -0.035502595344277812 -0.15658093104599841 0 -0.057687804487617317 -0.16516521689311761 0 -0.029934926785222919 -0.1776443960910804 0 -0.035502595344277812 -0.15658093104599841 0 -0.057687804487617317 -0.16516521689311761 0 -0.029934926785222919 -0.1776443960910804 0 -0.048583433801033478 -0.18728911877980611 0 -0.034676635542126917 -0.191298641696723 0 -0.029934926785222919 -0.1776443960910804 0 -0.048583433801033478 -0.18728911877980611 0 -0.057687804487617317 -0.16516521689311761 0 -0.048583433801033478 -0.18728911877980611 0 -0.057687804487617317 -0.16516521689311761 0 -0.063770138428779252 -0.18079669395549949 0 -0.035502595344277812 -0.15658093104599841 0 -0.057687804487617317 -0.16516521689311761 0 -0.06059931965736505 -0.14742373122833671 0 -0.035502595344277812 -0.15658093104599841 0 -0.06059931965736505 -0.14742373122833671 0 -0.046947221071775923 -0.13666943570183401 0 -0.048239208743362072 -0.1165718691901324 0 -0.046947221071775923 -0.13666943570183401 0 -0.060446148579459319 -0.1303024678998376 0 -0.06059931965736505 -0.14742373122833671 0 -0.046947221071775923 -0.13666943570183401 0 -0.060446148579459319 -0.1303024678998376 0 -0.048239208743362072 -0.1165718691901324 0 -0.029948833034415319 -0.13246817914486481 0 -0.046947221071775923 -0.13666943570183401 0 -0.029948833034415319 -0.13246817914486481 0 -0.035502595344277812 -0.15658093104599841 0 -0.046947221071775923 -0.13666943570183401 0 -0.03064478186574425 -0.25326356670072259 0 -0.026067501294639708 -0.24850247980592871 0 -0.033387688564450117 -0.24425465961654741 0 -0.026067501294639708 -0.24850247980592871 0 -0.02456862519526215 -0.24210395604782819 0 -0.033387688564450117 -0.24425465961654741 0 -0.02974340118516787 -0.23585106297766359 0 -0.02456862519526215 -0.24210395604782819 0 -0.02062871475200042 -0.2320366992723622 0 -0.02974340118516787 -0.23585106297766359 0 -0.02456862519526215 -0.24210395604782819 0 -0.033387688564450117 -0.24425465961654741 0 -0.02456862519526215 -0.24210395604782819 0 -0.01660477195623393 -0.2403164687020414 0 -0.02062871475200042 -0.2320366992723622 0 -0.02456862519526215 -0.24210395604782819 0 -0.01660477195623393 -0.2403164687020414 0 -0.01887874476148543 -0.24814250919209771 0 -0.026067501294639708 -0.24850247980592871 0 -0.02456862519526215 -0.24210395604782819 0 -0.01887874476148543 -0.24814250919209771 0 -0.01660477195623393 -0.2403164687020414 0 -0.01887874476148543 -0.24814250919209771 0 -0.0080727856436109482 -0.2481099565327444 0 -0.0080727856436109482 -0.2481099565327444 0 -0.0084819670471955304 -0.2367225590632196 0 0.0055632338660241776 -0.24332209518663511 0 -0.01660477195623393 -0.2403164687020414 0 -0.0084819670471955304 -0.2367225590632196 0 -0.02062871475200042 -0.2320366992723622 0 -0.01660477195623393 -0.2403164687020414 0 -0.0080727856436109482 -0.2481099565327444 0 -0.0084819670471955304 -0.2367225590632196 0 -0.0084819670471955304 -0.2367225590632196 0 -0.0075276580997289226 -0.21896018305478171 0 0.0032521440618358652 -0.23009641691855939 0 -0.0084819670471955304 -0.2367225590632196 0 -0.0075276580997289226 -0.21896018305478171 0 -0.02062871475200042 -0.2320366992723622 0 -0.0075276580997289226 -0.21896018305478171 0 -0.02062871475200042 -0.2320366992723622 0 -0.024832472176938718 -0.21885173135413241 0 -0.02974340118516787 -0.23585106297766359 0 -0.02062871475200042 -0.2320366992723622 0 -0.031998745265470661 -0.22641465662269231 0 -0.02062871475200042 -0.2320366992723622 0 -0.024832472176938718 -0.21885173135413241 0 -0.031998745265470661 -0.22641465662269231 0 -0.0075276580997289226 -0.21896018305478171 0 -0.024832472176938718 -0.21885173135413241 0 -0.0217915143334447 -0.19785215020996011 0 -0.024832472176938718 -0.21885173135413241 0 -0.0217915143334447 -0.19785215020996011 0 -0.042215728434048867 -0.21899496761086559 0 -0.0075276580997289226 -0.21896018305478171 0 -0.0217915143334447 -0.19785215020996011 0 0.003555539334036632 -0.19934620758084881 0 -0.0013673002328405961 -0.1767093328090546 0 -0.0217915143334447 -0.19785215020996011 0 0.003555539334036632 -0.19934620758084881 0 -0.029934926785222919 -0.1776443960910804 0 -0.0217915143334447 -0.19785215020996011 0 -0.034676635542126917 -0.191298641696723 0 -0.0217915143334447 -0.19785215020996011 0 -0.034676635542126917 -0.191298641696723 0 -0.04224094911505525 -0.20168175555289891 0 -0.048583433801033478 -0.18728911877980611 0 -0.034676635542126917 -0.191298641696723 0 -0.04224094911505525 -0.20168175555289891 0 -0.048583433801033478 -0.18728911877980611 0 -0.058327232484387218 -0.2013044317948425 0 -0.063770138428779252 -0.18079669395549949 0 -0.048583433801033478 -0.18728911877980611 0 -0.04224094911505525 -0.20168175555289891 0 -0.058327232484387218 -0.2013044317948425 0 -0.058327232484387218 -0.2013044317948425 0 -0.04785115009529034 -0.21335122322519601 0 -0.065984069430329237 -0.21594808513783789 0 -0.04224094911505525 -0.20168175555289891 0 -0.058327232484387218 -0.2013044317948425 0 -0.04785115009529034 -0.21335122322519601 0 -0.04785115009529034 -0.21335122322519601 0 -0.065984069430329237 -0.21594808513783789 0 -0.04785115009529034 -0.21335122322519601 0 -0.050089297127046031 -0.22131182591420251 0 -0.065984069430329237 -0.21594808513783789 0 -0.0217915143334447 -0.19785215020996011 0 -0.042215728434048867 -0.21899496761086559 0 -0.0217915143334447 -0.19785215020996011 0 -0.04224094911505525 -0.20168175555289891 0 -0.042215728434048867 -0.21899496761086559 0 -0.04224094911505525 -0.20168175555289891 0 -0.04785115009529034 -0.21335122322519601 0 -0.042215728434048867 -0.21899496761086559 0 -0.04785115009529034 -0.21335122322519601 0 -0.042215728434048867 -0.21899496761086559 0 -0.050089297127046031 -0.22131182591420251 0 -0.024832472176938718 -0.21885173135413241 0 -0.031998745265470661 -0.22641465662269231 0 -0.042215728434048867 -0.21899496761086559 0 -0.031998745265470661 -0.22641465662269231 0 -0.042215728434048867 -0.21899496761086559 0 -0.041320068815934301 -0.22639292378782619 0 -0.031998745265470661 -0.22641465662269231 0 -0.041320068815934301 -0.22639292378782619 0 -0.038133232148655979 -0.23444534332888789 0 -0.02974340118516787 -0.23585106297766359 0 -0.031998745265470661 -0.22641465662269231 0 -0.038133232148655979 -0.23444534332888789 0 -0.041320068815934301 -0.22639292378782619 0 -0.052151212760384272 -0.22988480121754831 0 -0.038133232148655979 -0.23444534332888789 0 -0.042215728434048867 -0.21899496761086559 0 -0.041320068815934301 -0.22639292378782619 0 -0.050089297127046031 -0.22131182591420251 0 -0.041320068815934301 -0.22639292378782619 0 -0.050089297127046031 -0.22131182591420251 0 -0.052151212760384272 -0.22988480121754831 0 -0.0567919256119837 -0.24387644547435741 0 -0.065984069430329237 -0.21594808513783789 0 -0.050089297127046031 -0.22131182591420251 0 -0.052151212760384272 -0.22988480121754831 0 -0.065984069430329237 -0.21594808513783789 0 -0.052151212760384272 -0.22988480121754831 0 -0.0567919256119837 -0.24387644547435741 0 -0.065984069430329237 -0.21594808513783789 0 -0.052151212760384272 -0.22988480121754831 0 -0.0567919256119837 -0.24387644547435741 0 -0.045207486351244337 -0.24272005325013779 0 -0.046517308340487992 -0.25474718453952289 0 -0.0567919256119837 -0.24387644547435741 0 -0.045207486351244337 -0.24272005325013779 0 -0.038581934025118947 -0.25114857380685968 0 -0.046517308340487992 -0.25474718453952289 0 -0.045207486351244337 -0.24272005325013779 0 -0.052151212760384272 -0.22988480121754831 0 -0.045207486351244337 -0.24272005325013779 0 -0.038133232148655979 -0.23444534332888789 0 -0.02974340118516787 -0.23585106297766359 0 -0.038133232148655979 -0.23444534332888789 0 -0.033387688564450117 -0.24425465961654741 0 -0.045207486351244337 -0.24272005325013779 0 -0.038133232148655979 -0.23444534332888789 0 -0.033387688564450117 -0.24425465961654741 0 -0.038581934025118947 -0.25114857380685968 0 -0.03064478186574425 -0.25326356670072259 0 -0.033387688564450117 -0.24425465961654741 0 -0.038581934025118947 -0.25114857380685968 0 -0.045207486351244337 -0.24272005325013779 0 -0.033387688564450117 -0.24425465961654741 0 -0.076282262678724011 -0.24169347649274159 0 -0.094544528280961701 -0.23130979592197831 0 -0.1005321994236209 -0.2431127607729493 0 -0.090174700483665673 -0.26498018187443112 0 -0.076282262678724011 -0.24169347649274159 0 -0.1005321994236209 -0.2431127607729493 0 -0.063484538676239377 -0.26413124226689111 0 -0.0567919256119837 -0.24387644547435741 0 -0.076282262678724011 -0.24169347649274159 0 -0.0567919256119837 -0.24387644547435741 0 -0.076282262678724011 -0.24169347649274159 0 -0.076216545617433393 -0.2267874217425101 0 -0.0567919256119837 -0.24387644547435741 0 -0.076216545617433393 -0.2267874217425101 0 -0.065984069430329237 -0.21594808513783789 0 -0.076216545617433393 -0.2267874217425101 0 -0.089079986681209755 -0.21925571071859279 0 -0.065984069430329237 -0.21594808513783789 0 -0.076282262678724011 -0.24169347649274159 0 -0.076216545617433393 -0.2267874217425101 0 -0.089079986681209755 -0.21925571071859279 0 -0.076282262678724011 -0.24169347649274159 0 -0.089079986681209755 -0.21925571071859279 0 -0.076282262678724011 -0.24169347649274159 0 -0.089079986681209755 -0.21925571071859279 0 -0.094544528280961701 -0.23130979592197831 0 -0.089079986681209755 -0.21925571071859279 0 -0.087982693832912948 -0.20610030108417279 0 -0.065984069430329237 -0.21594808513783789 0 -0.089079986681209755 -0.21925571071859279 0 -0.091681034097487346 -0.21469539259619891 0 -0.087982693832912948 -0.20610030108417279 0 -0.089079986681209755 -0.21925571071859279 0 -0.091681034097487346 -0.21469539259619891 0 -0.089079986681209755 -0.21925571071859279 0 -0.065984069430329237 -0.21594808513783789 0 -0.058327232484387218 -0.2013044317948425 0 -0.065984069430329237 -0.21594808513783789 0 -0.072928541530643487 -0.1948487939390374 0 -0.065984069430329237 -0.21594808513783789 0 -0.072928541530643487 -0.1948487939390374 0 -0.087982693832912948 -0.20610030108417279 0 -0.065984069430329237 -0.21594808513783789 0 -0.072928541530643487 -0.1948487939390374 0 -0.058327232484387218 -0.2013044317948425 0 -0.072928541530643487 -0.1948487939390374 0 -0.063770138428779252 -0.18079669395549949 0 -0.087982693832912948 -0.20610030108417279 0 -0.072928541530643487 -0.1948487939390374 0 -0.088647710124579282 -0.1895137930351245 0 -0.087982693832912948 -0.20610030108417279 0 -0.088647710124579282 -0.1895137930351245 0 -0.098413722631135098 -0.19641739989264009 0 -0.088647710124579282 -0.1895137930351245 0 -0.098413722631135098 -0.19641739989264009 0 -0.1039428787252024 -0.18306303235069041 0 -0.087982693832912948 -0.20610030108417279 0 -0.098413722631135098 -0.19641739989264009 0 -0.1018219586260966 -0.2062222809526808 0 -0.098413722631135098 -0.19641739989264009 0 -0.10967337184688419 -0.19718759204053191 0 -0.1018219586260966 -0.2062222809526808 0 -0.098413722631135098 -0.19641739989264009 0 -0.10967337184688419 -0.19718759204053191 0 -0.1039428787252024 -0.18306303235069041 0 -0.1039428787252024 -0.18306303235069041 0 -0.1280127438194481 -0.19237656196114411 0 -0.10967337184688419 -0.19718759204053191 0 -0.1178174188303993 -0.20556040013348681 0 -0.1280127438194481 -0.19237656196114411 0 -0.10967337184688419 -0.19718759204053191 0 -0.1039428787252024 -0.18306303235069041 0 -0.1280127438194481 -0.19237656196114411 0 -0.10967337184688419 -0.19718759204053191 0 -0.10961342770230489 -0.21003706569406461 0 -0.1178174188303993 -0.20556040013348681 0 -0.1178174188303993 -0.20556040013348681 0 -0.1109550451866443 -0.21888036136960631 0 -0.13246178853905299 -0.20873151589840269 0 -0.1109550451866443 -0.21888036136960631 0 -0.13246178853905299 -0.20873151589840269 0 -0.1109550451866443 -0.21888036136960631 0 -0.12407830270498089 -0.22426790937284519 0 -0.13246178853905299 -0.20873151589840269 0 -0.10961342770230489 -0.21003706569406461 0 -0.1178174188303993 -0.20556040013348681 0 -0.1109550451866443 -0.21888036136960631 0 -0.10961342770230489 -0.21003706569406461 0 -0.103172625086798 -0.22127395363072039 0 -0.1109550451866443 -0.21888036136960631 0 -0.10961342770230489 -0.21003706569406461 0 -0.1018219586260966 -0.2062222809526808 0 -0.103172625086798 -0.22127395363072039 0 -0.10967337184688419 -0.19718759204053191 0 -0.10961342770230489 -0.21003706569406461 0 -0.1018219586260966 -0.2062222809526808 0 -0.091681034097487346 -0.21469539259619891 0 -0.087982693832912948 -0.20610030108417279 0 -0.103172625086798 -0.22127395363072039 0 -0.089079986681209755 -0.21925571071859279 0 -0.091681034097487346 -0.21469539259619891 0 -0.103172625086798 -0.22127395363072039 0 -0.087982693832912948 -0.20610030108417279 0 -0.103172625086798 -0.22127395363072039 0 -0.087982693832912948 -0.20610030108417279 0 -0.1018219586260966 -0.2062222809526808 0 -0.103172625086798 -0.22127395363072039 0 -0.094544528280961701 -0.23130979592197831 0 -0.103172625086798 -0.22127395363072039 0 -0.1005321994236209 -0.2431127607729493 0 -0.089079986681209755 -0.21925571071859279 0 -0.103172625086798 -0.22127395363072039 0 -0.089079986681209755 -0.21925571071859279 0 -0.094544528280961701 -0.23130979592197831 0 -0.103172625086798 -0.22127395363072039 0 -0.103172625086798 -0.22127395363072039 0 -0.1223681628105569 -0.24044891992886891 0 -0.103172625086798 -0.22127395363072039 0 -0.12407830270498089 -0.22426790937284519 0 -0.1238233973506119 -0.23541481827178831 0 -0.103172625086798 -0.22127395363072039 0 -0.1223681628105569 -0.24044891992886891 0 -0.1238233973506119 -0.23541481827178831 0 -0.103172625086798 -0.22127395363072039 0 -0.12407830270498089 -0.22426790937284519 0 -0.103172625086798 -0.22127395363072039 0 -0.1109550451866443 -0.21888036136960631 0 -0.12407830270498089 -0.22426790937284519 0 -0.11757885349586771 -0.25701660664448461 0 -0.1223681628105569 -0.24044891992886891 0 -0.1005321994236209 -0.2431127607729493 0 -0.11757885349586771 -0.25701660664448461 0 -0.1223681628105569 -0.24044891992886891 0 -0.1223681628105569 -0.24044891992886891 0 -0.1238233973506119 -0.23541481827178831 0 -0.103172625086798 -0.22127395363072039 0 -0.1223681628105569 -0.24044891992886891 0 -0.1005321994236209 -0.2431127607729493 0 -0.088441251280713618 -0.1477167476767523 0 -0.085474651021334253 -0.13655174303235951 0 -0.077236065216807342 -0.1460130695171887 0 -0.088441251280713618 -0.1477167476767523 0 -0.077236065216807342 -0.1460130695171887 0 -0.072985053953480025 -0.15595005707556001 0 -0.088441251280713618 -0.1477167476767523 0 -0.093538562727787294 -0.15940564464812701 0 -0.098894310772838973 -0.14952020789867901 0 -0.088441251280713618 -0.1477167476767523 0 -0.085474651021334253 -0.13655174303235951 0 -0.095252038160572317 -0.1406191133899993 0 -0.085474651021334253 -0.13655174303235951 0 -0.095971306836852913 -0.13086642389395989 0 -0.095252038160572317 -0.1406191133899993 0 -0.082994471061899833 -0.1234246307735777 0 -0.085474651021334253 -0.13655174303235951 0 -0.095971306836852913 -0.13086642389395989 0 -0.082994471061899833 -0.1234246307735777 0 -0.085474651021334253 -0.13655174303235951 0 -0.073596501371478315 -0.1364787996572045 0 -0.085474651021334253 -0.13655174303235951 0 -0.073596501371478315 -0.1364787996572045 0 -0.077236065216807342 -0.1460130695171887 0 -0.06059931965736505 -0.14742373122833671 0 -0.060446148579459319 -0.1303024678998376 0 -0.073596501371478315 -0.1364787996572045 0 -0.082994471061899833 -0.1234246307735777 0 -0.073596501371478315 -0.1364787996572045 0 -0.071674103496310607 -0.1250344835198243 0 -0.060446148579459319 -0.1303024678998376 0 -0.073596501371478315 -0.1364787996572045 0 -0.071674103496310607 -0.1250344835198243 0 -0.06059931965736505 -0.14742373122833671 0 -0.073596501371478315 -0.1364787996572045 0 -0.077236065216807342 -0.1460130695171887 0 -0.057687804487617317 -0.16516521689311761 0 -0.06059931965736505 -0.14742373122833671 0 -0.072985053953480025 -0.15595005707556001 0 -0.06059931965736505 -0.14742373122833671 0 -0.077236065216807342 -0.1460130695171887 0 -0.072985053953480025 -0.15595005707556001 0 -0.057687804487617317 -0.16516521689311761 0 -0.079873013630956835 -0.17374950274023659 0 -0.057687804487617317 -0.16516521689311761 0 -0.072985053953480025 -0.15595005707556001 0 -0.079873013630956835 -0.17374950274023659 0 -0.072928541530643487 -0.1948487939390374 0 -0.079873013630956835 -0.17374950274023659 0 -0.057687804487617317 -0.16516521689311761 0 -0.063770138428779252 -0.18079669395549949 0 -0.079873013630956835 -0.17374950274023659 0 -0.072928541530643487 -0.1948487939390374 0 -0.063770138428779252 -0.18079669395549949 0 -0.079873013630956835 -0.17374950274023659 0 -0.072928541530643487 -0.1948487939390374 0 -0.088647710124579282 -0.1895137930351245 0 -0.079873013630956835 -0.17374950274023659 0 -0.079873013630956835 -0.17374950274023659 0 -0.1039428787252024 -0.18306303235069041 0 -0.088647710124579282 -0.1895137930351245 0 -0.079873013630956835 -0.17374950274023659 0 -0.1039428787252024 -0.18306303235069041 0 -0.088441251280713618 -0.1477167476767523 0 -0.079873013630956835 -0.17374950274023659 0 -0.079873013630956835 -0.17374950274023659 0 -0.093538562727787294 -0.15940564464812701 0 -0.098088850166783578 -0.16700629557107341 0 -0.088441251280713618 -0.1477167476767523 0 -0.079873013630956835 -0.17374950274023659 0 -0.093538562727787294 -0.15940564464812701 0 -0.088441251280713618 -0.1477167476767523 0 -0.072985053953480025 -0.15595005707556001 0 -0.079873013630956835 -0.17374950274023659 0 -0.093538562727787294 -0.15940564464812701 0 -0.098088850166783578 -0.16700629557107341 0 -0.1023953877876435 -0.15903546935389351 0 -0.098088850166783578 -0.16700629557107341 0 -0.1039428787252024 -0.18306303235069041 0 -0.1119878388851908 -0.16231915977259129 0 -0.098088850166783578 -0.16700629557107341 0 -0.1023953877876435 -0.15903546935389351 0 -0.1119878388851908 -0.16231915977259129 0 -0.079873013630956835 -0.17374950274023659 0 -0.098088850166783578 -0.16700629557107341 0 -0.1039428787252024 -0.18306303235069041 0 -0.1039428787252024 -0.18306303235069041 0 -0.11859204859796291 -0.17560578940816099 0 -0.1119878388851908 -0.16231915977259129 0 -0.1039428787252024 -0.18306303235069041 0 -0.11859204859796291 -0.17560578940816099 0 -0.1280127438194481 -0.19237656196114411 0 -0.1023953877876435 -0.15903546935389351 0 -0.1119878388851908 -0.16231915977259129 0 -0.1169630623746598 -0.14907522687480429 0 -0.11859204859796291 -0.17560578940816099 0 -0.1119878388851908 -0.16231915977259129 0 -0.12588679133122799 -0.1624874708491951 0 -0.1119878388851908 -0.16231915977259129 0 -0.1169630623746598 -0.14907522687480429 0 -0.12588679133122799 -0.1624874708491951 0 -0.1119878388851908 -0.16231915977259129 0 -0.1169630623746598 -0.14907522687480429 0 -0.1023953877876435 -0.15903546935389351 0 -0.1169630623746598 -0.14907522687480429 0 -0.098894310772838973 -0.14952020789867901 0 -0.1169630623746598 -0.14907522687480429 0 -0.098894310772838973 -0.14952020789867901 0 -0.1169630623746598 -0.14907522687480429 0 -0.098894310772838973 -0.14952020789867901 0 -0.1074786708911218 -0.1384404444482458 0 -0.088441251280713618 -0.1477167476767523 0 -0.098894310772838973 -0.14952020789867901 0 -0.095252038160572317 -0.1406191133899993 0 -0.098894310772838973 -0.14952020789867901 0 -0.095252038160572317 -0.1406191133899993 0 -0.1074786708911218 -0.1384404444482458 0 -0.093538562727787294 -0.15940564464812701 0 -0.1023953877876435 -0.15903546935389351 0 -0.098894310772838973 -0.14952020789867901 0 -0.1085913382140784 -0.11903379143832921 0 -0.095971306836852913 -0.13086642389395989 0 -0.1074786708911218 -0.1384404444482458 0 -0.095971306836852913 -0.13086642389395989 0 -0.095252038160572317 -0.1406191133899993 0 -0.1074786708911218 -0.1384404444482458 0 -0.1085913382140784 -0.11903379143832921 0 -0.1074786708911218 -0.1384404444482458 0 -0.12736410167423581 -0.1213878944680517 0 -0.1169630623746598 -0.14907522687480429 0 -0.1074786708911218 -0.1384404444482458 0 -0.12736410167423581 -0.1213878944680517 0 -0.1169630623746598 -0.14907522687480429 0 -0.12736410167423581 -0.1213878944680517 0 -0.13746664940214659 -0.13470709103134659 0 -0.12736410167423581 -0.1213878944680517 0 -0.14737054533773081 -0.1208951937003558 0 -0.1169630623746598 -0.14907522687480429 0 -0.13746664940214659 -0.13470709103134659 0 -0.12736410167423581 -0.1213878944680517 0 -0.1569759497016511 -0.14808982533941309 0 -0.14737054533773081 -0.1208951937003558 0 -0.13746664940214659 -0.13470709103134659 0 -0.1569759497016511 -0.14808982533941309 0 -0.14737054533773081 -0.1208951937003558 0 -0.1369695060381555 -0.1485825261071109 0 -0.1526603788815559 -0.1573596194762775 0 -0.1569759497016511 -0.14808982533941309 0 -0.13746664940214659 -0.13470709103134659 0 -0.1369695060381555 -0.1485825261071109 0 -0.1569759497016511 -0.14808982533941309 0 -0.1369695060381555 -0.1485825261071109 0 -0.1569759497016511 -0.14808982533941309 0 -0.1169630623746598 -0.14907522687480429 0 -0.1369695060381555 -0.1485825261071109 0 -0.1169630623746598 -0.14907522687480429 0 -0.1369695060381555 -0.1485825261071109 0 -0.12588679133122799 -0.1624874708491951 0 -0.1169630623746598 -0.14907522687480429 0 -0.13746664940214659 -0.13470709103134659 0 -0.1369695060381555 -0.1485825261071109 0 -0.11859204859796291 -0.17560578940816099 0 -0.12588679133122799 -0.1624874708491951 0 -0.13147554750711021 -0.17522771154146191 0 -0.12588679133122799 -0.1624874708491951 0 -0.13147554750711021 -0.17522771154146191 0 -0.14107140235061469 -0.16358211752318311 0 -0.13147554750711021 -0.17522771154146191 0 -0.14520517551865919 -0.17294749126987599 0 -0.14107140235061469 -0.16358211752318311 0 -0.1369695060381555 -0.1485825261071109 0 -0.12588679133122799 -0.1624874708491951 0 -0.14107140235061469 -0.16358211752318311 0 -0.11859204859796291 -0.17560578940816099 0 -0.13147554750711021 -0.17522771154146191 0 -0.1280127438194481 -0.19237656196114411 0 -0.13147554750711021 -0.17522771154146191 0 -0.1398254013782112 -0.18365029146927231 0 -0.1280127438194481 -0.19237656196114411 0 -0.13147554750711021 -0.17522771154146191 0 -0.1398254013782112 -0.18365029146927231 0 -0.14520517551865919 -0.17294749126987599 0 -0.1398254013782112 -0.18365029146927231 0 -0.14820117369214661 -0.18035874543477601 0 -0.1498687104188495 -0.18767128888863599 0 -0.1398254013782112 -0.18365029146927231 0 -0.14820117369214661 -0.18035874543477601 0 -0.14520517551865919 -0.17294749126987599 0 -0.14820117369214661 -0.18035874543477601 0 -0.14520517551865919 -0.17294749126987599 0 -0.1568216795970071 -0.17538216601134321 0 -0.14820117369214661 -0.18035874543477601 0 -0.15608754076248521 -0.18190001438557629 0 -0.1568216795970071 -0.17538216601134321 0 -0.14520517551865919 -0.17294749126987599 0 -0.15263532751206779 -0.16758471640843459 0 -0.1568216795970071 -0.17538216601134321 0 -0.14820117369214661 -0.18035874543477601 0 -0.15608754076248521 -0.18190001438557629 0 -0.1498687104188495 -0.18767128888863599 0 -0.15608754076248521 -0.18190001438557629 0 -0.1607184616130248 -0.18728683910860641 0 -0.1498687104188495 -0.18767128888863599 0 -0.1369695060381555 -0.1485825261071109 0 -0.14107140235061469 -0.16358211752318311 0 -0.1526603788815559 -0.1573596194762775 0 -0.14520517551865919 -0.17294749126987599 0 -0.14107140235061469 -0.16358211752318311 0 -0.15263532751206779 -0.16758471640843459 0 -0.15263532751206779 -0.16758471640843459 0 -0.1526603788815559 -0.1573596194762775 0 -0.16142564196989831 -0.16655703171874039 0 -0.14107140235061469 -0.16358211752318311 0 -0.15263532751206779 -0.16758471640843459 0 -0.1526603788815559 -0.1573596194762775 0 -0.1526603788815559 -0.1573596194762775 0 -0.16142564196989831 -0.16655703171874039 0 -0.16326087804426159 -0.16588359066980229 0 -0.16326087804426159 -0.16588359066980229 0 -0.1569759497016511 -0.14808982533941309 0 -0.1526603788815559 -0.1573596194762775 0 -0.16326087804426159 -0.16588359066980229 0 -0.1569759497016511 -0.14808982533941309 0 -0.1594122663447772 -0.17133307891758459 0 -0.16142564196989831 -0.16655703171874039 0 -0.16676641630013581 -0.17580840153182001 0 -0.15263532751206779 -0.16758471640843459 0 -0.1594122663447772 -0.17133307891758459 0 -0.16142564196989831 -0.16655703171874039 0 -0.16142564196989831 -0.16655703171874039 0 -0.16326087804426159 -0.16588359066980229 0 -0.16676641630013581 -0.17580840153182001 0 -0.15263532751206779 -0.16758471640843459 0 -0.1594122663447772 -0.17133307891758459 0 -0.1568216795970071 -0.17538216601134321 0 -0.16142564196989831 -0.16655703171874039 0 -0.16326087804426159 -0.16588359066980229 0 -0.16326087804426159 -0.16588359066980229 0 -0.16676641630013581 -0.17580840153182001 0 -0.1783922457352059 -0.17293489930968209 0 -0.16326087804426159 -0.16588359066980229 0 -0.16676641630013581 -0.17580840153182001 0 -0.15608754076248521 -0.18190001438557629 0 -0.1607184616130248 -0.18728683910860641 0 -0.16676641630013581 -0.17580840153182001 0 -0.15608754076248521 -0.18190001438557629 0 -0.1568216795970071 -0.17538216601134321 0 -0.16676641630013581 -0.17580840153182001 0 -0.1594122663447772 -0.17133307891758459 0 -0.1568216795970071 -0.17538216601134321 0 -0.16676641630013581 -0.17580840153182001 0 -0.1607184616130248 -0.18728683910860641 0 -0.16676641630013581 -0.17580840153182001 0 -0.17547527524387041 -0.1884338249559952 0 -0.17547527524387041 -0.1884338249559952 0 -0.1969820185962792 -0.17828497948479149 0 -0.1783922457352059 -0.17293489930968209 0 -0.17547527524387041 -0.1884338249559952 0 -0.1969820185962792 -0.17828497948479149 0 -0.16676641630013581 -0.17580840153182001 0 -0.1783922457352059 -0.17293489930968209 0 -0.17547527524387041 -0.1884338249559952 0 -0.16326087804426159 -0.16588359066980229 0 -0.18947664049148261 -0.1562636999060015 0 -0.16326087804426159 -0.16588359066980229 0 -0.18633417632017751 -0.14736681724080919 0 -0.18947664049148261 -0.1562636999060015 0 -0.16326087804426159 -0.16588359066980229 0 -0.1783922457352059 -0.17293489930968209 0 -0.18947664049148261 -0.1562636999060015 0 -0.18633417632017751 -0.14736681724080919 0 -0.16621773075288121 -0.1295318635244681 0 -0.18400621351090571 -0.1217110611121094 0 -0.16621773075288121 -0.1295318635244681 0 -0.1569759497016511 -0.14808982533941309 0 -0.14737054533773081 -0.1208951937003558 0 -0.18633417632017751 -0.14736681724080919 0 -0.16621773075288121 -0.1295318635244681 0 -0.1569759497016511 -0.14808982533941309 0 -0.18633417632017751 -0.14736681724080919 0 -0.1569759497016511 -0.14808982533941309 0 -0.16326087804426159 -0.16588359066980229 0 -0.18633417632017751 -0.14736681724080919 0 -0.1569759497016511 -0.14808982533941309 0 -0.1377523016625678 -0.25581657194563601 0 -0.15263230708737521 -0.24356194903458239 0 -0.13476861079800859 -0.2391754021203874 0 -0.15263230708737521 -0.24356194903458239 0 -0.13476861079800859 -0.2391754021203874 0 -0.14055595197029169 -0.22979662500526149 0 -0.1377523016625678 -0.25581657194563601 0 -0.1223681628105569 -0.24044891992886891 0 -0.13476861079800859 -0.2391754021203874 0 -0.1377523016625678 -0.25581657194563601 0 -0.1223681628105569 -0.24044891992886891 0 -0.1238233973506119 -0.23541481827178831 0 -0.13476861079800859 -0.2391754021203874 0 -0.13139441447274411 -0.22962184130071481 0 -0.1223681628105569 -0.24044891992886891 0 -0.1238233973506119 -0.23541481827178831 0 -0.13476861079800859 -0.2391754021203874 0 -0.13476861079800859 -0.2391754021203874 0 -0.14055595197029169 -0.22979662500526149 0 -0.13139441447274411 -0.22962184130071481 0 -0.12407830270498089 -0.22426790937284519 0 -0.1238233973506119 -0.23541481827178831 0 -0.13139441447274411 -0.22962184130071481 0 -0.12407830270498089 -0.22426790937284519 0 -0.13139441447274411 -0.22962184130071481 0 -0.13441394179160859 -0.22010184774946731 0 -0.14055595197029169 -0.22979662500526149 0 -0.13139441447274411 -0.22962184130071481 0 -0.13441394179160859 -0.22010184774946731 0 -0.14055595197029169 -0.22979662500526149 0 -0.13441394179160859 -0.22010184774946731 0 -0.14940536450650499 -0.21373664043116339 0 -0.15263230708737521 -0.24356194903458239 0 -0.14940536450650499 -0.21373664043116339 0 -0.15263230708737521 -0.24356194903458239 0 -0.14940536450650499 -0.21373664043116339 0 -0.16621803193972459 -0.22739125443424221 0 -0.15263230708737521 -0.24356194903458239 0 -0.14055595197029169 -0.22979662500526149 0 -0.14940536450650499 -0.21373664043116339 0 -0.14940536450650499 -0.21373664043116339 0 -0.13246178853905299 -0.20873151589840269 0 -0.1539685318914617 -0.1985826704271989 0 -0.13246178853905299 -0.20873151589840269 0 -0.1539685318914617 -0.1985826704271989 0 -0.13441394179160859 -0.22010184774946731 0 -0.14940536450650499 -0.21373664043116339 0 -0.13246178853905299 -0.20873151589840269 0 -0.12407830270498089 -0.22426790937284519 0 -0.13441394179160859 -0.22010184774946731 0 -0.13246178853905299 -0.20873151589840269 0 -0.1178174188303993 -0.20556040013348681 0 -0.13246178853905299 -0.20873151589840269 0 -0.1280127438194481 -0.19237656196114411 0 -0.13246178853905299 -0.20873151589840269 0 -0.1280127438194481 -0.19237656196114411 0 -0.14041115317576749 -0.19424917250638599 0 -0.1398254013782112 -0.18365029146927231 0 -0.1280127438194481 -0.19237656196114411 0 -0.14041115317576749 -0.19424917250638599 0 -0.13246178853905299 -0.20873151589840269 0 -0.14041115317576749 -0.19424917250638599 0 -0.1539685318914617 -0.1985826704271989 0 -0.14041115317576749 -0.19424917250638599 0 -0.1539685318914617 -0.1985826704271989 0 -0.1498687104188495 -0.18767128888863599 0 -0.1398254013782112 -0.18365029146927231 0 -0.14041115317576749 -0.19424917250638599 0 -0.1498687104188495 -0.18767128888863599 0 -0.1607184616130248 -0.18728683910860641 0 -0.1539685318914617 -0.1985826704271989 0 -0.1498687104188495 -0.18767128888863599 0 -0.1607184616130248 -0.18728683910860641 0 -0.1539685318914617 -0.1985826704271989 0 -0.17547527524387041 -0.1884338249559952 0 -0.1539685318914617 -0.1985826704271989 0 -0.17547527524387041 -0.1884338249559952 0 -0.16825702714884239 -0.20885775366498019 0 -0.1539685318914617 -0.1985826704271989 0 -0.17547527524387041 -0.1884338249559952 0 -0.17547527524387041 -0.1884338249559952 0 -0.18277425339256639 -0.2026996383603622 0 -0.16825702714884239 -0.20885775366498019 0 -0.17547527524387041 -0.1884338249559952 0 -0.18277425339256639 -0.2026996383603622 0 -0.1902080517791363 -0.1917922864575213 0 -0.18277425339256639 -0.2026996383603622 0 -0.16825702714884239 -0.20885775366498019 0 -0.18626938338499441 -0.22517712183416291 0 -0.14940536450650499 -0.21373664043116339 0 -0.1539685318914617 -0.1985826704271989 0 -0.16825702714884239 -0.20885775366498019 0 -0.14940536450650499 -0.21373664043116339 0 -0.16825702714884239 -0.20885775366498019 0 -0.16621803193972459 -0.22739125443424221 0 -0.16825702714884239 -0.20885775366498019 0 -0.16621803193972459 -0.22739125443424221 0 -0.18626938338499441 -0.22517712183416291 0 -0.16621803193972459 -0.22739125443424221 0 -0.18626938338499441 -0.22517712183416291 0 -0.1745260775709061 -0.24562280720632229 0 -0.18626938338499441 -0.22517712183416291 0 -0.1745260775709061 -0.24562280720632229 0 -0.19988453840298659 -0.24176205441804 0 -0.18626938338499441 -0.22517712183416291 0 -0.1745260775709061 -0.24562280720632229 0 -0.15263230708737521 -0.24356194903458239 0 -0.16621803193972459 -0.22739125443424221 0 -0.1745260775709061 -0.24562280720632229 0 -0.1689202540561075 -0.25519621835756329 0 -0.15263230708737521 -0.24356194903458239 0 -0.1745260775709061 -0.24562280720632229 0 -0.21854221021918649 -0.25236034283526498 0 -0.19988453840298659 -0.24176205441804 0 -0.21493562756427159 -0.22243862284749449 0 -0.19160736129165659 -0.25262396586623759 0 -0.1745260775709061 -0.24562280720632229 0 -0.19988453840298659 -0.24176205441804 0 -0.18626938338499441 -0.22517712183416291 0 -0.19988453840298659 -0.24176205441804 0 -0.21493562756427159 -0.22243862284749449 0 -0.21493562756427159 -0.22243862284749449 0 -0.19801268919908249 -0.2047314364620034 0 -0.21541309520260529 -0.20113031717637361 0 -0.18626938338499441 -0.22517712183416291 0 -0.19801268919908249 -0.2047314364620034 0 -0.18277425339256639 -0.2026996383603622 0 -0.18626938338499441 -0.22517712183416291 0 -0.19801268919908249 -0.2047314364620034 0 -0.18626938338499441 -0.22517712183416291 0 -0.21493562756427159 -0.22243862284749449 0 -0.19801268919908249 -0.2047314364620034 0 -0.19801268919908249 -0.2047314364620034 0 -0.1902080517791363 -0.1917922864575213 0 -0.20975599501317069 -0.18428575108984399 0 -0.18277425339256639 -0.2026996383603622 0 -0.19801268919908249 -0.2047314364620034 0 -0.1902080517791363 -0.1917922864575213 0 -0.21541309520260529 -0.20113031717637361 0 -0.20975599501317069 -0.18428575108984399 0 -0.229896455205026 -0.18225842567294781 0 -0.19801268919908249 -0.2047314364620034 0 -0.21541309520260529 -0.20113031717637361 0 -0.20975599501317069 -0.18428575108984399 0 -0.19801268919908249 -0.2047314364620034 0 -0.20975599501317069 -0.18428575108984399 0 -0.21541309520260529 -0.20113031717637361 0 -0.23384346774119599 -0.2034651679104556 0 -0.229896455205026 -0.18225842567294781 0 -0.24262172765942899 -0.19089247064050549 0 -0.25644706280453389 -0.1995927939493197 0 -0.25029992488695979 -0.1782534950292988 0 -0.24262172765942899 -0.19089247064050549 0 -0.23384346774119599 -0.2034651679104556 0 -0.25644706280453389 -0.1995927939493197 0 -0.24262172765942899 -0.19089247064050549 0 -0.23384346774119599 -0.2034651679104556 0 -0.229896455205026 -0.18225842567294781 0 -0.23384346774119599 -0.2034651679104556 0 -0.2377451423251814 -0.23136366228574551 0 -0.25674041691710447 -0.22108212323078871 0 -0.23384346774119599 -0.2034651679104556 0 -0.25674041691710447 -0.22108212323078871 0 -0.25644706280453389 -0.1995927939493197 0 -0.21493562756427159 -0.22243862284749449 0 -0.21541309520260529 -0.20113031717637361 0 -0.23384346774119599 -0.2034651679104556 0 -0.21493562756427159 -0.22243862284749449 0 -0.23384346774119599 -0.2034651679104556 0 -0.2377451423251814 -0.23136366228574551 0 -0.24465976002352091 -0.25387891845332877 0 -0.2377451423251814 -0.23136366228574551 0 -0.25992972331208369 -0.2410680052130979 0 -0.24465976002352091 -0.25387891845332877 0 -0.21854221021918649 -0.25236034283526498 0 -0.2377451423251814 -0.23136366228574551 0 -0.21854221021918649 -0.25236034283526498 0 -0.21493562756427159 -0.22243862284749449 0 -0.2377451423251814 -0.23136366228574551 0 -0.21854221021918649 -0.25236034283526498 0 -0.2377451423251814 -0.23136366228574551 0 -0.21569240293870359 -0.1466438091422006 0 -0.18947664049148261 -0.1562636999060015 0 -0.2105647825198341 -0.15627799774793921 0 -0.2105647825198341 -0.15627799774793921 0 -0.22149930082725899 -0.1638400657176845 0 -0.22047208921520459 -0.14652609931143951 0 -0.21569240293870359 -0.1466438091422006 0 -0.2105647825198341 -0.15627799774793921 0 -0.22047208921520459 -0.14652609931143951 0 -0.21569240293870359 -0.1466438091422006 0 -0.22047208921520459 -0.14652609931143951 0 -0.20228853596836749 -0.13187567246267581 0 -0.2244809527826766 -0.1321180186971766 0 -0.2129261089666101 -0.1196792574727195 0 -0.21569240293870359 -0.1466438091422006 0 -0.20228853596836749 -0.13187567246267581 0 -0.2244809527826766 -0.1321180186971766 0 -0.18633417632017751 -0.14736681724080919 0 -0.20228853596836749 -0.13187567246267581 0 -0.18400621351090571 -0.1217110611121094 0 -0.21569240293870359 -0.1466438091422006 0 -0.18947664049148261 -0.1562636999060015 0 -0.18633417632017751 -0.14736681724080919 0 -0.21569240293870359 -0.1466438091422006 0 -0.18947664049148261 -0.1562636999060015 0 -0.18633417632017751 -0.14736681724080919 0 -0.21569240293870359 -0.1466438091422006 0 -0.18633417632017751 -0.14736681724080919 0 -0.21569240293870359 -0.1466438091422006 0 -0.20228853596836749 -0.13187567246267581 0 -0.1783922457352059 -0.17293489930968209 0 -0.18947664049148261 -0.1562636999060015 0 -0.1969820185962792 -0.17828497948479149 0 -0.18947664049148261 -0.1562636999060015 0 -0.1969820185962792 -0.17828497948479149 0 -0.20568347912652049 -0.16811631466237001 0 -0.18947664049148261 -0.1562636999060015 0 -0.20568347912652049 -0.16811631466237001 0 -0.2105647825198341 -0.15627799774793921 0 -0.1902080517791363 -0.1917922864575213 0 -0.1969820185962792 -0.17828497948479149 0 -0.20975599501317069 -0.18428575108984399 0 -0.17547527524387041 -0.1884338249559952 0 -0.1902080517791363 -0.1917922864575213 0 -0.1969820185962792 -0.17828497948479149 0 -0.20975599501317069 -0.18428575108984399 0 -0.22149930082725899 -0.1638400657176845 0 -0.20975599501317069 -0.18428575108984399 0 -0.20568347912652049 -0.16811631466237001 0 -0.22149930082725899 -0.1638400657176845 0 -0.1969820185962792 -0.17828497948479149 0 -0.20975599501317069 -0.18428575108984399 0 -0.20568347912652049 -0.16811631466237001 0 -0.20568347912652049 -0.16811631466237001 0 -0.2105647825198341 -0.15627799774793921 0 -0.22149930082725899 -0.1638400657176845 0 -0.22149930082725899 -0.1638400657176845 0 -0.2402834514435094 -0.1667894474332684 0 -0.2341322288468432 -0.15422277024092529 0 -0.22149930082725899 -0.1638400657176845 0 -0.229896455205026 -0.18225842567294781 0 -0.2402834514435094 -0.1667894474332684 0 -0.20975599501317069 -0.18428575108984399 0 -0.22149930082725899 -0.1638400657176845 0 -0.229896455205026 -0.18225842567294781 0 -0.229896455205026 -0.18225842567294781 0 -0.2402834514435094 -0.1667894474332684 0 -0.25029992488695979 -0.1782534950292988 0 -0.24262172765942899 -0.19089247064050549 0 -0.229896455205026 -0.18225842567294781 0 -0.25029992488695979 -0.1782534950292988 0 -0.2402834514435094 -0.1667894474332684 0 -0.25029992488695979 -0.1782534950292988 0 -0.25761979100978533 -0.16665415002795461 0 -0.2402834514435094 -0.1667894474332684 0 -0.24825300788518309 -0.1555077779107997 0 -0.25761979100978533 -0.16665415002795461 0 -0.2402834514435094 -0.1667894474332684 0 -0.24825300788518309 -0.1555077779107997 0 -0.2341322288468432 -0.15422277024092529 0 -0.24825300788518309 -0.1555077779107997 0 -0.2405789555143194 -0.1375116727892334 0 -0.25601133851015478 -0.1487044986697981 0 -0.24825300788518309 -0.1555077779107997 0 -0.2341322288468432 -0.15422277024092529 0 -0.2405789555143194 -0.1375116727892334 0 -0.21569240293870359 -0.1466438091422006 0 -0.22047208921520459 -0.14652609931143951 0 -0.2405789555143194 -0.1375116727892334 0 -0.22149930082725899 -0.1638400657176845 0 -0.2341322288468432 -0.15422277024092529 0 -0.22047208921520459 -0.14652609931143951 0 -0.21569240293870359 -0.1466438091422006 0 -0.2405789555143194 -0.1375116727892334 0 -0.2341322288468432 -0.15422277024092529 0 -0.22047208921520459 -0.14652609931143951 0 -0.2405789555143194 -0.1375116727892334 0 -0.21569240293870359 -0.1466438091422006 0 -0.2244809527826766 -0.1321180186971766 0 -0.2405789555143194 -0.1375116727892334 0 -0.2244809527826766 -0.1321180186971766 0 -0.2405789555143194 -0.1375116727892334 0 -0.23651179230599079 -0.1199754775459997 0 -0.2405789555143194 -0.1375116727892334 0 -0.23651179230599079 -0.1199754775459997 0 -0.25054446979338107 -0.12912519928877991 0 -0.23651179230599079 -0.1199754775459997 0 -0.24959534238117709 -0.1078054475449232 0 -0.26009747564537128 -0.1202716976192799 0 -0.23651179230599079 -0.1199754775459997 0 -0.26009747564537128 -0.1202716976192799 0 -0.23651179230599079 -0.1199754775459997 0 -0.26009747564537128 -0.1202716976192799 0 -0.25054446979338107 -0.12912519928877991 0 -0.23651179230599079 -0.1199754775459997 0 -0.24959534238117709 -0.1078054475449232 0 -0.23746734258601571 -0.1067534300414448 0 -0.24098124084432149 -0.095291905336151436 0 -0.23746734258601571 -0.1067534300414448 0 -0.22473934926471251 -0.1042306158888877 0 -0.24959534238117709 -0.1078054475449232 0 -0.24098124084432149 -0.095291905336151436 0 -0.25687551172258971 -0.095275519396915032 0 -0.24959534238117709 -0.1078054475449232 0 -0.24098124084432149 -0.095291905336151436 0 -0.23746734258601571 -0.1067534300414448 0 -0.22473934926471251 -0.1042306158888877 0 -0.22774604229393439 -0.087804120453188278 0 -0.20897213189474381 -0.093424031558921927 0 -0.24098124084432149 -0.095291905336151436 0 -0.22473934926471251 -0.1042306158888877 0 -0.22774604229393439 -0.087804120453188278 0 -0.2244809527826766 -0.1321180186971766 0 -0.23651179230599079 -0.1199754775459997 0 -0.2129261089666101 -0.1196792574727195 0 -0.23651179230599079 -0.1199754775459997 0 -0.2129261089666101 -0.1196792574727195 0 -0.23651179230599079 -0.1199754775459997 0 -0.23746734258601571 -0.1067534300414448 0 -0.22473934926471251 -0.1042306158888877 0 -0.23651179230599079 -0.1199754775459997 0 -0.22473934926471251 -0.1042306158888877 0 -0.2129261089666101 -0.1196792574727195 0 -0.2466384096447127 -0.069214282175018252 0 -0.23144064811545881 -0.071679072189906365 0 -0.24006258296416741 -0.059977364163272567 0 -0.2466384096447127 -0.069214282175018252 0 -0.23867713564867771 -0.0818228939715063 0 -0.25106785873748549 -0.083001848322642804 0 -0.2466384096447127 -0.069214282175018252 0 -0.23867713564867771 -0.0818228939715063 0 -0.23144064811545881 -0.071679072189906365 0 -0.24098124084432149 -0.095291905336151436 0 -0.25106785873748549 -0.083001848322642804 0 -0.25687551172258971 -0.095275519396915032 0 -0.24098124084432149 -0.095291905336151436 0 -0.23867713564867771 -0.0818228939715063 0 -0.25106785873748549 -0.083001848322642804 0 -0.24098124084432149 -0.095291905336151436 0 -0.23867713564867771 -0.0818228939715063 0 -0.22774604229393439 -0.087804120453188278 0 -0.22048160989483939 -0.080833284582646742 0 -0.22774604229393439 -0.087804120453188278 0 -0.23144064811545881 -0.071679072189906365 0 -0.23867713564867771 -0.0818228939715063 0 -0.22774604229393439 -0.087804120453188278 0 -0.23144064811545881 -0.071679072189906365 0 -0.22048160989483939 -0.080833284582646742 0 -0.22774604229393439 -0.087804120453188278 0 -0.20897213189474381 -0.093424031558921927 0 -0.23144064811545881 -0.071679072189906365 0 -0.2137676172752207 -0.070425914128570383 0 -0.21856310265569601 -0.047427796698218422 0 -0.22048160989483939 -0.080833284582646742 0 -0.23144064811545881 -0.071679072189906365 0 -0.2137676172752207 -0.070425914128570383 0 -0.23144064811545881 -0.071679072189906365 0 -0.23092663332862359 -0.057189961691847993 0 -0.24006258296416741 -0.059977364163272567 0 -0.20335705558913081 -0.063140738221072371 0 -0.2137676172752207 -0.070425914128570383 0 -0.20224544779007569 -0.076575791796341275 0 -0.2137676172752207 -0.070425914128570383 0 -0.20897213189474381 -0.093424031558921927 0 -0.20224544779007569 -0.076575791796341275 0 -0.2137676172752207 -0.070425914128570383 0 -0.20897213189474381 -0.093424031558921927 0 -0.22048160989483939 -0.080833284582646742 0 -0.2137676172752207 -0.070425914128570383 0 -0.20897213189474381 -0.093424031558921927 0 -0.20897213189474381 -0.093424031558921927 0 -0.18864483179057751 -0.079783658531738119 0 -0.20224544779007569 -0.076575791796341275 0 -0.20897213189474381 -0.093424031558921927 0 -0.18864483179057751 -0.079783658531738119 0 -0.1843208979706715 -0.098582101900239388 0 -0.20335705558913081 -0.063140738221072371 0 -0.18864483179057751 -0.079783658531738119 0 -0.20224544779007569 -0.076575791796341275 0 -0.20335705558913081 -0.063140738221072371 0 -0.18864483179057751 -0.079783658531738119 0 -0.20335705558913081 -0.063140738221072371 0 -0.18864483179057751 -0.079783658531738119 0 -0.18476368522970901 -0.060313507398174523 0 -0.22473934926471251 -0.1042306158888877 0 -0.2129261089666101 -0.1196792574727195 0 -0.1994025973422491 -0.10829052452779669 0 -0.20228853596836749 -0.13187567246267581 0 -0.2129261089666101 -0.1196792574727195 0 -0.1994025973422491 -0.10829052452779669 0 -0.22473934926471251 -0.1042306158888877 0 -0.20897213189474381 -0.093424031558921927 0 -0.1994025973422491 -0.10829052452779669 0 -0.20897213189474381 -0.093424031558921927 0 -0.1994025973422491 -0.10829052452779669 0 -0.1843208979706715 -0.098582101900239388 0 -0.20228853596836749 -0.13187567246267581 0 -0.1994025973422491 -0.10829052452779669 0 -0.18400621351090571 -0.1217110611121094 0 -0.1994025973422491 -0.10829052452779669 0 -0.18400621351090571 -0.1217110611121094 0 -0.1843208979706715 -0.098582101900239388 0 -0.16621773075288121 -0.1295318635244681 0 -0.18400621351090571 -0.1217110611121094 0 -0.16647442841019139 -0.11035058163789351 0 -0.18400621351090571 -0.1217110611121094 0 -0.16647442841019139 -0.11035058163789351 0 -0.1843208979706715 -0.098582101900239388 0 -0.16621773075288121 -0.1295318635244681 0 -0.16647442841019139 -0.11035058163789351 0 -0.14737054533773081 -0.1208951937003558 0 -0.16647442841019139 -0.11035058163789351 0 -0.16521255597131029 -0.094363556792246006 0 -0.15171862691764881 -0.097019712797942706 0 -0.16647442841019139 -0.11035058163789351 0 -0.16521255597131029 -0.094363556792246006 0 -0.1843208979706715 -0.098582101900239388 0 -0.16521255597131029 -0.094363556792246006 0 -0.1843208979706715 -0.098582101900239388 0 -0.1718657805157274 -0.077566403117392158 0 -0.18864483179057751 -0.079783658531738119 0 -0.1843208979706715 -0.098582101900239388 0 -0.1718657805157274 -0.077566403117392158 0 -0.18864483179057751 -0.079783658531738119 0 -0.1718657805157274 -0.077566403117392158 0 -0.18476368522970901 -0.060313507398174523 0 -0.1718657805157274 -0.077566403117392158 0 -0.16766997596840549 -0.055069670457126463 0 -0.18476368522970901 -0.060313507398174523 0 -0.1718657805157274 -0.077566403117392158 0 -0.1555984100513392 -0.067553704814911478 0 -0.16766997596840549 -0.055069670457126463 0 -0.1718657805157274 -0.077566403117392158 0 -0.15451520526235171 -0.083858215916353424 0 -0.1555984100513392 -0.067553704814911478 0 -0.16521255597131029 -0.094363556792246006 0 -0.1718657805157274 -0.077566403117392158 0 -0.15451520526235171 -0.083858215916353424 0 -0.16521255597131029 -0.094363556792246006 0 -0.15451520526235171 -0.083858215916353424 0 -0.15171862691764881 -0.097019712797942706 0 -0.15451520526235171 -0.083858215916353424 0 -0.14334301715898221 -0.074859018030624863 0 -0.13903100861317999 -0.090330850909877913 0 -0.15451520526235171 -0.083858215916353424 0 -0.13903100861317999 -0.090330850909877913 0 -0.15171862691764881 -0.097019712797942706 0 -0.1377651409738101 -0.093700562061298426 0 -0.13903100861317999 -0.090330850909877913 0 -0.15171862691764881 -0.097019712797942706 0 -0.15451520526235171 -0.083858215916353424 0 -0.1555984100513392 -0.067553704814911478 0 -0.14334301715898221 -0.074859018030624863 0 -0.1555984100513392 -0.067553704814911478 0 -0.14334301715898221 -0.074859018030624863 0 -0.13945189113323761 -0.059806177835795588 0 -0.14334301715898221 -0.074859018030624863 0 -0.12930964035960699 -0.069761515268982097 0 -0.13945189113323761 -0.059806177835795588 0 -0.12930964035960699 -0.069761515268982097 0 -0.1377651409738101 -0.093700562061298426 0 -0.12930964035960699 -0.069761515268982097 0 -0.1377651409738101 -0.093700562061298426 0 -0.13903100861317999 -0.090330850909877913 0 -0.1189291253072135 -0.086669643832799348 0 -0.12930964035960699 -0.069761515268982097 0 -0.1377651409738101 -0.093700562061298426 0 -0.14334301715898221 -0.074859018030624863 0 -0.12930964035960699 -0.069761515268982097 0 -0.13903100861317999 -0.090330850909877913 0 -0.1377651409738101 -0.093700562061298426 0 -0.13903100861317999 -0.090330850909877913 0 -0.11893842975153809 -0.10446969177473921 0 -0.1377651409738101 -0.093700562061298426 0 -0.12736410167423581 -0.1213878944680517 0 -0.1377651409738101 -0.093700562061298426 0 -0.12736410167423581 -0.1213878944680517 0 -0.11893842975153809 -0.10446969177473921 0 -0.1189291253072135 -0.086669643832799348 0 -0.1377651409738101 -0.093700562061298426 0 -0.1377651409738101 -0.093700562061298426 0 -0.12736410167423581 -0.1213878944680517 0 -0.14737054533773081 -0.1208951937003558 0 -0.16647442841019139 -0.11035058163789351 0 -0.14737054533773081 -0.1208951937003558 0 -0.15171862691764881 -0.097019712797942706 0 -0.1377651409738101 -0.093700562061298426 0 -0.14737054533773081 -0.1208951937003558 0 -0.15171862691764881 -0.097019712797942706 0 -0.1377651409738101 -0.093700562061298426 0 -0.14737054533773081 -0.1208951937003558 0 -0.14925834278157041 -0.027771983247297551 0 -0.15381676672243971 -0.0048344028756085976 0 -0.16158573310271521 -0.019122381719964599 0 -0.14925834278157041 -0.027771983247297551 0 -0.15381676672243971 -0.0048344028756085976 0 -0.14925834278157041 -0.027771983247297551 0 -0.13622810944285851 -0.025664644749336048 0 -0.13728148428220571 -0.03631729474545041 0 -0.15381676672243971 -0.0048344028756085976 0 -0.13373576905839379 -0.01378162565115138 0 -0.13796817939809339 -7.5853332940862265e-05 0 -0.14925834278157041 -0.027771983247297551 0 -0.15381676672243971 -0.0048344028756085976 0 -0.13373576905839379 -0.01378162565115138 0 -0.1244522405185825 -0.00038769298458709092 0 -0.1246368416492639 -0.024787675353444869 0 -0.13373576905839379 -0.01378162565115138 0 -0.1244522405185825 -0.00038769298458709092 0 -0.13373576905839379 -0.01378162565115138 0 -0.13796817939809339 -7.5853332940862265e-05 0 -0.1244522405185825 -0.00038769298458709092 0 -0.13373576905839379 -0.01378162565115138 0 -0.1246368416492639 -0.024787675353444869 0 -0.13373576905839379 -0.01378162565115138 0 -0.13622810944285851 -0.025664644749336048 0 -0.14925834278157041 -0.027771983247297551 0 -0.13373576905839379 -0.01378162565115138 0 -0.13622810944285851 -0.025664644749336048 0 -0.1246368416492639 -0.024787675353444869 0 -0.13622810944285851 -0.025664644749336048 0 -0.13728148428220571 -0.03631729474545041 0 -0.1248214427799455 -0.0491876577223027 0 -0.1246368416492639 -0.024787675353444869 0 -0.13067566527459321 -0.039597081228004503 0 -0.1246368416492639 -0.024787675353444869 0 -0.13067566527459321 -0.039597081228004503 0 -0.13728148428220571 -0.03631729474545041 0 -0.1248214427799455 -0.0491876577223027 0 -0.13067566527459321 -0.039597081228004503 0 -0.1359628923869578 -0.048095697090820053 0 -0.13067566527459321 -0.039597081228004503 0 -0.13728148428220571 -0.03631729474545041 0 -0.1359628923869578 -0.048095697090820053 0 -0.13728148428220571 -0.03631729474545041 0 -0.1359628923869578 -0.048095697090820053 0 -0.14767594406259391 -0.049379474087132447 0 -0.1248214427799455 -0.0491876577223027 0 -0.12930964035960699 -0.069761515268982097 0 -0.13945189113323761 -0.059806177835795588 0 -0.1208541397454049 -0.045822468476665427 0 -0.12930964035960699 -0.069761515268982097 0 -0.1248214427799455 -0.0491876577223027 0 -0.1359628923869578 -0.048095697090820053 0 -0.13945189113323761 -0.059806177835795588 0 -0.1555984100513392 -0.067553704814911478 0 -0.13945189113323761 -0.059806177835795588 0 -0.14767594406259391 -0.049379474087132447 0 -0.1359628923869578 -0.048095697090820053 0 -0.13945189113323761 -0.059806177835795588 0 -0.14767594406259391 -0.049379474087132447 0 -0.14925834278157041 -0.027771983247297551 0 -0.14767594406259391 -0.049379474087132447 0 -0.16346190388351911 -0.035477368974388322 0 -0.14925834278157041 -0.027771983247297551 0 -0.13728148428220571 -0.03631729474545041 0 -0.14767594406259391 -0.049379474087132447 0 -0.14767594406259391 -0.049379474087132447 0 -0.16346190388351911 -0.035477368974388322 0 -0.16766997596840549 -0.055069670457126463 0 -0.16346190388351911 -0.035477368974388322 0 -0.16766997596840549 -0.055069670457126463 0 -0.1792130821544009 -0.041655239440509813 0 -0.1555984100513392 -0.067553704814911478 0 -0.14767594406259391 -0.049379474087132447 0 -0.16766997596840549 -0.055069670457126463 0 -0.16766997596840549 -0.055069670457126463 0 -0.18476368522970901 -0.060313507398174523 0 -0.1792130821544009 -0.041655239440509813 0 -0.18476368522970901 -0.060313507398174523 0 -0.1792130821544009 -0.041655239440509813 0 -0.19607578221694649 -0.043845816873478577 0 -0.16346190388351911 -0.035477368974388322 0 -0.1792130821544009 -0.041655239440509813 0 -0.1747539590121796 -0.02148713112583673 0 -0.1792130821544009 -0.041655239440509813 0 -0.1747539590121796 -0.02148713112583673 0 -0.18874747204970219 -0.028974905836781941 0 -0.1747539590121796 -0.02148713112583673 0 -0.18814241231787171 -0.014961103822567131 0 -0.18874747204970219 -0.028974905836781941 0 -0.14925834278157041 -0.027771983247297551 0 -0.16346190388351911 -0.035477368974388322 0 -0.16158573310271521 -0.019122381719964599 0 -0.16346190388351911 -0.035477368974388322 0 -0.1747539590121796 -0.02148713112583673 0 -0.16158573310271521 -0.019122381719964599 0 -0.1747539590121796 -0.02148713112583673 0 -0.16158573310271521 -0.019122381719964599 0 -0.1670666400728934 -0.0075955490013497832 0 -0.15381676672243971 -0.0048344028756085976 0 -0.1670666400728934 -0.0075955490013497832 0 -0.16872927738725291 0.0066655648670224509 0 -0.15381676672243971 -0.0048344028756085976 0 -0.16158573310271521 -0.019122381719964599 0 -0.1670666400728934 -0.0075955490013497832 0 -0.1670666400728934 -0.0075955490013497832 0 -0.1785064095432054 -0.0066611219507198768 0 -0.16872927738725291 0.0066655648670224509 0 -0.1747539590121796 -0.02148713112583673 0 -0.1670666400728934 -0.0075955490013497832 0 -0.1785064095432054 -0.0066611219507198768 0 -0.1747539590121796 -0.02148713112583673 0 -0.1785064095432054 -0.0066611219507198768 0 -0.18814241231787171 -0.014961103822567131 0 -0.1785064095432054 -0.0066611219507198768 0 -0.18814241231787171 -0.014961103822567131 0 -0.193034969706537 0.00064734206737222756 0 -0.20555212454711219 -0.022925237921517471 0 -0.20993853639106591 -0.0035380738047605968 0 -0.193034969706537 0.00064734206737222756 0 -0.18814241231787171 -0.014961103822567131 0 -0.20555212454711219 -0.022925237921517471 0 -0.193034969706537 0.00064734206737222756 0 -0.20555212454711219 -0.022925237921517471 0 -0.193034969706537 0.00064734206737222756 0 -0.20993853639106591 -0.0035380738047605968 0 -0.193034969706537 0.00064734206737222756 0 -0.18814241231787171 -0.014961103822567131 0 -0.18874747204970219 -0.028974905836781941 0 -0.20555212454711219 -0.022925237921517471 0 -0.20555212454711219 -0.022925237921517471 0 -0.21630961893328751 -0.01519709454307171 0 -0.22290571171937651 -0.026601576769118469 0 -0.20993853639106591 -0.0035380738047605968 0 -0.22684210307559549 -0.0077234896768903086 0 -0.21568563774484731 0.0082874278720449449 0 -0.20993853639106591 -0.0035380738047605968 0 -0.21630961893328751 -0.01519709454307171 0 -0.22684210307559549 -0.0077234896768903086 0 -0.20555212454711219 -0.022925237921517471 0 -0.20993853639106591 -0.0035380738047605968 0 -0.21630961893328751 -0.01519709454307171 0 -0.20993853639106591 -0.0035380738047605968 0 -0.22684210307559549 -0.0077234896768903086 0 -0.20335705558913081 -0.063140738221072371 0 -0.18476368522970901 -0.060313507398174523 0 -0.19607578221694649 -0.043845816873478577 0 -0.1792130821544009 -0.041655239440509813 0 -0.18874747204970219 -0.028974905836781941 0 -0.19607578221694649 -0.043845816873478577 0 -0.18874747204970219 -0.028974905836781941 0 -0.20555212454711219 -0.022925237921517471 0 -0.19607578221694649 -0.043845816873478577 0 -0.20555212454711219 -0.022925237921517471 0 -0.21856310265569601 -0.047427796698218422 0 -0.20555212454711219 -0.022925237921517471 0 -0.21856310265569601 -0.047427796698218422 0 -0.21896932036315811 -0.045479663861346789 0 -0.20555212454711219 -0.022925237921517471 0 -0.19607578221694649 -0.043845816873478577 0 -0.21856310265569601 -0.047427796698218422 0 -0.20555212454711219 -0.022925237921517471 0 -0.21896932036315811 -0.045479663861346789 0 -0.22290571171937651 -0.026601576769118469 0 -0.2137676172752207 -0.070425914128570383 0 -0.21856310265569601 -0.047427796698218422 0 -0.20335705558913081 -0.063140738221072371 0 -0.2137676172752207 -0.070425914128570383 0 -0.21856310265569601 -0.047427796698218422 0 -0.20335705558913081 -0.063140738221072371 0 -0.19607578221694649 -0.043845816873478577 0 -0.21856310265569601 -0.047427796698218422 0 -0.20335705558913081 -0.063140738221072371 0 -0.21856310265569601 -0.047427796698218422 0 -0.23144064811545881 -0.071679072189906365 0 -0.21856310265569601 -0.047427796698218422 0 -0.23092663332862359 -0.057189961691847993 0 -0.23144064811545881 -0.071679072189906365 0 -0.21856310265569601 -0.047427796698218422 0 -0.21856310265569601 -0.047427796698218422 0 -0.23092663332862359 -0.057189961691847993 0 -0.22458774444026389 -0.046948698447319907 0 -0.23092663332862359 -0.057189961691847993 0 -0.2320274706224234 -0.04981915803055513 0 -0.23892230415514151 -0.050781370399802413 0 -0.23092663332862359 -0.057189961691847993 0 -0.22458774444026389 -0.046948698447319907 0 -0.2320274706224234 -0.04981915803055513 0 -0.21896932036315811 -0.045479663861346789 0 -0.2306307955349908 -0.032287844280089482 0 -0.22290571171937651 -0.026601576769118469 0 -0.21896932036315811 -0.045479663861346789 0 -0.22290571171937651 -0.026601576769118469 0 -0.22458774444026389 -0.046948698447319907 0 -0.2320274706224234 -0.04981915803055513 0 -0.23529860714157019 -0.041169280456794459 0 -0.22458774444026389 -0.046948698447319907 0 -0.2306307955349908 -0.032287844280089482 0 -0.23529860714157019 -0.041169280456794459 0 -0.22458774444026389 -0.046948698447319907 0 -0.21896932036315811 -0.045479663861346789 0 -0.2306307955349908 -0.032287844280089482 0 -0.21856310265569601 -0.047427796698218422 0 -0.22458774444026389 -0.046948698447319907 0 -0.21896932036315811 -0.045479663861346789 0 -0.21856310265569601 -0.047427796698218422 0 -0.21896932036315811 -0.045479663861346789 0 -0.21896932036315811 -0.045479663861346789 0 -0.2306307955349908 -0.032287844280089482 0 -0.2306307955349908 -0.032287844280089482 0 -0.23529860714157019 -0.041169280456794459 0 -0.241537864008738 -0.030171217790278881 0 -0.24798951326795751 -0.035882587373858313 0 -0.23529860714157019 -0.041169280456794459 0 -0.241537864008738 -0.030171217790278881 0 -0.24798951326795751 -0.035882587373858313 0 -0.24357205858261219 -0.044359355700093257 0 -0.23529860714157019 -0.041169280456794459 0 -0.24798951326795751 -0.035882587373858313 0 -0.24357205858261219 -0.044359355700093257 0 -0.25238491957690051 -0.051022134359787842 0 -0.24357205858261219 -0.044359355700093257 0 -0.23529860714157019 -0.041169280456794459 0 -0.23892230415514151 -0.050781370399802413 0 -0.2466384096447127 -0.069214282175018252 0 -0.24006258296416741 -0.059977364163272567 0 -0.25238491957690051 -0.051022134359787842 0 -0.2320274706224234 -0.04981915803055513 0 -0.23529860714157019 -0.041169280456794459 0 -0.23892230415514151 -0.050781370399802413 0 -0.23892230415514151 -0.050781370399802413 0 -0.24006258296416741 -0.059977364163272567 0 -0.25238491957690051 -0.051022134359787842 0 -0.24357205858261219 -0.044359355700093257 0 -0.23892230415514151 -0.050781370399802413 0 -0.25238491957690051 -0.051022134359787842 0 -0.23092663332862359 -0.057189961691847993 0 -0.23892230415514151 -0.050781370399802413 0 -0.24006258296416741 -0.059977364163272567 0 -0.21630961893328751 -0.01519709454307171 0 -0.22684210307559549 -0.0077234896768903086 0 -0.22290571171937651 -0.026601576769118469 0 -0.22684210307559549 -0.0077234896768903086 0 -0.22290571171937651 -0.026601576769118469 0 -0.23226271327452069 -0.02198020745377605 0 -0.22684210307559549 -0.0077234896768903086 0 -0.22290571171937651 -0.026601576769118469 0 -0.2306307955349908 -0.032287844280089482 0 -0.22290571171937651 -0.026601576769118469 0 -0.23226271327452069 -0.02198020745377605 0 -0.22684210307559549 -0.0077234896768903086 0 -0.23226271327452069 -0.02198020745377605 0 -0.24229227070682269 -0.019096024698831499 0 -0.2306307955349908 -0.032287844280089482 0 -0.241537864008738 -0.030171217790278881 0 -0.24229227070682269 -0.019096024698831499 0 -0.2306307955349908 -0.032287844280089482 0 -0.23226271327452069 -0.02198020745377605 0 -0.24229227070682269 -0.019096024698831499 0 -0.2306307955349908 -0.032287844280089482 0 -0.24229227070682269 -0.019096024698831499 0 -0.24798951326795751 -0.035882587373858313 0 -0.241537864008738 -0.030171217790278881 0 -0.25387676547985721 -0.02452441136234379 0 -0.241537864008738 -0.030171217790278881 0 -0.24229227070682269 -0.019096024698831499 0 -0.25387676547985721 -0.02452441136234379 0 -0.24229227070682269 -0.019096024698831499 0 -0.24826461013585729 -0.013027819984466921 0 -0.25387676547985721 -0.02452441136234379 0 -0.22684210307559549 -0.0077234896768903086 0 -0.24826461013585729 -0.013027819984466921 0 -0.24598119983726671 0.0037338506766126851 0 -0.22684210307559549 -0.0077234896768903086 0 -0.24229227070682269 -0.019096024698831499 0 -0.24826461013585729 -0.013027819984466921 0 -0.22684210307559549 -0.0077234896768903086 0 -0.24826461013585729 -0.013027819984466921 0 -0.24826461013585729 -0.013027819984466921 0 -0.26003022337954462 -0.0038093911555793728 0 -0.24598119983726671 0.0037338506766126851 0 -0.24826461013585729 -0.013027819984466921 0 -0.26003022337954462 -0.0038093911555793728 0 -0.26968711719611937 -0.018332150292041979 0 -0.24826461013585729 -0.013027819984466921 0 -0.26968711719611937 -0.018332150292041979 0 -0.25387676547985721 -0.02452441136234379 0 -0.26968711719611937 -0.018332150292041979 0 -0.26155562347943467 -0.037861138146123199 0 -0.24826461013585729 -0.013027819984466921 0 -0.25387676547985721 -0.02452441136234379 0 -0.26968711719611937 -0.018332150292041979 0 -0.26968711719611937 -0.018332150292041979 0 -0.28953187906397732 -0.034281883787379987 0 -0.27524211720584768 -0.038538427260779863 0 -0.26003022337954462 -0.0038093911555793728 0 -0.26968711719611937 -0.018332150292041979 0 -0.27433688946420332 -0.0007833753365484626 0 -0.26968711719611937 -0.018332150292041979 0 -0.27433688946420332 -0.0007833753365484626 0 -0.28631392786639209 -0.0070506759659385472 0 -0.28631392786639209 -0.0070506759659385472 0 -0.29653674479957171 -0.021015146411400301 0 -0.3025805037907468 -0.0027432771802810229 0 -0.28631392786639209 -0.0070506759659385472 0 -0.3025805037907468 -0.0027432771802810229 0 -0.28842838408131971 0.0076205693905790281 0 -0.27433688946420332 -0.0007833753365484626 0 -0.28631392786639209 -0.0070506759659385472 0 -0.28842838408131971 0.0076205693905790281 0 -0.26968711719611937 -0.018332150292041979 0 -0.28631392786639209 -0.0070506759659385472 0 -0.29653674479957171 -0.021015146411400301 0 -0.26968711719611937 -0.018332150292041979 0 -0.29653674479957171 -0.021015146411400301 0 -0.28953187906397732 -0.034281883787379987 0 -0.29653674479957171 -0.021015146411400301 0 -0.28953187906397732 -0.034281883787379987 0 -0.31718310516035308 -0.038172790333745737 0 -0.29653674479957171 -0.021015146411400301 0 -0.31459326366374579 -0.01532774276474733 0 -0.31718310516035308 -0.038172790333745737 0 -0.29653674479957171 -0.021015146411400301 0 -0.3025805037907468 -0.0027432771802810229 0 -0.31459326366374579 -0.01532774276474733 0 -0.30229462048881822 -0.056161209871372138 0 -0.29850594913894141 -0.055440370537233663 0 -0.30849544073550722 -0.074776909133231664 0 -0.30229462048881822 -0.056161209871372138 0 -0.29366820665513949 -0.048519954280836622 0 -0.31370341578724742 -0.051143824177853653 0 -0.30229462048881822 -0.056161209871372138 0 -0.29850594913894141 -0.055440370537233663 0 -0.29366820665513949 -0.048519954280836622 0 -0.30229462048881822 -0.056161209871372138 0 -0.31629816603535338 -0.060261719535131632 0 -0.30229462048881822 -0.056161209871372138 0 -0.31178497446605258 -0.064623658022855565 0 -0.31629816603535338 -0.060261719535131632 0 -0.30229462048881822 -0.056161209871372138 0 -0.31370341578724742 -0.051143824177853653 0 -0.31629816603535338 -0.060261719535131632 0 -0.29366820665513949 -0.048519954280836622 0 -0.31718310516035308 -0.038172790333745737 0 -0.29366820665513949 -0.048519954280836622 0 -0.31718310516035308 -0.038172790333745737 0 -0.31370341578724742 -0.051143824177853653 0 -0.28953187906397732 -0.034281883787379987 0 -0.29366820665513949 -0.048519954280836622 0 -0.31718310516035308 -0.038172790333745737 0 -0.28953187906397732 -0.034281883787379987 0 -0.29366820665513949 -0.048519954280836622 0 -0.27524211720584768 -0.038538427260779863 0 -0.29366820665513949 -0.048519954280836622 0 -0.27015330814992611 -0.058867118227927437 0 -0.29366820665513949 -0.048519954280836622 0 -0.28660483069534037 -0.061918496488246169 0 -0.27015330814992611 -0.058867118227927437 0 -0.29850594913894141 -0.055440370537233663 0 -0.28660483069534037 -0.061918496488246169 0 -0.29557893925590151 -0.069462416794053169 0 -0.29850594913894141 -0.055440370537233663 0 -0.29366820665513949 -0.048519954280836622 0 -0.28660483069534037 -0.061918496488246169 0 -0.29366820665513949 -0.048519954280836622 0 -0.27015330814992611 -0.058867118227927437 0 -0.27524211720584768 -0.038538427260779863 0 -0.26968711719611937 -0.018332150292041979 0 -0.27524211720584768 -0.038538427260779863 0 -0.26155562347943467 -0.037861138146123199 0 -0.27015330814992611 -0.058867118227927437 0 -0.27524211720584768 -0.038538427260779863 0 -0.26155562347943467 -0.037861138146123199 0 -0.24798951326795751 -0.035882587373858313 0 -0.26155562347943467 -0.037861138146123199 0 -0.25238491957690051 -0.051022134359787842 0 -0.24798951326795751 -0.035882587373858313 0 -0.25387676547985721 -0.02452441136234379 0 -0.26155562347943467 -0.037861138146123199 0 -0.27015330814992611 -0.058867118227927437 0 -0.26155562347943467 -0.037861138146123199 0 -0.25238491957690051 -0.051022134359787842 0 -0.2466384096447127 -0.069214282175018252 0 -0.27015330814992611 -0.058867118227927437 0 -0.25238491957690051 -0.051022134359787842 0 -0.2466384096447127 -0.069214282175018252 0 -0.27015330814992611 -0.058867118227927437 0 -0.26102584033089798 -0.073534373921212107 0 -0.2466384096447127 -0.069214282175018252 0 -0.27015330814992611 -0.058867118227927437 0 -0.2466384096447127 -0.069214282175018252 0 -0.26102584033089798 -0.073534373921212107 0 -0.25106785873748549 -0.083001848322642804 0 -0.25106785873748549 -0.083001848322642804 0 -0.26431637422662529 -0.083961298504163229 0 -0.25687551172258971 -0.095275519396915032 0 -0.26431637422662529 -0.083961298504163229 0 -0.25687551172258971 -0.095275519396915032 0 -0.26922948176741379 -0.094556007429682482 0 -0.26102584033089798 -0.073534373921212107 0 -0.25106785873748549 -0.083001848322642804 0 -0.26431637422662529 -0.083961298504163229 0 -0.26431637422662529 -0.083961298504163229 0 -0.27622487875609619 -0.085738752979791055 0 -0.27411142324960069 -0.07331497732508381 0 -0.26431637422662529 -0.083961298504163229 0 -0.27622487875609619 -0.085738752979791055 0 -0.26922948176741379 -0.094556007429682482 0 -0.27622487875609619 -0.085738752979791055 0 -0.26922948176741379 -0.094556007429682482 0 -0.28208733676033698 -0.099544680508420066 0 -0.27622487875609619 -0.085738752979791055 0 -0.27411142324960069 -0.07331497732508381 0 -0.28634330733871821 -0.075869823829162894 0 -0.28660483069534037 -0.061918496488246169 0 -0.27015330814992611 -0.058867118227927437 0 -0.27411142324960069 -0.07331497732508381 0 -0.27015330814992611 -0.058867118227927437 0 -0.26102584033089798 -0.073534373921212107 0 -0.27411142324960069 -0.07331497732508381 0 -0.26102584033089798 -0.073534373921212107 0 -0.26431637422662529 -0.083961298504163229 0 -0.27411142324960069 -0.07331497732508381 0 -0.24959534238117709 -0.1078054475449232 0 -0.26009747564537128 -0.1202716976192799 0 -0.26511094786836592 -0.1069062435210571 0 -0.24959534238117709 -0.1078054475449232 0 -0.26511094786836592 -0.1069062435210571 0 -0.25687551172258971 -0.095275519396915032 0 -0.26511094786836592 -0.1069062435210571 0 -0.25687551172258971 -0.095275519396915032 0 -0.26922948176741379 -0.094556007429682482 0 -0.26511094786836592 -0.1069062435210571 0 -0.27676276389741278 -0.11052104179975 0 -0.28208733676033698 -0.099544680508420066 0 -0.26511094786836592 -0.1069062435210571 0 -0.26922948176741379 -0.094556007429682482 0 -0.28208733676033698 -0.099544680508420066 0 -0.26511094786836592 -0.1069062435210571 0 -0.28208733676033698 -0.099544680508420066 0 -0.26009747564537128 -0.1202716976192799 0 -0.28368315898475188 -0.1205679176925603 0 -0.26697405985724948 -0.1304210152969853 0 -0.26009747564537128 -0.1202716976192799 0 -0.27676276389741278 -0.11052104179975 0 -0.28368315898475188 -0.1205679176925603 0 -0.26009747564537128 -0.1202716976192799 0 -0.28368315898475188 -0.1205679176925603 0 -0.26009747564537128 -0.1202716976192799 0 -0.26511094786836592 -0.1069062435210571 0 -0.27676276389741278 -0.11052104179975 0 -0.28368315898475188 -0.1205679176925603 0 -0.30807566230962469 -0.12087427087378499 0 -0.28368315898475188 -0.1205679176925603 0 -0.29137344231852969 -0.1063755175941712 0 -0.30807566230962469 -0.12087427087378499 0 -0.27676276389741278 -0.11052104179975 0 -0.28368315898475188 -0.1205679176925603 0 -0.29137344231852969 -0.1063755175941712 0 -0.28368315898475188 -0.1205679176925603 0 -0.29137344231852969 -0.1063755175941712 0 -0.29137344231852969 -0.1063755175941712 0 -0.28208733676033698 -0.099544680508420066 0 -0.29906372565230788 -0.092183117495782341 0 -0.28208733676033698 -0.099544680508420066 0 -0.29906372565230788 -0.092183117495782341 0 -0.27676276389741278 -0.11052104179975 0 -0.29137344231852969 -0.1063755175941712 0 -0.28208733676033698 -0.099544680508420066 0 -0.29137344231852969 -0.1063755175941712 0 -0.29906372565230788 -0.092183117495782341 0 -0.30690970986333499 -0.10413412755240679 0 -0.29906372565230788 -0.092183117495782341 0 -0.31411573014289268 -0.085656035662949492 0 -0.29137344231852969 -0.1063755175941712 0 -0.30690970986333499 -0.10413412755240679 0 -0.29906372565230788 -0.092183117495782341 0 -0.28368315898475188 -0.1205679176925603 0 -0.30807566230962469 -0.12087427087378499 0 -0.30140371581860798 -0.1292511186866305 0 -0.29137344231852969 -0.1063755175941712 0 -0.30690970986333499 -0.10413412755240679 0 -0.30807566230962469 -0.12087427087378499 0 -0.29557893925590151 -0.069462416794053169 0 -0.28634330733871821 -0.075869823829162894 0 -0.29528406594296941 -0.079953964946478426 0 -0.28660483069534037 -0.061918496488246169 0 -0.29557893925590151 -0.069462416794053169 0 -0.28634330733871821 -0.075869823829162894 0 -0.28660483069534037 -0.061918496488246169 0 -0.27411142324960069 -0.07331497732508381 0 -0.28634330733871821 -0.075869823829162894 0 -0.27622487875609619 -0.085738752979791055 0 -0.28634330733871821 -0.075869823829162894 0 -0.28693891673241251 -0.08747755748016231 0 -0.28208733676033698 -0.099544680508420066 0 -0.28693891673241251 -0.08747755748016231 0 -0.29906372565230788 -0.092183117495782341 0 -0.27622487875609619 -0.085738752979791055 0 -0.28208733676033698 -0.099544680508420066 0 -0.28693891673241251 -0.08747755748016231 0 -0.28693891673241251 -0.08747755748016231 0 -0.29528406594296941 -0.079953964946478426 0 -0.29906372565230788 -0.092183117495782341 0 -0.28634330733871821 -0.075869823829162894 0 -0.28693891673241251 -0.08747755748016231 0 -0.29528406594296941 -0.079953964946478426 0 -0.29528406594296941 -0.079953964946478426 0 -0.29906372565230788 -0.092183117495782341 0 -0.30849544073550722 -0.074776909133231664 0 -0.29906372565230788 -0.092183117495782341 0 -0.30849544073550722 -0.074776909133231664 0 -0.29906372565230788 -0.092183117495782341 0 -0.30849544073550722 -0.074776909133231664 0 -0.31411573014289268 -0.085656035662949492 0 -0.29906372565230788 -0.092183117495782341 0 -0.31411573014289268 -0.085656035662949492 0 -0.30849544073550722 -0.074776909133231664 0 -0.31411573014289268 -0.085656035662949492 0 -0.30229462048881822 -0.056161209871372138 0 -0.30849544073550722 -0.074776909133231664 0 -0.31178497446605258 -0.064623658022855565 0 -0.29850594913894141 -0.055440370537233663 0 -0.29557893925590151 -0.069462416794053169 0 -0.30849544073550722 -0.074776909133231664 0 -0.30849544073550722 -0.074776909133231664 0 -0.31286059459191501 -0.066721027791507209 0 -0.29850594913894141 -0.055440370537233663 0 -0.30849544073550722 -0.074776909133231664 0 -0.29557893925590151 -0.069462416794053169 0 -0.29528406594296941 -0.079953964946478426 0 -0.30849544073550722 -0.074776909133231664 0 -0.30849544073550722 -0.074776909133231664 0 -0.31178497446605258 -0.064623658022855565 0 -0.31286059459191501 -0.066721027791507209 0 -0.31178497446605258 -0.064623658022855565 0 -0.31286059459191501 -0.066721027791507209 0 -0.31286059459191501 -0.066721027791507209 0 -0.32103296817657878 -0.082656476452658639 0 -0.31286059459191501 -0.066721027791507209 0 -0.32103296817657878 -0.082656476452658639 0 -0.32352590008436471 -0.062378140209921912 0 -0.31178497446605258 -0.064623658022855565 0 -0.31286059459191501 -0.066721027791507209 0 -0.31629816603535338 -0.060261719535131632 0 -0.30849544073550722 -0.074776909133231664 0 -0.31286059459191501 -0.066721027791507209 0 -0.32103296817657878 -0.082656476452658639 0 -0.31286059459191501 -0.066721027791507209 0 -0.31629816603535338 -0.060261719535131632 0 -0.31286059459191501 -0.066721027791507209 0 -0.31629816603535338 -0.060261719535131632 0 -0.32352590008436471 -0.062378140209921912 0 -0.32103296817657878 -0.082656476452658639 0 -0.33093834944883532 -0.101971145942244 0 -0.30849544073550722 -0.074776909133231664 0 -0.31411573014289268 -0.085656035662949492 0 -0.32103296817657878 -0.082656476452658639 0 -0.31411573014289268 -0.085656035662949492 0 -0.32103296817657878 -0.082656476452658639 0 -0.32329194788869442 -0.1034183298589804 0 -0.31411573014289268 -0.085656035662949492 0 -0.32103296817657878 -0.082656476452658639 0 -0.32103296817657878 -0.082656476452658639 0 -0.33692687914299491 -0.089632102483736459 0 -0.33093834944883532 -0.101971145942244 0 -0.32103296817657878 -0.082656476452658639 0 -0.33692687914299491 -0.089632102483736459 0 -0.3453529791357649 -0.07211045902320197 0 -0.32103296817657878 -0.082656476452658639 0 -0.3453529791357649 -0.07211045902320197 0 -0.32352590008436471 -0.062378140209921912 0 -0.34475717967991132 -0.068595070548471249 0 -0.3453529791357649 -0.07211045902320197 0 -0.32352590008436471 -0.062378140209921912 0 -0.34475717967991132 -0.068595070548471249 0 -0.32352590008436471 -0.062378140209921912 0 -0.32103296817657878 -0.082656476452658639 0 -0.3453529791357649 -0.07211045902320197 0 -0.30807566230962469 -0.12087427087378499 0 -0.32329194788869442 -0.1034183298589804 0 -0.33246816563449738 -0.1211806240550105 0 -0.30807566230962469 -0.12087427087378499 0 -0.33246816563449738 -0.1211806240550105 0 -0.30807566230962469 -0.12087427087378499 0 -0.32007374605487132 -0.12494213909402439 0 -0.33246816563449738 -0.1211806240550105 0 -0.30690970986333499 -0.10413412755240679 0 -0.30807566230962469 -0.12087427087378499 0 -0.32329194788869442 -0.1034183298589804 0 -0.32329194788869442 -0.1034183298589804 0 -0.33246816563449738 -0.1211806240550105 0 -0.32007374605487132 -0.12494213909402439 0 -0.33441303965894859 -0.1249452932850653 0 -0.30690970986333499 -0.10413412755240679 0 -0.31411573014289268 -0.085656035662949492 0 -0.32329194788869442 -0.1034183298589804 0 -0.32103296817657878 -0.082656476452658639 0 -0.32329194788869442 -0.1034183298589804 0 -0.33093834944883532 -0.101971145942244 0 -0.31411573014289268 -0.085656035662949492 0 -0.32329194788869442 -0.1034183298589804 0 -0.32329194788869442 -0.1034183298589804 0 -0.33093834944883532 -0.101971145942244 0 -0.33246816563449738 -0.1211806240550105 0 -0.33692687914299491 -0.089632102483736459 0 -0.33093834944883532 -0.101971145942244 0 -0.35038321981080389 -0.10179032851684799 0 -0.33093834944883532 -0.101971145942244 0 -0.34773438721257438 -0.1121772477149196 0 -0.35038321981080389 -0.10179032851684799 0 -0.33093834944883532 -0.101971145942244 0 -0.3408437307210912 -0.1212858154318297 0 -0.33093834944883532 -0.101971145942244 0 -0.3408437307210912 -0.1212858154318297 0 -0.33246816563449738 -0.1211806240550105 0 -0.33093834944883532 -0.101971145942244 0 -0.3408437307210912 -0.1212858154318297 0 -0.34773438721257438 -0.1121772477149196 0 -0.34272140335036932 -0.124947120862287 0 -0.3408437307210912 -0.1212858154318297 0 -0.33441303965894859 -0.1249452932850653 0 -0.3408437307210912 -0.1212858154318297 0 -0.33246816563449738 -0.1211806240550105 0 -0.34272140335036932 -0.124947120862287 0 -0.33441303965894859 -0.1249452932850653 0 -0.34272140335036932 -0.124947120862287 0 -0.3408437307210912 -0.1212858154318297 0 -0.32007374605487132 -0.12494213909402439 0 -0.33441303965894859 -0.1249452932850653 0 -0.33246816563449738 -0.1211806240550105 0 -0.3408437307210912 -0.1212858154318297 0 -0.33441303965894859 -0.1249452932850653 0 -0.33246816563449738 -0.1211806240550105 0 -0.33441303965894859 -0.1249452932850653 0 -0.33246816563449738 -0.1211806240550105 0 -0.34272140335036932 -0.124947120862287 0 -0.35433435295871402 -0.1214552484327875 0 -0.36893450279197471 -0.1249528869149899 0 -0.34272140335036932 -0.124947120862287 0 -0.36893450279197471 -0.1249528869149899 0 -0.3408437307210912 -0.1212858154318297 0 -0.35433435295871402 -0.1214552484327875 0 -0.3408437307210912 -0.1212858154318297 0 -0.35433435295871402 -0.1214552484327875 0 -0.34773438721257438 -0.1121772477149196 0 -0.34272140335036932 -0.124947120862287 0 -0.3408437307210912 -0.1212858154318297 0 -0.35433435295871402 -0.1214552484327875 0 -0.35433435295871402 -0.1214552484327875 0 -0.34773438721257438 -0.1121772477149196 0 -0.3623387343604032 -0.1125517513480446 0 -0.34773438721257438 -0.1121772477149196 0 -0.35038321981080389 -0.10179032851684799 0 -0.3623387343604032 -0.1125517513480446 0 -0.37380044498630338 -0.100392191664622 0 -0.3623387343604032 -0.1125517513480446 0 -0.3789649235099295 -0.11270856972454819 0 -0.35038321981080389 -0.10179032851684799 0 -0.37380044498630338 -0.100392191664622 0 -0.36747037526515469 -0.088210616938563927 0 -0.35038321981080389 -0.10179032851684799 0 -0.37380044498630338 -0.100392191664622 0 -0.3623387343604032 -0.1125517513480446 0 -0.3623387343604032 -0.1125517513480446 0 -0.36893450279197471 -0.1249528869149899 0 -0.3789649235099295 -0.11270856972454819 0 -0.35433435295871402 -0.1214552484327875 0 -0.3623387343604032 -0.1125517513480446 0 -0.36893450279197471 -0.1249528869149899 0 -0.34995192587724822 -0.070116192960804249 0 -0.35645509357982358 -0.081628608772215283 0 -0.36843110820579178 -0.075527255856609146 0 -0.34995192587724822 -0.070116192960804249 0 -0.36608399240098949 -0.063120758007335118 0 -0.35494834161021771 -0.06194377696909157 0 -0.34995192587724822 -0.070116192960804249 0 -0.36843110820579178 -0.075527255856609146 0 -0.34995192587724822 -0.070116192960804249 0 -0.36608399240098949 -0.063120758007335118 0 -0.34995192587724822 -0.070116192960804249 0 -0.34475717967991132 -0.068595070548471249 0 -0.35494834161021771 -0.06194377696909157 0 -0.34995192587724822 -0.070116192960804249 0 -0.34475717967991132 -0.068595070548471249 0 -0.34995192587724822 -0.070116192960804249 0 -0.34475717967991132 -0.068595070548471249 0 -0.3453529791357649 -0.07211045902320197 0 -0.34995192587724822 -0.070116192960804249 0 -0.3453529791357649 -0.07211045902320197 0 -0.34995192587724822 -0.070116192960804249 0 -0.3453529791357649 -0.07211045902320197 0 -0.35645509357982358 -0.081628608772215283 0 -0.34475717967991132 -0.068595070548471249 0 -0.3453529791357649 -0.07211045902320197 0 -0.35038321981080389 -0.10179032851684799 0 -0.35645509357982358 -0.081628608772215283 0 -0.36747037526515469 -0.088210616938563927 0 -0.35038321981080389 -0.10179032851684799 0 -0.3453529791357649 -0.07211045902320197 0 -0.35645509357982358 -0.081628608772215283 0 -0.33692687914299491 -0.089632102483736459 0 -0.35038321981080389 -0.10179032851684799 0 -0.3453529791357649 -0.07211045902320197 0 -0.35038321981080389 -0.10179032851684799 0 -0.3453529791357649 -0.07211045902320197 0 -0.36747037526515469 -0.088210616938563927 0 -0.36843110820579178 -0.075527255856609146 0 -0.38691029053433551 -0.080938318752413793 0 -0.35645509357982358 -0.081628608772215283 0 -0.36747037526515469 -0.088210616938563927 0 -0.36843110820579178 -0.075527255856609146 0 -0.34995192587724822 -0.070116192960804249 0 -0.36843110820579178 -0.075527255856609146 0 -0.36608399240098949 -0.063120758007335118 0 -0.36843110820579178 -0.075527255856609146 0 -0.36608399240098949 -0.063120758007335118 0 -0.37978412082390189 -0.068029865631836883 0 -0.36608399240098949 -0.063120758007335118 0 -0.37085155020467431 -0.050438611479832557 0 -0.38221605892473098 -0.056125323053866277 0 -0.36608399240098949 -0.063120758007335118 0 -0.38221605892473098 -0.056125323053866277 0 -0.37085155020467431 -0.050438611479832557 0 -0.36177701350261748 -0.054750595911384127 0 -0.36329546327126672 -0.041142767418341691 0 -0.36608399240098949 -0.063120758007335118 0 -0.36177701350261748 -0.054750595911384127 0 -0.35494834161021771 -0.06194377696909157 0 -0.36608399240098949 -0.063120758007335118 0 -0.37085155020467431 -0.050438611479832557 0 -0.36177701350261748 -0.054750595911384127 0 -0.36177701350261748 -0.054750595911384127 0 -0.35494834161021771 -0.06194377696909157 0 -0.35217159659032232 -0.05313626741746251 0 -0.34475717967991132 -0.068595070548471249 0 -0.35217159659032232 -0.05313626741746251 0 -0.34008173660725832 -0.04100860914713586 0 -0.36177701350261748 -0.054750595911384127 0 -0.35217159659032232 -0.05313626741746251 0 -0.36329546327126672 -0.041142767418341691 0 -0.34475717967991132 -0.068595070548471249 0 -0.35494834161021771 -0.06194377696909157 0 -0.35217159659032232 -0.05313626741746251 0 -0.35217159659032232 -0.05313626741746251 0 -0.35233090603521772 -0.034345905606361089 0 -0.36329546327126672 -0.041142767418341691 0 -0.35217159659032232 -0.05313626741746251 0 -0.35233090603521772 -0.034345905606361089 0 -0.34008173660725832 -0.04100860914713586 0 -0.35233090603521772 -0.034345905606361089 0 -0.34677261788783459 -0.022263095799622792 0 -0.34008173660725832 -0.04100860914713586 0 -0.35233090603521772 -0.034345905606361089 0 -0.36329546327126672 -0.041142767418341691 0 -0.36125368123050811 -0.029816691131076791 0 -0.36329546327126672 -0.041142767418341691 0 -0.37015544225173291 -0.03012439130571171 0 -0.36125368123050811 -0.029816691131076791 0 -0.37085155020467431 -0.050438611479832557 0 -0.36329546327126672 -0.041142767418341691 0 -0.37439980638912518 -0.038891661293645137 0 -0.36329546327126672 -0.041142767418341691 0 -0.37439980638912518 -0.038891661293645137 0 -0.37015544225173291 -0.03012439130571171 0 -0.37439980638912518 -0.038891661293645137 0 -0.37015544225173291 -0.03012439130571171 0 -0.37866743010551202 -0.02906954498465647 0 -0.37015544225173291 -0.03012439130571171 0 -0.37402384376206249 -0.023759624541515059 0 -0.37866743010551202 -0.02906954498465647 0 -0.37015544225173291 -0.03012439130571171 0 -0.37402384376206249 -0.023759624541515059 0 -0.36652472594663232 -0.022500501643346649 0 -0.37402384376206249 -0.023759624541515059 0 -0.37465439862472261 -0.016787835852634068 0 -0.36652472594663232 -0.022500501643346649 0 -0.37465439862472261 -0.016787835852634068 0 -0.36652472594663232 -0.022500501643346649 0 -0.3596530522362773 -0.017262546391789129 0 -0.36652472594663232 -0.022500501643346649 0 -0.3596530522362773 -0.017262546391789129 0 -0.35649867437881472 -0.022585523222405649 0 -0.36652472594663232 -0.022500501643346649 0 -0.36125368123050811 -0.029816691131076791 0 -0.35649867437881472 -0.022585523222405649 0 -0.37015544225173291 -0.03012439130571171 0 -0.36652472594663232 -0.022500501643346649 0 -0.36125368123050811 -0.029816691131076791 0 -0.37465439862472261 -0.016787835852634068 0 -0.3596530522362773 -0.017262546391789129 0 -0.34857824671955512 -0.007874197240844389 0 -0.37465439862472261 -0.016787835852634068 0 -0.3597652811465577 -0.0058215117475868012 0 -0.34857824671955512 -0.007874197240844389 0 -0.37465439862472261 -0.016787835852634068 0 -0.34857824671955512 -0.007874197240844389 0 -0.37126952376897032 -0.00085078512189483576 0 -0.36867541047690239 -0.006920070417115203 0 -0.36494834593608783 -0.001298186014321303 0 -0.37126952376897032 -0.00085078512189483576 0 -0.37464851222799189 -0.0076089195940836872 0 -0.37774077980655368 -0.001289555558904682 0 -0.37126952376897032 -0.00085078512189483576 0 -0.37464851222799189 -0.0076089195940836872 0 -0.36867541047690239 -0.006920070417115203 0 -0.37465439862472261 -0.016787835852634068 0 -0.36867541047690239 -0.006920070417115203 0 -0.3597652811465577 -0.0058215117475868012 0 -0.37465439862472261 -0.016787835852634068 0 -0.37464851222799189 -0.0076089195940836872 0 -0.36867541047690239 -0.006920070417115203 0 -0.36867541047690239 -0.006920070417115203 0 -0.3597652811465577 -0.0058215117475868012 0 -0.36494834593608783 -0.001298186014321303 0 -0.3597652811465577 -0.0058215117475868012 0 -0.36494834593608783 -0.001298186014321303 0 -0.35900139338342918 0.0020097317905480609 0 -0.3597652811465577 -0.0058215117475868012 0 -0.35221409618436439 -0.0049109655465913588 0 -0.34857824671955512 -0.007874197240844389 0 -0.3597652811465577 -0.0058215117475868012 0 -0.35509488683577939 -0.0004162838960613095 0 -0.35900139338342918 0.0020097317905480609 0 -0.3597652811465577 -0.0058215117475868012 0 -0.35509488683577939 -0.0004162838960613095 0 -0.35221409618436439 -0.0049109655465913588 0 -0.3596530522362773 -0.017262546391789129 0 -0.34857824671955512 -0.007874197240844389 0 -0.35200921551166209 -0.0165646739997149 0 -0.34857824671955512 -0.007874197240844389 0 -0.34618108527798752 -0.01472783018749277 0 -0.35200921551166209 -0.0165646739997149 0 -0.35233090603521772 -0.034345905606361089 0 -0.36125368123050811 -0.029816691131076791 0 -0.35649867437881472 -0.022585523222405649 0 -0.35233090603521772 -0.034345905606361089 0 -0.35649867437881472 -0.022585523222405649 0 -0.34677261788783459 -0.022263095799622792 0 -0.35649867437881472 -0.022585523222405649 0 -0.35200921551166209 -0.0165646739997149 0 -0.34677261788783459 -0.022263095799622792 0 -0.3596530522362773 -0.017262546391789129 0 -0.35649867437881472 -0.022585523222405649 0 -0.35200921551166209 -0.0165646739997149 0 -0.34618108527798752 -0.01472783018749277 0 -0.35200921551166209 -0.0165646739997149 0 -0.34677261788783459 -0.022263095799622792 0 -0.33540629353460438 -0.01342214774580049 0 -0.31718310516035308 -0.038172790333745737 0 -0.34008173660725832 -0.04100860914713586 0 -0.33540629353460438 -0.01342214774580049 0 -0.34008173660725832 -0.04100860914713586 0 -0.34677261788783459 -0.022263095799622792 0 -0.33540629353460438 -0.01342214774580049 0 -0.34008173660725832 -0.04100860914713586 0 -0.34618108527798752 -0.01472783018749277 0 -0.34677261788783459 -0.022263095799622792 0 -0.33540629353460438 -0.01342214774580049 0 -0.33540629353460438 -0.01342214774580049 0 -0.3204068892458079 -0.0014125807301150939 0 -0.33073085046195078 0.01416431365553468 0 -0.34857824671955512 -0.007874197240844389 0 -0.33540629353460438 -0.01342214774580049 0 -0.33073085046195078 0.01416431365553468 0 -0.34857824671955512 -0.007874197240844389 0 -0.34618108527798752 -0.01472783018749277 0 -0.33540629353460438 -0.01342214774580049 0 -0.3025805037907468 -0.0027432771802810229 0 -0.31459326366374579 -0.01532774276474733 0 -0.3204068892458079 -0.0014125807301150939 0 -0.33540629353460438 -0.01342214774580049 0 -0.31459326366374579 -0.01532774276474733 0 -0.3204068892458079 -0.0014125807301150939 0 -0.33540629353460438 -0.01342214774580049 0 -0.31459326366374579 -0.01532774276474733 0 -0.31718310516035308 -0.038172790333745737 0 -0.31718310516035308 -0.038172790333745737 0 -0.3268834079531176 -0.05023453433316457 0 -0.34008173660725832 -0.04100860914713586 0 -0.31718310516035308 -0.038172790333745737 0 -0.31370341578724742 -0.051143824177853653 0 -0.3268834079531176 -0.05023453433316457 0 -0.31370341578724742 -0.051143824177853653 0 -0.31629816603535338 -0.060261719535131632 0 -0.32352590008436471 -0.062378140209921912 0 -0.31629816603535338 -0.060261719535131632 0 -0.32352590008436471 -0.062378140209921912 0 -0.32352590008436471 -0.062378140209921912 0 -0.3268834079531176 -0.05023453433316457 0 -0.33381205608116321 -0.055554088559673351 0 -0.31370341578724742 -0.051143824177853653 0 -0.32352590008436471 -0.062378140209921912 0 -0.3268834079531176 -0.05023453433316457 0 -0.34475717967991132 -0.068595070548471249 0 -0.32352590008436471 -0.062378140209921912 0 -0.33381205608116321 -0.055554088559673351 0 -0.34475717967991132 -0.068595070548471249 0 -0.33381205608116321 -0.055554088559673351 0 -0.34008173660725832 -0.04100860914713586 0 -0.3268834079531176 -0.05023453433316457 0 -0.33381205608116321 -0.055554088559673351 0 -0.34008173660725832 -0.04100860914713586 0 -0.34475717967991132 -0.068595070548471249 0 -0.34008173660725832 -0.04100860914713586 0 -0.29131753467172561 -0.25675805269722002 0 -0.30769212114973271 -0.24578220261295139 0 -0.29241592956139478 -0.23974284613727589 0 -0.30769212114973271 -0.24578220261295139 0 -0.30829656048542242 -0.23127198481015249 0 -0.29241592956139478 -0.23974284613727589 0 -0.30829656048542242 -0.23127198481015249 0 -0.29279532374442052 -0.2217612167757172 0 -0.3129652712195421 -0.2114706657937139 0 -0.30829656048542242 -0.23127198481015249 0 -0.29279532374442052 -0.2217612167757172 0 -0.29241592956139478 -0.23974284613727589 0 -0.29279532374442052 -0.2217612167757172 0 -0.29241592956139478 -0.23974284613727589 0 -0.27798049023744681 -0.23352671123603991 0 -0.29279532374442052 -0.2217612167757172 0 -0.27798049023744681 -0.23352671123603991 0 -0.27449661508218531 -0.21747639879007349 0 -0.29131753467172561 -0.25675805269722002 0 -0.29241592956139478 -0.23974284613727589 0 -0.27722523139620658 -0.24922189107985179 0 -0.29241592956139478 -0.23974284613727589 0 -0.27722523139620658 -0.24922189107985179 0 -0.27798049023744681 -0.23352671123603991 0 -0.27722523139620658 -0.24922189107985179 0 -0.25992972331208369 -0.2410680052130979 0 -0.27798049023744681 -0.23352671123603991 0 -0.26398002587916253 -0.25656090854441049 0 -0.27722523139620658 -0.24922189107985179 0 -0.25992972331208369 -0.2410680052130979 0 -0.25992972331208369 -0.2410680052130979 0 -0.25674041691710447 -0.22108212323078871 0 -0.27798049023744681 -0.23352671123603991 0 -0.2377451423251814 -0.23136366228574551 0 -0.25992972331208369 -0.2410680052130979 0 -0.25674041691710447 -0.22108212323078871 0 -0.25674041691710447 -0.22108212323078871 0 -0.27798049023744681 -0.23352671123603991 0 -0.27449661508218531 -0.21747639879007349 0 -0.27449661508218531 -0.21747639879007349 0 -0.25644706280453389 -0.1995927939493197 0 -0.27817485521465529 -0.19463925610534399 0 -0.27449661508218531 -0.21747639879007349 0 -0.27817485521465529 -0.19463925610534399 0 -0.25674041691710447 -0.22108212323078871 0 -0.27449661508218531 -0.21747639879007349 0 -0.25644706280453389 -0.1995927939493197 0 -0.25644706280453389 -0.1995927939493197 0 -0.27817485521465529 -0.19463925610534399 0 -0.26629571781906192 -0.18034234132084431 0 -0.27817485521465529 -0.19463925610534399 0 -0.29367807880863189 -0.20345752952089671 0 -0.29386082525749962 -0.1848532680646672 0 -0.27449661508218531 -0.21747639879007349 0 -0.27817485521465529 -0.19463925610534399 0 -0.29367807880863189 -0.20345752952089671 0 -0.29279532374442052 -0.2217612167757172 0 -0.27449661508218531 -0.21747639879007349 0 -0.29367807880863189 -0.20345752952089671 0 -0.29279532374442052 -0.2217612167757172 0 -0.29367807880863189 -0.20345752952089671 0 -0.3129652712195421 -0.2114706657937139 0 -0.29367807880863189 -0.20345752952089671 0 -0.30717411826112789 -0.1920401195635244 0 -0.29386082525749962 -0.1848532680646672 0 -0.29367807880863189 -0.20345752952089671 0 -0.30717411826112789 -0.1920401195635244 0 -0.3129652712195421 -0.2114706657937139 0 -0.30551265723832022 -0.17938492804960809 0 -0.29677214667513702 -0.1677956617280158 0 -0.29386082525749962 -0.1848532680646672 0 -0.30717411826112789 -0.1920401195635244 0 -0.30551265723832022 -0.17938492804960809 0 -0.29386082525749962 -0.1848532680646672 0 -0.30717411826112789 -0.1920401195635244 0 -0.30551265723832022 -0.17938492804960809 0 -0.31489114071409963 -0.18333745750317351 0 -0.30551265723832022 -0.17938492804960809 0 -0.31220508881165993 -0.16846949012138551 0 -0.29677214667513702 -0.1677956617280158 0 -0.30551265723832022 -0.17938492804960809 0 -0.31220508881165993 -0.16846949012138551 0 -0.31489114071409963 -0.18333745750317351 0 -0.31220508881165993 -0.16846949012138551 0 -0.2949530938874384 -0.15245549241185349 0 -0.31498630483336881 -0.15987728715749039 0 -0.31220508881165993 -0.16846949012138551 0 -0.2949530938874384 -0.15245549241185349 0 -0.31220508881165993 -0.16846949012138551 0 -0.29677214667513702 -0.1677956617280158 0 -0.2949530938874384 -0.15245549241185349 0 -0.28185309534712533 -0.17180211342061449 0 -0.28553133547959519 -0.14896497073588499 0 -0.29677214667513702 -0.1677956617280158 0 -0.28185309534712533 -0.17180211342061449 0 -0.2949530938874384 -0.15245549241185349 0 -0.28185309534712533 -0.17180211342061449 0 -0.28553133547959519 -0.14896497073588499 0 -0.2949530938874384 -0.15245549241185349 0 -0.27817485521465529 -0.19463925610534399 0 -0.28185309534712533 -0.17180211342061449 0 -0.29386082525749962 -0.1848532680646672 0 -0.29677214667513702 -0.1677956617280158 0 -0.28185309534712533 -0.17180211342061449 0 -0.29386082525749962 -0.1848532680646672 0 -0.27817485521465529 -0.19463925610534399 0 -0.28185309534712533 -0.17180211342061449 0 -0.27817485521465529 -0.19463925610534399 0 -0.28185309534712533 -0.17180211342061449 0 -0.26629571781906192 -0.18034234132084431 0 -0.26629571781906192 -0.18034234132084431 0 -0.25029992488695979 -0.1782534950292988 0 -0.25761979100978533 -0.16665415002795461 0 -0.25644706280453389 -0.1995927939493197 0 -0.26629571781906192 -0.18034234132084431 0 -0.25029992488695979 -0.1782534950292988 0 -0.26629571781906192 -0.18034234132084431 0 -0.25761979100978533 -0.16665415002795461 0 -0.26933386928146391 -0.16300442301689841 0 -0.24825300788518309 -0.1555077779107997 0 -0.25761979100978533 -0.16665415002795461 0 -0.26108146703715113 -0.15708396540124031 0 -0.25761979100978533 -0.16665415002795461 0 -0.26108146703715113 -0.15708396540124031 0 -0.26933386928146391 -0.16300442301689841 0 -0.28185309534712533 -0.17180211342061449 0 -0.27598770130958522 -0.15333886838191951 0 -0.28553133547959519 -0.14896497073588499 0 -0.28185309534712533 -0.17180211342061449 0 -0.26629571781906192 -0.18034234132084431 0 -0.26933386928146391 -0.16300442301689841 0 -0.26108146703715113 -0.15708396540124031 0 -0.26933386928146391 -0.16300442301689841 0 -0.26726071412102442 -0.15087550168963329 0 -0.28185309534712533 -0.17180211342061449 0 -0.26933386928146391 -0.16300442301689841 0 -0.27598770130958522 -0.15333886838191951 0 -0.27598770130958522 -0.15333886838191951 0 -0.271177428866754 -0.14364721368904659 0 -0.28553133547959519 -0.14896497073588499 0 -0.271177428866754 -0.14364721368904659 0 -0.28662611268527088 -0.1421678116724244 0 -0.28553133547959519 -0.14896497073588499 0 -0.271177428866754 -0.14364721368904659 0 -0.28553133547959519 -0.14896497073588499 0 -0.271177428866754 -0.14364721368904659 0 -0.26726071412102442 -0.15087550168963329 0 -0.25891484533836889 -0.13910423861407881 0 -0.271177428866754 -0.14364721368904659 0 -0.26726071412102442 -0.15087550168963329 0 -0.27598770130958522 -0.15333886838191951 0 -0.271177428866754 -0.14364721368904659 0 -0.26726071412102442 -0.15087550168963329 0 -0.26933386928146391 -0.16300442301689841 0 -0.27598770130958522 -0.15333886838191951 0 -0.26726071412102442 -0.15087550168963329 0 -0.2405789555143194 -0.1375116727892334 0 -0.25601133851015478 -0.1487044986697981 0 -0.25891484533836889 -0.13910423861407881 0 -0.26108146703715113 -0.15708396540124031 0 -0.26726071412102442 -0.15087550168963329 0 -0.25601133851015478 -0.1487044986697981 0 -0.271177428866754 -0.14364721368904659 0 -0.25891484533836889 -0.13910423861407881 0 -0.26726071412102442 -0.15087550168963329 0 -0.25601133851015478 -0.1487044986697981 0 -0.25891484533836889 -0.13910423861407881 0 -0.24825300788518309 -0.1555077779107997 0 -0.26108146703715113 -0.15708396540124031 0 -0.25601133851015478 -0.1487044986697981 0 -0.26009747564537128 -0.1202716976192799 0 -0.25054446979338107 -0.12912519928877991 0 -0.26697405985724948 -0.1304210152969853 0 -0.25054446979338107 -0.12912519928877991 0 -0.25891484533836889 -0.13910423861407881 0 -0.26697405985724948 -0.1304210152969853 0 -0.2405789555143194 -0.1375116727892334 0 -0.25054446979338107 -0.12912519928877991 0 -0.25891484533836889 -0.13910423861407881 0 -0.28368315898475188 -0.1205679176925603 0 -0.271177428866754 -0.14364721368904659 0 -0.26697405985724948 -0.1304210152969853 0 -0.28368315898475188 -0.1205679176925603 0 -0.271177428866754 -0.14364721368904659 0 -0.28514813781506088 -0.1345929107172644 0 -0.28368315898475188 -0.1205679176925603 0 -0.271177428866754 -0.14364721368904659 0 -0.271177428866754 -0.14364721368904659 0 -0.25891484533836889 -0.13910423861407881 0 -0.26697405985724948 -0.1304210152969853 0 -0.271177428866754 -0.14364721368904659 0 -0.28514813781506088 -0.1345929107172644 0 -0.28662611268527088 -0.1421678116724244 0 -0.28368315898475188 -0.1205679176925603 0 -0.29492821592448881 -0.13453805291007029 0 -0.28514813781506088 -0.1345929107172644 0 -0.28368315898475188 -0.1205679176925603 0 -0.29492821592448881 -0.13453805291007029 0 -0.30140371581860798 -0.1292511186866305 0 -0.29492821592448881 -0.13453805291007029 0 -0.2912775948780732 -0.1389862943003273 0 -0.28514813781506088 -0.1345929107172644 0 -0.29657756063899582 -0.140013172184488 0 -0.29492821592448881 -0.13453805291007029 0 -0.2912775948780732 -0.1389862943003273 0 -0.2912775948780732 -0.1389862943003273 0 -0.28514813781506088 -0.1345929107172644 0 -0.28662611268527088 -0.1421678116724244 0 -0.28662611268527088 -0.1421678116724244 0 -0.28553133547959519 -0.14896497073588499 0 -0.28662611268527088 -0.1421678116724244 0 -0.28553133547959519 -0.14896497073588499 0 -0.28937009998544028 -0.14621975116982991 0 -0.28553133547959519 -0.14896497073588499 0 -0.2922536480049423 -0.1499497578362777 0 -0.28937009998544028 -0.14621975116982991 0 -0.28553133547959519 -0.14896497073588499 0 -0.2922536480049423 -0.1499497578362777 0 -0.2949530938874384 -0.15245549241185349 0 -0.28553133547959519 -0.14896497073588499 0 -0.2949530938874384 -0.15245549241185349 0 -0.2922536480049423 -0.1499497578362777 0 -0.2949530938874384 -0.15245549241185349 0 -0.29617843115691228 -0.14802272380236281 0 -0.2922536480049423 -0.1499497578362777 0 -0.2949530938874384 -0.15245549241185349 0 -0.2912775948780732 -0.1389862943003273 0 -0.28662611268527088 -0.1421678116724244 0 -0.29310794732654949 -0.1436195240173895 0 -0.28662611268527088 -0.1421678116724244 0 -0.28937009998544028 -0.14621975116982991 0 -0.29310794732654949 -0.1436195240173895 0 -0.2922536480049423 -0.1499497578362777 0 -0.28937009998544028 -0.14621975116982991 0 -0.29310794732654949 -0.1436195240173895 0 -0.29617843115691228 -0.14802272380236281 0 -0.29310794732654949 -0.1436195240173895 0 -0.29956135480037449 -0.14472193576336759 0 -0.2922536480049423 -0.1499497578362777 0 -0.29617843115691228 -0.14802272380236281 0 -0.29310794732654949 -0.1436195240173895 0 -0.29657756063899582 -0.140013172184488 0 -0.2912775948780732 -0.1389862943003273 0 -0.29310794732654949 -0.1436195240173895 0 -0.29657756063899582 -0.140013172184488 0 -0.29310794732654949 -0.1436195240173895 0 -0.29956135480037449 -0.14472193576336759 0 -0.29956135480037449 -0.14472193576336759 0 -0.30554397810907652 -0.146919348525368 0 -0.30456114821214081 -0.13888567554976469 0 -0.2949530938874384 -0.15245549241185349 0 -0.30620642865757891 -0.15285211384445899 0 -0.31498630483336881 -0.15987728715749039 0 -0.2949530938874384 -0.15245549241185349 0 -0.31498630483336881 -0.15987728715749039 0 -0.29657756063899582 -0.140013172184488 0 -0.29956135480037449 -0.14472193576336759 0 -0.30456114821214081 -0.13888567554976469 0 -0.29617843115691228 -0.14802272380236281 0 -0.29956135480037449 -0.14472193576336759 0 -0.30052761464898298 -0.14908162957255741 0 -0.29956135480037449 -0.14472193576336759 0 -0.30052761464898298 -0.14908162957255741 0 -0.30554397810907652 -0.146919348525368 0 -0.2949530938874384 -0.15245549241185349 0 -0.30052761464898298 -0.14908162957255741 0 -0.30620642865757891 -0.15285211384445899 0 -0.2949530938874384 -0.15245549241185349 0 -0.29617843115691228 -0.14802272380236281 0 -0.30052761464898298 -0.14908162957255741 0 -0.30052761464898298 -0.14908162957255741 0 -0.30620642865757891 -0.15285211384445899 0 -0.30554397810907652 -0.146919348525368 0 -0.30620642865757891 -0.15285211384445899 0 -0.31211863317072019 -0.1538765410016501 0 -0.31498630483336881 -0.15987728715749039 0 -0.30620642865757891 -0.15285211384445899 0 -0.31071230574427161 -0.15022116190891349 0 -0.30554397810907652 -0.146919348525368 0 -0.30620642865757891 -0.15285211384445899 0 -0.31071230574427161 -0.15022116190891349 0 -0.31211863317072019 -0.1538765410016501 0 -0.31246836027323899 -0.14497521722301901 0 -0.31246708178415561 -0.13872402753426441 0 -0.30456114821214081 -0.13888567554976469 0 -0.30554397810907652 -0.146919348525368 0 -0.31246836027323899 -0.14497521722301901 0 -0.30456114821214081 -0.13888567554976469 0 -0.31071230574427161 -0.15022116190891349 0 -0.30554397810907652 -0.146919348525368 0 -0.31246836027323899 -0.14497521722301901 0 -0.30140371581860798 -0.1292511186866305 0 -0.30456114821214081 -0.13888567554976469 0 -0.31280589771709483 -0.13181614145056869 0 -0.31246708178415561 -0.13872402753426441 0 -0.30456114821214081 -0.13888567554976469 0 -0.31280589771709483 -0.13181614145056869 0 -0.30807566230962469 -0.12087427087378499 0 -0.30140371581860798 -0.1292511186866305 0 -0.31280589771709483 -0.13181614145056869 0 -0.29657756063899582 -0.140013172184488 0 -0.29492821592448881 -0.13453805291007029 0 -0.30456114821214081 -0.13888567554976469 0 -0.29492821592448881 -0.13453805291007029 0 -0.30140371581860798 -0.1292511186866305 0 -0.30456114821214081 -0.13888567554976469 0 -0.3226930215385343 -0.13395567837890529 0 -0.31855308997834159 -0.13934265221991729 0 -0.32506280578504959 -0.14064102607364051 0 -0.3226930215385343 -0.13395567837890529 0 -0.32506280578504959 -0.14064102607364051 0 -0.33047387389575927 -0.1369340691945744 0 -0.3226930215385343 -0.13395567837890529 0 -0.32807010768985068 -0.12986880773923029 0 -0.33047387389575927 -0.1369340691945744 0 -0.32007374605487132 -0.12494213909402439 0 -0.33441303965894859 -0.1249452932850653 0 -0.32807010768985068 -0.12986880773923029 0 -0.32007374605487132 -0.12494213909402439 0 -0.3226930215385343 -0.13395567837890529 0 -0.32807010768985068 -0.12986880773923029 0 -0.32007374605487132 -0.12494213909402439 0 -0.3226930215385343 -0.13395567837890529 0 -0.31280589771709483 -0.13181614145056869 0 -0.30807566230962469 -0.12087427087378499 0 -0.32007374605487132 -0.12494213909402439 0 -0.31280589771709483 -0.13181614145056869 0 -0.3226930215385343 -0.13395567837890529 0 -0.31280589771709483 -0.13181614145056869 0 -0.31855308997834159 -0.13934265221991729 0 -0.31246708178415561 -0.13872402753426441 0 -0.31280589771709483 -0.13181614145056869 0 -0.31855308997834159 -0.13934265221991729 0 -0.31246836027323899 -0.14497521722301901 0 -0.31246708178415561 -0.13872402753426441 0 -0.31855308997834159 -0.13934265221991729 0 -0.31246836027323899 -0.14497521722301901 0 -0.31855308997834159 -0.13934265221991729 0 -0.32096396999162452 -0.14503749675666289 0 -0.31246836027323899 -0.14497521722301901 0 -0.31722412851074311 -0.15248258895007169 0 -0.32096396999162452 -0.14503749675666289 0 -0.31211863317072019 -0.1538765410016501 0 -0.31722412851074311 -0.15248258895007169 0 -0.31498630483336881 -0.15987728715749039 0 -0.31071230574427161 -0.15022116190891349 0 -0.31246836027323899 -0.14497521722301901 0 -0.31722412851074311 -0.15248258895007169 0 -0.31071230574427161 -0.15022116190891349 0 -0.31211863317072019 -0.1538765410016501 0 -0.31722412851074311 -0.15248258895007169 0 -0.32096396999162452 -0.14503749675666289 0 -0.32506280578504959 -0.14064102607364051 0 -0.33039285730051032 -0.1475567648151897 0 -0.31722412851074311 -0.15248258895007169 0 -0.32096396999162452 -0.14503749675666289 0 -0.33039285730051032 -0.1475567648151897 0 -0.31855308997834159 -0.13934265221991729 0 -0.32096396999162452 -0.14503749675666289 0 -0.32506280578504959 -0.14064102607364051 0 -0.33039285730051032 -0.1475567648151897 0 -0.33813688440009898 -0.15615522653291031 0 -0.34198145815712638 -0.1395953898376964 0 -0.32506280578504959 -0.14064102607364051 0 -0.33039285730051032 -0.1475567648151897 0 -0.33047387389575927 -0.1369340691945744 0 -0.31722412851074311 -0.15248258895007169 0 -0.33039285730051032 -0.1475567648151897 0 -0.33813688440009898 -0.15615522653291031 0 -0.33039285730051032 -0.1475567648151897 0 -0.34198145815712638 -0.1395953898376964 0 -0.33047387389575927 -0.1369340691945744 0 -0.33813688440009898 -0.15615522653291031 0 -0.34198145815712638 -0.1395953898376964 0 -0.34954987665533299 -0.15424548639031271 0 -0.34198145815712638 -0.1395953898376964 0 -0.3337346198504213 -0.1328358900141379 0 -0.33047387389575927 -0.1369340691945744 0 -0.32807010768985068 -0.12986880773923029 0 -0.3337346198504213 -0.1328358900141379 0 -0.33047387389575927 -0.1369340691945744 0 -0.33441303965894859 -0.1249452932850653 0 -0.32807010768985068 -0.12986880773923029 0 -0.3337346198504213 -0.1328358900141379 0 -0.33441303965894859 -0.1249452932850653 0 -0.34198145815712638 -0.1395953898376964 0 -0.34272140335036932 -0.124947120862287 0 -0.33441303965894859 -0.1249452932850653 0 -0.34198145815712638 -0.1395953898376964 0 -0.33441303965894859 -0.1249452932850653 0 -0.34198145815712638 -0.1395953898376964 0 -0.3337346198504213 -0.1328358900141379 0 -0.34272140335036932 -0.124947120862287 0 -0.35413341494744088 -0.14719959415449421 0 -0.34272140335036932 -0.124947120862287 0 -0.35599685079288468 -0.13305792836185981 0 -0.35413341494744088 -0.14719959415449421 0 -0.34272140335036932 -0.124947120862287 0 -0.34198145815712638 -0.1395953898376964 0 -0.35413341494744088 -0.14719959415449421 0 -0.34272140335036932 -0.124947120862287 0 -0.36893450279197471 -0.1249528869149899 0 -0.35599685079288468 -0.13305792836185981 0 -0.35599685079288468 -0.13305792836185981 0 -0.36484224068191412 -0.14157370685753851 0 -0.35413341494744088 -0.14719959415449421 0 -0.36893450279197471 -0.1249528869149899 0 -0.35599685079288468 -0.13305792836185981 0 -0.36484224068191412 -0.14157370685753851 0 -0.36893450279197471 -0.1249528869149899 0 -0.36484224068191412 -0.14157370685753851 0 -0.3777566452334315 -0.14913711856379011 0 -0.3679743334396014 -0.15408772885571331 0 -0.37696591512674532 -0.1609827341034305 0 -0.3777566452334315 -0.14913711856379011 0 -0.3679743334396014 -0.15408772885571331 0 -0.36484224068191412 -0.14157370685753851 0 -0.3777566452334315 -0.14913711856379011 0 -0.3679743334396014 -0.15408772885571331 0 -0.36484224068191412 -0.14157370685753851 0 -0.35413341494744088 -0.14719959415449421 0 -0.35413341494744088 -0.14719959415449421 0 -0.34954987665533299 -0.15424548639031271 0 -0.35445721343992059 -0.1619675590177023 0 -0.34198145815712638 -0.1395953898376964 0 -0.34954987665533299 -0.15424548639031271 0 -0.34198145815712638 -0.1395953898376964 0 -0.35413341494744088 -0.14719959415449421 0 -0.34954987665533299 -0.15424548639031271 0 -0.33813688440009898 -0.15615522653291031 0 -0.34954987665533299 -0.15424548639031271 0 -0.34648545334868369 -0.16311147615285329 0 -0.34648545334868369 -0.16311147615285329 0 -0.35788001493839611 -0.17576831496813999 0 -0.33501951577929873 -0.16729908190312789 0 -0.34954987665533299 -0.15424548639031271 0 -0.34648545334868369 -0.16311147615285329 0 -0.35445721343992059 -0.1619675590177023 0 -0.35413341494744088 -0.14719959415449421 0 -0.35445721343992059 -0.1619675590177023 0 -0.36554542654456429 -0.16945206744667471 0 -0.35788001493839611 -0.17576831496813999 0 -0.33501951577929873 -0.16729908190312789 0 -0.34648545334868369 -0.16311147615285329 0 -0.35445721343992059 -0.1619675590177023 0 -0.35788001493839611 -0.17576831496813999 0 -0.35445721343992059 -0.1619675590177023 0 -0.36554542654456429 -0.16945206744667471 0 -0.35788001493839611 -0.17576831496813999 0 -0.35413341494744088 -0.14719959415449421 0 -0.36554542654456429 -0.16945206744667471 0 -0.3679743334396014 -0.15408772885571331 0 -0.35413341494744088 -0.14719959415449421 0 -0.36554542654456429 -0.16945206744667471 0 -0.3679743334396014 -0.15408772885571331 0 -0.36554542654456429 -0.16945206744667471 0 -0.37696591512674532 -0.1609827341034305 0 -0.37016556171889331 -0.18126023377528719 0 -0.3536864721015115 -0.18284124587119119 0 -0.37235342842372432 -0.19838340983925429 0 -0.36554542654456429 -0.16945206744667471 0 -0.37016556171889331 -0.18126023377528719 0 -0.38426477739238413 -0.17192867897072969 0 -0.37016556171889331 -0.18126023377528719 0 -0.3536864721015115 -0.18284124587119119 0 -0.35788001493839611 -0.17576831496813999 0 -0.36554542654456429 -0.16945206744667471 0 -0.37016556171889331 -0.18126023377528719 0 -0.35788001493839611 -0.17576831496813999 0 -0.3536864721015115 -0.18284124587119119 0 -0.33501951577929873 -0.16729908190312789 0 -0.3536864721015115 -0.18284124587119119 0 -0.35788001493839611 -0.17576831496813999 0 -0.33501951577929873 -0.16729908190312789 0 -0.3536864721015115 -0.18284124587119119 0 -0.32945708373588178 -0.18448348783091689 0 -0.33501951577929873 -0.16729908190312789 0 -0.31722412851074311 -0.15248258895007169 0 -0.33813688440009898 -0.15615522653291031 0 -0.33501951577929873 -0.16729908190312789 0 -0.33813688440009898 -0.15615522653291031 0 -0.34648545334868369 -0.16311147615285329 0 -0.33501951577929873 -0.16729908190312789 0 -0.31722412851074311 -0.15248258895007169 0 -0.33501951577929873 -0.16729908190312789 0 -0.31722412851074311 -0.15248258895007169 0 -0.33501951577929873 -0.16729908190312789 0 -0.31498630483336881 -0.15987728715749039 0 -0.31220508881165993 -0.16846949012138551 0 -0.33501951577929873 -0.16729908190312789 0 -0.31498630483336881 -0.15987728715749039 0 -0.33501951577929873 -0.16729908190312789 0 -0.31498630483336881 -0.15987728715749039 0 -0.31220508881165993 -0.16846949012138551 0 -0.32945708373588178 -0.18448348783091689 0 -0.31489114071409963 -0.18333745750317351 0 -0.31220508881165993 -0.16846949012138551 0 -0.32945708373588178 -0.18448348783091689 0 -0.31220508881165993 -0.16846949012138551 0 -0.32945708373588178 -0.18448348783091689 0 -0.33501951577929873 -0.16729908190312789 0 -0.32945708373588178 -0.18448348783091689 0 -0.31489114071409963 -0.18333745750317351 0 -0.32010675552350842 -0.19230926195043291 0 -0.30717411826112789 -0.1920401195635244 0 -0.32010675552350842 -0.19230926195043291 0 -0.3129652712195421 -0.2114706657937139 0 -0.32945708373588178 -0.18448348783091689 0 -0.32010675552350842 -0.19230926195043291 0 -0.32566449460190838 -0.20326261146105551 0 -0.32010675552350842 -0.19230926195043291 0 -0.3129652712195421 -0.2114706657937139 0 -0.32566449460190838 -0.20326261146105551 0 -0.30717411826112789 -0.1920401195635244 0 -0.31489114071409963 -0.18333745750317351 0 -0.32010675552350842 -0.19230926195043291 0 -0.3129652712195421 -0.2114706657937139 0 -0.32566449460190838 -0.20326261146105551 0 -0.33208474862113468 -0.21873250337862821 0 -0.33208474862113468 -0.21873250337862821 0 -0.34670907866010381 -0.20049748554044841 0 -0.34896881396179619 -0.22434135344573131 0 -0.32566449460190838 -0.20326261146105551 0 -0.33208474862113468 -0.21873250337862821 0 -0.34670907866010381 -0.20049748554044841 0 -0.3536864721015115 -0.18284124587119119 0 -0.32945708373588178 -0.18448348783091689 0 -0.34670907866010381 -0.20049748554044841 0 -0.32945708373588178 -0.18448348783091689 0 -0.32566449460190838 -0.20326261146105551 0 -0.34670907866010381 -0.20049748554044841 0 -0.32945708373588178 -0.18448348783091689 0 -0.34670907866010381 -0.20049748554044841 0 -0.3536864721015115 -0.18284124587119119 0 -0.35917751319241631 -0.19955840612521841 0 -0.34670907866010381 -0.20049748554044841 0 -0.3536864721015115 -0.18284124587119119 0 -0.37235342842372432 -0.19838340983925429 0 -0.3536864721015115 -0.18284124587119119 0 -0.35917751319241631 -0.19955840612521841 0 -0.37235342842372432 -0.19838340983925429 0 -0.37235342842372432 -0.19838340983925429 0 -0.36396107358432572 -0.21651148324997979 0 -0.37772562505684643 -0.22219038377974651 0 -0.35917751319241631 -0.19955840612521841 0 -0.37235342842372432 -0.19838340983925429 0 -0.36396107358432572 -0.21651148324997979 0 -0.34670907866010381 -0.20049748554044841 0 -0.36396107358432572 -0.21651148324997979 0 -0.34896881396179619 -0.22434135344573131 0 -0.34670907866010381 -0.20049748554044841 0 -0.36396107358432572 -0.21651148324997979 0 -0.35917751319241631 -0.19955840612521841 0 -0.34670907866010381 -0.20049748554044841 0 -0.36396107358432572 -0.21651148324997979 0 -0.34896881396179619 -0.22434135344573131 0 -0.36764811873304098 -0.23322730847002751 0 -0.35305879752332059 -0.24486073726717009 0 -0.36396107358432572 -0.21651148324997979 0 -0.36764811873304098 -0.23322730847002751 0 -0.37772562505684643 -0.22219038377974651 0 -0.36396107358432572 -0.21651148324997979 0 -0.34896881396179619 -0.22434135344573131 0 -0.36764811873304098 -0.23322730847002751 0 -0.37533687834285862 -0.25417213976024849 0 -0.36764811873304098 -0.23322730847002751 0 -0.35305879752332059 -0.24486073726717009 0 -0.34896881396179619 -0.22434135344573131 0 -0.35305879752332059 -0.24486073726717009 0 -0.33568364413539042 -0.23615154195274179 0 -0.33623326073948312 -0.25365348176558788 0 -0.33568364413539042 -0.23615154195274179 0 -0.32213598881581812 -0.2442700999577708 0 -0.33623326073948312 -0.25365348176558788 0 -0.35305879752332059 -0.24486073726717009 0 -0.33568364413539042 -0.23615154195274179 0 -0.33208474862113468 -0.21873250337862821 0 -0.33568364413539042 -0.23615154195274179 0 -0.32219037366776621 -0.22897372759534659 0 -0.33208474862113468 -0.21873250337862821 0 -0.34896881396179619 -0.22434135344573131 0 -0.33568364413539042 -0.23615154195274179 0 -0.30829656048542242 -0.23127198481015249 0 -0.3129652712195421 -0.2114706657937139 0 -0.32219037366776621 -0.22897372759534659 0 -0.3129652712195421 -0.2114706657937139 0 -0.33208474862113468 -0.21873250337862821 0 -0.32219037366776621 -0.22897372759534659 0 -0.30769212114973271 -0.24578220261295139 0 -0.30829656048542242 -0.23127198481015249 0 -0.32213598881581812 -0.2442700999577708 0 -0.30829656048542242 -0.23127198481015249 0 -0.32219037366776621 -0.22897372759534659 0 -0.32213598881581812 -0.2442700999577708 0 -0.31968345090478489 -0.25798973640781447 0 -0.30769212114973271 -0.24578220261295139 0 -0.32213598881581812 -0.2442700999577708 0 -0.33568364413539042 -0.23615154195274179 0 -0.32219037366776621 -0.22897372759534659 0 -0.32213598881581812 -0.2442700999577708 0 -0.43598079583492633 -0.24721882136819351 0 -0.42311134176242837 -0.2304528026464861 0 -0.41615383063077721 -0.2466412503256647 0 -0.43598079583492633 -0.24721882136819351 0 -0.42311134176242837 -0.2304528026464861 0 -0.43908324849522451 -0.2287046610080686 0 -0.42311134176242837 -0.2304528026464861 0 -0.41411505562058892 -0.2091502018577929 0 -0.42948217154750851 -0.21815887616964899 0 -0.42311134176242837 -0.2304528026464861 0 -0.42948217154750851 -0.21815887616964899 0 -0.43908324849522451 -0.2287046610080686 0 -0.42948217154750851 -0.21815887616964899 0 -0.43955036875351089 -0.21658504913102711 0 -0.43908324849522451 -0.2287046610080686 0 -0.40619246279161347 -0.2313797712556602 0 -0.41411505562058892 -0.2091502018577929 0 -0.42311134176242837 -0.2304528026464861 0 -0.40619246279161347 -0.2313797712556602 0 -0.41411505562058892 -0.2091502018577929 0 -0.39826986996263802 -0.25360934065352753 0 -0.41615383063077721 -0.2466412503256647 0 -0.40619246279161347 -0.2313797712556602 0 -0.42311134176242837 -0.2304528026464861 0 -0.41615383063077721 -0.2466412503256647 0 -0.40619246279161347 -0.2313797712556602 0 -0.39826986996263802 -0.25360934065352753 0 -0.38632210934187061 -0.2364082567837591 0 -0.40619246279161347 -0.2313797712556602 0 -0.39826986996263802 -0.25360934065352753 0 -0.40619246279161347 -0.2313797712556602 0 -0.37533687834285862 -0.25417213976024849 0 -0.36764811873304098 -0.23322730847002751 0 -0.38632210934187061 -0.2364082567837591 0 -0.37533687834285862 -0.25417213976024849 0 -0.39826986996263802 -0.25360934065352753 0 -0.38632210934187061 -0.2364082567837591 0 -0.36764811873304098 -0.23322730847002751 0 -0.38632210934187061 -0.2364082567837591 0 -0.37772562505684643 -0.22219038377974651 0 -0.38632210934187061 -0.2364082567837591 0 -0.37772562505684643 -0.22219038377974651 0 -0.39102038474593709 -0.2139255738073175 0 -0.38632210934187061 -0.2364082567837591 0 -0.40619246279161347 -0.2313797712556602 0 -0.39102038474593709 -0.2139255738073175 0 -0.39102038474593709 -0.2139255738073175 0 -0.40351751052996843 -0.1957217498792192 0 -0.41411505562058892 -0.2091502018577929 0 -0.40619246279161347 -0.2313797712556602 0 -0.39102038474593709 -0.2139255738073175 0 -0.41411505562058892 -0.2091502018577929 0 -0.37235342842372432 -0.19838340983925429 0 -0.39102038474593709 -0.2139255738073175 0 -0.37235342842372432 -0.19838340983925429 0 -0.37772562505684643 -0.22219038377974651 0 -0.39102038474593709 -0.2139255738073175 0 -0.37016556171889331 -0.18126023377528719 0 -0.37235342842372432 -0.19838340983925429 0 -0.38726325091278008 -0.18918768555573329 0 -0.37235342842372432 -0.19838340983925429 0 -0.39102038474593709 -0.2139255738073175 0 -0.38726325091278008 -0.18918768555573329 0 -0.38726325091278008 -0.18918768555573329 0 -0.40351751052996843 -0.1957217498792192 0 -0.40315121292097328 -0.17942465571532731 0 -0.39102038474593709 -0.2139255738073175 0 -0.38726325091278008 -0.18918768555573329 0 -0.40351751052996843 -0.1957217498792192 0 -0.41411505562058892 -0.2091502018577929 0 -0.42203764844956237 -0.18692063245992491 0 -0.40351751052996843 -0.1957217498792192 0 -0.41411505562058892 -0.2091502018577929 0 -0.42203764844956237 -0.18692063245992491 0 -0.41411505562058892 -0.2091502018577929 0 -0.42948217154750851 -0.21815887616964899 0 -0.43155084310578928 -0.2059016662048701 0 -0.42948217154750851 -0.21815887616964899 0 -0.43155084310578928 -0.2059016662048701 0 -0.43955036875351089 -0.21658504913102711 0 -0.42203764844956237 -0.18692063245992491 0 -0.44484374680150301 -0.19597231310248839 0 -0.41411505562058892 -0.2091502018577929 0 -0.43155084310578928 -0.2059016662048701 0 -0.42203764844956237 -0.18692063245992491 0 -0.43155084310578928 -0.2059016662048701 0 -0.42203764844956237 -0.18692063245992491 0 -0.44484374680150301 -0.19597231310248839 0 -0.42203764844956237 -0.18692063245992491 0 -0.44134853753678083 -0.18159229851429221 0 -0.44484374680150301 -0.19597231310248839 0 -0.42203764844956237 -0.18692063245992491 0 -0.42880774722037651 -0.1679247830322266 0 -0.42203764844956237 -0.18692063245992491 0 -0.42880774722037651 -0.1679247830322266 0 -0.44134853753678083 -0.18159229851429221 0 -0.42880774722037651 -0.1679247830322266 0 -0.43557784599118871 -0.14892893360452769 0 -0.44631139980808621 -0.1631836851414229 0 -0.42880774722037651 -0.1679247830322266 0 -0.43557784599118871 -0.14892893360452769 0 -0.42880774722037651 -0.1679247830322266 0 -0.41236960909879722 -0.16540507401591409 0 -0.42079860369606048 -0.15043713941075901 0 -0.42203764844956237 -0.18692063245992491 0 -0.42880774722037651 -0.1679247830322266 0 -0.41236960909879722 -0.16540507401591409 0 -0.40351751052996843 -0.1957217498792192 0 -0.42203764844956237 -0.18692063245992491 0 -0.40315121292097328 -0.17942465571532731 0 -0.42203764844956237 -0.18692063245992491 0 -0.40315121292097328 -0.17942465571532731 0 -0.42203764844956237 -0.18692063245992491 0 -0.41236960909879722 -0.16540507401591409 0 -0.40315121292097328 -0.17942465571532731 0 -0.38726325091278008 -0.18918768555573329 0 -0.40315121292097328 -0.17942465571532731 0 -0.38426477739238413 -0.17192867897072969 0 -0.40315121292097328 -0.17942465571532731 0 -0.38426477739238413 -0.17192867897072969 0 -0.37016556171889331 -0.18126023377528719 0 -0.38726325091278008 -0.18918768555573329 0 -0.38426477739238413 -0.17192867897072969 0 -0.36554542654456429 -0.16945206744667471 0 -0.38426477739238413 -0.17192867897072969 0 -0.37696591512674532 -0.1609827341034305 0 -0.38426477739238413 -0.17192867897072969 0 -0.37696591512674532 -0.1609827341034305 0 -0.39230106084837368 -0.15838844905994759 0 -0.40315121292097328 -0.17942465571532731 0 -0.38426477739238413 -0.17192867897072969 0 -0.39230106084837368 -0.15838844905994759 0 -0.41236960909879722 -0.16540507401591409 0 -0.39230106084837368 -0.15838844905994759 0 -0.40587711449475489 -0.1449624873806776 0 -0.41236960909879722 -0.16540507401591409 0 -0.40315121292097328 -0.17942465571532731 0 -0.39230106084837368 -0.15838844905994759 0 -0.39230106084837368 -0.15838844905994759 0 -0.39162863389564362 -0.14105630786861159 0 -0.40587711449475489 -0.1449624873806776 0 -0.39230106084837368 -0.15838844905994759 0 -0.39162863389564362 -0.14105630786861159 0 -0.3777566452334315 -0.14913711856379011 0 -0.37696591512674532 -0.1609827341034305 0 -0.39230106084837368 -0.15838844905994759 0 -0.3777566452334315 -0.14913711856379011 0 -0.36893450279197471 -0.1249528869149899 0 -0.39162863389564362 -0.14105630786861159 0 -0.3777566452334315 -0.14913711856379011 0 -0.36893450279197471 -0.1249528869149899 0 -0.39162863389564362 -0.14105630786861159 0 -0.39514760223357998 -0.1249586529677193 0 -0.39162863389564362 -0.14105630786861159 0 -0.40587711449475489 -0.1449624873806776 0 -0.39514760223357998 -0.1249586529677193 0 -0.40587711449475489 -0.1449624873806776 0 -0.39514760223357998 -0.1249586529677193 0 -0.42136070167518519 -0.1249644190204488 0 -0.40587711449475489 -0.1449624873806776 0 -0.42079860369606048 -0.15043713941075901 0 -0.42136070167518519 -0.1249644190204488 0 -0.41236960909879722 -0.16540507401591409 0 -0.40587711449475489 -0.1449624873806776 0 -0.42079860369606048 -0.15043713941075901 0 -0.42079860369606048 -0.15043713941075901 0 -0.43557784599118871 -0.14892893360452769 0 -0.42136070167518519 -0.1249644190204488 0 -0.42880774722037651 -0.1679247830322266 0 -0.42079860369606048 -0.15043713941075901 0 -0.43557784599118871 -0.14892893360452769 0 -0.43557784599118871 -0.14892893360452769 0 -0.42136070167518519 -0.1249644190204488 0 -0.44757380111679052 -0.12497018507317829 0 -0.43557784599118871 -0.14892893360452769 0 -0.45596445488588 -0.14427568033770541 0 -0.44757380111679052 -0.12497018507317829 0 -0.43557784599118871 -0.14892893360452769 0 -0.45596445488588 -0.14427568033770541 0 -0.44631139980808621 -0.1631836851414229 0 -0.45596445488588 -0.14427568033770541 0 -0.46278066629215481 -0.1610158872753634 0 -0.44631139980808621 -0.1631836851414229 0 -0.45596445488588 -0.14427568033770541 0 -0.47930750267908417 -0.1480635854121114 0 -0.46278066629215481 -0.1610158872753634 0 -0.45596445488588 -0.14427568033770541 0 -0.44757380111679052 -0.12497018507317829 0 -0.47378690055839578 -0.1249759511259078 0 -0.48827360080937021 -0.13531742911399189 0 -0.47930750267908417 -0.1480635854121114 0 -0.47378690055839578 -0.1249759511259078 0 -0.45596445488588 -0.14427568033770541 0 -0.47930750267908417 -0.1480635854121114 0 -0.47378690055839578 -0.1249759511259078 0 -0.48827360080937021 -0.13531742911399189 0 -0.5 -0.14324846273931111 0 -0.50000000000000111 -0.12498171717863731 0 -0.48827360080937021 -0.13531742911399189 0 -0.47378690055839578 -0.1249759511259078 0 -0.50000000000000111 -0.12498171717863731 0 -0.5 -0.14324846273931111 0 -0.47930750267908417 -0.1480635854121114 0 -0.49999999999999961 -0.161515208299985 0 -0.48827360080937021 -0.13531742911399189 0 -0.5 -0.14324846273931111 0 -0.47930750267908417 -0.1480635854121114 0 -0.47930750267908417 -0.1480635854121114 0 -0.47738728335761421 -0.1682509267597351 0 -0.46278066629215481 -0.1610158872753634 0 -0.47738728335761421 -0.1682509267597351 0 -0.49999999999999961 -0.161515208299985 0 -0.48839409620634278 -0.18039624849769001 0 -0.49999999999999961 -0.161515208299985 0 -0.48839409620634278 -0.18039624849769001 0 -0.47930750267908417 -0.1480635854121114 0 -0.47738728335761421 -0.1682509267597351 0 -0.49999999999999961 -0.161515208299985 0 -0.49999999999999961 -0.161515208299985 0 -0.5 -0.18618779176616679 0 -0.48839409620634278 -0.18039624849769001 0 -0.5 -0.18618779176616679 0 -0.48839409620634278 -0.18039624849769001 0 -0.48957789370491162 -0.19386933705848941 0 -0.47738728335761421 -0.1682509267597351 0 -0.48839409620634278 -0.18039624849769001 0 -0.47328693949397721 -0.18411760774338479 0 -0.47738728335761421 -0.1682509267597351 0 -0.47328693949397721 -0.18411760774338479 0 -0.45860677246597031 -0.17520894370368309 0 -0.47328693949397721 -0.18411760774338479 0 -0.45860677246597031 -0.17520894370368309 0 -0.45906836497473352 -0.19043479360484361 0 -0.47738728335761421 -0.1682509267597351 0 -0.45860677246597031 -0.17520894370368309 0 -0.46278066629215481 -0.1610158872753634 0 -0.45860677246597031 -0.17520894370368309 0 -0.46278066629215481 -0.1610158872753634 0 -0.44631139980808621 -0.1631836851414229 0 -0.42880774722037651 -0.1679247830322266 0 -0.44631139980808621 -0.1631836851414229 0 -0.44134853753678083 -0.18159229851429221 0 -0.45860677246597031 -0.17520894370368309 0 -0.44631139980808621 -0.1631836851414229 0 -0.44134853753678083 -0.18159229851429221 0 -0.45860677246597031 -0.17520894370368309 0 -0.44134853753678083 -0.18159229851429221 0 -0.45906836497473352 -0.19043479360484361 0 -0.44134853753678083 -0.18159229851429221 0 -0.45906836497473352 -0.19043479360484361 0 -0.44134853753678083 -0.18159229851429221 0 -0.44484374680150301 -0.19597231310248839 0 -0.45906836497473352 -0.19043479360484361 0 -0.43155084310578928 -0.2059016662048701 0 -0.44484374680150301 -0.19597231310248839 0 -0.44343463088850471 -0.20721188330797369 0 -0.43155084310578928 -0.2059016662048701 0 -0.44343463088850471 -0.20721188330797369 0 -0.43955036875351089 -0.21658504913102711 0 -0.44343463088850471 -0.20721188330797369 0 -0.43955036875351089 -0.21658504913102711 0 -0.44966782191270221 -0.21345696714665749 0 -0.44966782191270221 -0.21345696714665749 0 -0.45691127413918359 -0.218140336649912 0 -0.44903912237987481 -0.22310222333220869 0 -0.43955036875351089 -0.21658504913102711 0 -0.44966782191270221 -0.21345696714665749 0 -0.44903912237987481 -0.22310222333220869 0 -0.44484374680150301 -0.19597231310248839 0 -0.44343463088850471 -0.20721188330797369 0 -0.45285363365211462 -0.2065344908709397 0 -0.44343463088850471 -0.20721188330797369 0 -0.44966782191270221 -0.21345696714665749 0 -0.45285363365211462 -0.2065344908709397 0 -0.45285363365211462 -0.2065344908709397 0 -0.4586721235044201 -0.2110072970525271 0 -0.46764984515344349 -0.20502399374505181 0 -0.44966782191270221 -0.21345696714665749 0 -0.45285363365211462 -0.2065344908709397 0 -0.4586721235044201 -0.2110072970525271 0 -0.44966782191270221 -0.21345696714665749 0 -0.4586721235044201 -0.2110072970525271 0 -0.45691127413918359 -0.218140336649912 0 -0.4586721235044201 -0.2110072970525271 0 -0.45691127413918359 -0.218140336649912 0 -0.46757130244775341 -0.21427176676618889 0 -0.4586721235044201 -0.2110072970525271 0 -0.46757130244775341 -0.21427176676618889 0 -0.46764984515344349 -0.20502399374505181 0 -0.44484374680150301 -0.19597231310248839 0 -0.46764984515344349 -0.20502399374505181 0 -0.45906836497473352 -0.19043479360484361 0 -0.44484374680150301 -0.19597231310248839 0 -0.45285363365211462 -0.2065344908709397 0 -0.46764984515344349 -0.20502399374505181 0 -0.45906836497473352 -0.19043479360484361 0 -0.47678819241268611 -0.1992772886953951 0 -0.44484374680150301 -0.19597231310248839 0 -0.46764984515344349 -0.20502399374505181 0 -0.46764984515344349 -0.20502399374505181 0 -0.45906836497473352 -0.19043479360484361 0 -0.47678819241268611 -0.1992772886953951 0 -0.47328693949397721 -0.18411760774338479 0 -0.45906836497473352 -0.19043479360484361 0 -0.47678819241268611 -0.1992772886953951 0 -0.48839409620634278 -0.18039624849769001 0 -0.47328693949397721 -0.18411760774338479 0 -0.47678819241268611 -0.1992772886953951 0 -0.48839409620634278 -0.18039624849769001 0 -0.47678819241268611 -0.1992772886953951 0 -0.47678819241268611 -0.1992772886953951 0 -0.48957789370491162 -0.19386933705848941 0 -0.50000000000000222 -0.21086037523234849 0 -0.48839409620634278 -0.18039624849769001 0 -0.47678819241268611 -0.1992772886953951 0 -0.48957789370491162 -0.19386933705848941 0 -0.5 -0.18618779176616679 0 -0.48957789370491162 -0.19386933705848941 0 -0.50000000000000222 -0.21086037523234849 0 -0.50000000000000222 -0.21086037523234849 0 -0.48101414991814051 -0.21220490785157131 0 -0.4775447229854059 -0.22535576830415929 0 -0.47678819241268611 -0.1992772886953951 0 -0.50000000000000222 -0.21086037523234849 0 -0.47678819241268611 -0.1992772886953951 0 -0.50000000000000222 -0.21086037523234849 0 -0.48101414991814051 -0.21220490785157131 0 -0.46757130244775341 -0.21427176676618889 0 -0.47678819241268611 -0.1992772886953951 0 -0.48101414991814051 -0.21220490785157131 0 -0.46757130244775341 -0.21427176676618889 0 -0.47678819241268611 -0.1992772886953951 0 -0.46757130244775341 -0.21427176676618889 0 -0.46764984515344349 -0.20502399374505181 0 -0.47678819241268611 -0.1992772886953951 0 -0.46757130244775341 -0.21427176676618889 0 -0.48101414991814051 -0.21220490785157131 0 -0.4775447229854059 -0.22535576830415929 0 -0.46757130244775341 -0.21427176676618889 0 -0.4775447229854059 -0.22535576830415929 0 -0.46571952953094348 -0.22577651025912229 0 -0.4775447229854059 -0.22535576830415929 0 -0.4726071657750785 -0.240360200228666 0 -0.45676275941016609 -0.23628729483617639 0 -0.50000000000000222 -0.21086037523234849 0 -0.4775447229854059 -0.22535576830415929 0 -0.48548116721245049 -0.23774912910784329 0 -0.50000000000000222 -0.21086037523234849 0 -0.5 -0.2401545466321974 0 -0.48548116721245049 -0.23774912910784329 0 -0.48050148842732221 -0.25523221810557922 0 -0.5 -0.2401545466321974 0 -0.48548116721245049 -0.23774912910784329 0 -0.48050148842732221 -0.25523221810557922 0 -0.4726071657750785 -0.240360200228666 0 -0.46267023581878858 -0.24817136713935201 0 -0.48050148842732221 -0.25523221810557922 0 -0.48548116721245049 -0.23774912910784329 0 -0.4726071657750785 -0.240360200228666 0 -0.4775447229854059 -0.22535576830415929 0 -0.48548116721245049 -0.23774912910784329 0 -0.4726071657750785 -0.240360200228666 0 -0.4726071657750785 -0.240360200228666 0 -0.46267023581878858 -0.24817136713935201 0 -0.45676275941016609 -0.23628729483617639 0 -0.46267023581878858 -0.24817136713935201 0 -0.45676275941016609 -0.23628729483617639 0 -0.45139902778349827 -0.24711062934306771 0 -0.4775447229854059 -0.22535576830415929 0 -0.45676275941016609 -0.23628729483617639 0 -0.46571952953094348 -0.22577651025912229 0 -0.4775447229854059 -0.22535576830415929 0 -0.45676275941016609 -0.23628729483617639 0 -0.46757130244775341 -0.21427176676618889 0 -0.45835441248282049 -0.22926624483698249 0 -0.45691127413918359 -0.218140336649912 0 -0.46757130244775341 -0.21427176676618889 0 -0.45835441248282049 -0.22926624483698249 0 -0.46757130244775341 -0.21427176676618889 0 -0.46571952953094348 -0.22577651025912229 0 -0.45835441248282049 -0.22926624483698249 0 -0.45691127413918359 -0.218140336649912 0 -0.45835441248282049 -0.22926624483698249 0 -0.44903912237987481 -0.22310222333220869 0 -0.45676275941016609 -0.23628729483617639 0 -0.46571952953094348 -0.22577651025912229 0 -0.45835441248282049 -0.22926624483698249 0 -0.45676275941016609 -0.23628729483617639 0 -0.45835441248282049 -0.22926624483698249 0 -0.44784406772060242 -0.23291584907632601 0 -0.45835441248282049 -0.22926624483698249 0 -0.44784406772060242 -0.23291584907632601 0 -0.44903912237987481 -0.22310222333220869 0 -0.44784406772060242 -0.23291584907632601 0 -0.44903912237987481 -0.22310222333220869 0 -0.43908324849522451 -0.2287046610080686 0 -0.43955036875351089 -0.21658504913102711 0 -0.44903912237987481 -0.22310222333220869 0 -0.43908324849522451 -0.2287046610080686 0 -0.43598079583492633 -0.24721882136819351 0 -0.44784406772060242 -0.23291584907632601 0 -0.43908324849522451 -0.2287046610080686 0 -0.43598079583492633 -0.24721882136819351 0 -0.45676275941016609 -0.23628729483617639 0 -0.45139902778349827 -0.24711062934306771 0 -0.43598079583492633 -0.24721882136819351 0 -0.45676275941016609 -0.23628729483617639 0 -0.44784406772060242 -0.23291584907632601 0 -0.43598079583492633 -0.24721882136819351 0 -0.45676275941016609 -0.23628729483617639 0 -0.41513049604948221 -0.033942569896895612 0 -0.42680670243505803 -0.034615113076212713 0 -0.40073055052989021 -0.025701474464423758 0 -0.41513049604948221 -0.033942569896895612 0 -0.42462943043776058 -0.041038039404546971 0 -0.40237332615973681 -0.030676944162886681 0 -0.42462943043776058 -0.041038039404546971 0 -0.40237332615973681 -0.030676944162886681 0 -0.41105872637709778 -0.041104419315527559 0 -0.42462943043776058 -0.041038039404546971 0 -0.40237332615973681 -0.030676944162886681 0 -0.41795689190558921 -0.046390941043723911 0 -0.41105872637709778 -0.041104419315527559 0 -0.42462943043776058 -0.041038039404546971 0 -0.41513049604948221 -0.033942569896895612 0 -0.42462943043776058 -0.041038039404546971 0 -0.4243569293735685 -0.037306081984415762 0 -0.41105872637709778 -0.041104419315527559 0 -0.4050251302254127 -0.045922345921936697 0 -0.40306291723554027 -0.039039715031688543 0 -0.41795689190558921 -0.046390941043723911 0 -0.41105872637709778 -0.041104419315527559 0 -0.41174405323292163 -0.047949206462353358 0 -0.41105872637709778 -0.041104419315527559 0 -0.41174405323292163 -0.047949206462353358 0 -0.4050251302254127 -0.045922345921936697 0 -0.41174405323292163 -0.047949206462353358 0 -0.4050251302254127 -0.045922345921936697 0 -0.40603099279739802 -0.054788986838451827 0 -0.41174405323292163 -0.047949206462353358 0 -0.4187470457232762 -0.053937065845881961 0 -0.40603099279739802 -0.054788986838451827 0 -0.4187470457232762 -0.053937065845881961 0 -0.40603099279739802 -0.054788986838451827 0 -0.41284572228237681 -0.064006668923108523 0 -0.4187470457232762 -0.053937065845881961 0 -0.41284572228237681 -0.064006668923108523 0 -0.42746868386642678 -0.066478460468227696 0 -0.41795689190558921 -0.046390941043723911 0 -0.41174405323292163 -0.047949206462353358 0 -0.4187470457232762 -0.053937065845881961 0 -0.41795689190558921 -0.046390941043723911 0 -0.4187470457232762 -0.053937065845881961 0 -0.42320145590089769 -0.048540393412862697 0 -0.42320145590089769 -0.048540393412862697 0 -0.43147245553696489 -0.05279552735729795 0 -0.42462943043776058 -0.041038039404546971 0 -0.4187470457232762 -0.053937065845881961 0 -0.42320145590089769 -0.048540393412862697 0 -0.43147245553696489 -0.05279552735729795 0 -0.43147245553696489 -0.05279552735729795 0 -0.42462943043776058 -0.041038039404546971 0 -0.44688553471578463 -0.051399134646207288 0 -0.4187470457232762 -0.053937065845881961 0 -0.43147245553696489 -0.05279552735729795 0 -0.42746868386642678 -0.066478460468227696 0 -0.43147245553696489 -0.05279552735729795 0 -0.42746868386642678 -0.066478460468227696 0 -0.43950717444435422 -0.063784996514660589 0 -0.42818951741271921 -0.038310772776573528 0 -0.43628267576141971 -0.035329403205585218 0 -0.44688553471578463 -0.051399134646207288 0 -0.42462943043776058 -0.041038039404546971 0 -0.42818951741271921 -0.038310772776573528 0 -0.44688553471578463 -0.051399134646207288 0 -0.42462943043776058 -0.041038039404546971 0 -0.44688553471578463 -0.051399134646207288 0 -0.41795689190558921 -0.046390941043723911 0 -0.42320145590089769 -0.048540393412862697 0 -0.42462943043776058 -0.041038039404546971 0 -0.41513049604948221 -0.033942569896895612 0 -0.4243569293735685 -0.037306081984415762 0 -0.42680670243505803 -0.034615113076212713 0 -0.42462943043776058 -0.041038039404546971 0 -0.4243569293735685 -0.037306081984415762 0 -0.42818951741271921 -0.038310772776573528 0 -0.42818951741271921 -0.038310772776573528 0 -0.42680670243505803 -0.034615113076212713 0 -0.4243569293735685 -0.037306081984415762 0 -0.42818951741271921 -0.038310772776573528 0 -0.42680670243505803 -0.034615113076212713 0 -0.42818951741271921 -0.038310772776573528 0 -0.42680670243505803 -0.034615113076212713 0 -0.42995577540377822 -0.032900560567165532 0 -0.42818951741271921 -0.038310772776573528 0 -0.42995577540377822 -0.032900560567165532 0 -0.43628267576141971 -0.035329403205585218 0 -0.42995577540377822 -0.032900560567165532 0 -0.43628267576141971 -0.035329403205585218 0 -0.4327931004709421 -0.029092843067932112 0 -0.42680670243505803 -0.034615113076212713 0 -0.4285090787839364 -0.025262373234060161 0 -0.41794895562780338 -0.01094222954485795 0 -0.42680670243505803 -0.034615113076212713 0 -0.41794895562780338 -0.01094222954485795 0 -0.43628267576141971 -0.035329403205585218 0 -0.4327931004709421 -0.029092843067932112 0 -0.43710875721387199 -0.026668229939385779 0 -0.42995577540377822 -0.032900560567165532 0 -0.4327931004709421 -0.029092843067932112 0 -0.4285090787839364 -0.025262373234060161 0 -0.43210921519170409 -0.025303648393463829 0 -0.43710875721387199 -0.026668229939385779 0 -0.43108579893039811 -0.01948839847471974 0 -0.4327931004709421 -0.029092843067932112 0 -0.43210921519170409 -0.025303648393463829 0 -0.4285090787839364 -0.025262373234060161 0 -0.4327931004709421 -0.029092843067932112 0 -0.43210921519170409 -0.025303648393463829 0 -0.43710875721387199 -0.026668229939385779 0 -0.43108579893039811 -0.01948839847471974 0 -0.43397544616601241 -0.014244232554068349 0 -0.43928417642389239 -0.017661557407765791 0 -0.43710875721387199 -0.026668229939385779 0 -0.43108579893039811 -0.01948839847471974 0 -0.43928417642389239 -0.017661557407765791 0 -0.43210921519170409 -0.025303648393463829 0 -0.43108579893039811 -0.01948839847471974 0 -0.4285090787839364 -0.025262373234060161 0 -0.43108579893039811 -0.01948839847471974 0 -0.4285090787839364 -0.025262373234060161 0 -0.41794895562780338 -0.01094222954485795 0 -0.42680670243505803 -0.034615113076212713 0 -0.42995577540377822 -0.032900560567165532 0 -0.4285090787839364 -0.025262373234060161 0 -0.43591977417237449 -0.008065469867085449 0 -0.42907061680018699 -0.010664914002041091 0 -0.42583279771702431 0.00046528033667210148 0 -0.43108579893039811 -0.01948839847471974 0 -0.43397544616601241 -0.014244232554068349 0 -0.42907061680018699 -0.010664914002041091 0 -0.43591977417237449 -0.008065469867085449 0 -0.43397544616601241 -0.014244232554068349 0 -0.43928417642389239 -0.017661557407765791 0 -0.43591977417237449 -0.008065469867085449 0 -0.43397544616601241 -0.014244232554068349 0 -0.42907061680018699 -0.010664914002041091 0 -0.43108579893039811 -0.01948839847471974 0 -0.42907061680018699 -0.010664914002041091 0 -0.41794895562780338 -0.01094222954485795 0 -0.42907061680018699 -0.010664914002041091 0 -0.41794895562780338 -0.01094222954485795 0 -0.42583279771702431 0.00046528033667210148 0 -0.41794895562780338 -0.01094222954485795 0 -0.4102220184461346 -0.019351118920435541 0 -0.40021295305484711 -0.013852611056198059 0 -0.41794895562780338 -0.01094222954485795 0 -0.40352261506359649 -0.001038070178381474 0 -0.40021295305484711 -0.013852611056198059 0 -0.42680670243505803 -0.034615113076212713 0 -0.41794895562780338 -0.01094222954485795 0 -0.4102220184461346 -0.019351118920435541 0 -0.42680670243505803 -0.034615113076212713 0 -0.4102220184461346 -0.019351118920435541 0 -0.40073055052989021 -0.025701474464423758 0 -0.42680670243505803 -0.034615113076212713 0 -0.40073055052989021 -0.025701474464423758 0 -0.41513049604948221 -0.033942569896895612 0 -0.40073055052989021 -0.025701474464423758 0 -0.40237332615973681 -0.030676944162886681 0 -0.40073055052989021 -0.025701474464423758 0 -0.40237332615973681 -0.030676944162886681 0 -0.38011722188171299 -0.020315848921226409 0 -0.40237332615973681 -0.030676944162886681 0 -0.38011722188171299 -0.020315848921226409 0 -0.4102220184461346 -0.019351118920435541 0 -0.40073055052989021 -0.025701474464423758 0 -0.40021295305484711 -0.013852611056198059 0 -0.40073055052989021 -0.025701474464423758 0 -0.40021295305484711 -0.013852611056198059 0 -0.38745402304870558 -0.01483805838738575 0 -0.40352261506359649 -0.001038070178381474 0 -0.40021295305484711 -0.013852611056198059 0 -0.39408165103759368 -0.0019794594859314238 0 -0.40021295305484711 -0.013852611056198059 0 -0.39408165103759368 -0.0019794594859314238 0 -0.39005949432245718 -0.0085411321607220259 0 -0.40021295305484711 -0.013852611056198059 0 -0.39005949432245718 -0.0085411321607220259 0 -0.38745402304870558 -0.01483805838738575 0 -0.39408165103759368 -0.0019794594859314238 0 -0.3848191179490616 -0.0027051675553946518 0 -0.39005949432245718 -0.0085411321607220259 0 -0.3848191179490616 -0.0027051675553946518 0 -0.38372972652207787 -0.0093303643187002475 0 -0.39005949432245718 -0.0085411321607220259 0 -0.38372972652207787 -0.0093303643187002475 0 -0.38745402304870558 -0.01483805838738575 0 -0.3791207175096093 -0.01135650732177081 0 -0.38372972652207787 -0.0093303643187002475 0 -0.39005949432245718 -0.0085411321607220259 0 -0.38745402304870558 -0.01483805838738575 0 -0.37465439862472261 -0.016787835852634068 0 -0.37464851222799189 -0.0076089195940836872 0 -0.3791207175096093 -0.01135650732177081 0 -0.37465439862472261 -0.016787835852634068 0 -0.38745402304870558 -0.01483805838738575 0 -0.3791207175096093 -0.01135650732177081 0 -0.37464851222799189 -0.0076089195940836872 0 -0.3791207175096093 -0.01135650732177081 0 -0.37960876280762101 -0.0064231604720931881 0 -0.38372972652207787 -0.0093303643187002475 0 -0.3791207175096093 -0.01135650732177081 0 -0.37960876280762101 -0.0064231604720931881 0 -0.3848191179490616 -0.0027051675553946518 0 -0.38372972652207787 -0.0093303643187002475 0 -0.37960876280762101 -0.0064231604720931881 0 -0.37464851222799189 -0.0076089195940836872 0 -0.37960876280762101 -0.0064231604720931881 0 -0.37774077980655368 -0.001289555558904682 0 -0.3848191179490616 -0.0027051675553946518 0 -0.37960876280762101 -0.0064231604720931881 0 -0.37774077980655368 -0.001289555558904682 0 -0.37465439862472261 -0.016787835852634068 0 -0.40073055052989021 -0.025701474464423758 0 -0.38745402304870558 -0.01483805838738575 0 -0.40237332615973681 -0.030676944162886681 0 -0.38781453024876661 -0.02996800237218563 0 -0.38011722188171299 -0.020315848921226409 0 -0.37465439862472261 -0.016787835852634068 0 -0.40073055052989021 -0.025701474464423758 0 -0.38011722188171299 -0.020315848921226409 0 -0.37465439862472261 -0.016787835852634068 0 -0.40073055052989021 -0.025701474464423758 0 -0.37402384376206249 -0.023759624541515059 0 -0.37465439862472261 -0.016787835852634068 0 -0.38011722188171299 -0.020315848921226409 0 -0.37402384376206249 -0.023759624541515059 0 -0.38011722188171299 -0.020315848921226409 0 -0.37866743010551202 -0.02906954498465647 0 -0.38781453024876661 -0.02996800237218563 0 -0.38011722188171299 -0.020315848921226409 0 -0.37866743010551202 -0.02906954498465647 0 -0.37439980638912518 -0.038891661293645137 0 -0.37866743010551202 -0.02906954498465647 0 -0.38394575501216083 -0.036535335565972972 0 -0.37439980638912518 -0.038891661293645137 0 -0.37993408630244868 -0.045501240077299353 0 -0.38394575501216083 -0.036535335565972972 0 -0.37085155020467431 -0.050438611479832557 0 -0.37439980638912518 -0.038891661293645137 0 -0.37993408630244868 -0.045501240077299353 0 -0.37993408630244868 -0.045501240077299353 0 -0.38895054345211377 -0.045335196083553769 0 -0.38394575501216083 -0.036535335565972972 0 -0.38895054345211377 -0.045335196083553769 0 -0.38394575501216083 -0.036535335565972972 0 -0.39396365166307989 -0.03445798481758762 0 -0.38781453024876661 -0.02996800237218563 0 -0.38394575501216083 -0.036535335565972972 0 -0.39396365166307989 -0.03445798481758762 0 -0.38781453024876661 -0.02996800237218563 0 -0.37866743010551202 -0.02906954498465647 0 -0.38394575501216083 -0.036535335565972972 0 -0.40237332615973681 -0.030676944162886681 0 -0.38781453024876661 -0.02996800237218563 0 -0.39396365166307989 -0.03445798481758762 0 -0.39396365166307989 -0.03445798481758762 0 -0.39750411751227832 -0.042292212187568533 0 -0.39928834571923882 -0.035924112998793431 0 -0.38895054345211377 -0.045335196083553769 0 -0.39396365166307989 -0.03445798481758762 0 -0.39750411751227832 -0.042292212187568533 0 -0.39750411751227832 -0.042292212187568533 0 -0.4050251302254127 -0.045922345921936697 0 -0.40306291723554027 -0.039039715031688543 0 -0.39750411751227832 -0.042292212187568533 0 -0.40306291723554027 -0.039039715031688543 0 -0.39928834571923882 -0.035924112998793431 0 -0.40237332615973681 -0.030676944162886681 0 -0.39396365166307989 -0.03445798481758762 0 -0.39928834571923882 -0.035924112998793431 0 -0.41105872637709778 -0.041104419315527559 0 -0.40237332615973681 -0.030676944162886681 0 -0.40306291723554027 -0.039039715031688543 0 -0.40237332615973681 -0.030676944162886681 0 -0.40306291723554027 -0.039039715031688543 0 -0.39928834571923882 -0.035924112998793431 0 -0.40603099279739802 -0.054788986838451827 0 -0.39527915405366182 -0.064437672488960096 0 -0.41284572228237681 -0.064006668923108523 0 -0.40603099279739802 -0.054788986838451827 0 -0.39443592701229091 -0.053019652188425637 0 -0.39527915405366182 -0.064437672488960096 0 -0.4050251302254127 -0.045922345921936697 0 -0.40603099279739802 -0.054788986838451827 0 -0.39443592701229091 -0.053019652188425637 0 -0.39750411751227832 -0.042292212187568533 0 -0.4050251302254127 -0.045922345921936697 0 -0.39443592701229091 -0.053019652188425637 0 -0.38895054345211377 -0.045335196083553769 0 -0.39750411751227832 -0.042292212187568533 0 -0.39443592701229091 -0.053019652188425637 0 -0.39443592701229091 -0.053019652188425637 0 -0.38221605892473098 -0.056125323053866277 0 -0.39527915405366182 -0.064437672488960096 0 -0.36608399240098949 -0.063120758007335118 0 -0.38221605892473098 -0.056125323053866277 0 -0.37978412082390189 -0.068029865631836883 0 -0.38895054345211377 -0.045335196083553769 0 -0.39443592701229091 -0.053019652188425637 0 -0.38221605892473098 -0.056125323053866277 0 -0.37993408630244868 -0.045501240077299353 0 -0.38895054345211377 -0.045335196083553769 0 -0.38221605892473098 -0.056125323053866277 0 -0.37085155020467431 -0.050438611479832557 0 -0.37993408630244868 -0.045501240077299353 0 -0.38221605892473098 -0.056125323053866277 0 -0.36843110820579178 -0.075527255856609146 0 -0.37978412082390189 -0.068029865631836883 0 -0.38691029053433551 -0.080938318752413793 0 -0.37978412082390189 -0.068029865631836883 0 -0.38691029053433551 -0.080938318752413793 0 -0.39527915405366182 -0.064437672488960096 0 -0.38221605892473098 -0.056125323053866277 0 -0.37978412082390189 -0.068029865631836883 0 -0.39527915405366182 -0.064437672488960096 0 -0.37380044498630338 -0.100392191664622 0 -0.36747037526515469 -0.088210616938563927 0 -0.38691029053433551 -0.080938318752413793 0 -0.36843110820579178 -0.075527255856609146 0 -0.38691029053433551 -0.080938318752413793 0 -0.40007542381043809 -0.086939242353532731 0 -0.39460333317738627 -0.1006873657273652 0 -0.41352047356827321 -0.0909948847898496 0 -0.38691029053433551 -0.080938318752413793 0 -0.40007542381043809 -0.086939242353532731 0 -0.40767355229219521 -0.074626636544090755 0 -0.38691029053433551 -0.080938318752413793 0 -0.40007542381043809 -0.086939242353532731 0 -0.39460333317738627 -0.1006873657273652 0 -0.38691029053433551 -0.080938318752413793 0 -0.39527915405366182 -0.064437672488960096 0 -0.40767355229219521 -0.074626636544090755 0 -0.39527915405366182 -0.064437672488960096 0 -0.41284572228237681 -0.064006668923108523 0 -0.40767355229219521 -0.074626636544090755 0 -0.36893450279197471 -0.1249528869149899 0 -0.3789649235099295 -0.11270856972454819 0 -0.39514760223357998 -0.1249586529677193 0 -0.36893450279197471 -0.1249528869149899 0 -0.39514760223357998 -0.1249586529677193 0 -0.3789649235099295 -0.11270856972454819 0 -0.39460333317738627 -0.1006873657273652 0 -0.39514760223357998 -0.1249586529677193 0 -0.37380044498630338 -0.100392191664622 0 -0.38691029053433551 -0.080938318752413793 0 -0.39460333317738627 -0.1006873657273652 0 -0.37380044498630338 -0.100392191664622 0 -0.3789649235099295 -0.11270856972454819 0 -0.39460333317738627 -0.1006873657273652 0 -0.39460333317738627 -0.1006873657273652 0 -0.39514760223357998 -0.1249586529677193 0 -0.4114708495464785 -0.1093321351213095 0 -0.42136070167518519 -0.1249644190204488 0 -0.4114708495464785 -0.1093321351213095 0 -0.43272213707796769 -0.1050553531011644 0 -0.39514760223357998 -0.1249586529677193 0 -0.42136070167518519 -0.1249644190204488 0 -0.39514760223357998 -0.1249586529677193 0 -0.42136070167518519 -0.1249644190204488 0 -0.4114708495464785 -0.1093321351213095 0 -0.39460333317738627 -0.1006873657273652 0 -0.4114708495464785 -0.1093321351213095 0 -0.41352047356827321 -0.0909948847898496 0 -0.4114708495464785 -0.1093321351213095 0 -0.43272213707796769 -0.1050553531011644 0 -0.41352047356827321 -0.0909948847898496 0 -0.42136070167518519 -0.1249644190204488 0 -0.43272213707796769 -0.1050553531011644 0 -0.44757380111679052 -0.12497018507317829 0 -0.42136070167518519 -0.1249644190204488 0 -0.44757380111679052 -0.12497018507317829 0 -0.42023793718526542 -0.076451056482049876 0 -0.41284572228237681 -0.064006668923108523 0 -0.42746868386642678 -0.066478460468227696 0 -0.42023793718526542 -0.076451056482049876 0 -0.41284572228237681 -0.064006668923108523 0 -0.40767355229219521 -0.074626636544090755 0 -0.42023793718526542 -0.076451056482049876 0 -0.40767355229219521 -0.074626636544090755 0 -0.41352047356827321 -0.0909948847898496 0 -0.40007542381043809 -0.086939242353532731 0 -0.40767355229219521 -0.074626636544090755 0 -0.41352047356827321 -0.0909948847898496 0 -0.42023793718526542 -0.076451056482049876 0 -0.41352047356827321 -0.0909948847898496 0 -0.43051036701793649 -0.083964229305721505 0 -0.43272213707796769 -0.1050553531011644 0 -0.41352047356827321 -0.0909948847898496 0 -0.43051036701793649 -0.083964229305721505 0 -0.43272213707796769 -0.1050553531011644 0 -0.43051036701793649 -0.083964229305721505 0 -0.44869793539396702 -0.090613631575090198 0 -0.43051036701793649 -0.083964229305721505 0 -0.42746868386642678 -0.066478460468227696 0 -0.43938561630945938 -0.075374003134316428 0 -0.42023793718526542 -0.076451056482049876 0 -0.43051036701793649 -0.083964229305721505 0 -0.42746868386642678 -0.066478460468227696 0 -0.42746868386642678 -0.066478460468227696 0 -0.43950717444435422 -0.063784996514660589 0 -0.43938561630945938 -0.075374003134316428 0 -0.43950717444435422 -0.063784996514660589 0 -0.45074392082461212 -0.072028697807882153 0 -0.43938561630945938 -0.075374003134316428 0 -0.43051036701793649 -0.083964229305721505 0 -0.43938561630945938 -0.075374003134316428 0 -0.44869793539396702 -0.090613631575090198 0 -0.45074392082461212 -0.072028697807882153 0 -0.43938561630945938 -0.075374003134316428 0 -0.44869793539396702 -0.090613631575090198 0 -0.45074392082461212 -0.072028697807882153 0 -0.44869793539396702 -0.090613631575090198 0 -0.4647336852437608 -0.080388630180202481 0 -0.44869793539396702 -0.090613631575090198 0 -0.4647336852437608 -0.080388630180202481 0 -0.47380622041468068 -0.096022360055862885 0 -0.4647336852437608 -0.080388630180202481 0 -0.46264955769922828 -0.069236149835977229 0 -0.47254815090776853 -0.069469283055039688 0 -0.45074392082461212 -0.072028697807882153 0 -0.46264955769922828 -0.069236149835977229 0 -0.44688553471578463 -0.051399134646207288 0 -0.46264955769922828 -0.069236149835977229 0 -0.47254815090776853 -0.069469283055039688 0 -0.46914163899380801 -0.061760229887868598 0 -0.45074392082461212 -0.072028697807882153 0 -0.4647336852437608 -0.080388630180202481 0 -0.46264955769922828 -0.069236149835977229 0 -0.43272213707796769 -0.1050553531011644 0 -0.44757380111679052 -0.12497018507317829 0 -0.46022938895027038 -0.10869066194517669 0 -0.43272213707796769 -0.1050553531011644 0 -0.44869793539396702 -0.090613631575090198 0 -0.46022938895027038 -0.10869066194517669 0 -0.44869793539396702 -0.090613631575090198 0 -0.46022938895027038 -0.10869066194517669 0 -0.47380622041468068 -0.096022360055862885 0 -0.44757380111679052 -0.12497018507317829 0 -0.47378690055839578 -0.1249759511259078 0 -0.44757380111679052 -0.12497018507317829 0 -0.46022938895027038 -0.10869066194517669 0 -0.47378690055839578 -0.1249759511259078 0 -0.46022938895027038 -0.10869066194517669 0 -0.47378690055839578 -0.1249759511259078 0 -0.48374478807960558 -0.1092121363906397 0 -0.46022938895027038 -0.10869066194517669 0 -0.48374478807960558 -0.1092121363906397 0 -0.47380622041468068 -0.096022360055862885 0 -0.48374478807960558 -0.1092121363906397 0 -0.47380622041468068 -0.096022360055862885 0 -0.48832582805197727 -0.092109142267116931 0 -0.48374478807960558 -0.1092121363906397 0 -0.5 -0.10055386622176241 0 -0.48832582805197727 -0.092109142267116931 0 -0.47378690055839578 -0.1249759511259078 0 -0.48374478807960558 -0.1092121363906397 0 -0.50000000000000111 -0.12498171717863731 0 -0.48374478807960558 -0.1092121363906397 0 -0.5 -0.10055386622176241 0 -0.50000000000000111 -0.12498171717863731 0 -0.47378690055839578 -0.1249759511259078 0 -0.50000000000000111 -0.12498171717863731 0 -0.47254815090776853 -0.069469283055039688 0 -0.47913967023945842 -0.082463322467565006 0 -0.48457081949690362 -0.068943122576377761 0 -0.47913967023945842 -0.082463322467565006 0 -0.48808502354595151 -0.080031310268457945 0 -0.48457081949690362 -0.068943122576377761 0 -0.48457081949690362 -0.068943122576377761 0 -0.46914163899380801 -0.061760229887868598 0 -0.48457081949690362 -0.068943122576377761 0 -0.48230491698392047 -0.057318093012348498 0 -0.46914163899380801 -0.061760229887868598 0 -0.47254815090776853 -0.069469283055039688 0 -0.48457081949690362 -0.068943122576377761 0 -0.46914163899380801 -0.061760229887868598 0 -0.47254815090776853 -0.069469283055039688 0 -0.46914163899380801 -0.061760229887868598 0 -0.4647336852437608 -0.080388630180202481 0 -0.47254815090776853 -0.069469283055039688 0 -0.47913967023945842 -0.082463322467565006 0 -0.4647336852437608 -0.080388630180202481 0 -0.47380622041468068 -0.096022360055862885 0 -0.47913967023945842 -0.082463322467565006 0 -0.47380622041468068 -0.096022360055862885 0 -0.47913967023945842 -0.082463322467565006 0 -0.48832582805197727 -0.092109142267116931 0 -0.5 -0.10055386622176241 0 -0.48832582805197727 -0.092109142267116931 0 -0.499999999999999 -0.07612601526488752 0 -0.48808502354595151 -0.080031310268457945 0 -0.48832582805197727 -0.092109142267116931 0 -0.499999999999999 -0.07612601526488752 0 -0.47913967023945842 -0.082463322467565006 0 -0.48808502354595151 -0.080031310268457945 0 -0.48832582805197727 -0.092109142267116931 0 -0.499999999999999 -0.07612601526488752 0 -0.48457081949690362 -0.068943122576377761 0 -0.499999999999999 -0.07612601526488752 0 -0.48457081949690362 -0.068943122576377761 0 -0.5 -0.055081012739928707 0 -0.48808502354595151 -0.080031310268457945 0 -0.499999999999999 -0.07612601526488752 0 -0.48457081949690362 -0.068943122576377761 0 -0.48457081949690362 -0.068943122576377761 0 -0.5 -0.055081012739928707 0 -0.48230491698392047 -0.057318093012348498 0 -0.5 -0.055081012739928707 0 -0.48157039955536241 -0.044558511477442143 0 -0.48230491698392047 -0.057318093012348498 0 -0.5 -0.055081012739928707 0 -0.500000000000004 -0.034036010214970061 0 -0.48157039955536241 -0.044558511477442143 0 -0.500000000000004 -0.034036010214970061 0 -0.48157039955536241 -0.044558511477442143 0 -0.48148290990478199 -0.029591545163434652 0 -0.48157039955536241 -0.044558511477442143 0 -0.45768975774058179 -0.035844230274481748 0 -0.48148290990478199 -0.029591545163434652 0 -0.48157039955536241 -0.044558511477442143 0 -0.46914163899380801 -0.061760229887868598 0 -0.45768975774058179 -0.035844230274481748 0 -0.48157039955536241 -0.044558511477442143 0 -0.48230491698392047 -0.057318093012348498 0 -0.46914163899380801 -0.061760229887868598 0 -0.46914163899380801 -0.061760229887868598 0 -0.45768975774058179 -0.035844230274481748 0 -0.44688553471578463 -0.051399134646207288 0 -0.46914163899380801 -0.061760229887868598 0 -0.45768975774058179 -0.035844230274481748 0 -0.46264955769922828 -0.069236149835977229 0 -0.46914163899380801 -0.061760229887868598 0 -0.44688553471578463 -0.051399134646207288 0 -0.46914163899380801 -0.061760229887868598 0 -0.44688553471578463 -0.051399134646207288 0 -0.43628267576141971 -0.035329403205585218 0 -0.44354830351403418 -0.034418653902415733 0 -0.44688553471578463 -0.051399134646207288 0 -0.45768975774058179 -0.035844230274481748 0 -0.44354830351403418 -0.034418653902415733 0 -0.44688553471578463 -0.051399134646207288 0 -0.45768975774058179 -0.035844230274481748 0 -0.44354830351403418 -0.034418653902415733 0 -0.44312252706978628 -0.024928407146411868 0 -0.43628267576141971 -0.035329403205585218 0 -0.43710875721387199 -0.026668229939385779 0 -0.44354830351403418 -0.034418653902415733 0 -0.43950717444435422 -0.063784996514660589 0 -0.45074392082461212 -0.072028697807882153 0 -0.44688553471578463 -0.051399134646207288 0 -0.43147245553696489 -0.05279552735729795 0 -0.43950717444435422 -0.063784996514660589 0 -0.44688553471578463 -0.051399134646207288 0 -0.43591977417237449 -0.008065469867085449 0 -0.44623787648735791 -0.0099282306610938807 0 -0.43740981058492812 0.01004998492246997 0 -0.43591977417237449 -0.008065469867085449 0 -0.44623787648735791 -0.0099282306610938807 0 -0.43928417642389239 -0.017661557407765791 0 -0.43591977417237449 -0.008065469867085449 0 -0.44623787648735791 -0.0099282306610938807 0 -0.43710875721387199 -0.026668229939385779 0 -0.43928417642389239 -0.017661557407765791 0 -0.44312252706978628 -0.024928407146411868 0 -0.45768975774058179 -0.035844230274481748 0 -0.44623787648735791 -0.0099282306610938807 0 -0.44312252706978628 -0.024928407146411868 0 -0.45768975774058179 -0.035844230274481748 0 -0.44623787648735791 -0.0099282306610938807 0 -0.44623787648735791 -0.0099282306610938807 0 -0.43928417642389239 -0.017661557407765791 0 -0.44312252706978628 -0.024928407146411868 0 -0.43710875721387199 -0.026668229939385779 0 -0.44354830351403418 -0.034418653902415733 0 -0.44312252706978628 -0.024928407146411868 0 -0.45768975774058179 -0.035844230274481748 0 -0.44623787648735791 -0.0099282306610938807 0 -0.47146408957177099 -0.01448240150379307 0 -0.44623787648735791 -0.0099282306610938807 0 -0.47146408957177099 -0.01448240150379307 0 -0.44623787648735791 -0.0099282306610938807 0 -0.47146408957177099 -0.01448240150379307 0 -0.46048772545436639 0.0043098071123656434 0 -0.47146408957177099 -0.01448240150379307 0 -0.47882554305316488 -0.0018417715126103191 0 -0.46048772545436639 0.0043098071123656434 0 -0.47146408957177099 -0.01448240150379307 0 -0.47882554305316488 -0.0018417715126103191 0 -0.49669030265618502 -0.01903657234648758 0 -0.47146408957177099 -0.01448240150379307 0 -0.49669030265618502 -0.01903657234648758 0 -0.47146408957177099 -0.01448240150379307 0 -0.48148290990478199 -0.029591545163434652 0 -0.49669030265618502 -0.01903657234648758 0 -0.45768975774058179 -0.035844230274481748 0 -0.47146408957177099 -0.01448240150379307 0 -0.48148290990478199 -0.029591545163434652 0 -0.500000000000004 -0.034036010214970061 0 -0.48148290990478199 -0.029591545163434652 0 -0.49669030265618502 -0.01903657234648758 0 -0.49669030265618502 -0.01903657234648758 0 -0.50000000000000056 -0.019634082844440681 0 -0.500000000000004 -0.034036010214970061 0 -0.49669030265618502 -0.01903657234648758 0 -0.500000000000004 -0.034036010214970061 0 -0.49669030265618502 -0.01903657234648758 0 -0.50000000000000056 -0.019634082844440681 0 -0.47882554305316488 -0.0018417715126103191 0 -0.49669030265618502 -0.01903657234648758 0 -0.49160980924365538 0.0039880541876541054 0 -0.49669030265618502 -0.01903657234648758 0 -0.49160980924365538 0.0039880541876541054 0 -0.49669030265618502 -0.01903657234648758 0 -0.50000000000000056 -0.019634082844440681 0 -0.49160980924365538 0.0039880541876541054 0 -0.50000000000000056 -0.019634082844440681 0 -0.49160980924365538 0.0039880541876541054 0 -0.50000000000000033 0.009303662189531537 0 -0.49160980924365538 0.0039880541876541054 0 -0.48652931583112352 0.027012680721795381 0 -0.49160980924365538 0.0039880541876541054 0 -0.50000000000000033 0.009303662189531537 0 -0.48652931583112352 0.027012680721795381 0 -0.50000000000000033 0.009303662189531537 0 -0.5 0.03611151152349279 0 -0.49175907743105379 0.031398254416965428 0 -0.50000000000000033 0.009303662189531537 0 -0.49175907743105379 0.031398254416965428 0 -0.50000000000000033 0.009303662189531537 0 -0.48652931583112352 0.027012680721795381 0 -0.49175907743105379 0.031398254416965428 0 -0.48652931583112352 0.027012680721795381 0 -0.47387578833984401 0.016012254987208822 0 -0.46815351836101687 0.031449839152918539 0 -0.49160980924365538 0.0039880541876541054 0 -0.48652931583112352 0.027012680721795381 0 -0.47387578833984401 0.016012254987208822 0 -0.47882554305316488 -0.0018417715126103191 0 -0.49160980924365538 0.0039880541876541054 0 -0.47387578833984401 0.016012254987208822 0 -0.47882554305316488 -0.0018417715126103191 0 -0.47387578833984401 0.016012254987208822 0 -0.46048772545436639 0.0043098071123656434 0 -0.49282352307895688 0.045257754500502748 0 -0.5 0.03611151152349279 0 -0.5 0.062919360857453976 0 -0.49282352307895688 0.045257754500502748 0 -0.48351815486210709 0.053492846644399093 0 -0.5 0.062919360857453976 0 -0.49175907743105379 0.031398254416965428 0 -0.48144882241859149 0.050037307255936581 0 -0.48351815486210709 0.053492846644399093 0 -0.48652931583112352 0.027012680721795381 0 -0.49175907743105379 0.031398254416965428 0 -0.48144882241859149 0.050037307255936581 0 -0.49175907743105379 0.031398254416965428 0 -0.48351815486210709 0.053492846644399093 0 -0.49282352307895688 0.045257754500502748 0 -0.49175907743105379 0.031398254416965428 0 -0.48351815486210709 0.053492846644399093 0 -0.49282352307895688 0.045257754500502748 0 -0.5 0.03611151152349279 0 -0.49175907743105379 0.031398254416965428 0 -0.48144882241859149 0.050037307255936581 0 -0.4639696453013944 0.043374392403556838 0 -0.46815351836101687 0.031449839152918539 0 -0.48652931583112352 0.027012680721795381 0 -0.48144882241859149 0.050037307255936581 0 -0.48652931583112352 0.027012680721795381 0 -0.48144882241859149 0.050037307255936581 0 -0.46815351836101687 0.031449839152918539 0 -0.48144882241859149 0.050037307255936581 0 -0.45709786057011947 0.055708105081253657 0 -0.47636832900606041 0.073061933790077832 0 -0.48144882241859149 0.050037307255936581 0 -0.48351815486210709 0.053492846644399093 0 -0.47636832900606041 0.073061933790077832 0 -0.48144882241859149 0.050037307255936581 0 -0.47636832900606041 0.073061933790077832 0 -0.48144882241859149 0.050037307255936581 0 -0.45709786057011947 0.055708105081253657 0 -0.4639696453013944 0.043374392403556838 0 -0.45709786057011947 0.055708105081253657 0 -0.4639696453013944 0.043374392403556838 0 -0.45299045524759751 0.034902057762674861 0 -0.4639696453013944 0.043374392403556838 0 -0.46815351836101687 0.031449839152918539 0 -0.45299045524759751 0.034902057762674861 0 -0.46815351836101687 0.031449839152918539 0 -0.45299045524759751 0.034902057762674861 0 -0.45709786057011947 0.055708105081253657 0 -0.45299045524759751 0.034902057762674861 0 -0.43782739213417787 0.038354276372430232 0 -0.45299045524759751 0.034902057762674861 0 -0.43782739213417787 0.038354276372430232 0 -0.45299045524759751 0.034902057762674861 0 -0.43782739213417787 0.038354276372430232 0 -0.44297011017848281 0.02707887027054981 0 -0.45709786057011947 0.055708105081253657 0 -0.43782739213417787 0.038354276372430232 0 -0.43187248081207541 0.055496176207803817 0 -0.45709786057011947 0.055708105081253657 0 -0.43782739213417787 0.038354276372430232 0 -0.45709786057011947 0.055708105081253657 0 -0.43187248081207541 0.055496176207803817 0 -0.43763284036668942 0.072255399145110422 0 -0.47387578833984401 0.016012254987208822 0 -0.46048772545436639 0.0043098071123656434 0 -0.45598123469437257 0.020633802368031268 0 -0.47387578833984401 0.016012254987208822 0 -0.46815351836101687 0.031449839152918539 0 -0.45598123469437257 0.020633802368031268 0 -0.46815351836101687 0.031449839152918539 0 -0.45299045524759751 0.034902057762674861 0 -0.45598123469437257 0.020633802368031268 0 -0.45598123469437257 0.020633802368031268 0 -0.44297011017848281 0.02707887027054981 0 -0.43740981058492812 0.01004998492246997 0 -0.45299045524759751 0.034902057762674861 0 -0.45598123469437257 0.020633802368031268 0 -0.44297011017848281 0.02707887027054981 0 -0.46048772545436639 0.0043098071123656434 0 -0.45598123469437257 0.020633802368031268 0 -0.43740981058492812 0.01004998492246997 0 -0.44623787648735791 -0.0099282306610938807 0 -0.46048772545436639 0.0043098071123656434 0 -0.43740981058492812 0.01004998492246997 0 -0.44623787648735791 -0.0099282306610938807 0 -0.43740981058492812 0.01004998492246997 0 -0.43591977417237449 -0.008065469867085449 0 -0.43740981058492812 0.01004998492246997 0 -0.42583279771702431 0.00046528033667210148 0 -0.43740981058492812 0.01004998492246997 0 -0.42292027786463471 0.01349413118407828 0 -0.42583279771702431 0.00046528033667210148 0 -0.41794895562780338 -0.01094222954485795 0 -0.40909120882054839 0.01273065398649661 0 -0.41794895562780338 -0.01094222954485795 0 -0.40352261506359649 -0.001038070178381474 0 -0.40909120882054839 0.01273065398649661 0 -0.42292027786463471 0.01349413118407828 0 -0.42583279771702431 0.00046528033667210148 0 -0.40909120882054839 0.01273065398649661 0 -0.41794895562780338 -0.01094222954485795 0 -0.42583279771702431 0.00046528033667210148 0 -0.40909120882054839 0.01273065398649661 0 -0.40909120882054839 0.01273065398649661 0 -0.41494363987246979 0.023236645495722939 0 -0.40023346201329341 0.036403537517851137 0 -0.41494363987246979 0.023236645495722939 0 -0.41436175989852531 0.033604495869393458 0 -0.40023346201329341 0.036403537517851137 0 -0.42292027786463471 0.01349413118407828 0 -0.41494363987246979 0.023236645495722939 0 -0.424969395700869 0.026775135554755129 0 -0.42292027786463471 0.01349413118407828 0 -0.40909120882054839 0.01273065398649661 0 -0.41494363987246979 0.023236645495722939 0 -0.41494363987246979 0.023236645495722939 0 -0.41896391809246269 0.029132761591660509 0 -0.41436175989852531 0.033604495869393458 0 -0.41494363987246979 0.023236645495722939 0 -0.41896391809246269 0.029132761591660509 0 -0.424969395700869 0.026775135554755129 0 -0.41896391809246269 0.029132761591660509 0 -0.424969395700869 0.026775135554755129 0 -0.42158087689798668 0.032914769446770492 0 -0.424969395700869 0.026775135554755129 0 -0.42858174468249838 0.030028200506033911 0 -0.42158087689798668 0.032914769446770492 0 -0.44297011017848281 0.02707887027054981 0 -0.43740981058492812 0.01004998492246997 0 -0.42858174468249838 0.030028200506033911 0 -0.43740981058492812 0.01004998492246997 0 -0.42292027786463471 0.01349413118407828 0 -0.424969395700869 0.026775135554755129 0 -0.43740981058492812 0.01004998492246997 0 -0.42858174468249838 0.030028200506033911 0 -0.43740981058492812 0.01004998492246997 0 -0.424969395700869 0.026775135554755129 0 -0.42858174468249838 0.030028200506033911 0 -0.424969395700869 0.026775135554755129 0 -0.42858174468249838 0.030028200506033911 0 -0.43782739213417787 0.038354276372430232 0 -0.44297011017848281 0.02707887027054981 0 -0.42858174468249838 0.030028200506033911 0 -0.43782739213417787 0.038354276372430232 0 -0.42858174468249838 0.030028200506033911 0 -0.42345682706553001 0.041626064651069543 0 -0.43782739213417787 0.038354276372430232 0 -0.42345682706553001 0.041626064651069543 0 -0.43187248081207541 0.055496176207803817 0 -0.43782739213417787 0.038354276372430232 0 -0.42858174468249838 0.030028200506033911 0 -0.43782739213417787 0.038354276372430232 0 -0.42345682706553001 0.041626064651069543 0 -0.42858174468249838 0.030028200506033911 0 -0.42345682706553001 0.041626064651069543 0 -0.42158087689798668 0.032914769446770492 0 -0.42858174468249838 0.030028200506033911 0 -0.42345682706553001 0.041626064651069543 0 -0.42345682706553001 0.041626064651069543 0 -0.43187248081207541 0.055496176207803817 0 -0.4177568865966339 0.054525225210098782 0 -0.43187248081207541 0.055496176207803817 0 -0.4177568865966339 0.054525225210098782 0 -0.41753301535116211 0.067129086497859855 0 -0.42345682706553001 0.041626064651069543 0 -0.4177568865966339 0.054525225210098782 0 -0.40276573021624068 0.046336866753853997 0 -0.4177568865966339 0.054525225210098782 0 -0.40750332447406851 0.057375884956624552 0 -0.41753301535116211 0.067129086497859855 0 -0.42345682706553001 0.041626064651069543 0 -0.4177568865966339 0.054525225210098782 0 -0.4177568865966339 0.054525225210098782 0 -0.40750332447406851 0.057375884956624552 0 -0.40276573021624068 0.046336866753853997 0 -0.42345682706553001 0.041626064651069543 0 -0.40276573021624068 0.046336866753853997 0 -0.42345682706553001 0.041626064651069543 0 -0.41020444479839763 0.039492741198042178 0 -0.40276573021624068 0.046336866753853997 0 -0.42345682706553001 0.041626064651069543 0 -0.41436175989852531 0.033604495869393458 0 -0.42158087689798668 0.032914769446770492 0 -0.42345682706553001 0.041626064651069543 0 -0.41436175989852531 0.033604495869393458 0 -0.41020444479839763 0.039492741198042178 0 -0.41896391809246269 0.029132761591660509 0 -0.41436175989852531 0.033604495869393458 0 -0.42158087689798668 0.032914769446770492 0 -0.41436175989852531 0.033604495869393458 0 -0.41020444479839763 0.039492741198042178 0 -0.40023346201329341 0.036403537517851137 0 -0.40276573021624068 0.046336866753853997 0 -0.38207463336695202 0.051047668856640811 0 -0.38772007791329738 0.03985096685417347 0 -0.41020444479839763 0.039492741198042178 0 -0.40023346201329341 0.036403537517851137 0 -0.40276573021624068 0.046336866753853997 0 -0.40023346201329341 0.036403537517851137 0 -0.40276573021624068 0.046336866753853997 0 -0.38772007791329738 0.03985096685417347 0 -0.40023346201329341 0.036403537517851137 0 -0.38772007791329738 0.03985096685417347 0 -0.38925836826538629 0.030805614435688099 0 -0.40276573021624068 0.046336866753853997 0 -0.38207463336695202 0.051047668856640811 0 -0.40276573021624068 0.046336866753853997 0 -0.39689466156197101 0.057407184083191301 0 -0.38207463336695202 0.051047668856640811 0 -0.40750332447406851 0.057375884956624552 0 -0.39689466156197101 0.057407184083191301 0 -0.40210564328563447 0.066115584712721373 0 -0.40750332447406851 0.057375884956624552 0 -0.40276573021624068 0.046336866753853997 0 -0.39689466156197101 0.057407184083191301 0 -0.38207463336695202 0.051047668856640811 0 -0.38848633305814179 0.065600711414542545 0 -0.36891219827968119 0.060077996683558232 0 -0.39689466156197101 0.057407184083191301 0 -0.38207463336695202 0.051047668856640811 0 -0.38848633305814179 0.065600711414542545 0 -0.38772007791329738 0.03985096685417347 0 -0.37937813184432773 0.031366277704107569 0 -0.38925836826538629 0.030805614435688099 0 -0.38207463336695202 0.051047668856640811 0 -0.38772007791329738 0.03985096685417347 0 -0.37261014177358448 0.043145835856899219 0 -0.38772007791329738 0.03985096685417347 0 -0.37937813184432773 0.031366277704107569 0 -0.37261014177358448 0.043145835856899219 0 -0.37937813184432773 0.031366277704107569 0 -0.38391758338059062 0.022870450659759161 0 -0.37479293228070759 0.022502646493578662 0 -0.37937813184432773 0.031366277704107569 0 -0.38925836826538629 0.030805614435688099 0 -0.38391758338059062 0.022870450659759161 0 -0.38925836826538629 0.030805614435688099 0 -0.38391758338059062 0.022870450659759161 0 -0.3946160130735708 0.021551959563878339 0 -0.38391758338059062 0.022870450659759161 0 -0.38667067902898572 0.013842153393714489 0 -0.3946160130735708 0.021551959563878339 0 -0.38391758338059062 0.022870450659759161 0 -0.3778438638662554 0.014761087644765769 0 -0.38667067902898572 0.013842153393714489 0 -0.38391758338059062 0.022870450659759161 0 -0.3778438638662554 0.014761087644765769 0 -0.37479293228070759 0.022502646493578662 0 -0.3778438638662554 0.014761087644765769 0 -0.38165634421242611 0.0056742618597281089 0 -0.38667067902898572 0.013842153393714489 0 -0.3778438638662554 0.014761087644765769 0 -0.38165634421242611 0.0056742618597281089 0 -0.37464316483836829 0.0066416053135349984 0 -0.37774077980655368 -0.001289555558904682 0 -0.38165634421242611 0.0056742618597281089 0 -0.37464316483836829 0.0066416053135349984 0 -0.3848191179490616 -0.0027051675553946518 0 -0.37774077980655368 -0.001289555558904682 0 -0.38165634421242611 0.0056742618597281089 0 -0.3848191179490616 -0.0027051675553946518 0 -0.38165634421242611 0.0056742618597281089 0 -0.38845980705381639 0.0057813395070211177 0 -0.39408165103759368 -0.0019794594859314238 0 -0.3848191179490616 -0.0027051675553946518 0 -0.38845980705381639 0.0057813395070211177 0 -0.38845980705381639 0.0057813395070211177 0 -0.38667067902898572 0.013842153393714489 0 -0.39627830677719 0.008853295208583448 0 -0.38165634421242611 0.0056742618597281089 0 -0.38845980705381639 0.0057813395070211177 0 -0.38667067902898572 0.013842153393714489 0 -0.38667067902898572 0.013842153393714489 0 -0.39627830677719 0.008853295208583448 0 -0.3946160130735708 0.021551959563878339 0 -0.39408165103759368 -0.0019794594859314238 0 -0.38845980705381639 0.0057813395070211177 0 -0.39627830677719 0.008853295208583448 0 -0.40352261506359649 -0.001038070178381474 0 -0.39408165103759368 -0.0019794594859314238 0 -0.39627830677719 0.008853295208583448 0 -0.40352261506359649 -0.001038070178381474 0 -0.40909120882054839 0.01273065398649661 0 -0.39627830677719 0.008853295208583448 0 -0.40909120882054839 0.01273065398649661 0 -0.39627830677719 0.008853295208583448 0 -0.3946160130735708 0.021551959563878339 0 -0.40909120882054839 0.01273065398649661 0 -0.40023346201329341 0.036403537517851137 0 -0.3946160130735708 0.021551959563878339 0 -0.40909120882054839 0.01273065398649661 0 -0.40023346201329341 0.036403537517851137 0 -0.40023346201329341 0.036403537517851137 0 -0.38925836826538629 0.030805614435688099 0 -0.3946160130735708 0.021551959563878339 0 -0.38696142946532958 0.1003701901717608 0 -0.40164011277457379 0.081352107660276216 0 -0.40864304721671202 0.1107171055473533 0 -0.38750957741872682 0.11885909540365321 0 -0.40864304721671202 0.1107171055473533 0 -0.39401402549175851 0.1361747599337243 0 -0.38750957741872682 0.11885909540365321 0 -0.38696142946532958 0.1003701901717608 0 -0.40864304721671202 0.1107171055473533 0 -0.38750957741872682 0.11885909540365321 0 -0.38696142946532958 0.1003701901717608 0 -0.36904533532088801 0.1177582563576956 0 -0.38696142946532958 0.1003701901717608 0 -0.37090825683648998 0.098456277756480637 0 -0.36904533532088801 0.1177582563576956 0 -0.37929074908003868 0.077603726490867345 0 -0.40164011277457379 0.081352107660276216 0 -0.38696142946532958 0.1003701901717608 0 -0.37929074908003868 0.077603726490867345 0 -0.40164011277457379 0.081352107660276216 0 -0.38696142946532958 0.1003701901717608 0 -0.37929074908003868 0.077603726490867345 0 -0.37090825683648998 0.098456277756480637 0 -0.37929074908003868 0.077603726490867345 0 -0.38848633305814179 0.065600711414542545 0 -0.36891219827968119 0.060077996683558232 0 -0.37929074908003868 0.077603726490867345 0 -0.38848633305814179 0.065600711414542545 0 -0.40164011277457379 0.081352107660276216 0 -0.38848633305814179 0.065600711414542545 0 -0.40210564328563447 0.066115584712721373 0 -0.40164011277457379 0.081352107660276216 0 -0.39689466156197101 0.057407184083191301 0 -0.38848633305814179 0.065600711414542545 0 -0.40210564328563447 0.066115584712721373 0 -0.40164011277457379 0.081352107660276216 0 -0.42398947646910912 0.085100488829685086 0 -0.40164011277457379 0.081352107660276216 0 -0.42398947646910912 0.085100488829685086 0 -0.40864304721671202 0.1107171055473533 0 -0.40210564328563447 0.066115584712721373 0 -0.40164011277457379 0.081352107660276216 0 -0.41753301535116211 0.067129086497859855 0 -0.40164011277457379 0.081352107660276216 0 -0.41753301535116211 0.067129086497859855 0 -0.42398947646910912 0.085100488829685086 0 -0.40750332447406851 0.057375884956624552 0 -0.40210564328563447 0.066115584712721373 0 -0.41753301535116211 0.067129086497859855 0 -0.41753301535116211 0.067129086497859855 0 -0.42398947646910912 0.085100488829685086 0 -0.43763284036668942 0.072255399145110422 0 -0.43187248081207541 0.055496176207803817 0 -0.41753301535116211 0.067129086497859855 0 -0.43763284036668942 0.072255399145110422 0 -0.42398947646910912 0.085100488829685086 0 -0.44633884016364428 0.088848869999093971 0 -0.42398947646910912 0.085100488829685086 0 -0.43763284036668942 0.072255399145110422 0 -0.44633884016364428 0.088848869999093971 0 -0.42398947646910912 0.085100488829685086 0 -0.42906186480059683 0.10519001099972999 0 -0.44633884016364428 0.088848869999093971 0 -0.42398947646910912 0.085100488829685086 0 -0.42906186480059683 0.10519001099972999 0 -0.40864304721671202 0.1107171055473533 0 -0.40864304721671202 0.1107171055473533 0 -0.43267942878230348 0.12559175737704789 0 -0.42906186480059683 0.10519001099972999 0 -0.40864304721671202 0.1107171055473533 0 -0.43267942878230348 0.12559175737704789 0 -0.42906186480059683 0.10519001099972999 0 -0.4489383204882843 0.11104189391905871 0 -0.43267942878230348 0.12559175737704789 0 -0.4489383204882843 0.11104189391905871 0 -0.45289828098281221 0.1241297055338681 0 -0.43267942878230348 0.12559175737704789 0 -0.4489383204882843 0.11104189391905871 0 -0.43267942878230348 0.12559175737704789 0 -0.42906186480059683 0.10519001099972999 0 -0.4489383204882843 0.11104189391905871 0 -0.44633884016364428 0.088848869999093971 0 -0.4489383204882843 0.11104189391905871 0 -0.44633884016364428 0.088848869999093971 0 -0.47121921728662652 0.096397536200283296 0 -0.46607010556719342 0.11973313861048911 0 -0.47121921728662652 0.096397536200283296 0 -0.4489383204882843 0.11104189391905871 0 -0.46607010556719342 0.11973313861048911 0 -0.47121921728662652 0.096397536200283296 0 -0.4489383204882843 0.11104189391905871 0 -0.45289828098281221 0.1241297055338681 0 -0.46607010556719342 0.11973313861048911 0 -0.45709786057011947 0.055708105081253657 0 -0.43763284036668942 0.072255399145110422 0 -0.45544766770060358 0.07348919590478746 0 -0.43763284036668942 0.072255399145110422 0 -0.44633884016364428 0.088848869999093971 0 -0.45544766770060358 0.07348919590478746 0 -0.44633884016364428 0.088848869999093971 0 -0.45544766770060358 0.07348919590478746 0 -0.47121921728662652 0.096397536200283296 0 -0.45544766770060358 0.07348919590478746 0 -0.47636832900606041 0.073061933790077832 0 -0.47121921728662652 0.096397536200283296 0 -0.45709786057011947 0.055708105081253657 0 -0.47636832900606041 0.073061933790077832 0 -0.45709786057011947 0.055708105081253657 0 -0.45544766770060358 0.07348919590478746 0 -0.47636832900606041 0.073061933790077832 0 -0.48351815486210709 0.053492846644399093 0 -0.47636832900606041 0.073061933790077832 0 -0.49140909277123612 0.074197219851226057 0 -0.47636832900606041 0.073061933790077832 0 -0.48274454235378189 0.091705374172880549 0 -0.47121921728662652 0.096397536200283296 0 -0.47636832900606041 0.073061933790077832 0 -0.47121921728662652 0.096397536200283296 0 -0.47636832900606041 0.073061933790077832 0 -0.49715897998801373 0.091784747772784503 0 -0.5 0.089727210191415163 0 -0.49715897998801373 0.091784747772784503 0 -0.49140909277123612 0.074197219851226057 0 -0.47636832900606041 0.073061933790077832 0 -0.48274454235378189 0.091705374172880549 0 -0.49715897998801373 0.091784747772784503 0 -0.47636832900606041 0.073061933790077832 0 -0.49715897998801373 0.091784747772784503 0 -0.49140909277123612 0.074197219851226057 0 -0.5 0.089727210191415163 0 -0.5 0.062919360857453976 0 -0.49140909277123612 0.074197219851226057 0 -0.48351815486210709 0.053492846644399093 0 -0.5 0.062919360857453976 0 -0.49140909277123612 0.074197219851226057 0 -0.46607010556719342 0.11973313861048911 0 -0.48623164313442779 0.1055772789283768 0 -0.48453668432005692 0.123143207324586 0 -0.46607010556719342 0.11973313861048911 0 -0.47121921728662652 0.096397536200283296 0 -0.48623164313442779 0.1055772789283768 0 -0.48274454235378189 0.091705374172880549 0 -0.47121921728662652 0.096397536200283296 0 -0.48623164313442779 0.1055772789283768 0 -0.5 0.089727210191415163 0 -0.49715897998801373 0.091784747772784503 0 -0.5 0.1165350595253765 0 -0.49715897998801373 0.091784747772784503 0 -0.48623164313442779 0.1055772789283768 0 -0.5 0.1165350595253765 0 -0.48274454235378189 0.091705374172880549 0 -0.49715897998801373 0.091784747772784503 0 -0.48623164313442779 0.1055772789283768 0 -0.48623164313442779 0.1055772789283768 0 -0.5 0.1165350595253765 0 -0.48453668432005692 0.123143207324586 0 -0.5 0.1165350595253765 0 -0.48453668432005692 0.123143207324586 0 -0.5 0.1433429088593379 0 -0.48453668432005692 0.123143207324586 0 -0.48049738108946538 0.1379484740379 0 -0.5 0.1433429088593379 0 -0.46607010556719342 0.11973313861048911 0 -0.48453668432005692 0.123143207324586 0 -0.48049738108946538 0.1379484740379 0 -0.46607010556719342 0.11973313861048911 0 -0.48049738108946538 0.1379484740379 0 -0.46092099384776192 0.14306874102069511 0 -0.48464943840857888 0.15775282940309851 0 -0.46990863904630059 0.1670362475492525 0 -0.46092099384776192 0.14306874102069511 0 -0.48464943840857888 0.15775282940309851 0 -0.46092099384776192 0.14306874102069511 0 -0.48049738108946538 0.1379484740379 0 -0.48464943840857888 0.15775282940309851 0 -0.46092099384776192 0.14306874102069511 0 -0.48049738108946538 0.1379484740379 0 -0.5 0.1433429088593379 0 -0.48464943840857888 0.15775282940309851 0 -0.48464943840857888 0.15775282940309851 0 -0.5 0.17015075819329931 0 -0.4898809761324775 0.17912292006808481 0 -0.5 0.1433429088593379 0 -0.48464943840857888 0.15775282940309851 0 -0.5 0.17015075819329931 0 -0.48464943840857888 0.15775282940309851 0 -0.4898809761324775 0.17912292006808481 0 -0.47865635922375932 0.17909963177513319 0 -0.5 0.17015075819329931 0 -0.4898809761324775 0.17912292006808481 0 -0.5 0.19695860752726069 0 -0.4898809761324775 0.17912292006808481 0 -0.47865635922375932 0.17909963177513319 0 -0.48609908303004917 0.1916527734416324 0 -0.47865635922375932 0.17909963177513319 0 -0.47279817792341111 0.1948006201282925 0 -0.47865635922375932 0.17909963177513319 0 -0.46589335310649882 0.18744802338852329 0 -0.47279817792341111 0.1948006201282925 0 -0.47865635922375932 0.17909963177513319 0 -0.46927870962167312 0.17493875400548389 0 -0.46990863904630059 0.1670362475492525 0 -0.47865635922375932 0.17909963177513319 0 -0.46927870962167312 0.17493875400548389 0 -0.46555461593459269 0.18128722400797501 0 -0.47865635922375932 0.17909963177513319 0 -0.46589335310649882 0.18744802338852329 0 -0.46555461593459269 0.18128722400797501 0 -0.48464943840857888 0.15775282940309851 0 -0.47865635922375932 0.17909963177513319 0 -0.46990863904630059 0.1670362475492525 0 -0.45742932361540911 0.15889287394486271 0 -0.45393765338305497 0.17471700686903011 0 -0.46990863904630059 0.1670362475492525 0 -0.45742932361540911 0.15889287394486271 0 -0.46092099384776192 0.14306874102069511 0 -0.45742932361540911 0.15889287394486271 0 -0.46299522428203971 0.17233191268957501 0 -0.45393765338305497 0.17471700686903011 0 -0.46927870962167312 0.17493875400548389 0 -0.46990863904630059 0.1670362475492525 0 -0.46299522428203971 0.17233191268957501 0 -0.46990863904630059 0.1670362475492525 0 -0.45742932361540911 0.15889287394486271 0 -0.46299522428203971 0.17233191268957501 0 -0.46589335310649882 0.18744802338852329 0 -0.46555461593459269 0.18128722400797501 0 -0.45393765338305497 0.17471700686903011 0 -0.46589335310649882 0.18744802338852329 0 -0.46555461593459269 0.18128722400797501 0 -0.46927870962167312 0.17493875400548389 0 -0.46555461593459269 0.18128722400797501 0 -0.46299522428203971 0.17233191268957501 0 -0.46555461593459269 0.18128722400797501 0 -0.46299522428203971 0.17233191268957501 0 -0.45393765338305497 0.17471700686903011 0 -0.46589335310649882 0.18744802338852329 0 -0.45393765338305497 0.17471700686903011 0 -0.45393765338305497 0.17471700686903011 0 -0.44047241453070329 0.18324079402305421 0 -0.44820564853932793 0.20069426145875721 0 -0.45393765338305497 0.17471700686903011 0 -0.44047241453070329 0.18324079402305421 0 -0.44174290600336708 0.16173144065936321 0 -0.45742932361540911 0.15889287394486271 0 -0.44174290600336708 0.16173144065936321 0 -0.44616928685712581 0.1494742970518641 0 -0.45742932361540911 0.15889287394486271 0 -0.45393765338305497 0.17471700686903011 0 -0.44174290600336708 0.16173144065936321 0 -0.45393765338305497 0.17471700686903011 0 -0.44174290600336708 0.16173144065936321 0 -0.44174290600336708 0.16173144065936321 0 -0.44616928685712581 0.1494742970518641 0 -0.43187713239064979 0.1573343508491826 0 -0.44616928685712581 0.1494742970518641 0 -0.43700896048386301 0.14249666109927989 0 -0.43187713239064979 0.1573343508491826 0 -0.44616928685712581 0.1494742970518641 0 -0.44680021131503311 0.13433024919887079 0 -0.46092099384776192 0.14306874102069511 0 -0.44616928685712581 0.1494742970518641 0 -0.44680021131503311 0.13433024919887079 0 -0.43700896048386301 0.14249666109927989 0 -0.45289828098281221 0.1241297055338681 0 -0.44680021131503311 0.13433024919887079 0 -0.43267942878230348 0.12559175737704789 0 -0.44680021131503311 0.13433024919887079 0 -0.43267942878230348 0.12559175737704789 0 -0.43700896048386301 0.14249666109927989 0 -0.44680021131503311 0.13433024919887079 0 -0.43267942878230348 0.12559175737704789 0 -0.45289828098281221 0.1241297055338681 0 -0.44680021131503311 0.13433024919887079 0 -0.46092099384776192 0.14306874102069511 0 -0.46607010556719342 0.11973313861048911 0 -0.46092099384776192 0.14306874102069511 0 -0.45289828098281221 0.1241297055338681 0 -0.46607010556719342 0.11973313861048911 0 -0.46092099384776192 0.14306874102069511 0 -0.44680021131503311 0.13433024919887079 0 -0.46092099384776192 0.14306874102069511 0 -0.45742932361540911 0.15889287394486271 0 -0.46092099384776192 0.14306874102069511 0 -0.45742932361540911 0.15889287394486271 0 -0.44616928685712581 0.1494742970518641 0 -0.46092099384776192 0.14306874102069511 0 -0.46853242371352971 0.23544625301742969 0 -0.46993231893463527 0.26090691788180947 0 -0.48177750529808522 0.24619974485466931 0 -0.46853242371352971 0.23544625301742969 0 -0.46993231893463527 0.26090691788180947 0 -0.48177750529808522 0.24619974485466931 0 -0.48375626182904402 0.22755154475287301 0 -0.46853242371352971 0.23544625301742969 0 -0.48177750529808522 0.24619974485466931 0 -0.5 0.2461359573144368 0 -0.48375626182904402 0.22755154475287301 0 -0.5 0.2461359573144368 0 -0.48375626182904402 0.22755154475287301 0 -0.49999999999999978 0.22376645686122221 0 -0.48375626182904402 0.22755154475287301 0 -0.48639908896170481 0.20928353849475789 0 -0.5 0.2461359573144368 0 -0.49999999999999978 0.22376645686122221 0 -0.48375626182904402 0.22755154475287301 0 -0.47173343442327142 0.22048762952866541 0 -0.46713252849242448 0.20998558815304991 0 -0.46853242371352971 0.23544625301742969 0 -0.48375626182904402 0.22755154475287301 0 -0.47173343442327142 0.22048762952866541 0 -0.4670472636537164 0.20843482960316059 0 -0.48375626182904402 0.22755154475287301 0 -0.47173343442327142 0.22048762952866541 0 -0.46853242371352971 0.23544625301742969 0 -0.48375626182904402 0.22755154475287301 0 -0.4670472636537164 0.20843482960316059 0 -0.48639908896170481 0.20928353849475789 0 -0.47279817792341111 0.1948006201282925 0 -0.4670472636537164 0.20843482960316059 0 -0.48375626182904402 0.22755154475287301 0 -0.48639908896170481 0.20928353849475789 0 -0.4670472636537164 0.20843482960316059 0 -0.49999999999999978 0.22376645686122221 0 -0.48639908896170481 0.20928353849475789 0 -0.5 0.19695860752726069 0 -0.49999999999999978 0.22376645686122221 0 -0.48639908896170481 0.20928353849475789 0 -0.48639908896170481 0.20928353849475789 0 -0.5 0.19695860752726069 0 -0.48609908303004917 0.1916527734416324 0 -0.4898809761324775 0.17912292006808481 0 -0.5 0.19695860752726069 0 -0.48609908303004917 0.1916527734416324 0 -0.48639908896170481 0.20928353849475789 0 -0.48609908303004917 0.1916527734416324 0 -0.47279817792341111 0.1948006201282925 0 -0.47865635922375932 0.17909963177513319 0 -0.48609908303004917 0.1916527734416324 0 -0.47279817792341111 0.1948006201282925 0 -0.48639908896170481 0.20928353849475789 0 -0.47279817792341111 0.1948006201282925 0 -0.47279817792341111 0.1948006201282925 0 -0.4670472636537164 0.20843482960316059 0 -0.46589335310649882 0.18744802338852329 0 -0.47279817792341111 0.1948006201282925 0 -0.46589335310649882 0.18744802338852329 0 -0.4603250720810298 0.20074399020462361 0 -0.4670472636537164 0.20843482960316059 0 -0.46589335310649882 0.18744802338852329 0 -0.45393765338305497 0.17471700686903011 0 -0.44820564853932793 0.20069426145875721 0 -0.46589335310649882 0.18744802338852329 0 -0.4603250720810298 0.20074399020462361 0 -0.44820564853932793 0.20069426145875721 0 -0.46589335310649882 0.18744802338852329 0 -0.47279817792341111 0.1948006201282925 0 -0.4670472636537164 0.20843482960316059 0 -0.46589335310649882 0.18744802338852329 0 -0.4670472636537164 0.20843482960316059 0 -0.45393765338305497 0.17471700686903011 0 -0.44820564853932793 0.20069426145875721 0 -0.44820564853932793 0.20069426145875721 0 -0.45427794118362658 0.21265328965042851 0 -0.44247364369559788 0.22667151604848371 0 -0.44820564853932793 0.20069426145875721 0 -0.44247364369559788 0.22667151604848371 0 -0.44820564853932793 0.20069426145875721 0 -0.44247364369559788 0.22667151604848371 0 -0.42336320141575168 0.21609666274764849 0 -0.45880341375183131 0.2186303689721085 0 -0.45427794118362658 0.21265328965042851 0 -0.46188137931700068 0.21002659871962689 0 -0.45880341375183131 0.2186303689721085 0 -0.45427794118362658 0.21265328965042851 0 -0.4536201791639074 0.2236252940046442 0 -0.4603250720810298 0.20074399020462361 0 -0.45427794118362658 0.21265328965042851 0 -0.46188137931700068 0.21002659871962689 0 -0.4603250720810298 0.20074399020462361 0 -0.44820564853932793 0.20069426145875721 0 -0.45427794118362658 0.21265328965042851 0 -0.4603250720810298 0.20074399020462361 0 -0.46188137931700068 0.21002659871962689 0 -0.4670472636537164 0.20843482960316059 0 -0.4603250720810298 0.20074399020462361 0 -0.4670472636537164 0.20843482960316059 0 -0.46188137931700068 0.21002659871962689 0 -0.4670472636537164 0.20843482960316059 0 -0.46713252849242448 0.20998558815304991 0 -0.4670472636537164 0.20843482960316059 0 -0.46713252849242448 0.20998558815304991 0 -0.47173343442327142 0.22048762952866541 0 -0.4670472636537164 0.20843482960316059 0 -0.46713252849242448 0.20998558815304991 0 -0.45880341375183131 0.2186303689721085 0 -0.46188137931700068 0.21002659871962689 0 -0.46713252849242448 0.20998558815304991 0 -0.46713252849242448 0.20998558815304991 0 -0.45710504060219709 0.23686107433279269 0 -0.46713252849242448 0.20998558815304991 0 -0.45710504060219709 0.23686107433279269 0 -0.46853242371352971 0.23544625301742969 0 -0.45880341375183131 0.2186303689721085 0 -0.46713252849242448 0.20998558815304991 0 -0.45710504060219709 0.23686107433279269 0 -0.45880341375183131 0.2186303689721085 0 -0.4536201791639074 0.2236252940046442 0 -0.45710504060219709 0.23686107433279269 0 -0.46713252849242448 0.20998558815304991 0 -0.46853242371352971 0.23544625301742969 0 -0.45427794118362658 0.21265328965042851 0 -0.4536201791639074 0.2236252940046442 0 -0.44247364369559788 0.22667151604848371 0 -0.4536201791639074 0.2236252940046442 0 -0.44247364369559788 0.22667151604848371 0 -0.45710504060219709 0.23686107433279269 0 -0.44247364369559788 0.22667151604848371 0 -0.4367416388518679 0.25264877063821017 0 -0.44247364369559788 0.22667151604848371 0 -0.45710504060219709 0.23686107433279269 0 -0.4367416388518679 0.25264877063821017 0 -0.45710504060219709 0.23686107433279269 0 -0.46853242371352971 0.23544625301742969 0 -0.46993231893463527 0.26090691788180947 0 -0.41931835140954682 0.23739665832436521 0 -0.40367044579520373 0.24132688110038639 0 -0.41175872593851298 0.2549478601346914 0 -0.41931835140954682 0.23739665832436521 0 -0.40790513800462019 0.22799805468035339 0 -0.40367044579520373 0.24132688110038639 0 -0.41931835140954682 0.23739665832436521 0 -0.4367416388518679 0.25264877063821017 0 -0.41175872593851298 0.2549478601346914 0 -0.44247364369559788 0.22667151604848371 0 -0.41931835140954682 0.23739665832436521 0 -0.4367416388518679 0.25264877063821017 0 -0.44247364369559788 0.22667151604848371 0 -0.41931835140954682 0.23739665832436521 0 -0.42336320141575168 0.21609666274764849 0 -0.41931835140954682 0.23739665832436521 0 -0.40790513800462019 0.22799805468035339 0 -0.42336320141575168 0.21609666274764849 0 -0.40790513800462019 0.22799805468035339 0 -0.42336320141575168 0.21609666274764849 0 -0.40538393777915788 0.2123952851453417 0 -0.42336320141575168 0.21609666274764849 0 -0.42071240458675369 0.1920614743917832 0 -0.40538393777915788 0.2123952851453417 0 -0.44820564853932793 0.20069426145875721 0 -0.42336320141575168 0.21609666274764849 0 -0.42071240458675369 0.1920614743917832 0 -0.44047241453070329 0.18324079402305421 0 -0.44820564853932793 0.20069426145875721 0 -0.42071240458675369 0.1920614743917832 0 -0.42071240458675369 0.1920614743917832 0 -0.40538393777915788 0.2123952851453417 0 -0.42071240458675369 0.1920614743917832 0 -0.4022878927449296 0.1970928012265635 0 -0.40298680868332198 0.18508216307238631 0 -0.42071240458675369 0.1920614743917832 0 -0.4022878927449296 0.1970928012265635 0 -0.40538393777915788 0.2123952851453417 0 -0.4022878927449296 0.1970928012265635 0 -0.39286614404695941 0.1920732104686422 0 -0.40298680868332198 0.18508216307238631 0 -0.4022878927449296 0.1970928012265635 0 -0.39286614404695941 0.1920732104686422 0 -0.39380007669083689 0.206464460861051 0 -0.38422654444444693 0.2008322729754812 0 -0.38088029112643113 0.1825210369279657 0 -0.38422654444444693 0.2008322729754812 0 -0.38088029112643113 0.1825210369279657 0 -0.36802074197771562 0.19700904511440151 0 -0.38422654444444693 0.2008322729754812 0 -0.37368745339656201 0.20924711939208951 0 -0.36802074197771562 0.19700904511440151 0 -0.39286614404695941 0.1920732104686422 0 -0.38422654444444693 0.2008322729754812 0 -0.38088029112643113 0.1825210369279657 0 -0.39286614404695941 0.1920732104686422 0 -0.38422654444444693 0.2008322729754812 0 -0.39380007669083689 0.206464460861051 0 -0.38422654444444693 0.2008322729754812 0 -0.38757279776246373 0.21914350902299659 0 -0.38757279776246373 0.21914350902299659 0 -0.36800338097472479 0.22147713987588341 0 -0.37368745339656201 0.20924711939208951 0 -0.38422654444444693 0.2008322729754812 0 -0.39380007669083689 0.206464460861051 0 -0.38757279776246373 0.21914350902299659 0 -0.38422654444444693 0.2008322729754812 0 -0.38757279776246373 0.21914350902299659 0 -0.37368745339656201 0.20924711939208951 0 -0.39141353052387118 0.2186855059784025 0 -0.39380007669083689 0.206464460861051 0 -0.38757279776246373 0.21914350902299659 0 -0.39141353052387118 0.2186855059784025 0 -0.39380007669083689 0.206464460861051 0 -0.40538393777915788 0.2123952851453417 0 -0.4022878927449296 0.1970928012265635 0 -0.39380007669083689 0.206464460861051 0 -0.40538393777915788 0.2123952851453417 0 -0.40790513800462019 0.22799805468035339 0 -0.39005547097156312 0.23272909589890109 0 -0.40367044579520373 0.24132688110038639 0 -0.39141353052387118 0.2186855059784025 0 -0.40538393777915788 0.2123952851453417 0 -0.39005547097156312 0.23272909589890109 0 -0.40790513800462019 0.22799805468035339 0 -0.40538393777915788 0.2123952851453417 0 -0.39005547097156312 0.23272909589890109 0 -0.40538393777915788 0.2123952851453417 0 -0.39005547097156312 0.23272909589890109 0 -0.38757279776246373 0.21914350902299659 0 -0.39005547097156312 0.23272909589890109 0 -0.38757279776246373 0.21914350902299659 0 -0.36800338097472479 0.22147713987588341 0 -0.39141353052387118 0.2186855059784025 0 -0.38757279776246373 0.21914350902299659 0 -0.39005547097156312 0.23272909589890109 0 -0.38757279776246373 0.21914350902299659 0 -0.37939186114838758 0.22424627805714001 0 -0.36800338097472479 0.22147713987588341 0 -0.38757279776246373 0.21914350902299659 0 -0.37939186114838758 0.22424627805714001 0 -0.39005547097156312 0.23272909589890109 0 -0.39141353052387118 0.2186855059784025 0 -0.38757279776246373 0.21914350902299659 0 -0.37939186114838758 0.22424627805714001 0 -0.37477717689163992 0.25299635056682518 0 -0.39005547097156312 0.23272909589890109 0 -0.39384597734802013 0.25347135609337229 0 -0.37477717689163992 0.25299635056682518 0 -0.37939186114838758 0.22424627805714001 0 -0.39005547097156312 0.23272909589890109 0 -0.37477717689163992 0.25299635056682518 0 -0.39005547097156312 0.23272909589890109 0 -0.37477717689163992 0.25299635056682518 0 -0.40367044579520373 0.24132688110038639 0 -0.41175872593851298 0.2549478601346914 0 -0.39384597734802013 0.25347135609337229 0 -0.39005547097156312 0.23272909589890109 0 -0.39384597734802013 0.25347135609337229 0 -0.39005547097156312 0.23272909589890109 0 -0.40367044579520373 0.24132688110038639 0 -0.39384597734802013 0.25347135609337229 0 -0.41485942150404181 0.14153864215909739 0 -0.41553858058260518 0.15317901213210369 0 -0.42574561826610652 0.14613969243370301 0 -0.41553858058260518 0.15317901213210369 0 -0.42574561826610652 0.14613969243370301 0 -0.42127399236650492 0.15770626544657529 0 -0.41485942150404181 0.14153864215909739 0 -0.41553858058260518 0.15317901213210369 0 -0.4044664398419977 0.15594807455379561 0 -0.40864304721671202 0.1107171055473533 0 -0.41485942150404181 0.14153864215909739 0 -0.43267942878230348 0.12559175737704789 0 -0.41485942150404181 0.14153864215909739 0 -0.43267942878230348 0.12559175737704789 0 -0.42574561826610652 0.14613969243370301 0 -0.43267942878230348 0.12559175737704789 0 -0.43700896048386301 0.14249666109927989 0 -0.42574561826610652 0.14613969243370301 0 -0.41485942150404181 0.14153864215909739 0 -0.43267942878230348 0.12559175737704789 0 -0.42574561826610652 0.14613969243370301 0 -0.43187713239064979 0.1573343508491826 0 -0.42127399236650492 0.15770626544657529 0 -0.43700896048386301 0.14249666109927989 0 -0.42574561826610652 0.14613969243370301 0 -0.43187713239064979 0.1573343508491826 0 -0.43187713239064979 0.1573343508491826 0 -0.42946357341586749 0.17496324995209989 0 -0.4216380035134229 0.16659483191912641 0 -0.44174290600336708 0.16173144065936321 0 -0.43187713239064979 0.1573343508491826 0 -0.42946357341586749 0.17496324995209989 0 -0.43187713239064979 0.1573343508491826 0 -0.42127399236650492 0.15770626544657529 0 -0.4216380035134229 0.16659483191912641 0 -0.44047241453070329 0.18324079402305421 0 -0.44174290600336708 0.16173144065936321 0 -0.42946357341586749 0.17496324995209989 0 -0.44047241453070329 0.18324079402305421 0 -0.42071240458675369 0.1920614743917832 0 -0.42946357341586749 0.17496324995209989 0 -0.42071240458675369 0.1920614743917832 0 -0.42946357341586749 0.17496324995209989 0 -0.41235879422937732 0.17543682721938669 0 -0.42071240458675369 0.1920614743917832 0 -0.41235879422937732 0.17543682721938669 0 -0.40298680868332198 0.18508216307238631 0 -0.42946357341586749 0.17496324995209989 0 -0.41235879422937732 0.17543682721938669 0 -0.4216380035134229 0.16659483191912641 0 -0.41553858058260518 0.15317901213210369 0 -0.42127399236650492 0.15770626544657529 0 -0.41302135350813218 0.1630654313638546 0 -0.42127399236650492 0.15770626544657529 0 -0.4216380035134229 0.16659483191912641 0 -0.41302135350813218 0.1630654313638546 0 -0.41235879422937732 0.17543682721938669 0 -0.4216380035134229 0.16659483191912641 0 -0.41302135350813218 0.1630654313638546 0 -0.41235879422937732 0.17543682721938669 0 -0.41302135350813218 0.1630654313638546 0 -0.40449990094882532 0.16792382984329149 0 -0.41302135350813218 0.1630654313638546 0 -0.40449990094882532 0.16792382984329149 0 -0.4044664398419977 0.15594807455379561 0 -0.41553858058260518 0.15317901213210369 0 -0.41302135350813218 0.1630654313638546 0 -0.4044664398419977 0.15594807455379561 0 -0.3926733654842145 0.1692345557408807 0 -0.4044664398419977 0.15594807455379561 0 -0.40449990094882532 0.16792382984329149 0 -0.3926733654842145 0.1692345557408807 0 -0.40078474618547688 0.17571320347163299 0 -0.40449990094882532 0.16792382984329149 0 -0.3926733654842145 0.1692345557408807 0 -0.4044664398419977 0.15594807455379561 0 -0.3926733654842145 0.1692345557408807 0 -0.39703941422577987 0.15748552694114659 0 -0.4044664398419977 0.15594807455379561 0 -0.40298680868332198 0.18508216307238631 0 -0.40078474618547688 0.17571320347163299 0 -0.39301525059178999 0.18044652774840561 0 -0.41235879422937732 0.17543682721938669 0 -0.40298680868332198 0.18508216307238631 0 -0.40078474618547688 0.17571320347163299 0 -0.41235879422937732 0.17543682721938669 0 -0.40449990094882532 0.16792382984329149 0 -0.40078474618547688 0.17571320347163299 0 -0.3926733654842145 0.1692345557408807 0 -0.40078474618547688 0.17571320347163299 0 -0.39301525059178999 0.18044652774840561 0 -0.39286614404695941 0.1920732104686422 0 -0.40298680868332198 0.18508216307238631 0 -0.39301525059178999 0.18044652774840561 0 -0.39286614404695941 0.1920732104686422 0 -0.39301525059178999 0.18044652774840561 0 -0.38088029112643113 0.1825210369279657 0 -0.3926733654842145 0.1692345557408807 0 -0.38088029112643113 0.1825210369279657 0 -0.3926733654842145 0.1692345557408807 0 -0.39301525059178999 0.18044652774840561 0 -0.38088029112643113 0.1825210369279657 0 -0.3926733654842145 0.1692345557408807 0 -0.37921940694751782 0.17343241172319571 0 -0.38088029112643113 0.1825210369279657 0 -0.37921940694751782 0.17343241172319571 0 -0.38088029112643113 0.1825210369279657 0 -0.37921940694751782 0.17343241172319571 0 -0.38088029112643113 0.1825210369279657 0 -0.37283571032282492 0.1791450959532255 0 -0.3784015845151173 0.16895715591276281 0 -0.37283571032282492 0.1791450959532255 0 -0.37921940694751782 0.17343241172319571 0 -0.3784015845151173 0.16895715591276281 0 -0.37283571032282492 0.1791450959532255 0 -0.37921940694751782 0.17343241172319571 0 -0.37283571032282492 0.1791450959532255 0 -0.39703941422577987 0.15748552694114659 0 -0.37921940694751782 0.17343241172319571 0 -0.38193020105096481 0.16249827228531991 0 -0.3784015845151173 0.16895715591276281 0 -0.38193020105096481 0.16249827228531991 0 -0.37372345991800282 0.14335770613522919 0 -0.39703941422577987 0.15748552694114659 0 -0.37921940694751782 0.17343241172319571 0 -0.3926733654842145 0.1692345557408807 0 -0.39703941422577987 0.15748552694114659 0 -0.37921940694751782 0.17343241172319571 0 -0.39703941422577987 0.15748552694114659 0 -0.38193020105096481 0.16249827228531991 0 -0.38598126975628672 0.1494316781992327 0 -0.37921940694751782 0.17343241172319571 0 -0.3784015845151173 0.16895715591276281 0 -0.38193020105096481 0.16249827228531991 0 -0.3784015845151173 0.16895715591276281 0 -0.38193020105096481 0.16249827228531991 0 -0.37921940694751782 0.17343241172319571 0 -0.3784015845151173 0.16895715591276281 0 -0.38598126975628672 0.1494316781992327 0 -0.39401402549175851 0.1361747599337243 0 -0.37372345991800282 0.14335770613522919 0 -0.38193020105096481 0.16249827228531991 0 -0.38598126975628672 0.1494316781992327 0 -0.37372345991800282 0.14335770613522919 0 -0.3784015845151173 0.16895715591276281 0 -0.37372345991800282 0.14335770613522919 0 -0.39703941422577987 0.15748552694114659 0 -0.38598126975628672 0.1494316781992327 0 -0.39401402549175851 0.1361747599337243 0 -0.41485942150404181 0.14153864215909739 0 -0.39703941422577987 0.15748552694114659 0 -0.39401402549175851 0.1361747599337243 0 -0.41485942150404181 0.14153864215909739 0 -0.39703941422577987 0.15748552694114659 0 -0.4044664398419977 0.15594807455379561 0 -0.41485942150404181 0.14153864215909739 0 -0.39703941422577987 0.15748552694114659 0 -0.40864304721671202 0.1107171055473533 0 -0.41485942150404181 0.14153864215909739 0 -0.39401402549175851 0.1361747599337243 0 -0.38750957741872682 0.11885909540365321 0 -0.37372345991800282 0.14335770613522919 0 -0.36904533532088801 0.1177582563576956 0 -0.38750957741872682 0.11885909540365321 0 -0.39401402549175851 0.1361747599337243 0 -0.37372345991800282 0.14335770613522919 0 -0.35823941519022368 0.13573745574644491 0 -0.37372345991800282 0.14335770613522919 0 -0.36904533532088801 0.1177582563576956 0 -0.37372345991800282 0.14335770613522919 0 -0.36904533532088801 0.1177582563576956 0 -0.35823941519022368 0.13573745574644491 0 -0.34455851703438989 0.13305210298766909 0 -0.35158166360451942 0.11704707172714621 0 -0.35823941519022368 0.13573745574644491 0 -0.34455851703438989 0.13305210298766909 0 -0.34873147585397152 0.15030858297792049 0 -0.35823941519022368 0.13573745574644491 0 -0.34873147585397152 0.15030858297792049 0 -0.36179603940957061 0.15290101429300901 0 -0.34873147585397152 0.15030858297792049 0 -0.34720568730415252 0.1616956217090188 0 -0.33647431770126862 0.14798842126345041 0 -0.34873147585397152 0.15030858297792049 0 -0.36179603940957061 0.15290101429300901 0 -0.35552330674067661 0.16014073544654131 0 -0.35823941519022368 0.13573745574644491 0 -0.36179603940957061 0.15290101429300901 0 -0.37372345991800282 0.14335770613522919 0 -0.3784015845151173 0.16895715591276281 0 -0.36179603940957061 0.15290101429300901 0 -0.37372345991800282 0.14335770613522919 0 -0.3784015845151173 0.16895715591276281 0 -0.36179603940957061 0.15290101429300901 0 -0.3628088848288224 0.16705289795690309 0 -0.3784015845151173 0.16895715591276281 0 -0.3628088848288224 0.16705289795690309 0 -0.36959790597703868 0.17377317275203899 0 -0.36179603940957061 0.15290101429300901 0 -0.3628088848288224 0.16705289795690309 0 -0.35552330674067661 0.16014073544654131 0 -0.38088029112643113 0.1825210369279657 0 -0.37283571032282492 0.1791450959532255 0 -0.36802074197771562 0.19700904511440151 0 -0.37283571032282492 0.1791450959532255 0 -0.36399845157591232 0.19532107462703119 0 -0.37283571032282492 0.1791450959532255 0 -0.36261880381503758 0.18828806813974089 0 -0.3784015845151173 0.16895715591276281 0 -0.36959790597703868 0.17377317275203899 0 -0.37283571032282492 0.1791450959532255 0 -0.36959790597703868 0.17377317275203899 0 -0.37283571032282492 0.1791450959532255 0 -0.36409588864576692 0.17933358541092431 0 -0.3628088848288224 0.16705289795690309 0 -0.36959790597703868 0.17377317275203899 0 -0.36409588864576692 0.17933358541092431 0 -0.3628088848288224 0.16705289795690309 0 -0.36409588864576692 0.17933358541092431 0 -0.35614161380151321 0.17761165346375071 0 -0.36409588864576692 0.17933358541092431 0 -0.35797279878738592 0.18411861580098379 0 -0.35614161380151321 0.17761165346375071 0 -0.36409588864576692 0.17933358541092431 0 -0.35797279878738592 0.18411861580098379 0 -0.36261880381503758 0.18828806813974089 0 -0.37283571032282492 0.1791450959532255 0 -0.36409588864576692 0.17933358541092431 0 -0.36261880381503758 0.18828806813974089 0 -0.35797279878738592 0.18411861580098379 0 -0.35614161380151321 0.17761165346375071 0 -0.35065229879255438 0.18593262723135329 0 -0.35797279878738592 0.18411861580098379 0 -0.35065229879255438 0.18593262723135329 0 -0.35645772166264922 0.19211102842263869 0 -0.35614161380151321 0.17761165346375071 0 -0.34811061985946878 0.17434540014992381 0 -0.35436851446084039 0.1683048517912053 0 -0.35614161380151321 0.17761165346375071 0 -0.34811061985946878 0.17434540014992381 0 -0.35065229879255438 0.18593262723135329 0 -0.35065229879255438 0.18593262723135329 0 -0.34227569468909552 0.1811403169530669 0 -0.33993633525554889 0.19055096072852831 0 -0.34811061985946878 0.17434540014992381 0 -0.35065229879255438 0.18593262723135329 0 -0.34227569468909552 0.1811403169530669 0 -0.35552330674067661 0.16014073544654131 0 -0.35436851446084039 0.1683048517912053 0 -0.34720568730415252 0.1616956217090188 0 -0.3628088848288224 0.16705289795690309 0 -0.35614161380151321 0.17761165346375071 0 -0.35436851446084039 0.1683048517912053 0 -0.3628088848288224 0.16705289795690309 0 -0.35552330674067661 0.16014073544654131 0 -0.35436851446084039 0.1683048517912053 0 -0.34811061985946878 0.17434540014992381 0 -0.34720568730415252 0.1616956217090188 0 -0.33801991010865667 0.17138732975114751 0 -0.34811061985946878 0.17434540014992381 0 -0.35436851446084039 0.1683048517912053 0 -0.34720568730415252 0.1616956217090188 0 -0.34873147585397152 0.15030858297792049 0 -0.35552330674067661 0.16014073544654131 0 -0.34720568730415252 0.1616956217090188 0 -0.34720568730415252 0.1616956217090188 0 -0.33801991010865667 0.17138732975114751 0 -0.33092539158612982 0.1609515407851054 0 -0.34720568730415252 0.1616956217090188 0 -0.33092539158612982 0.1609515407851054 0 -0.33647431770126862 0.14798842126345041 0 -0.33801991010865667 0.17138732975114751 0 -0.33092539158612982 0.1609515407851054 0 -0.3265778886375873 0.17202186172735501 0 -0.34227569468909552 0.1811403169530669 0 -0.33183788287013261 0.1831818366374682 0 -0.33993633525554889 0.19055096072852831 0 -0.34811061985946878 0.17434540014992381 0 -0.33801991010865667 0.17138732975114751 0 -0.34227569468909552 0.1811403169530669 0 -0.33801991010865667 0.17138732975114751 0 -0.34227569468909552 0.1811403169530669 0 -0.33183788287013261 0.1831818366374682 0 -0.33801991010865667 0.17138732975114751 0 -0.33183788287013261 0.1831818366374682 0 -0.3265778886375873 0.17202186172735501 0 -0.3265778886375873 0.17202186172735501 0 -0.31632076704925127 0.18575639557221951 0 -0.3167678101826048 0.16359462978275929 0 -0.33183788287013261 0.1831818366374682 0 -0.3265778886375873 0.17202186172735501 0 -0.31632076704925127 0.18575639557221951 0 -0.33092539158612982 0.1609515407851054 0 -0.3167678101826048 0.16359462978275929 0 -0.32050673558250908 0.1490213804769015 0 -0.33092539158612982 0.1609515407851054 0 -0.3265778886375873 0.17202186172735501 0 -0.3167678101826048 0.16359462978275929 0 -0.32050673558250908 0.1490213804769015 0 -0.30739524272803709 0.15185112365938391 0 -0.31211500736378339 0.1240031522641292 0 -0.3167678101826048 0.16359462978275929 0 -0.32050673558250908 0.1490213804769015 0 -0.30739524272803709 0.15185112365938391 0 -0.32050673558250908 0.1490213804769015 0 -0.30739524272803709 0.15185112365938391 0 -0.32919359534549508 0.13424827028365749 0 -0.31211500736378339 0.1240031522641292 0 -0.33231339904552459 0.1171762944261375 0 -0.32050673558250908 0.1490213804769015 0 -0.32919359534549508 0.13424827028365749 0 -0.31211500736378339 0.1240031522641292 0 -0.34455851703438989 0.13305210298766909 0 -0.32919359534549508 0.13424827028365749 0 -0.33231339904552459 0.1171762944261375 0 -0.34455851703438989 0.13305210298766909 0 -0.32919359534549508 0.13424827028365749 0 -0.33647431770126862 0.14798842126345041 0 -0.32050673558250908 0.1490213804769015 0 -0.32919359534549508 0.13424827028365749 0 -0.33647431770126862 0.14798842126345041 0 -0.33092539158612982 0.1609515407851054 0 -0.32050673558250908 0.1490213804769015 0 -0.33647431770126862 0.14798842126345041 0 -0.34455851703438989 0.13305210298766909 0 -0.34873147585397152 0.15030858297792049 0 -0.33647431770126862 0.14798842126345041 0 -0.35416421148584648 0.23888623464626721 0 -0.34843396418698602 0.22381077072877051 0 -0.33845336435013867 0.242079554605789 0 -0.35416421148584648 0.23888623464626721 0 -0.33845336435013867 0.242079554605789 0 -0.35464358931248319 0.25491115920099722 0 -0.37939186114838758 0.22424627805714001 0 -0.37013679196984273 0.23750613219799629 0 -0.37477717689163992 0.25299635056682518 0 -0.37013679196984273 0.23750613219799629 0 -0.35464358931248319 0.25491115920099722 0 -0.37477717689163992 0.25299635056682518 0 -0.35416421148584648 0.23888623464626721 0 -0.37013679196984273 0.23750613219799629 0 -0.35464358931248319 0.25491115920099722 0 -0.35416421148584648 0.23888623464626721 0 -0.37013679196984273 0.23750613219799629 0 -0.36148561266771267 0.2305011068434443 0 -0.36148561266771267 0.2305011068434443 0 -0.36975441169016687 0.228432664243616 0 -0.36800338097472479 0.22147713987588341 0 -0.37013679196984273 0.23750613219799629 0 -0.36148561266771267 0.2305011068434443 0 -0.36975441169016687 0.228432664243616 0 -0.37939186114838758 0.22424627805714001 0 -0.37013679196984273 0.23750613219799629 0 -0.36975441169016687 0.228432664243616 0 -0.37939186114838758 0.22424627805714001 0 -0.36975441169016687 0.228432664243616 0 -0.36800338097472479 0.22147713987588341 0 -0.36800338097472479 0.22147713987588341 0 -0.34843396418698602 0.22381077072877051 0 -0.35516119282899983 0.21149705330083701 0 -0.36148561266771267 0.2305011068434443 0 -0.36800338097472479 0.22147713987588341 0 -0.34843396418698602 0.22381077072877051 0 -0.36800338097472479 0.22147713987588341 0 -0.34843396418698602 0.22381077072877051 0 -0.35416421148584648 0.23888623464626721 0 -0.36148561266771267 0.2305011068434443 0 -0.34843396418698602 0.22381077072877051 0 -0.34843396418698602 0.22381077072877051 0 -0.34802604401402371 0.21953575615482759 0 -0.33982416592956399 0.21665757569738961 0 -0.34802604401402371 0.21953575615482759 0 -0.34581283434165899 0.20861347152532789 0 -0.33982416592956399 0.21665757569738961 0 -0.34802604401402371 0.21953575615482759 0 -0.34581283434165899 0.20861347152532789 0 -0.35516119282899983 0.21149705330083701 0 -0.34843396418698602 0.22381077072877051 0 -0.34802604401402371 0.21953575615482759 0 -0.35516119282899983 0.21149705330083701 0 -0.34581283434165899 0.20861347152532789 0 -0.35516119282899983 0.21149705330083701 0 -0.35389383475621161 0.20092716755479181 0 -0.34802604401402371 0.21953575615482759 0 -0.35516119282899983 0.21149705330083701 0 -0.34843396418698602 0.22381077072877051 0 -0.35516119282899983 0.21149705330083701 0 -0.36800338097472479 0.22147713987588341 0 -0.35516119282899983 0.21149705330083701 0 -0.37368745339656201 0.20924711939208951 0 -0.35516119282899983 0.21149705330083701 0 -0.37368745339656201 0.20924711939208951 0 -0.36802074197771562 0.19700904511440151 0 -0.35516119282899983 0.21149705330083701 0 -0.36399845157591232 0.19532107462703119 0 -0.35516119282899983 0.21149705330083701 0 -0.36802074197771562 0.19700904511440151 0 -0.37283571032282492 0.1791450959532255 0 -0.36399845157591232 0.19532107462703119 0 -0.36261880381503758 0.18828806813974089 0 -0.37283571032282492 0.1791450959532255 0 -0.36399845157591232 0.19532107462703119 0 -0.36802074197771562 0.19700904511440151 0 -0.35516119282899983 0.21149705330083701 0 -0.36399845157591232 0.19532107462703119 0 -0.36802074197771562 0.19700904511440151 0 -0.38088029112643113 0.1825210369279657 0 -0.36802074197771562 0.19700904511440151 0 -0.36399845157591232 0.19532107462703119 0 -0.36261880381503758 0.18828806813974089 0 -0.35645772166264922 0.19211102842263869 0 -0.35797279878738592 0.18411861580098379 0 -0.36261880381503758 0.18828806813974089 0 -0.35645772166264922 0.19211102842263869 0 -0.35065229879255438 0.18593262723135329 0 -0.35645772166264922 0.19211102842263869 0 -0.34803897337183792 0.19709320989812409 0 -0.35516119282899983 0.21149705330083701 0 -0.36399845157591232 0.19532107462703119 0 -0.35389383475621161 0.20092716755479181 0 -0.35645772166264922 0.19211102842263869 0 -0.35389383475621161 0.20092716755479181 0 -0.34803897337183792 0.19709320989812409 0 -0.36399845157591232 0.19532107462703119 0 -0.35645772166264922 0.19211102842263869 0 -0.35389383475621161 0.20092716755479181 0 -0.34581283434165899 0.20861347152532789 0 -0.35389383475621161 0.20092716755479181 0 -0.34803897337183792 0.19709320989812409 0 -0.34581283434165899 0.20861347152532789 0 -0.34803897337183792 0.19709320989812409 0 -0.33933674095816863 0.19971543786353729 0 -0.35065229879255438 0.18593262723135329 0 -0.34803897337183792 0.19709320989812409 0 -0.33993633525554889 0.19055096072852831 0 -0.33993633525554889 0.19055096072852831 0 -0.33933674095816863 0.19971543786353729 0 -0.33069942903629101 0.19625725860753851 0 -0.34803897337183792 0.19709320989812409 0 -0.33993633525554889 0.19055096072852831 0 -0.33933674095816863 0.19971543786353729 0 -0.33933674095816863 0.19971543786353729 0 -0.33069942903629101 0.19625725860753851 0 -0.33422481296465362 0.2080963853910347 0 -0.33183788287013261 0.1831818366374682 0 -0.33993633525554889 0.19055096072852831 0 -0.33069942903629101 0.19625725860753851 0 -0.31632076704925127 0.18575639557221951 0 -0.33069942903629101 0.19625725860753851 0 -0.32036655352850157 0.2095523693350691 0 -0.33183788287013261 0.1831818366374682 0 -0.31632076704925127 0.18575639557221951 0 -0.33069942903629101 0.19625725860753851 0 -0.32036655352850157 0.2095523693350691 0 -0.32458589997660492 0.2266546254550818 0 -0.30779163400160159 0.21927945841494459 0 -0.32036655352850157 0.2095523693350691 0 -0.32934906837639222 0.21536895119528529 0 -0.32458589997660492 0.2266546254550818 0 -0.32036655352850157 0.2095523693350691 0 -0.32934906837639222 0.21536895119528529 0 -0.33422481296465362 0.2080963853910347 0 -0.32934906837639222 0.21536895119528529 0 -0.33422481296465362 0.2080963853910347 0 -0.33982416592956399 0.21665757569738961 0 -0.33069942903629101 0.19625725860753851 0 -0.32036655352850157 0.2095523693350691 0 -0.33422481296465362 0.2080963853910347 0 -0.34581283434165899 0.20861347152532789 0 -0.33933674095816863 0.19971543786353729 0 -0.33422481296465362 0.2080963853910347 0 -0.34581283434165899 0.20861347152532789 0 -0.33422481296465362 0.2080963853910347 0 -0.33982416592956399 0.21665757569738961 0 -0.34843396418698602 0.22381077072877051 0 -0.33982416592956399 0.21665757569738961 0 -0.32458589997660492 0.2266546254550818 0 -0.34843396418698602 0.22381077072877051 0 -0.32458589997660492 0.2266546254550818 0 -0.34843396418698602 0.22381077072877051 0 -0.32458589997660492 0.2266546254550818 0 -0.33845336435013867 0.242079554605789 0 -0.34843396418698602 0.22381077072877051 0 -0.33845336435013867 0.242079554605789 0 -0.32934906837639222 0.21536895119528529 0 -0.33982416592956399 0.21665757569738961 0 -0.32458589997660492 0.2266546254550818 0 -0.32458589997660492 0.2266546254550818 0 -0.30073783576622393 0.22949848018139329 0 -0.32458589997660492 0.2266546254550818 0 -0.32455092720978362 0.24357057421839101 0 -0.31122576982003303 0.23714335435801151 0 -0.32455092720978362 0.24357057421839101 0 -0.311575650220281 0.24878047680599949 0 -0.31122576982003303 0.23714335435801151 0 -0.32458589997660492 0.2266546254550818 0 -0.32455092720978362 0.24357057421839101 0 -0.33845336435013867 0.242079554605789 0 -0.32455092720978362 0.24357057421839101 0 -0.33845336435013867 0.242079554605789 0 -0.32847276451329022 0.26034833848280681 0 -0.29310990672191722 0.23613872254877591 0 -0.29467853592727078 0.23721261512919359 0 -0.28985028671148488 0.25537141990030859 0 -0.29310990672191722 0.23613872254877591 0 -0.27131573767068418 0.22826101281380451 0 -0.28058301219108422 0.24181621635705669 0 -0.29310990672191722 0.23613872254877591 0 -0.28985028671148488 0.25537141990030859 0 -0.29310990672191722 0.23613872254877591 0 -0.28058301219108422 0.24181621635705669 0 -0.28985028671148488 0.25537141990030859 0 -0.28058301219108422 0.24181621635705669 0 -0.28985028671148488 0.25537141990030859 0 -0.29310990672191722 0.23613872254877591 0 -0.29467853592727078 0.23721261512919359 0 -0.29467853592727078 0.23721261512919359 0 -0.31122576982003303 0.23714335435801151 0 -0.30073783576622393 0.22949848018139329 0 -0.29467853592727078 0.23721261512919359 0 -0.311575650220281 0.24878047680599949 0 -0.31122576982003303 0.23714335435801151 0 -0.29467853592727078 0.23721261512919359 0 -0.311575650220281 0.24878047680599949 0 -0.29467853592727078 0.23721261512919359 0 -0.311575650220281 0.24878047680599949 0 -0.29523766041035199 0.26325150879709891 0 -0.32458589997660492 0.2266546254550818 0 -0.30073783576622393 0.22949848018139329 0 -0.30779163400160159 0.21927945841494459 0 -0.32458589997660492 0.2266546254550818 0 -0.31122576982003303 0.23714335435801151 0 -0.30073783576622393 0.22949848018139329 0 -0.30073783576622393 0.22949848018139329 0 -0.30779163400160159 0.21927945841494459 0 -0.29448167989639912 0.22804486553003031 0 -0.29310990672191722 0.23613872254877591 0 -0.29448167989639912 0.22804486553003031 0 -0.27369133376421262 0.22284465576077489 0 -0.29448167989639912 0.22804486553003031 0 -0.2838712618875629 0.21479465795795599 0 -0.27369133376421262 0.22284465576077489 0 -0.29448167989639912 0.22804486553003031 0 -0.29413635243235581 0.21196267741475219 0 -0.29310990672191722 0.23613872254877591 0 -0.27369133376421262 0.22284465576077489 0 -0.29467853592727078 0.23721261512919359 0 -0.30073783576622393 0.22949848018139329 0 -0.29448167989639912 0.22804486553003031 0 -0.29310990672191722 0.23613872254877591 0 -0.29467853592727078 0.23721261512919359 0 -0.29448167989639912 0.22804486553003031 0 -0.29467853592727078 0.23721261512919359 0 -0.29448167989639912 0.22804486553003031 0 -0.29310990672191722 0.23613872254877591 0 -0.29448167989639912 0.22804486553003031 0 -0.29413635243235581 0.21196267741475219 0 -0.29878620084027852 0.20264695157314819 0 -0.29379102496831272 0.19588048929947419 0 -0.29448167989639912 0.22804486553003031 0 -0.29413635243235581 0.21196267741475219 0 -0.29878620084027852 0.20264695157314819 0 -0.29448167989639912 0.22804486553003031 0 -0.29878620084027852 0.20264695157314819 0 -0.29413635243235581 0.21196267741475219 0 -0.29379102496831272 0.19588048929947419 0 -0.28522308967114912 0.20452327137286261 0 -0.29413635243235581 0.21196267741475219 0 -0.29379102496831272 0.19588048929947419 0 -0.29448167989639912 0.22804486553003031 0 -0.2838712618875629 0.21479465795795599 0 -0.29413635243235581 0.21196267741475219 0 -0.2838712618875629 0.21479465795795599 0 -0.28522308967114912 0.20452327137286261 0 -0.29413635243235581 0.21196267741475219 0 -0.32036655352850157 0.2095523693350691 0 -0.30779163400160159 0.21927945841494459 0 -0.29878620084027852 0.20264695157314819 0 -0.30779163400160159 0.21927945841494459 0 -0.29448167989639912 0.22804486553003031 0 -0.29878620084027852 0.20264695157314819 0 -0.29878620084027852 0.20264695157314819 0 -0.29379102496831272 0.19588048929947419 0 -0.30309072178415769 0.17724903761626601 0 -0.31632076704925127 0.18575639557221951 0 -0.29878620084027852 0.20264695157314819 0 -0.30309072178415769 0.17724903761626601 0 -0.31632076704925127 0.18575639557221951 0 -0.32036655352850157 0.2095523693350691 0 -0.29878620084027852 0.20264695157314819 0 -0.29878620084027852 0.20264695157314819 0 -0.30309072178415769 0.17724903761626601 0 -0.28522308967114912 0.20452327137286261 0 -0.29379102496831272 0.19588048929947419 0 -0.28124953787461371 0.1935735916895788 0 -0.29379102496831272 0.19588048929947419 0 -0.28124953787461371 0.1935735916895788 0 -0.28752446549241689 0.1832489647230989 0 -0.28124953787461371 0.1935735916895788 0 -0.2659766044530758 0.19238405035351089 0 -0.27494974420821611 0.1793112011395637 0 -0.28522308967114912 0.20452327137286261 0 -0.28124953787461371 0.1935735916895788 0 -0.27431068871210279 0.20621206129374381 0 -0.28124953787461371 0.1935735916895788 0 -0.2659766044530758 0.19238405035351089 0 -0.27431068871210279 0.20621206129374381 0 -0.25427276080650663 0.20955058897277601 0 -0.24947341468037071 0.1874691479585941 0 -0.2659766044530758 0.19238405035351089 0 -0.25427276080650663 0.20955058897277601 0 -0.24947341468037071 0.1874691479585941 0 -0.2659766044530758 0.19238405035351089 0 -0.25427276080650663 0.20955058897277601 0 -0.27431068871210279 0.20621206129374381 0 -0.25427276080650663 0.20955058897277601 0 -0.27369133376421262 0.22284465576077489 0 -0.25427276080650663 0.20955058897277601 0 -0.25977281016601761 0.2185578892770178 0 -0.27369133376421262 0.22284465576077489 0 -0.25427276080650663 0.20955058897277601 0 -0.25561524088587501 0.21572724177218369 0 -0.25977281016601761 0.2185578892770178 0 -0.25427276080650663 0.20955058897277601 0 -0.25561524088587501 0.21572724177218369 0 -0.24333230173327219 0.21221501244476959 0 -0.25427276080650663 0.20955058897277601 0 -0.25561524088587501 0.21572724177218369 0 -0.25427276080650663 0.20955058897277601 0 -0.27431068871210279 0.20621206129374381 0 -0.27369133376421262 0.22284465576077489 0 -0.2838712618875629 0.21479465795795599 0 -0.27431068871210279 0.20621206129374381 0 -0.27369133376421262 0.22284465576077489 0 -0.2838712618875629 0.21479465795795599 0 -0.28522308967114912 0.20452327137286261 0 -0.27431068871210279 0.20621206129374381 0 -0.29310990672191722 0.23613872254877591 0 -0.27369133376421262 0.22284465576077489 0 -0.27131573767068418 0.22826101281380451 0 -0.27131573767068418 0.22826101281380451 0 -0.26439065681250729 0.2289784260688752 0 -0.26819560602517328 0.23507842756581021 0 -0.27131573767068418 0.22826101281380451 0 -0.26675876456119929 0.22568570462696191 0 -0.26439065681250729 0.2289784260688752 0 -0.27369133376421262 0.22284465576077489 0 -0.26675876456119929 0.22568570462696191 0 -0.26371349664181459 0.22286429712754721 0 -0.25977281016601761 0.2185578892770178 0 -0.27369133376421262 0.22284465576077489 0 -0.26371349664181459 0.22286429712754721 0 -0.27369133376421262 0.22284465576077489 0 -0.27131573767068418 0.22826101281380451 0 -0.26675876456119929 0.22568570462696191 0 -0.26675876456119929 0.22568570462696191 0 -0.26371349664181459 0.22286429712754721 0 -0.26068259791677789 0.22548013136380779 0 -0.26068259791677789 0.22548013136380779 0 -0.25678634991227811 0.22260498734460241 0 -0.2574101570832959 0.22971939663687391 0 -0.26371349664181459 0.22286429712754721 0 -0.26068259791677789 0.22548013136380779 0 -0.25678634991227811 0.22260498734460241 0 -0.25977281016601761 0.2185578892770178 0 -0.26371349664181459 0.22286429712754721 0 -0.25678634991227811 0.22260498734460241 0 -0.25561524088587501 0.21572724177218369 0 -0.25977281016601761 0.2185578892770178 0 -0.25678634991227811 0.22260498734460241 0 -0.25678634991227811 0.22260498734460241 0 -0.249817319625419 0.2274340479663062 0 -0.24904636230289101 0.22050689045355901 0 -0.25561524088587501 0.21572724177218369 0 -0.25678634991227811 0.22260498734460241 0 -0.24904636230289101 0.22050689045355901 0 -0.25109603964961891 0.234366577265785 0 -0.2574101570832959 0.22971939663687391 0 -0.249817319625419 0.2274340479663062 0 -0.25678634991227811 0.22260498734460241 0 -0.2574101570832959 0.22971939663687391 0 -0.249817319625419 0.2274340479663062 0 -0.2574101570832959 0.22971939663687391 0 -0.26439065681250729 0.2289784260688752 0 -0.26193406046231932 0.2344272911270443 0 -0.26068259791677789 0.22548013136380779 0 -0.2574101570832959 0.22971939663687391 0 -0.26439065681250729 0.2289784260688752 0 -0.26675876456119929 0.22568570462696191 0 -0.26068259791677789 0.22548013136380779 0 -0.26439065681250729 0.2289784260688752 0 -0.26439065681250729 0.2289784260688752 0 -0.26193406046231932 0.2344272911270443 0 -0.26819560602517328 0.23507842756581021 0 -0.26193406046231932 0.2344272911270443 0 -0.26614348890836192 0.24293385421211869 0 -0.26819560602517328 0.23507842756581021 0 -0.2574101570832959 0.22971939663687391 0 -0.26193406046231932 0.2344272911270443 0 -0.25699538715464082 0.23905233796863981 0 -0.26193406046231932 0.2344272911270443 0 -0.25699538715464082 0.23905233796863981 0 -0.26614348890836192 0.24293385421211869 0 -0.25109603964961891 0.234366577265785 0 -0.25699538715464082 0.23905233796863981 0 -0.2470081454867771 0.2422065880623451 0 -0.25109603964961891 0.234366577265785 0 -0.2574101570832959 0.22971939663687391 0 -0.25699538715464082 0.23905233796863981 0 -0.25699538715464082 0.23905233796863981 0 -0.25693865295534157 0.25278860643768353 0 -0.2470081454867771 0.2422065880623451 0 -0.25699538715464082 0.23905233796863981 0 -0.26614348890836192 0.24293385421211869 0 -0.25693865295534157 0.25278860643768353 0 -0.26614348890836192 0.24293385421211869 0 -0.2724296921133022 0.25217156250687062 0 -0.25693865295534157 0.25278860643768353 0 -0.26614348890836192 0.24293385421211869 0 -0.28058301219108422 0.24181621635705669 0 -0.2724296921133022 0.25217156250687062 0 -0.28058301219108422 0.24181621635705669 0 -0.28985028671148488 0.25537141990030859 0 -0.2724296921133022 0.25217156250687062 0 -0.26614348890836192 0.24293385421211869 0 -0.26819560602517328 0.23507842756581021 0 -0.28058301219108422 0.24181621635705669 0 -0.27131573767068418 0.22826101281380451 0 -0.26819560602517328 0.23507842756581021 0 -0.28058301219108422 0.24181621635705669 0 -0.27131573767068418 0.22826101281380451 0 -0.28058301219108422 0.24181621635705669 0 -0.29326612220823411 0.13512644163735801 0 -0.28648818467010168 0.15636331808772699 0 -0.27141175194646833 0.1445184244171912 0 -0.29326612220823411 0.13512644163735801 0 -0.30739524272803709 0.15185112365938391 0 -0.28648818467010168 0.15636331808772699 0 -0.30739524272803709 0.15185112365938391 0 -0.31211500736378339 0.1240031522641292 0 -0.29326612220823411 0.13512644163735801 0 -0.30739524272803709 0.15185112365938391 0 -0.31211500736378339 0.1240031522641292 0 -0.30739524272803709 0.15185112365938391 0 -0.28648818467010168 0.15636331808772699 0 -0.30739524272803709 0.15185112365938391 0 -0.30309072178415769 0.17724903761626601 0 -0.3167678101826048 0.16359462978275929 0 -0.30739524272803709 0.15185112365938391 0 -0.30309072178415769 0.17724903761626601 0 -0.30739524272803709 0.15185112365938391 0 -0.30309072178415769 0.17724903761626601 0 -0.28648818467010168 0.15636331808772699 0 -0.31632076704925127 0.18575639557221951 0 -0.3167678101826048 0.16359462978275929 0 -0.30309072178415769 0.17724903761626601 0 -0.30309072178415769 0.17724903761626601 0 -0.28752446549241689 0.1832489647230989 0 -0.28381669143151822 0.17107272026056419 0 -0.29379102496831272 0.19588048929947419 0 -0.30309072178415769 0.17724903761626601 0 -0.28752446549241689 0.1832489647230989 0 -0.28752446549241689 0.1832489647230989 0 -0.28381669143151822 0.17107272026056419 0 -0.27494974420821611 0.1793112011395637 0 -0.30309072178415769 0.17724903761626601 0 -0.28648818467010168 0.15636331808772699 0 -0.28381669143151822 0.17107272026056419 0 -0.28648818467010168 0.15636331808772699 0 -0.28381669143151822 0.17107272026056419 0 -0.26558112661216632 0.16087551251606999 0 -0.28381669143151822 0.17107272026056419 0 -0.27494974420821611 0.1793112011395637 0 -0.26558112661216632 0.16087551251606999 0 -0.28648818467010168 0.15636331808772699 0 -0.26558112661216632 0.16087551251606999 0 -0.27494974420821611 0.1793112011395637 0 -0.26084394980388648 0.17618123618614701 0 -0.26558112661216632 0.16087551251606999 0 -0.2659766044530758 0.19238405035351089 0 -0.27494974420821611 0.1793112011395637 0 -0.26084394980388648 0.17618123618614701 0 -0.28124953787461371 0.1935735916895788 0 -0.28752446549241689 0.1832489647230989 0 -0.27494974420821611 0.1793112011395637 0 -0.2659766044530758 0.19238405035351089 0 -0.26084394980388648 0.17618123618614701 0 -0.24947341468037071 0.1874691479585941 0 -0.26084394980388648 0.17618123618614701 0 -0.24467406855423091 0.1653877069444131 0 -0.24947341468037071 0.1874691479585941 0 -0.26558112661216632 0.16087551251606999 0 -0.24467406855423091 0.1653877069444131 0 -0.26558112661216632 0.16087551251606999 0 -0.2543915534089356 0.15018751405662761 0 -0.24467406855423091 0.1653877069444131 0 -0.26084394980388648 0.17618123618614701 0 -0.26558112661216632 0.16087551251606999 0 -0.24467406855423091 0.1653877069444131 0 -0.26558112661216632 0.16087551251606999 0 -0.2543915534089356 0.15018751405662761 0 -0.27141175194646833 0.1445184244171912 0 -0.2543915534089356 0.15018751405662761 0 -0.27141175194646833 0.1445184244171912 0 -0.25477231595188199 0.13792181725732239 0 -0.28648818467010168 0.15636331808772699 0 -0.26558112661216632 0.16087551251606999 0 -0.27141175194646833 0.1445184244171912 0 -0.29326612220823411 0.13512644163735801 0 -0.27141175194646833 0.1445184244171912 0 -0.27545980130109921 0.1239996051278405 0 -0.27141175194646833 0.1445184244171912 0 -0.25477231595188199 0.13792181725732239 0 -0.27545980130109921 0.1239996051278405 0 -0.25477231595188199 0.13792181725732239 0 -0.27545980130109921 0.1239996051278405 0 -0.25477231595188199 0.13792181725732239 0 -0.27545980130109921 0.1239996051278405 0 -0.2495823492922267 0.12121763785839371 0 -0.25610310449345419 0.1041046972302731 0 -0.27545980130109921 0.1239996051278405 0 -0.2495823492922267 0.12121763785839371 0 -0.25610310449345419 0.1041046972302731 0 -0.25413031243694739 0.089521027236778197 0 -0.2427234934652894 0.090762762990284518 0 -0.25610310449345419 0.1041046972302731 0 -0.26471001572300679 0.091779207982481292 0 -0.25413031243694739 0.089521027236778197 0 -0.25610310449345419 0.1041046972302731 0 -0.27632390472144541 0.10600366135062909 0 -0.26471001572300679 0.091779207982481292 0 -0.27632390472144541 0.10600366135062909 0 -0.27815219556391091 0.091433986845849968 0 -0.26471001572300679 0.091779207982481292 0 -0.27632390472144541 0.10600366135062909 0 -0.28783094919658059 0.096999283795453681 0 -0.27815219556391091 0.091433986845849968 0 -0.25610310449345419 0.1041046972302731 0 -0.27632390472144541 0.10600366135062909 0 -0.27545980130109921 0.1239996051278405 0 -0.27545980130109921 0.1239996051278405 0 -0.29614728665031642 0.1100773929983587 0 -0.29326612220823411 0.13512644163735801 0 -0.27545980130109921 0.1239996051278405 0 -0.29614728665031642 0.1100773929983587 0 -0.27632390472144541 0.10600366135062909 0 -0.27545980130109921 0.1239996051278405 0 -0.29614728665031642 0.1100773929983587 0 -0.27632390472144541 0.10600366135062909 0 -0.29614728665031642 0.1100773929983587 0 -0.28783094919658059 0.096999283795453681 0 -0.29614728665031642 0.1100773929983587 0 -0.28783094919658059 0.096999283795453681 0 -0.29903425758953422 0.090155638130954882 0 -0.29614728665031642 0.1100773929983587 0 -0.29903425758953422 0.090155638130954882 0 -0.31683477199953253 0.096155180868875256 0 -0.29614728665031642 0.1100773929983587 0 -0.31683477199953253 0.096155180868875256 0 -0.29614728665031642 0.1100773929983587 0 -0.31211500736378339 0.1240031522641292 0 -0.31683477199953253 0.096155180868875256 0 -0.29326612220823411 0.13512644163735801 0 -0.29614728665031642 0.1100773929983587 0 -0.31211500736378339 0.1240031522641292 0 -0.30635830999651792 0.07761242167179265 0 -0.30189037325813839 0.060543452134012458 0 -0.32146679815367007 0.068824891797761426 0 -0.30635830999651792 0.07761242167179265 0 -0.29256534898171721 0.072382945427359638 0 -0.30189037325813839 0.060543452134012458 0 -0.30635830999651792 0.07761242167179265 0 -0.29903425758953422 0.090155638130954882 0 -0.29256534898171721 0.072382945427359638 0 -0.30635830999651792 0.07761242167179265 0 -0.29903425758953422 0.090155638130954882 0 -0.31683477199953253 0.096155180868875256 0 -0.29903425758953422 0.090155638130954882 0 -0.28572263353681682 0.08337299634339973 0 -0.29256534898171721 0.072382945427359638 0 -0.28783094919658059 0.096999283795453681 0 -0.29903425758953422 0.090155638130954882 0 -0.28572263353681682 0.08337299634339973 0 -0.28783094919658059 0.096999283795453681 0 -0.28572263353681682 0.08337299634339973 0 -0.27815219556391091 0.091433986845849968 0 -0.28572263353681682 0.08337299634339973 0 -0.29256534898171721 0.072382945427359638 0 -0.28059357561043269 0.073644623599786935 0 -0.29256534898171721 0.072382945427359638 0 -0.29088471103165969 0.062671374321780771 0 -0.30189037325813839 0.060543452134012458 0 -0.29256534898171721 0.072382945427359638 0 -0.29088471103165969 0.062671374321780771 0 -0.28261649390190829 0.064291953838756216 0 -0.29256534898171721 0.072382945427359638 0 -0.28261649390190829 0.064291953838756216 0 -0.28059357561043269 0.073644623599786935 0 -0.28261649390190829 0.064291953838756216 0 -0.27678196032587499 0.069585006034529676 0 -0.27195195811963518 0.06635492754641531 0 -0.26855373331756138 0.063547936276670339 0 -0.27195195811963518 0.06635492754641531 0 -0.25743728825439521 0.07924270920583569 0 -0.28261649390190829 0.064291953838756216 0 -0.27678196032587499 0.069585006034529676 0 -0.28059357561043269 0.073644623599786935 0 -0.27678196032587499 0.069585006034529676 0 -0.27196581367152378 0.074048519153160283 0 -0.27195195811963518 0.06635492754641531 0 -0.27678196032587499 0.069585006034529676 0 -0.28059357561043269 0.073644623599786935 0 -0.27196581367152378 0.074048519153160283 0 -0.28059357561043269 0.073644623599786935 0 -0.27196581367152378 0.074048519153160283 0 -0.27303575277029413 0.081855029780232597 0 -0.27196581367152378 0.074048519153160283 0 -0.27195195811963518 0.06635492754641531 0 -0.25743728825439521 0.07924270920583569 0 -0.28572263353681682 0.08337299634339973 0 -0.27815219556391091 0.091433986845849968 0 -0.27303575277029413 0.081855029780232597 0 -0.28572263353681682 0.08337299634339973 0 -0.28059357561043269 0.073644623599786935 0 -0.27303575277029413 0.081855029780232597 0 -0.27196581367152378 0.074048519153160283 0 -0.27303575277029413 0.081855029780232597 0 -0.25743728825439521 0.07924270920583569 0 -0.27815219556391091 0.091433986845849968 0 -0.27303575277029413 0.081855029780232597 0 -0.26471001572300679 0.091779207982481292 0 -0.26471001572300679 0.091779207982481292 0 -0.25743728825439521 0.07924270920583569 0 -0.25413031243694739 0.089521027236778197 0 -0.27303575277029413 0.081855029780232597 0 -0.26471001572300679 0.091779207982481292 0 -0.25743728825439521 0.07924270920583569 0 -0.25743728825439521 0.07924270920583569 0 -0.25064083865024739 0.073628726666345984 0 -0.24857020570659841 0.081659589420377987 0 -0.25743728825439521 0.07924270920583569 0 -0.25413031243694739 0.089521027236778197 0 -0.24857020570659841 0.081659589420377987 0 -0.26855373331756138 0.063547936276670339 0 -0.25743728825439521 0.07924270920583569 0 -0.25064083865024739 0.073628726666345984 0 -0.26855373331756138 0.063547936276670339 0 -0.25064083865024739 0.073628726666345984 0 -0.2562734301216873 0.062061687155910393 0 -0.26855373331756138 0.063547936276670339 0 -0.25064083865024739 0.073628726666345984 0 -0.27195195811963518 0.06635492754641531 0 -0.25743728825439521 0.07924270920583569 0 -0.25064083865024739 0.073628726666345984 0 -0.2562734301216873 0.062061687155910393 0 -0.24829977196364941 0.065213336215906109 0 -0.2623477931936597 0.053657636987073307 0 -0.25116276906762952 0.054241108780248931 0 -0.26153642505613889 0.036367366133998442 0 -0.2562734301216873 0.062061687155910393 0 -0.2623477931936597 0.053657636987073307 0 -0.25116276906762952 0.054241108780248931 0 -0.2562734301216873 0.062061687155910393 0 -0.25116276906762952 0.054241108780248931 0 -0.24829977196364941 0.065213336215906109 0 -0.26855373331756138 0.063547936276670339 0 -0.2562734301216873 0.062061687155910393 0 -0.2623477931936597 0.053657636987073307 0 -0.25116276906762952 0.054241108780248931 0 -0.26153642505613889 0.036367366133998442 0 -0.239388393447095 0.04766651035075449 0 -0.2623477931936597 0.053657636987073307 0 -0.26153642505613889 0.036367366133998442 0 -0.27323710809808138 0.049716314049096537 0 -0.26153642505613889 0.036367366133998442 0 -0.28732673365434691 0.040933413293477772 0 -0.26153642505613889 0.036367366133998442 0 -0.2825074511423824 0.030310297232740709 0 -0.28732673365434691 0.040933413293477772 0 -0.26153642505613889 0.036367366133998442 0 -0.27323710809808138 0.049716314049096537 0 -0.28732673365434691 0.040933413293477772 0 -0.26855373331756138 0.063547936276670339 0 -0.27195195811963518 0.06635492754641531 0 -0.28646662798487532 0.053467145886994819 0 -0.26855373331756138 0.063547936276670339 0 -0.28646662798487532 0.053467145886994819 0 -0.26855373331756138 0.063547936276670339 0 -0.27323710809808138 0.049716314049096537 0 -0.28646662798487532 0.053467145886994819 0 -0.27195195811963518 0.06635492754641531 0 -0.28646662798487532 0.053467145886994819 0 -0.28261649390190829 0.064291953838756216 0 -0.27195195811963518 0.06635492754641531 0 -0.28646662798487532 0.053467145886994819 0 -0.26855373331756138 0.063547936276670339 0 -0.2623477931936597 0.053657636987073307 0 -0.27323710809808138 0.049716314049096537 0 -0.26176261374782622 0.0098260211376069873 0 -0.24854849079604721 0.020569936005881421 0 -0.24598119983726671 0.0037338506766126851 0 -0.26003022337954462 -0.0038093911555793728 0 -0.26176261374782622 0.0098260211376069873 0 -0.24598119983726671 0.0037338506766126851 0 -0.26003022337954462 -0.0038093911555793728 0 -0.27433688946420332 -0.0007833753365484626 0 -0.26176261374782622 0.0098260211376069873 0 -0.26153642505613889 0.036367366133998442 0 -0.26176261374782622 0.0098260211376069873 0 -0.24854849079604721 0.020569936005881421 0 -0.26153642505613889 0.036367366133998442 0 -0.26176261374782622 0.0098260211376069873 0 -0.27684491432135683 0.017453585025194441 0 -0.26153642505613889 0.036367366133998442 0 -0.27684491432135683 0.017453585025194441 0 -0.2825074511423824 0.030310297232740709 0 -0.27433688946420332 -0.0007833753365484626 0 -0.26176261374782622 0.0098260211376069873 0 -0.27684491432135683 0.017453585025194441 0 -0.27433688946420332 -0.0007833753365484626 0 -0.27684491432135683 0.017453585025194441 0 -0.28842838408131971 0.0076205693905790281 0 -0.28842838408131971 0.0076205693905790281 0 -0.29131927560690712 0.022062190579302341 0 -0.29989828236451899 0.011495108916467369 0 -0.27684491432135683 0.017453585025194441 0 -0.29131927560690712 0.022062190579302341 0 -0.2825074511423824 0.030310297232740709 0 -0.27684491432135683 0.017453585025194441 0 -0.28842838408131971 0.0076205693905790281 0 -0.29131927560690712 0.022062190579302341 0 -0.29131927560690712 0.022062190579302341 0 -0.2825074511423824 0.030310297232740709 0 -0.29550990707316249 0.034734931131730561 0 -0.29131927560690712 0.022062190579302341 0 -0.30587597075389272 0.02137954460474218 0 -0.29550990707316249 0.034734931131730561 0 -0.30587597075389272 0.02137954460474218 0 -0.29550990707316249 0.034734931131730561 0 -0.30859873922341308 0.03381572977126493 0 -0.29131927560690712 0.022062190579302341 0 -0.30587597075389272 0.02137954460474218 0 -0.29989828236451899 0.011495108916467369 0 -0.3025805037907468 -0.0027432771802810229 0 -0.3204068892458079 -0.0014125807301150939 0 -0.31128727758972891 0.0091565171879943417 0 -0.30587597075389272 0.02137954460474218 0 -0.29989828236451899 0.011495108916467369 0 -0.31128727758972891 0.0091565171879943417 0 -0.3025805037907468 -0.0027432771802810229 0 -0.29989828236451899 0.011495108916467369 0 -0.31128727758972891 0.0091565171879943417 0 -0.3025805037907468 -0.0027432771802810229 0 -0.28842838408131971 0.0076205693905790281 0 -0.29989828236451899 0.011495108916467369 0 -0.28646662798487532 0.053467145886994819 0 -0.304010183261538 0.043594207608826187 0 -0.29088471103165969 0.062671374321780771 0 -0.28646662798487532 0.053467145886994819 0 -0.30189037325813839 0.060543452134012458 0 -0.29088471103165969 0.062671374321780771 0 -0.28261649390190829 0.064291953838756216 0 -0.28646662798487532 0.053467145886994819 0 -0.27323710809808138 0.049716314049096537 0 -0.28646662798487532 0.053467145886994819 0 -0.28732673365434691 0.040933413293477772 0 -0.28646662798487532 0.053467145886994819 0 -0.29550990707316249 0.034734931131730561 0 -0.30859873922341308 0.03381572977126493 0 -0.28646662798487532 0.053467145886994819 0 -0.28732673365434691 0.040933413293477772 0 -0.29550990707316249 0.034734931131730561 0 -0.2825074511423824 0.030310297232740709 0 -0.28732673365434691 0.040933413293477772 0 -0.29550990707316249 0.034734931131730561 0 -0.28646662798487532 0.053467145886994819 0 -0.30859873922341308 0.03381572977126493 0 -0.28646662798487532 0.053467145886994819 0 -0.304010183261538 0.043594207608826187 0 -0.30859873922341308 0.03381572977126493 0 -0.304010183261538 0.043594207608826187 0 -0.30859873922341308 0.03381572977126493 0 -0.32155373853820057 0.033721269330657687 0 -0.304010183261538 0.043594207608826187 0 -0.3137915997446068 0.051476736654279882 0 -0.31549181974187701 0.042926529004151233 0 -0.28646662798487532 0.053467145886994819 0 -0.304010183261538 0.043594207608826187 0 -0.30189037325813839 0.060543452134012458 0 -0.30189037325813839 0.060543452134012458 0 -0.3137915997446068 0.051476736654279882 0 -0.32146679815367007 0.068824891797761426 0 -0.304010183261538 0.043594207608826187 0 -0.30189037325813839 0.060543452134012458 0 -0.3137915997446068 0.051476736654279882 0 -0.3137915997446068 0.051476736654279882 0 -0.32609882430781029 0.041494602726648067 0 -0.32146679815367007 0.068824891797761426 0 -0.32609882430781029 0.041494602726648067 0 -0.32146679815367007 0.068824891797761426 0 -0.3137915997446068 0.051476736654279882 0 -0.31549181974187701 0.042926529004151233 0 -0.32609882430781029 0.041494602726648067 0 -0.304010183261538 0.043594207608826187 0 -0.31549181974187701 0.042926529004151233 0 -0.32155373853820057 0.033721269330657687 0 -0.304010183261538 0.043594207608826187 0 -0.32155373853820057 0.033721269330657687 0 -0.31549181974187701 0.042926529004151233 0 -0.32155373853820057 0.033721269330657687 0 -0.32609882430781029 0.041494602726648067 0 -0.32609882430781029 0.041494602726648067 0 -0.34385517732675519 0.031131612817745031 0 -0.35163198926140088 0.046228739452983239 0 -0.32609882430781029 0.041494602726648067 0 -0.338272543408071 0.060603673933957783 0 -0.32146679815367007 0.068824891797761426 0 -0.32609882430781029 0.041494602726648067 0 -0.338272543408071 0.060603673933957783 0 -0.35163198926140088 0.046228739452983239 0 -0.3204068892458079 -0.0014125807301150939 0 -0.31128727758972891 0.0091565171879943417 0 -0.33073085046195078 0.01416431365553468 0 -0.30587597075389272 0.02137954460474218 0 -0.31128727758972891 0.0091565171879943417 0 -0.33073085046195078 0.01416431365553468 0 -0.30859873922341308 0.03381572977126493 0 -0.33073085046195078 0.01416431365553468 0 -0.30587597075389272 0.02137954460474218 0 -0.30859873922341308 0.03381572977126493 0 -0.33073085046195078 0.01416431365553468 0 -0.32155373853820057 0.033721269330657687 0 -0.32609882430781029 0.041494602726648067 0 -0.33073085046195078 0.01416431365553468 0 -0.30859873922341308 0.03381572977126493 0 -0.32155373853820057 0.033721269330657687 0 -0.33073085046195078 0.01416431365553468 0 -0.32609882430781029 0.041494602726648067 0 -0.33073085046195078 0.01416431365553468 0 -0.33073085046195078 0.01416431365553468 0 -0.34385517732675519 0.031131612817745031 0 -0.35381837275022032 0.01853105722209741 0 -0.32609882430781029 0.041494602726648067 0 -0.33073085046195078 0.01416431365553468 0 -0.34385517732675519 0.031131612817745031 0 -0.33540629353460438 -0.01342214774580049 0 -0.33073085046195078 0.01416431365553468 0 -0.35221409618436439 -0.0049109655465913588 0 -0.33073085046195078 0.01416431365553468 0 -0.35221409618436439 -0.0049109655465913588 0 -0.34857824671955512 -0.007874197240844389 0 -0.33073085046195078 0.01416431365553468 0 -0.35221409618436439 -0.0049109655465913588 0 -0.33073085046195078 0.01416431365553468 0 -0.34939877662876639 0.0070576099193848619 0 -0.33073085046195078 0.01416431365553468 0 -0.34939877662876639 0.0070576099193848619 0 -0.35381837275022032 0.01853105722209741 0 -0.35900139338342918 0.0020097317905480609 0 -0.34939877662876639 0.0070576099193848619 0 -0.35834074471334648 0.0096788928264882005 0 -0.35509488683577939 -0.0004162838960613095 0 -0.35900139338342918 0.0020097317905480609 0 -0.34939877662876639 0.0070576099193848619 0 -0.35509488683577939 -0.0004162838960613095 0 -0.35221409618436439 -0.0049109655465913588 0 -0.34939877662876639 0.0070576099193848619 0 -0.34939877662876639 0.0070576099193848619 0 -0.35834074471334648 0.0096788928264882005 0 -0.35381837275022032 0.01853105722209741 0 -0.34385517732675519 0.031131612817745031 0 -0.35381837275022032 0.01853105722209741 0 -0.36551724687399623 0.028318485711261141 0 -0.37937813184432773 0.031366277704107569 0 -0.36551724687399623 0.028318485711261141 0 -0.37479293228070759 0.022502646493578662 0 -0.36551724687399623 0.028318485711261141 0 -0.37479293228070759 0.022502646493578662 0 -0.36730783543836809 0.01519693074799966 0 -0.3778438638662554 0.014761087644765769 0 -0.37479293228070759 0.022502646493578662 0 -0.36730783543836809 0.01519693074799966 0 -0.35381837275022032 0.01853105722209741 0 -0.36551724687399623 0.028318485711261141 0 -0.36730783543836809 0.01519693074799966 0 -0.35834074471334648 0.0096788928264882005 0 -0.36730783543836809 0.01519693074799966 0 -0.36603012090457948 0.0050917054244422654 0 -0.35834074471334648 0.0096788928264882005 0 -0.35381837275022032 0.01853105722209741 0 -0.36730783543836809 0.01519693074799966 0 -0.36730783543836809 0.01519693074799966 0 -0.37464316483836829 0.0066416053135349984 0 -0.36603012090457948 0.0050917054244422654 0 -0.3778438638662554 0.014761087644765769 0 -0.36730783543836809 0.01519693074799966 0 -0.37464316483836829 0.0066416053135349984 0 -0.37126952376897032 -0.00085078512189483576 0 -0.37774077980655368 -0.001289555558904682 0 -0.37464316483836829 0.0066416053135349984 0 -0.37126952376897032 -0.00085078512189483576 0 -0.37464316483836829 0.0066416053135349984 0 -0.36603012090457948 0.0050917054244422654 0 -0.37126952376897032 -0.00085078512189483576 0 -0.36494834593608783 -0.001298186014321303 0 -0.36603012090457948 0.0050917054244422654 0 -0.36494834593608783 -0.001298186014321303 0 -0.35900139338342918 0.0020097317905480609 0 -0.36603012090457948 0.0050917054244422654 0 -0.35900139338342918 0.0020097317905480609 0 -0.35834074471334648 0.0096788928264882005 0 -0.36603012090457948 0.0050917054244422654 0 -0.35163198926140088 0.046228739452983239 0 -0.36891219827968119 0.060077996683558232 0 -0.35298131256760962 0.063034912088641357 0 -0.338272543408071 0.060603673933957783 0 -0.35163198926140088 0.046228739452983239 0 -0.35298131256760962 0.063034912088641357 0 -0.34385517732675519 0.031131612817745031 0 -0.36551724687399623 0.028318485711261141 0 -0.35163198926140088 0.046228739452983239 0 -0.36551724687399623 0.028318485711261141 0 -0.35163198926140088 0.046228739452983239 0 -0.37261014177358448 0.043145835856899219 0 -0.37937813184432773 0.031366277704107569 0 -0.36551724687399623 0.028318485711261141 0 -0.37261014177358448 0.043145835856899219 0 -0.35163198926140088 0.046228739452983239 0 -0.37261014177358448 0.043145835856899219 0 -0.36891219827968119 0.060077996683558232 0 -0.38207463336695202 0.051047668856640811 0 -0.37261014177358448 0.043145835856899219 0 -0.36891219827968119 0.060077996683558232 0 -0.37929074908003868 0.077603726490867345 0 -0.35694138538550352 0.073855345321458488 0 -0.37929074908003868 0.077603726490867345 0 -0.36891219827968119 0.060077996683558232 0 -0.35694138538550352 0.073855345321458488 0 -0.36891219827968119 0.060077996683558232 0 -0.35298131256760962 0.063034912088641357 0 -0.35694138538550352 0.073855345321458488 0 -0.35298131256760962 0.063034912088641357 0 -0.35694138538550352 0.073855345321458488 0 -0.34914844650339177 0.074408805051249083 0 -0.35694138538550352 0.073855345321458488 0 -0.34914844650339177 0.074408805051249083 0 -0.35387282561504041 0.085789381247760657 0 -0.338272543408071 0.060603673933957783 0 -0.35298131256760962 0.063034912088641357 0 -0.34914844650339177 0.074408805051249083 0 -0.34914844650339177 0.074408805051249083 0 -0.35387282561504041 0.085789381247760657 0 -0.33299160925146271 0.085281992960062933 0 -0.35694138538550352 0.073855345321458488 0 -0.35387282561504041 0.085789381247760657 0 -0.36438159895332511 0.085691586513687634 0 -0.35387282561504041 0.085789381247760657 0 -0.36438159895332511 0.085691586513687634 0 -0.35579278546844412 0.098564625017930646 0 -0.37929074908003868 0.077603726490867345 0 -0.35694138538550352 0.073855345321458488 0 -0.36438159895332511 0.085691586513687634 0 -0.37929074908003868 0.077603726490867345 0 -0.36438159895332511 0.085691586513687634 0 -0.37090825683648998 0.098456277756480637 0 -0.37090825683648998 0.098456277756480637 0 -0.36904533532088801 0.1177582563576956 0 -0.35579278546844412 0.098564625017930646 0 -0.36438159895332511 0.085691586513687634 0 -0.37090825683648998 0.098456277756480637 0 -0.35579278546844412 0.098564625017930646 0 -0.35823941519022368 0.13573745574644491 0 -0.36904533532088801 0.1177582563576956 0 -0.35158166360451942 0.11704707172714621 0 -0.36904533532088801 0.1177582563576956 0 -0.35158166360451942 0.11704707172714621 0 -0.35579278546844412 0.098564625017930646 0 -0.35158166360451942 0.11704707172714621 0 -0.35579278546844412 0.098564625017930646 0 -0.34047962299512569 0.099373871294989508 0 -0.35387282561504041 0.085789381247760657 0 -0.35579278546844412 0.098564625017930646 0 -0.34047962299512569 0.099373871294989508 0 -0.34047962299512569 0.099373871294989508 0 -0.33231339904552459 0.1171762944261375 0 -0.31683477199953253 0.096155180868875256 0 -0.34455851703438989 0.13305210298766909 0 -0.35158166360451942 0.11704707172714621 0 -0.33231339904552459 0.1171762944261375 0 -0.35158166360451942 0.11704707172714621 0 -0.34047962299512569 0.099373871294989508 0 -0.33231339904552459 0.1171762944261375 0 -0.31211500736378339 0.1240031522641292 0 -0.31683477199953253 0.096155180868875256 0 -0.31211500736378339 0.1240031522641292 0 -0.33231339904552459 0.1171762944261375 0 -0.31683477199953253 0.096155180868875256 0 -0.30635830999651792 0.07761242167179265 0 -0.31683477199953253 0.096155180868875256 0 -0.32146679815367007 0.068824891797761426 0 -0.31683477199953253 0.096155180868875256 0 -0.32146679815367007 0.068824891797761426 0 -0.33299160925146271 0.085281992960062933 0 -0.31683477199953253 0.096155180868875256 0 -0.32146679815367007 0.068824891797761426 0 -0.31683477199953253 0.096155180868875256 0 -0.33299160925146271 0.085281992960062933 0 -0.338272543408071 0.060603673933957783 0 -0.32146679815367007 0.068824891797761426 0 -0.33576809196089219 0.072507027900731907 0 -0.32146679815367007 0.068824891797761426 0 -0.33576809196089219 0.072507027900731907 0 -0.33299160925146271 0.085281992960062933 0 -0.34914844650339177 0.074408805051249083 0 -0.33576809196089219 0.072507027900731907 0 -0.33299160925146271 0.085281992960062933 0 -0.338272543408071 0.060603673933957783 0 -0.34914844650339177 0.074408805051249083 0 -0.33576809196089219 0.072507027900731907 0 -0.35387282561504041 0.085789381247760657 0 -0.34047962299512569 0.099373871294989508 0 -0.33299160925146271 0.085281992960062933 0 -0.34914844650339177 0.074408805051249083 0 -0.33299160925146271 0.085281992960062933 0 -0.34047962299512569 0.099373871294989508 0 -0.31683477199953253 0.096155180868875256 0 -0.33299160925146271 0.085281992960062933 0 -0.3938434845513461 0.48000301234504228 0 -0.4154786193197833 0.47000451851756458 0 -0.40908183102320411 0.4845696213484928 0 -0.3938434845513461 0.48000301234504228 0 -0.40110135887996978 0.47332954189399812 0 -0.4154786193197833 0.47000451851756458 0 -0.3938434845513461 0.48000301234504228 0 -0.4154786193197833 0.47000451851756458 0 -0.3938434845513461 0.48000301234504228 0 -0.40110135887996978 0.47332954189399812 0 -0.38930270813857232 0.46778113184491188 0 -0.3938434845513461 0.48000301234504228 0 -0.39546946259238258 0.49128185561313598 0 -0.40908183102320411 0.4845696213484928 0 -0.40521342881326272 0.5 0 -0.39546946259238258 0.49128185561313598 0 -0.37789332191386737 0.5 0 -0.40521342881326272 0.5 0 -0.39546946259238258 0.49128185561313598 0 -0.40908183102320411 0.4845696213484928 0 -0.3938434845513461 0.48000301234504228 0 -0.39546946259238258 0.49128185561313598 0 -0.38517353549973538 0.49039659604947999 0 -0.3938434845513461 0.48000301234504228 0 -0.37220834978290879 0.49000150617251997 0 -0.39546946259238258 0.49128185561313598 0 -0.38517353549973538 0.49039659604947999 0 -0.37789332191386737 0.5 0 -0.3938434845513461 0.48000301234504228 0 -0.38517353549973538 0.49039659604947999 0 -0.37220834978290879 0.49000150617251997 0 -0.38517353549973538 0.49039659604947999 0 -0.37789332191386737 0.5 0 -0.37220834978290879 0.49000150617251997 0 -0.3938434845513461 0.48000301234504228 0 -0.37805640255927542 0.47903421333972468 0 -0.3842367001720054 0.47454362448235632 0 -0.3938434845513461 0.48000301234504228 0 -0.37805640255927542 0.47903421333972468 0 -0.37220834978290879 0.49000150617251997 0 -0.3842367001720054 0.47454362448235632 0 -0.37701653082709469 0.46900635458093531 0 -0.38930270813857232 0.46778113184491188 0 -0.3938434845513461 0.48000301234504228 0 -0.3842367001720054 0.47454362448235632 0 -0.38930270813857232 0.46778113184491188 0 -0.37805640255927542 0.47903421333972468 0 -0.3842367001720054 0.47454362448235632 0 -0.37701653082709469 0.46900635458093531 0 -0.37701653082709469 0.46900635458093531 0 -0.38677844954541418 0.45747132953460651 0 -0.37376195539900242 0.45249759326054367 0 -0.37701653082709469 0.46900635458093531 0 -0.38677844954541418 0.45747132953460651 0 -0.38930270813857232 0.46778113184491188 0 -0.38473584783684761 0.44354080077547992 0 -0.36778315087773072 0.43214877602771662 0 -0.37376195539900242 0.45249759326054367 0 -0.38677844954541418 0.45747132953460651 0 -0.38473584783684761 0.44354080077547992 0 -0.37376195539900242 0.45249759326054367 0 -0.38677844954541418 0.45747132953460651 0 -0.38473584783684761 0.44354080077547992 0 -0.39843898125590987 0.45231631840454728 0 -0.39843898125590987 0.45231631840454728 0 -0.4072920944712265 0.44499890251068641 0 -0.39856520721893041 0.43647578570475237 0 -0.38473584783684761 0.44354080077547992 0 -0.39843898125590987 0.45231631840454728 0 -0.39856520721893041 0.43647578570475237 0 -0.39843898125590987 0.45231631840454728 0 -0.39841490533913748 0.46178879282826651 0 -0.41709791082295028 0.45456801136960878 0 -0.40110135887996978 0.47332954189399812 0 -0.39841490533913748 0.46178879282826651 0 -0.41709791082295028 0.45456801136960878 0 -0.38677844954541418 0.45747132953460651 0 -0.38930270813857232 0.46778113184491188 0 -0.39841490533913748 0.46178879282826651 0 -0.40110135887996978 0.47332954189399812 0 -0.38930270813857232 0.46778113184491188 0 -0.39841490533913748 0.46178879282826651 0 -0.38677844954541418 0.45747132953460651 0 -0.39843898125590987 0.45231631840454728 0 -0.39841490533913748 0.46178879282826651 0 -0.40110135887996978 0.47332954189399812 0 -0.41709791082295028 0.45456801136960878 0 -0.4154786193197833 0.47000451851756458 0 -0.40110135887996978 0.47332954189399812 0 -0.41709791082295028 0.45456801136960878 0 -0.41709791082295028 0.45456801136960878 0 -0.42692569345801529 0.46340213249295897 0 -0.4154786193197833 0.47000451851756458 0 -0.41709791082295028 0.45456801136960878 0 -0.43309446276593089 0.43580648084521972 0 -0.41506627858711548 0.4366354945638371 0 -0.39843898125590987 0.45231631840454728 0 -0.41709791082295028 0.45456801136960878 0 -0.4072920944712265 0.44499890251068641 0 -0.4072920944712265 0.44499890251068641 0 -0.41506627858711548 0.4366354945638371 0 -0.39856520721893041 0.43647578570475237 0 -0.41709791082295028 0.45456801136960878 0 -0.4072920944712265 0.44499890251068641 0 -0.41506627858711548 0.4366354945638371 0 -0.41709791082295028 0.45456801136960878 0 -0.43251943231727258 0.45189802077753072 0 -0.43309446276593089 0.43580648084521972 0 -0.41709791082295028 0.45456801136960878 0 -0.43309446276593089 0.43580648084521972 0 -0.43251943231727258 0.45189802077753072 0 -0.44285055445462801 0.44408738363144917 0 -0.43309446276593089 0.43580648084521972 0 -0.43251943231727258 0.45189802077753072 0 -0.42692569345801529 0.46340213249295897 0 -0.44262854008483871 0.46162609554841733 0 -0.42692569345801529 0.46340213249295897 0 -0.43014133963940671 0.47900644757454591 0 -0.44262854008483871 0.46162609554841733 0 -0.41709791082295028 0.45456801136960878 0 -0.43251943231727258 0.45189802077753072 0 -0.42692569345801529 0.46340213249295897 0 -0.42692569345801529 0.46340213249295897 0 -0.43014133963940671 0.47900644757454591 0 -0.4154786193197833 0.47000451851756458 0 -0.43014133963940671 0.47900644757454591 0 -0.4154786193197833 0.47000451851756458 0 -0.40908183102320411 0.4845696213484928 0 -0.40521342881326272 0.5 0 -0.40908183102320411 0.4845696213484928 0 -0.43253353571265801 0.5 0 -0.43014133963940671 0.47900644757454591 0 -0.40908183102320411 0.4845696213484928 0 -0.43253353571265801 0.5 0 -0.43014133963940671 0.47900644757454591 0 -0.43253353571265801 0.5 0 -0.44984012809851409 0.48033494727474779 0 -0.43253353571265801 0.5 0 -0.44984012809851409 0.48033494727474779 0 -0.45985364261205308 0.50000000000000111 0 -0.43014133963940671 0.47900644757454591 0 -0.44984012809851409 0.48033494727474779 0 -0.44262854008483871 0.46162609554841733 0 -0.44984012809851409 0.48033494727474779 0 -0.47312811744354261 0.47395110078869013 0 -0.45820768181792781 0.46325373185340701 0 -0.45985364261205308 0.50000000000000111 0 -0.47312811744354261 0.47395110078869013 0 -0.44984012809851409 0.48033494727474779 0 -0.45985364261205308 0.50000000000000111 0 -0.47312811744354261 0.47395110078869013 0 -0.5 0.5 0 -0.47312811744354261 0.47395110078869013 0 -0.49999999999999972 0.44664233614409321 0 -0.45985364261205308 0.50000000000000111 0 -0.5 0.5 0 -0.47312811744354261 0.47395110078869013 0 -0.48640259227503152 0.44790220157737892 0 -0.49999999999999972 0.44664233614409321 0 -0.47883616718389621 0.43347798499105172 0 -0.49999999999999972 0.44664233614409321 0 -0.47883616718389621 0.43347798499105172 0 -0.47312811744354261 0.47395110078869013 0 -0.48640259227503152 0.44790220157737892 0 -0.49999999999999972 0.44664233614409321 0 -0.47312811744354261 0.47395110078869013 0 -0.48640259227503152 0.44790220157737892 0 -0.47312811744354261 0.47395110078869013 0 -0.48640259227503152 0.44790220157737892 0 -0.46932328621444303 0.45009797021529852 0 -0.46932328621444303 0.45009797021529852 0 -0.46288197751253979 0.435741310408158 0 -0.47883616718389621 0.43347798499105172 0 -0.48640259227503152 0.44790220157737892 0 -0.46932328621444303 0.45009797021529852 0 -0.47883616718389621 0.43347798499105172 0 -0.46932328621444303 0.45009797021529852 0 -0.45653044061400749 0.44574373859450739 0 -0.46288197751253979 0.435741310408158 0 -0.46932328621444303 0.45009797021529852 0 -0.45653044061400749 0.44574373859450739 0 -0.45820768181792781 0.46325373185340701 0 -0.45653044061400749 0.44574373859450739 0 -0.44988321330808601 0.43264183945635343 0 -0.46288197751253979 0.435741310408158 0 -0.47312811744354261 0.47395110078869013 0 -0.46932328621444303 0.45009797021529852 0 -0.45820768181792781 0.46325373185340701 0 -0.45653044061400749 0.44574373859450739 0 -0.45820768181792781 0.46325373185340701 0 -0.44262854008483871 0.46162609554841733 0 -0.44984012809851409 0.48033494727474779 0 -0.45820768181792781 0.46325373185340701 0 -0.44262854008483871 0.46162609554841733 0 -0.43251943231727258 0.45189802077753072 0 -0.44262854008483871 0.46162609554841733 0 -0.44285055445462801 0.44408738363144917 0 -0.45653044061400749 0.44574373859450739 0 -0.44262854008483871 0.46162609554841733 0 -0.44285055445462801 0.44408738363144917 0 -0.44285055445462801 0.44408738363144917 0 -0.44988321330808601 0.43264183945635343 0 -0.43309446276593089 0.43580648084521972 0 -0.45653044061400749 0.44574373859450739 0 -0.44285055445462801 0.44408738363144917 0 -0.44988321330808601 0.43264183945635343 0 -0.44909101470891138 0.41704495032083061 0 -0.43309446276593089 0.43580648084521972 0 -0.44988321330808601 0.43264183945635343 0 -0.44909101470891138 0.41704495032083061 0 -0.43309446276593089 0.43580648084521972 0 -0.44988321330808601 0.43264183945635343 0 -0.44909101470891138 0.41704495032083061 0 -0.45767233436779298 0.42031363383801013 0 -0.44909101470891138 0.41704495032083061 0 -0.43642708593841462 0.41129790334070748 0 -0.43309446276593089 0.43580648084521972 0 -0.44909101470891138 0.41704495032083061 0 -0.44923652684218601 0.40651161443480333 0 -0.43642708593841462 0.41129790334070748 0 -0.44909101470891138 0.41704495032083061 0 -0.46310762304278369 0.4136785712167641 0 -0.46508756665189233 0.39828341979644161 0 -0.44909101470891138 0.41704495032083061 0 -0.46508756665189233 0.39828341979644161 0 -0.44909101470891138 0.41704495032083061 0 -0.44923652684218601 0.40651161443480333 0 -0.46508756665189233 0.39828341979644161 0 -0.44909101470891138 0.41704495032083061 0 -0.45767233436779298 0.42031363383801013 0 -0.46310762304278369 0.4136785712167641 0 -0.45767233436779298 0.42031363383801013 0 -0.46310762304278369 0.4136785712167641 0 -0.4689935185142321 0.42014913325858988 0 -0.46310762304278369 0.4136785712167641 0 -0.47635794946245552 0.41312634298853379 0 -0.46508756665189233 0.39828341979644161 0 -0.45767233436779298 0.42031363383801013 0 -0.47883616718389621 0.43347798499105172 0 -0.4689935185142321 0.42014913325858988 0 -0.45767233436779298 0.42031363383801013 0 -0.46288197751253979 0.435741310408158 0 -0.47883616718389621 0.43347798499105172 0 -0.45767233436779298 0.42031363383801013 0 -0.47883616718389621 0.43347798499105172 0 -0.44988321330808601 0.43264183945635343 0 -0.45767233436779298 0.42031363383801013 0 -0.46288197751253979 0.435741310408158 0 -0.47883616718389621 0.43347798499105172 0 -0.47635794946245552 0.41312634298853379 0 -0.48714440641974271 0.42351608680749347 0 -0.47883616718389621 0.43347798499105172 0 -0.4689935185142321 0.42014913325858988 0 -0.47635794946245552 0.41312634298853379 0 -0.46310762304278369 0.4136785712167641 0 -0.4689935185142321 0.42014913325858988 0 -0.47635794946245552 0.41312634298853379 0 -0.47635794946245552 0.41312634298853379 0 -0.48901457958177968 0.41012265573874179 0 -0.48254378332594611 0.39722493186941499 0 -0.47635794946245552 0.41312634298853379 0 -0.48901457958177968 0.41012265573874179 0 -0.48714440641974271 0.42351608680749347 0 -0.48901457958177968 0.41012265573874179 0 -0.5 0.42140439004324071 0 -0.49999999999999978 0.39616644394238798 0 -0.48901457958177968 0.41012265573874179 0 -0.5 0.42140439004324071 0 -0.48714440641974271 0.42351608680749347 0 -0.49999999999999972 0.44664233614409321 0 -0.47883616718389621 0.43347798499105172 0 -0.48714440641974271 0.42351608680749347 0 -0.49999999999999972 0.44664233614409321 0 -0.5 0.42140439004324071 0 -0.48714440641974271 0.42351608680749347 0 -0.49007778645481631 0.38142997617552599 0 -0.49999999999999978 0.39616644394238798 0 -0.50000000000000311 0.3685517992903854 0 -0.49007778645481631 0.38142997617552599 0 -0.47611467569506138 0.38535029247959018 0 -0.48714178473823078 0.37241716516273898 0 -0.49999999999999978 0.39616644394238798 0 -0.48254378332594611 0.39722493186941499 0 -0.48901457958177968 0.41012265573874179 0 -0.49999999999999978 0.39616644394238798 0 -0.48254378332594611 0.39722493186941499 0 -0.49007778645481631 0.38142997617552599 0 -0.49999999999999978 0.39616644394238798 0 -0.48254378332594611 0.39722493186941499 0 -0.48254378332594611 0.39722493186941499 0 -0.46508756665189233 0.39828341979644161 0 -0.47635794946245552 0.41312634298853379 0 -0.48254378332594611 0.39722493186941499 0 -0.46508756665189233 0.39828341979644161 0 -0.48254378332594611 0.39722493186941499 0 -0.47611467569506138 0.38535029247959018 0 -0.46508756665189233 0.39828341979644161 0 -0.47611467569506138 0.38535029247959018 0 -0.46508756665189233 0.39828341979644161 0 -0.49007778645481631 0.38142997617552599 0 -0.48254378332594611 0.39722493186941499 0 -0.47611467569506138 0.38535029247959018 0 -0.47611467569506138 0.38535029247959018 0 -0.47397397291215421 0.37493689296344251 0 -0.48714178473823078 0.37241716516273898 0 -0.47611467569506138 0.38535029247959018 0 -0.48714178473823078 0.37241716516273898 0 -0.46871814716203669 0.37906981455344119 0 -0.46360543106569913 0.37231654924431878 0 -0.47397397291215421 0.37493689296344251 0 -0.47611467569506138 0.38535029247959018 0 -0.46871814716203669 0.37906981455344119 0 -0.47397397291215421 0.37493689296344251 0 -0.46871814716203669 0.37906981455344119 0 -0.46117850897523233 0.38367552352641338 0 -0.46360543106569913 0.37231654924431878 0 -0.47611467569506138 0.38535029247959018 0 -0.46871814716203669 0.37906981455344119 0 -0.46117850897523233 0.38367552352641338 0 -0.47611467569506138 0.38535029247959018 0 -0.46117850897523233 0.38367552352641338 0 -0.46508756665189233 0.39828341979644161 0 -0.46117850897523233 0.38367552352641338 0 -0.45400385251667602 0.39093091030285698 0 -0.45110956684876158 0.38402681738971201 0 -0.46117850897523233 0.38367552352641338 0 -0.45110956684876158 0.38402681738971201 0 -0.44813402172652672 0.37354371539476261 0 -0.46117850897523233 0.38367552352641338 0 -0.44813402172652672 0.37354371539476261 0 -0.46360543106569913 0.37231654924431878 0 -0.44923652684218601 0.40651161443480333 0 -0.46508756665189233 0.39828341979644161 0 -0.44634044006952572 0.39942018428123321 0 -0.46508756665189233 0.39828341979644161 0 -0.45400385251667602 0.39093091030285698 0 -0.44634044006952572 0.39942018428123321 0 -0.46508756665189233 0.39828341979644161 0 -0.44634044006952572 0.39942018428123321 0 -0.46117850897523233 0.38367552352641338 0 -0.46508756665189233 0.39828341979644161 0 -0.45400385251667602 0.39093091030285698 0 -0.45400385251667602 0.39093091030285698 0 -0.44634044006952572 0.39942018428123321 0 -0.44518347515021223 0.38837251913440451 0 -0.44634044006952572 0.39942018428123321 0 -0.44518347515021223 0.38837251913440451 0 -0.43728617553129168 0.39370672697544878 0 -0.44923652684218601 0.40651161443480333 0 -0.44634044006952572 0.39942018428123321 0 -0.43642708593841462 0.41129790334070748 0 -0.45110956684876158 0.38402681738971201 0 -0.44480856609964842 0.38185924381796288 0 -0.44813402172652672 0.37354371539476261 0 -0.45400385251667602 0.39093091030285698 0 -0.45110956684876158 0.38402681738971201 0 -0.44518347515021223 0.38837251913440451 0 -0.45110956684876158 0.38402681738971201 0 -0.44518347515021223 0.38837251913440451 0 -0.44480856609964842 0.38185924381796288 0 -0.44518347515021223 0.38837251913440451 0 -0.43913693036841173 0.38484964203092692 0 -0.43002747341826991 0.3864772557201327 0 -0.44518347515021223 0.38837251913440451 0 -0.43002747341826991 0.3864772557201327 0 -0.44518347515021223 0.38837251913440451 0 -0.43913693036841173 0.38484964203092692 0 -0.44480856609964842 0.38185924381796288 0 -0.44480856609964842 0.38185924381796288 0 -0.4393591315165738 0.37762743775392832 0 -0.44813402172652672 0.37354371539476261 0 -0.43913693036841173 0.38484964203092692 0 -0.44480856609964842 0.38185924381796288 0 -0.4393591315165738 0.37762743775392832 0 -0.43913693036841173 0.38484964203092692 0 -0.43173797726570751 0.37658334167695551 0 -0.43913693036841173 0.38484964203092692 0 -0.43173797726570751 0.37658334167695551 0 -0.43002747341826991 0.3864772557201327 0 -0.43913693036841173 0.38484964203092692 0 -0.4393591315165738 0.37762743775392832 0 -0.43173797726570751 0.37658334167695551 0 -0.4393591315165738 0.37762743775392832 0 -0.43173797726570751 0.37658334167695551 0 -0.4325639091043616 0.37180597819459837 0 -0.43173797726570751 0.37658334167695551 0 -0.43002747341826991 0.3864772557201327 0 -0.44518347515021223 0.38837251913440451 0 -0.43002747341826991 0.3864772557201327 0 -0.43728617553129168 0.39370672697544878 0 -0.43002747341826991 0.3864772557201327 0 -0.41472776448615789 0.38456402166930481 0 -0.42117367656598032 0.39254991666010941 0 -0.43002747341826991 0.3864772557201327 0 -0.41472776448615789 0.38456402166930481 0 -0.43002747341826991 0.3864772557201327 0 -0.42328890360694349 0.38021744503538613 0 -0.41472776448615789 0.38456402166930481 0 -0.43173797726570751 0.37658334167695551 0 -0.43002747341826991 0.3864772557201327 0 -0.42328890360694349 0.38021744503538613 0 -0.43173797726570751 0.37658334167695551 0 -0.42328890360694349 0.38021744503538613 0 -0.42689564018809201 0.37117335838025439 0 -0.40881671944059661 0.37920357314115732 0 -0.42689564018809201 0.37117335838025439 0 -0.42328890360694349 0.38021744503538613 0 -0.40881671944059661 0.37920357314115732 0 -0.42689564018809201 0.37117335838025439 0 -0.42328890360694349 0.38021744503538613 0 -0.41472776448615789 0.38456402166930481 0 -0.40881671944059661 0.37920357314115732 0 -0.41472776448615789 0.38456402166930481 0 -0.40724106840129259 0.39428871981441299 0 -0.42117367656598032 0.39254991666010941 0 -0.41472776448615789 0.38456402166930481 0 -0.40826438028753348 0.3817067557430866 0 -0.39942805555404642 0.38265078761847338 0 -0.41472776448615789 0.38456402166930481 0 -0.40724106840129259 0.39428871981441299 0 -0.39942805555404642 0.38265078761847338 0 -0.41472776448615789 0.38456402166930481 0 -0.39942805555404642 0.38265078761847338 0 -0.40881671944059661 0.37920357314115732 0 -0.39942805555404642 0.38265078761847338 0 -0.41098055992701871 0.3693971202961519 0 -0.40826438028753348 0.3817067557430866 0 -0.40881671944059661 0.37920357314115732 0 -0.41472776448615789 0.38456402166930481 0 -0.40826438028753348 0.3817067557430866 0 -0.40881671944059661 0.37920357314115732 0 -0.40724106840129259 0.39428871981441299 0 -0.4157685575788832 0.40127396331749671 0 -0.40157856791931718 0.40704460823596672 0 -0.42117367656598032 0.39254991666010941 0 -0.4157685575788832 0.40127396331749671 0 -0.42759331348715912 0.40055694876602499 0 -0.40724106840129259 0.39428871981441299 0 -0.42117367656598032 0.39254991666010941 0 -0.4157685575788832 0.40127396331749671 0 -0.4157685575788832 0.40127396331749671 0 -0.42759331348715912 0.40055694876602499 0 -0.44634044006952572 0.39942018428123321 0 -0.42759331348715912 0.40055694876602499 0 -0.44634044006952572 0.39942018428123321 0 -0.42759331348715912 0.40055694876602499 0 -0.43728617553129168 0.39370672697544878 0 -0.44634044006952572 0.39942018428123321 0 -0.42759331348715912 0.40055694876602499 0 -0.43642708593841462 0.41129790334070748 0 -0.43002747341826991 0.3864772557201327 0 -0.42117367656598032 0.39254991666010941 0 -0.42759331348715912 0.40055694876602499 0 -0.43002747341826991 0.3864772557201327 0 -0.42759331348715912 0.40055694876602499 0 -0.43002747341826991 0.3864772557201327 0 -0.42759331348715912 0.40055694876602499 0 -0.43728617553129168 0.39370672697544878 0 -0.43642708593841462 0.41129790334070748 0 -0.42449994900394461 0.41844961959922572 0 -0.43309446276593089 0.43580648084521972 0 -0.42759331348715912 0.40055694876602499 0 -0.43642708593841462 0.41129790334070748 0 -0.42449994900394461 0.41844961959922572 0 -0.4157685575788832 0.40127396331749671 0 -0.42759331348715912 0.40055694876602499 0 -0.42449994900394461 0.41844961959922572 0 -0.42759331348715912 0.40055694876602499 0 -0.42449994900394461 0.41844961959922572 0 -0.42449994900394461 0.41844961959922572 0 -0.43309446276593089 0.43580648084521972 0 -0.41506627858711548 0.4366354945638371 0 -0.42449994900394461 0.41844961959922572 0 -0.41506627858711548 0.4366354945638371 0 -0.40746949035714619 0.42222882353716701 0 -0.41506627858711548 0.4366354945638371 0 -0.40746949035714619 0.42222882353716701 0 -0.39856520721893041 0.43647578570475237 0 -0.42449994900394461 0.41844961959922572 0 -0.40746949035714619 0.42222882353716701 0 -0.41232914121482278 0.41224925367246401 0 -0.4157685575788832 0.40127396331749671 0 -0.42449994900394461 0.41844961959922572 0 -0.41232914121482278 0.41224925367246401 0 -0.4157685575788832 0.40127396331749671 0 -0.41232914121482278 0.41224925367246401 0 -0.40157856791931718 0.40704460823596672 0 -0.40746949035714619 0.42222882353716701 0 -0.41232914121482278 0.41224925367246401 0 -0.40157856791931718 0.40704460823596672 0 -0.40746949035714619 0.42222882353716701 0 -0.40157856791931718 0.40704460823596672 0 -0.39298749241221759 0.42119507937603923 0 -0.40746949035714619 0.42222882353716701 0 -0.39298749241221759 0.42119507937603923 0 -0.39856520721893041 0.43647578570475237 0 -0.39298749241221759 0.42119507937603923 0 -0.39856520721893041 0.43647578570475237 0 -0.38373994498284608 0.43043669407259588 0 -0.38373994498284608 0.43043669407259588 0 -0.37668454372729859 0.41206883315114529 0 -0.36778315087773072 0.43214877602771662 0 -0.38473584783684761 0.44354080077547992 0 -0.38373994498284608 0.43043669407259588 0 -0.36778315087773072 0.43214877602771662 0 -0.38473584783684761 0.44354080077547992 0 -0.39856520721893041 0.43647578570475237 0 -0.38373994498284608 0.43043669407259588 0 -0.40157856791931718 0.40704460823596672 0 -0.39298749241221759 0.42119507937603923 0 -0.37668454372729859 0.41206883315114529 0 -0.39298749241221759 0.42119507937603923 0 -0.38373994498284608 0.43043669407259588 0 -0.37668454372729859 0.41206883315114529 0 -0.40157856791931718 0.40704460823596672 0 -0.37668454372729859 0.41206883315114529 0 -0.37668454372729859 0.41206883315114529 0 -0.37844474563582792 0.390355182046278 0 -0.39076978830337122 0.39764902138512792 0 -0.40157856791931718 0.40704460823596672 0 -0.37668454372729859 0.41206883315114529 0 -0.39076978830337122 0.39764902138512792 0 -0.38141148745950948 0.38039780936179463 0 -0.39942805555404642 0.38265078761847338 0 -0.37844474563582792 0.390355182046278 0 -0.39942805555404642 0.38265078761847338 0 -0.38141148745950948 0.38039780936179463 0 -0.37844474563582792 0.390355182046278 0 -0.39942805555404642 0.38265078761847338 0 -0.37844474563582792 0.390355182046278 0 -0.39942805555404642 0.38265078761847338 0 -0.39076978830337122 0.39764902138512792 0 -0.38141148745950948 0.38039780936179463 0 -0.39942805555404642 0.38265078761847338 0 -0.39128338495032239 0.36719877308275878 0 -0.40826438028753348 0.3817067557430866 0 -0.40881671944059661 0.37920357314115732 0 -0.39942805555404642 0.38265078761847338 0 -0.40881671944059661 0.37920357314115732 0 -0.39942805555404642 0.38265078761847338 0 -0.40724106840129259 0.39428871981441299 0 -0.40157856791931718 0.40704460823596672 0 -0.39076978830337122 0.39764902138512792 0 -0.40724106840129259 0.39428871981441299 0 -0.39942805555404642 0.38265078761847338 0 -0.39076978830337122 0.39764902138512792 0 -0.39259889148010241 0.34864188780489069 0 -0.39999637464883392 0.35559476271013252 0 -0.38966798311544332 0.35610238881872369 0 -0.39259889148010241 0.34864188780489069 0 -0.39999637464883392 0.35559476271013252 0 -0.40046159691170069 0.34164056661102238 0 -0.39999637464883392 0.35559476271013252 0 -0.40046159691170069 0.34164056661102238 0 -0.41381361947694889 0.35655778899711688 0 -0.39999637464883392 0.35559476271013252 0 -0.40397412088998857 0.3623881668075713 0 -0.41381361947694889 0.35655778899711688 0 -0.39128338495032239 0.36719877308275878 0 -0.41098055992701871 0.3693971202961519 0 -0.40397412088998857 0.3623881668075713 0 -0.39128338495032239 0.36719877308275878 0 -0.41098055992701871 0.3693971202961519 0 -0.39942805555404642 0.38265078761847338 0 -0.39128338495032239 0.36719877308275878 0 -0.41098055992701871 0.3693971202961519 0 -0.39999637464883392 0.35559476271013252 0 -0.39128338495032239 0.36719877308275878 0 -0.38966798311544332 0.35610238881872369 0 -0.39999637464883392 0.35559476271013252 0 -0.40397412088998857 0.3623881668075713 0 -0.39128338495032239 0.36719877308275878 0 -0.39128338495032239 0.36719877308275878 0 -0.38070440212728118 0.35956436367519867 0 -0.38966798311544332 0.35610238881872369 0 -0.39128338495032239 0.36719877308275878 0 -0.38070440212728118 0.35956436367519867 0 -0.37158620997362618 0.36500042586936587 0 -0.39128338495032239 0.36719877308275878 0 -0.37158620997362618 0.36500042586936587 0 -0.38141148745950948 0.38039780936179463 0 -0.39128338495032239 0.36719877308275878 0 -0.37158620997362618 0.36500042586936587 0 -0.38070440212728118 0.35956436367519867 0 -0.38259242285128608 0.34975193996759602 0 -0.36960199921418602 0.35731180584905542 0 -0.38259242285128608 0.34975193996759602 0 -0.37580907906339922 0.33647878059299557 0 -0.36960199921418602 0.35731180584905542 0 -0.38070440212728118 0.35956436367519867 0 -0.38966798311544332 0.35610238881872369 0 -0.38259242285128608 0.34975193996759602 0 -0.39259889148010241 0.34864188780489069 0 -0.38966798311544332 0.35610238881872369 0 -0.38259242285128608 0.34975193996759602 0 -0.39259889148010241 0.34864188780489069 0 -0.38259242285128608 0.34975193996759602 0 -0.38794720083446621 0.34059934721089508 0 -0.38259242285128608 0.34975193996759602 0 -0.37580907906339922 0.33647878059299557 0 -0.38794720083446621 0.34059934721089508 0 -0.37580907906339922 0.33647878059299557 0 -0.38794720083446621 0.34059934721089508 0 -0.38710957434645199 0.32672334422492838 0 -0.37580907906339922 0.33647878059299557 0 -0.38201615891261242 0.31564575533693578 0 -0.38201615891261242 0.31564575533693578 0 -0.38336946241093189 0.30974931290420182 0 -0.36531193472093021 0.32454274932608829 0 -0.37580907906339922 0.33647878059299557 0 -0.38201615891261242 0.31564575533693578 0 -0.38710957434645199 0.32672334422492838 0 -0.38201615891261242 0.31564575533693578 0 -0.39350880394476312 0.31593875705230262 0 -0.38336946241093189 0.30974931290420182 0 -0.38201615891261242 0.31564575533693578 0 -0.38710957434645199 0.32672334422492838 0 -0.39350880394476312 0.31593875705230262 0 -0.38710957434645199 0.32672334422492838 0 -0.39350880394476312 0.31593875705230262 0 -0.39921774374196328 0.327754485124091 0 -0.39350880394476312 0.31593875705230262 0 -0.39921774374196328 0.327754485124091 0 -0.40602554896887638 0.32011992980008452 0 -0.39921774374196328 0.327754485124091 0 -0.40602554896887638 0.32011992980008452 0 -0.40814721749945931 0.33505042297199122 0 -0.38794720083446621 0.34059934721089508 0 -0.38710957434645199 0.32672334422492838 0 -0.40046159691170069 0.34164056661102238 0 -0.39259889148010241 0.34864188780489069 0 -0.38794720083446621 0.34059934721089508 0 -0.40046159691170069 0.34164056661102238 0 -0.38710957434645199 0.32672334422492838 0 -0.39921774374196328 0.327754485124091 0 -0.40046159691170069 0.34164056661102238 0 -0.38710957434645199 0.32672334422492838 0 -0.40046159691170069 0.34164056661102238 0 -0.39921774374196328 0.327754485124091 0 -0.40046159691170069 0.34164056661102238 0 -0.40814721749945931 0.33505042297199122 0 -0.40814721749945931 0.33505042297199122 0 -0.41954562432067788 0.33058053440738988 0 -0.41381361947694889 0.35655778899711688 0 -0.41954562432067788 0.33058053440738988 0 -0.41381361947694889 0.35655778899711688 0 -0.40602554896887638 0.32011992980008452 0 -0.40814721749945931 0.33505042297199122 0 -0.41954562432067788 0.33058053440738988 0 -0.40602554896887638 0.32011992980008452 0 -0.41954562432067788 0.33058053440738988 0 -0.42527762916440792 0.30460327981766322 0 -0.41954562432067788 0.33058053440738988 0 -0.42527762916440792 0.30460327981766322 0 -0.41954562432067788 0.33058053440738988 0 -0.44001701522470671 0.31606260091672289 0 -0.42527762916440792 0.30460327981766322 0 -0.41954562432067788 0.33058053440738988 0 -0.42420657124029282 0.3485159257420361 0 -0.43843079740841773 0.33787066219507811 0 -0.41954562432067788 0.33058053440738988 0 -0.43843079740841773 0.33787066219507811 0 -0.44001701522470671 0.31606260091672289 0 -0.42420657124029282 0.3485159257420361 0 -0.43459164588172849 0.36007712215754689 0 -0.43843079740841773 0.33787066219507811 0 -0.42420657124029282 0.3485159257420361 0 -0.41381361947694889 0.35655778899711688 0 -0.43459164588172849 0.36007712215754689 0 -0.41381361947694889 0.35655778899711688 0 -0.43459164588172849 0.36007712215754689 0 -0.43459164588172849 0.36007712215754689 0 -0.43843079740841773 0.33787066219507811 0 -0.40046159691170069 0.34164056661102238 0 -0.40814721749945931 0.33505042297199122 0 -0.41381361947694889 0.35655778899711688 0 -0.41954562432067788 0.33058053440738988 0 -0.42420657124029282 0.3485159257420361 0 -0.41381361947694889 0.35655778899711688 0 -0.39999637464883392 0.35559476271013252 0 -0.41381361947694889 0.35655778899711688 0 -0.40046159691170069 0.34164056661102238 0 -0.41381361947694889 0.35655778899711688 0 -0.41381361947694889 0.35655778899711688 0 -0.41098055992701871 0.3693971202961519 0 -0.42689564018809201 0.37117335838025439 0 -0.41098055992701871 0.3693971202961519 0 -0.42689564018809201 0.37117335838025439 0 -0.40881671944059661 0.37920357314115732 0 -0.41098055992701871 0.3693971202961519 0 -0.42689564018809201 0.37117335838025439 0 -0.40881671944059661 0.37920357314115732 0 -0.41098055992701871 0.3693971202961519 0 -0.40397412088998857 0.3623881668075713 0 -0.41381361947694889 0.35655778899711688 0 -0.41098055992701871 0.3693971202961519 0 -0.41381361947694889 0.35655778899711688 0 -0.41098055992701871 0.3693971202961519 0 -0.41381361947694889 0.35655778899711688 0 -0.42689564018809201 0.37117335838025439 0 -0.41381361947694889 0.35655778899711688 0 -0.42907199843085347 0.36486274908666949 0 -0.43459164588172849 0.36007712215754689 0 -0.42689564018809201 0.37117335838025439 0 -0.42907199843085347 0.36486274908666949 0 -0.42980351636605002 0.37149789839679431 0 -0.43173797726570751 0.37658334167695551 0 -0.42689564018809201 0.37117335838025439 0 -0.43173797726570751 0.37658334167695551 0 -0.42689564018809201 0.37117335838025439 0 -0.42980351636605002 0.37149789839679431 0 -0.42689564018809201 0.37117335838025439 0 -0.42980351636605002 0.37149789839679431 0 -0.41381361947694889 0.35655778899711688 0 -0.42689564018809201 0.37117335838025439 0 -0.42907199843085347 0.36486274908666949 0 -0.43459164588172849 0.36007712215754689 0 -0.4325639091043616 0.37180597819459837 0 -0.42907199843085347 0.36486274908666949 0 -0.43459164588172849 0.36007712215754689 0 -0.4325639091043616 0.37180597819459837 0 -0.43173797726570751 0.37658334167695551 0 -0.4325639091043616 0.37180597819459837 0 -0.43173797726570751 0.37658334167695551 0 -0.4325639091043616 0.37180597819459837 0 -0.42980351636605002 0.37149789839679431 0 -0.4325639091043616 0.37180597819459837 0 -0.42980351636605002 0.37149789839679431 0 -0.42907199843085347 0.36486274908666949 0 -0.4325639091043616 0.37180597819459837 0 -0.42980351636605002 0.37149789839679431 0 -0.4393591315165738 0.37762743775392832 0 -0.4325639091043616 0.37180597819459837 0 -0.44813402172652672 0.37354371539476261 0 -0.4325639091043616 0.37180597819459837 0 -0.44813402172652672 0.37354371539476261 0 -0.4325639091043616 0.37180597819459837 0 -0.44813402172652672 0.37354371539476261 0 -0.45404419213644692 0.3625975043188554 0 -0.43459164588172849 0.36007712215754689 0 -0.45404419213644692 0.3625975043188554 0 -0.43459164588172849 0.36007712215754689 0 -0.4325639091043616 0.37180597819459837 0 -0.45404419213644692 0.3625975043188554 0 -0.4325639091043616 0.37180597819459837 0 -0.45404419213644692 0.3625975043188554 0 -0.43459164588172849 0.36007712215754689 0 -0.44549025602952702 0.35300777224981977 0 -0.45404419213644692 0.3625975043188554 0 -0.44549025602952702 0.35300777224981977 0 -0.45575207180717081 0.34762579988211101 0 -0.43843079740841773 0.33787066219507811 0 -0.43459164588172849 0.36007712215754689 0 -0.44549025602952702 0.35300777224981977 0 -0.43843079740841773 0.33787066219507811 0 -0.44549025602952702 0.35300777224981977 0 -0.45575207180717081 0.34762579988211101 0 -0.45404419213644692 0.3625975043188554 0 -0.45575207180717081 0.34762579988211101 0 -0.46674234051517471 0.35793515390827568 0 -0.45404419213644692 0.3625975043188554 0 -0.45575207180717081 0.34762579988211101 0 -0.46674234051517471 0.35793515390827568 0 -0.46933267881425472 0.34565439271282838 0 -0.45404419213644692 0.3625975043188554 0 -0.47441064506165659 0.36523629740895902 0 -0.46674234051517471 0.35793515390827568 0 -0.45404419213644692 0.3625975043188554 0 -0.47441064506165659 0.36523629740895902 0 -0.45404419213644692 0.3625975043188554 0 -0.46360543106569913 0.37231654924431878 0 -0.47441064506165659 0.36523629740895902 0 -0.44813402172652672 0.37354371539476261 0 -0.45404419213644692 0.3625975043188554 0 -0.46360543106569913 0.37231654924431878 0 -0.46674234051517471 0.35793515390827568 0 -0.45404419213644692 0.3625975043188554 0 -0.46360543106569913 0.37231654924431878 0 -0.47397397291215421 0.37493689296344251 0 -0.47441064506165659 0.36523629740895902 0 -0.47441064506165659 0.36523629740895902 0 -0.48058358620238051 0.35168401037216412 0 -0.49477709798686631 0.36787509049906381 0 -0.47397397291215421 0.37493689296344251 0 -0.47441064506165659 0.36523629740895902 0 -0.48714178473823078 0.37241716516273898 0 -0.46674234051517471 0.35793515390827568 0 -0.47441064506165659 0.36523629740895902 0 -0.48058358620238051 0.35168401037216412 0 -0.46674234051517471 0.35793515390827568 0 -0.46933267881425472 0.34565439271282838 0 -0.48058358620238051 0.35168401037216412 0 -0.46933267881425472 0.34565439271282838 0 -0.48058358620238051 0.35168401037216412 0 -0.48121002056386808 0.3369363626790518 0 -0.48058358620238051 0.35168401037216412 0 -0.49703354506598713 0.34759711953555122 0 -0.48121002056386808 0.3369363626790518 0 -0.49703354506598713 0.34759711953555122 0 -0.5 0.34812631329607491 0 -0.49477709798686631 0.36787509049906381 0 -0.48058358620238051 0.35168401037216412 0 -0.49703354506598713 0.34759711953555122 0 -0.49477709798686631 0.36787509049906381 0 -0.49703354506598713 0.34759711953555122 0 -0.49477709798686631 0.36787509049906381 0 -0.5 0.34812631329607491 0 -0.50000000000000311 0.3685517992903854 0 -0.49477709798686631 0.36787509049906381 0 -0.47441064506165659 0.36523629740895902 0 -0.49477709798686631 0.36787509049906381 0 -0.48714178473823078 0.37241716516273898 0 -0.47441064506165659 0.36523629740895902 0 -0.49477709798686631 0.36787509049906381 0 -0.49007778645481631 0.38142997617552599 0 -0.50000000000000311 0.3685517992903854 0 -0.49477709798686631 0.36787509049906381 0 -0.50000000000000311 0.3685517992903854 0 -0.49477709798686631 0.36787509049906381 0 -0.49007778645481631 0.38142997617552599 0 -0.49477709798686631 0.36787509049906381 0 -0.48714178473823078 0.37241716516273898 0 -0.4992899921451075 0.32731914857203848 0 -0.47890896772952718 0.31636292681222472 0 -0.4992899921451075 0.32731914857203848 0 -0.48121002056386808 0.3369363626790518 0 -0.47890896772952718 0.31636292681222472 0 -0.49999999999999989 0.32093853419885771 0 -0.47890896772952718 0.31636292681222472 0 -0.48920120729889771 0.30786362236022019 0 -0.49999999999999989 0.32093853419885771 0 -0.4992899921451075 0.32731914857203848 0 -0.47890896772952718 0.31636292681222472 0 -0.49999999999999989 0.32093853419885771 0 -0.4992899921451075 0.32731914857203848 0 -0.49703354506598713 0.34759711953555122 0 -0.4992899921451075 0.32731914857203848 0 -0.49703354506598713 0.34759711953555122 0 -0.4992899921451075 0.32731914857203848 0 -0.48121002056386808 0.3369363626790518 0 -0.49703354506598713 0.34759711953555122 0 -0.5 0.34812631329607491 0 -0.4992899921451075 0.32731914857203848 0 -0.46933267881425472 0.34565439271282838 0 -0.48121002056386808 0.3369363626790518 0 -0.46237537498267961 0.3340906367225393 0 -0.48121002056386808 0.3369363626790518 0 -0.47890896772952718 0.31636292681222472 0 -0.46237537498267961 0.3340906367225393 0 -0.47890896772952718 0.31636292681222472 0 -0.45636509730576869 0.32029680939338251 0 -0.45852794331394758 0.30540670505240958 0 -0.47890896772952718 0.31636292681222472 0 -0.45636509730576869 0.32029680939338251 0 -0.46237537498267961 0.3340906367225393 0 -0.45575207180717081 0.34762579988211101 0 -0.46933267881425472 0.34565439271282838 0 -0.46237537498267961 0.3340906367225393 0 -0.45575207180717081 0.34762579988211101 0 -0.46237537498267961 0.3340906367225393 0 -0.43843079740841773 0.33787066219507811 0 -0.45636509730576869 0.32029680939338251 0 -0.46237537498267961 0.3340906367225393 0 -0.43843079740841773 0.33787066219507811 0 -0.45636509730576869 0.32029680939338251 0 -0.43843079740841773 0.33787066219507811 0 -0.44001701522470671 0.31606260091672289 0 -0.45636509730576869 0.32029680939338251 0 -0.44001701522470671 0.31606260091672289 0 -0.45852794331394758 0.30540670505240958 0 -0.4381469188983681 0.2944504832925946 0 -0.45852794331394758 0.30540670505240958 0 -0.44001701522470671 0.31606260091672289 0 -0.4381469188983681 0.2944504832925946 0 -0.45852794331394758 0.30540670505240958 0 -0.4381469188983681 0.2944504832925946 0 -0.4447805513699985 0.27737231294201392 0 -0.43100963400813791 0.27862602522793672 0 -0.4381469188983681 0.2944504832925946 0 -0.45724976864254441 0.28334965182257721 0 -0.4447805513699985 0.27737231294201392 0 -0.4381469188983681 0.2944504832925946 0 -0.45724976864254441 0.28334965182257721 0 -0.45852794331394758 0.30540670505240958 0 -0.45724976864254441 0.28334965182257721 0 -0.45852794331394758 0.30540670505240958 0 -0.47789586146606378 0.29814868652574811 0 -0.47890896772952718 0.31636292681222472 0 -0.45852794331394758 0.30540670505240958 0 -0.47890896772952718 0.31636292681222472 0 -0.47789586146606378 0.29814868652574811 0 -0.48920120729889771 0.30786362236022019 0 -0.47890896772952718 0.31636292681222472 0 -0.45852794331394758 0.30540670505240958 0 -0.47789586146606378 0.29814868652574811 0 -0.45724976864254441 0.28334965182257721 0 -0.47789586146606378 0.29814868652574811 0 -0.48102565218130672 0.27929705551177292 0 -0.5 0.29600434190405073 0 -0.5 0.27107014960924369 0 -0.48102565218130672 0.27929705551177292 0 -0.47789586146606378 0.29814868652574811 0 -0.5 0.29600434190405073 0 -0.48102565218130672 0.27929705551177292 0 -0.47789586146606378 0.29814868652574811 0 -0.5 0.29600434190405073 0 -0.48920120729889771 0.30786362236022019 0 -0.49999999999999989 0.32093853419885771 0 -0.5 0.29600434190405073 0 -0.48920120729889771 0.30786362236022019 0 -0.48177750529808522 0.24619974485466931 0 -0.5 0.2461359573144368 0 -0.48654709528280549 0.26072196503438649 0 -0.5 0.2461359573144368 0 -0.48654709528280549 0.26072196503438649 0 -0.5 0.27107014960924369 0 -0.48654709528280549 0.26072196503438649 0 -0.5 0.27107014960924369 0 -0.48102565218130672 0.27929705551177292 0 -0.48654709528280549 0.26072196503438649 0 -0.48102565218130672 0.27929705551177292 0 -0.46993231893463527 0.26090691788180947 0 -0.45724976864254441 0.28334965182257721 0 -0.48102565218130672 0.27929705551177292 0 -0.46993231893463527 0.26090691788180947 0 -0.48177750529808522 0.24619974485466931 0 -0.48654709528280549 0.26072196503438649 0 -0.46993231893463527 0.26090691788180947 0 -0.45710504060219709 0.23686107433279269 0 -0.46993231893463527 0.26090691788180947 0 -0.44707755271196942 0.2637365605125353 0 -0.45724976864254441 0.28334965182257721 0 -0.46993231893463527 0.26090691788180947 0 -0.44707755271196942 0.2637365605125353 0 -0.45724976864254441 0.28334965182257721 0 -0.4447805513699985 0.27737231294201392 0 -0.44707755271196942 0.2637365605125353 0 -0.4447805513699985 0.27737231294201392 0 -0.44707755271196942 0.2637365605125353 0 -0.43100963400813791 0.27862602522793672 0 -0.45710504060219709 0.23686107433279269 0 -0.44707755271196942 0.2637365605125353 0 -0.44707755271196942 0.2637365605125353 0 -0.4367416388518679 0.25264877063821017 0 -0.43100963400813791 0.27862602522793672 0 -0.45710504060219709 0.23686107433279269 0 -0.44707755271196942 0.2637365605125353 0 -0.4367416388518679 0.25264877063821017 0 -0.4367416388518679 0.25264877063821017 0 -0.41175872593851298 0.2549478601346914 0 -0.41885046316002428 0.26850948483906401 0 -0.41175872593851298 0.2549478601346914 0 -0.41885046316002428 0.26850948483906401 0 -0.3976364837244763 0.27421361628784369 0 -0.41885046316002428 0.26850948483906401 0 -0.41710583327712653 0.28211115190663788 0 -0.3976364837244763 0.27421361628784369 0 -0.41885046316002428 0.26850948483906401 0 -0.43100963400813791 0.27862602522793672 0 -0.41710583327712653 0.28211115190663788 0 -0.4367416388518679 0.25264877063821017 0 -0.43100963400813791 0.27862602522793672 0 -0.4367416388518679 0.25264877063821017 0 -0.41885046316002428 0.26850948483906401 0 -0.43100963400813791 0.27862602522793672 0 -0.4381469188983681 0.2944504832925946 0 -0.43100963400813791 0.27862602522793672 0 -0.42527762916440792 0.30460327981766322 0 -0.43100963400813791 0.27862602522793672 0 -0.42527762916440792 0.30460327981766322 0 -0.41710583327712653 0.28211115190663788 0 -0.43100963400813791 0.27862602522793672 0 -0.42527762916440792 0.30460327981766322 0 -0.44001701522470671 0.31606260091672289 0 -0.4381469188983681 0.2944504832925946 0 -0.42527762916440792 0.30460327981766322 0 -0.40602554896887638 0.32011992980008452 0 -0.42527762916440792 0.30460327981766322 0 -0.4014269901009333 0.29495587648231503 0 -0.41710583327712653 0.28211115190663788 0 -0.4014269901009333 0.29495587648231503 0 -0.42527762916440792 0.30460327981766322 0 -0.41710583327712653 0.28211115190663788 0 -0.4014269901009333 0.29495587648231503 0 -0.41710583327712653 0.28211115190663788 0 -0.4014269901009333 0.29495587648231503 0 -0.3976364837244763 0.27421361628784369 0 -0.4014269901009333 0.29495587648231503 0 -0.38389766901197209 0.2919764357376447 0 -0.3976364837244763 0.27421361628784369 0 -0.4014269901009333 0.29495587648231503 0 -0.3976364837244763 0.27421361628784369 0 -0.39350880394476312 0.31593875705230262 0 -0.40602554896887638 0.32011992980008452 0 -0.4014269901009333 0.29495587648231503 0 -0.4014269901009333 0.29495587648231503 0 -0.38336946241093189 0.30974931290420182 0 -0.40602554896887638 0.32011992980008452 0 -0.4014269901009333 0.29495587648231503 0 -0.39350880394476312 0.31593875705230262 0 -0.4014269901009333 0.29495587648231503 0 -0.38336946241093189 0.30974931290420182 0 -0.38336946241093189 0.30974931290420182 0 -0.38389766901197209 0.2919764357376447 0 -0.36596935852520629 0.30787018431111951 0 -0.4014269901009333 0.29495587648231503 0 -0.38336946241093189 0.30974931290420182 0 -0.38389766901197209 0.2919764357376447 0 -0.38389766901197209 0.2919764357376447 0 -0.3839238193794226 0.27871888045260418 0 -0.3976364837244763 0.27421361628784369 0 -0.38389766901197209 0.2919764357376447 0 -0.3839238193794226 0.27871888045260418 0 -0.3703732677084236 0.2804332674389724 0 -0.3839238193794226 0.27871888045260418 0 -0.38378785707281859 0.2682522023459562 0 -0.3703732677084236 0.2804332674389724 0 -0.38378785707281859 0.2682522023459562 0 -0.37477717689163992 0.25299635056682518 0 -0.3703732677084236 0.2804332674389724 0 -0.3839238193794226 0.27871888045260418 0 -0.38378785707281859 0.2682522023459562 0 -0.3976364837244763 0.27421361628784369 0 -0.38378785707281859 0.2682522023459562 0 -0.39384597734802013 0.25347135609337229 0 -0.37477717689163992 0.25299635056682518 0 -0.39384597734802013 0.25347135609337229 0 -0.3976364837244763 0.27421361628784369 0 -0.41175872593851298 0.2549478601346914 0 -0.39384597734802013 0.25347135609337229 0 -0.3976364837244763 0.27421361628784369 0 -0.38378785707281859 0.2682522023459562 0 -0.39384597734802013 0.25347135609337229 0 -0.3976364837244763 0.27421361628784369 0 -0.35834524103505527 0.27479395617319979 0 -0.34490227433735798 0.27909378963084902 0 -0.35045174428906722 0.28677843618767362 0 -0.35834524103505527 0.27479395617319979 0 -0.34490227433735798 0.27909378963084902 0 -0.34728570068091402 0.2661688508290645 0 -0.34728570068091402 0.2661688508290645 0 -0.35464358931248319 0.25491115920099722 0 -0.34150965816976359 0.25817059719828012 0 -0.33845336435013867 0.242079554605789 0 -0.35464358931248319 0.25491115920099722 0 -0.34150965816976359 0.25817059719828012 0 -0.35834524103505527 0.27479395617319979 0 -0.34728570068091402 0.2661688508290645 0 -0.35464358931248319 0.25491115920099722 0 -0.35834524103505527 0.27479395617319979 0 -0.37477717689163992 0.25299635056682518 0 -0.35834524103505527 0.27479395617319979 0 -0.35464358931248319 0.25491115920099722 0 -0.37477717689163992 0.25299635056682518 0 -0.37477717689163992 0.25299635056682518 0 -0.3703732677084236 0.2804332674389724 0 -0.35834524103505527 0.27479395617319979 0 -0.37477717689163992 0.25299635056682518 0 -0.3703732677084236 0.2804332674389724 0 -0.3703732677084236 0.2804332674389724 0 -0.36596935852520629 0.30787018431111951 0 -0.38389766901197209 0.2919764357376447 0 -0.3703732677084236 0.2804332674389724 0 -0.36596935852520629 0.30787018431111951 0 -0.35834524103505527 0.27479395617319979 0 -0.3703732677084236 0.2804332674389724 0 -0.35925388220638338 0.290827281626163 0 -0.3703732677084236 0.2804332674389724 0 -0.36596935852520629 0.30787018431111951 0 -0.35925388220638338 0.290827281626163 0 -0.36596935852520629 0.30787018431111951 0 -0.35645499353340299 0.30154574554434233 0 -0.35925388220638338 0.290827281626163 0 -0.36596935852520629 0.30787018431111951 0 -0.35645499353340299 0.30154574554434233 0 -0.35774913989266272 0.31391262040183171 0 -0.35645499353340299 0.30154574554434233 0 -0.35013945535461871 0.3105838988596446 0 -0.35774913989266272 0.31391262040183171 0 -0.35645499353340299 0.30154574554434233 0 -0.34780240298166087 0.30288468022079579 0 -0.35285886900803182 0.29452238055293539 0 -0.34780240298166087 0.30288468022079579 0 -0.34622635383862083 0.29383585221412489 0 -0.33932813284697128 0.29730713825443927 0 -0.34780240298166087 0.30288468022079579 0 -0.35285886900803182 0.29452238055293539 0 -0.34622635383862083 0.29383585221412489 0 -0.34780240298166087 0.30288468022079579 0 -0.34514961405368982 0.30758965292055213 0 -0.33997231501418312 0.30473657218964828 0 -0.35645499353340299 0.30154574554434233 0 -0.34780240298166087 0.30288468022079579 0 -0.35013945535461871 0.3105838988596446 0 -0.34780240298166087 0.30288468022079579 0 -0.34514961405368982 0.30758965292055213 0 -0.35013945535461871 0.3105838988596446 0 -0.34514961405368982 0.30758965292055213 0 -0.35013945535461871 0.3105838988596446 0 -0.34268428286429659 0.31215346041211978 0 -0.35834524103505527 0.27479395617319979 0 -0.35925388220638338 0.290827281626163 0 -0.35045174428906722 0.28677843618767362 0 -0.35645499353340299 0.30154574554434233 0 -0.35925388220638338 0.290827281626163 0 -0.35285886900803182 0.29452238055293539 0 -0.35925388220638338 0.290827281626163 0 -0.35285886900803182 0.29452238055293539 0 -0.35045174428906722 0.28677843618767362 0 -0.35285886900803182 0.29452238055293539 0 -0.34622635383862083 0.29383585221412489 0 -0.35045174428906722 0.28677843618767362 0 -0.34622635383862083 0.29383585221412489 0 -0.35045174428906722 0.28677843618767362 0 -0.34088660642111013 0.2879281286912172 0 -0.34490227433735798 0.27909378963084902 0 -0.35045174428906722 0.28677843618767362 0 -0.34088660642111013 0.2879281286912172 0 -0.34490227433735798 0.27909378963084902 0 -0.34088660642111013 0.2879281286912172 0 -0.33262910378125132 0.278293493462413 0 -0.34088660642111013 0.2879281286912172 0 -0.33227483086849752 0.29261385498347509 0 -0.33932813284697128 0.29730713825443927 0 -0.34622635383862083 0.29383585221412489 0 -0.34088660642111013 0.2879281286912172 0 -0.33932813284697128 0.29730713825443927 0 -0.33227483086849752 0.29261385498347509 0 -0.32398535199451511 0.28524421774589648 0 -0.33262910378125132 0.278293493462413 0 -0.34088660642111013 0.2879281286912172 0 -0.33227483086849752 0.29261385498347509 0 -0.33262910378125132 0.278293493462413 0 -0.33718535734333338 0.30882123026638569 0 -0.34268428286429659 0.31215346041211978 0 -0.33477104767585758 0.31524888829805342 0 -0.33718535734333338 0.30882123026638569 0 -0.34268428286429659 0.31215346041211978 0 -0.33997231501418312 0.30473657218964828 0 -0.34514961405368982 0.30758965292055213 0 -0.34268428286429659 0.31215346041211978 0 -0.33997231501418312 0.30473657218964828 0 -0.33718535734333338 0.30882123026638569 0 -0.33997231501418312 0.30473657218964828 0 -0.33396296217470239 0.30554582684384218 0 -0.33997231501418312 0.30473657218964828 0 -0.33932813284697128 0.29730713825443927 0 -0.33396296217470239 0.30554582684384218 0 -0.34780240298166087 0.30288468022079579 0 -0.33997231501418312 0.30473657218964828 0 -0.33932813284697128 0.29730713825443927 0 -0.33227483086849752 0.29261385498347509 0 -0.33396296217470239 0.30554582684384218 0 -0.32251037119006698 0.3031431883822347 0 -0.33227483086849752 0.29261385498347509 0 -0.33932813284697128 0.29730713825443927 0 -0.33396296217470239 0.30554582684384218 0 -0.33718535734333338 0.30882123026638569 0 -0.33396296217470239 0.30554582684384218 0 -0.33477104767585758 0.31524888829805342 0 -0.33396296217470239 0.30554582684384218 0 -0.32251037119006698 0.3031431883822347 0 -0.33219148171911272 0.31730370811833031 0 -0.32251037119006698 0.3031431883822347 0 -0.31456388983813333 0.31636814557902659 0 -0.33219148171911272 0.31730370811833031 0 -0.32251037119006698 0.3031431883822347 0 -0.31282926066102218 0.28898266864613842 0 -0.30402337591517081 0.3051012194244167 0 -0.32251037119006698 0.3031431883822347 0 -0.30402337591517081 0.3051012194244167 0 -0.31456388983813333 0.31636814557902659 0 -0.32251037119006698 0.3031431883822347 0 -0.33219148171911272 0.31730370811833031 0 -0.33227483086849752 0.29261385498347509 0 -0.32251037119006698 0.3031431883822347 0 -0.32398535199451511 0.28524421774589648 0 -0.32251037119006698 0.3031431883822347 0 -0.32398535199451511 0.28524421774589648 0 -0.31282926066102218 0.28898266864613842 0 -0.32251037119006698 0.3031431883822347 0 -0.31282926066102218 0.28898266864613842 0 -0.31282926066102218 0.28898266864613842 0 -0.32065101258715689 0.274665503564473 0 -0.32398535199451511 0.28524421774589648 0 -0.31282926066102218 0.28898266864613842 0 -0.32065101258715689 0.274665503564473 0 -0.32065101258715689 0.274665503564473 0 -0.32847276451329022 0.26034833848280681 0 -0.31199410965335322 0.26463258327439948 0 -0.32065101258715689 0.274665503564473 0 -0.33262910378125132 0.278293493462413 0 -0.32847276451329022 0.26034833848280681 0 -0.31282926066102218 0.28898266864613842 0 -0.32065101258715689 0.274665503564473 0 -0.30403346053568642 0.27611708872161922 0 -0.32065101258715689 0.274665503564473 0 -0.32847276451329022 0.26034833848280681 0 -0.32398535199451511 0.28524421774589648 0 -0.32065101258715689 0.274665503564473 0 -0.33262910378125132 0.278293493462413 0 -0.33262910378125132 0.278293493462413 0 -0.33869287199199061 0.26734508287274228 0 -0.32847276451329022 0.26034833848280681 0 -0.34490227433735798 0.27909378963084902 0 -0.34728570068091402 0.2661688508290645 0 -0.33869287199199061 0.26734508287274228 0 -0.34490227433735798 0.27909378963084902 0 -0.33262910378125132 0.278293493462413 0 -0.33869287199199061 0.26734508287274228 0 -0.33845336435013867 0.242079554605789 0 -0.34150965816976359 0.25817059719828012 0 -0.32847276451329022 0.26034833848280681 0 -0.33845336435013867 0.242079554605789 0 -0.32847276451329022 0.26034833848280681 0 -0.34728570068091402 0.2661688508290645 0 -0.33869287199199061 0.26734508287274228 0 -0.34150965816976359 0.25817059719828012 0 -0.33869287199199061 0.26734508287274228 0 -0.34150965816976359 0.25817059719828012 0 -0.32847276451329022 0.26034833848280681 0 -0.33869287199199061 0.26734508287274228 0 -0.32847276451329022 0.26034833848280681 0 -0.311575650220281 0.24878047680599949 0 -0.32847276451329022 0.26034833848280681 0 -0.311575650220281 0.24878047680599949 0 -0.32847276451329022 0.26034833848280681 0 -0.31199410965335322 0.26463258327439948 0 -0.32455092720978362 0.24357057421839101 0 -0.311575650220281 0.24878047680599949 0 -0.32847276451329022 0.26034833848280681 0 -0.311575650220281 0.24878047680599949 0 -0.31199410965335322 0.26463258327439948 0 -0.29523766041035199 0.26325150879709891 0 -0.30403346053568642 0.27611708872161922 0 -0.29523766041035199 0.26325150879709891 0 -0.29574151564778611 0.28671646758259889 0 -0.31199410965335322 0.26463258327439948 0 -0.30403346053568642 0.27611708872161922 0 -0.29523766041035199 0.26325150879709891 0 -0.32065101258715689 0.274665503564473 0 -0.31199410965335322 0.26463258327439948 0 -0.30403346053568642 0.27611708872161922 0 -0.30403346053568642 0.27611708872161922 0 -0.29523766041035199 0.26325150879709891 0 -0.28985028671148488 0.25537141990030859 0 -0.26863301980023729 0.26794771562718522 0 -0.28534189936007232 0.28197220440765719 0 -0.29523766041035199 0.26325150879709891 0 -0.29574151564778611 0.28671646758259889 0 -0.29523766041035199 0.26325150879709891 0 -0.29574151564778611 0.28671646758259889 0 -0.28534189936007232 0.28197220440765719 0 -0.28985028671148488 0.25537141990030859 0 -0.29523766041035199 0.26325150879709891 0 -0.28534189936007232 0.28197220440765719 0 -0.28985028671148488 0.25537141990030859 0 -0.28534189936007232 0.28197220440765719 0 -0.29467853592727078 0.23721261512919359 0 -0.29523766041035199 0.26325150879709891 0 -0.29467853592727078 0.23721261512919359 0 -0.28985028671148488 0.25537141990030859 0 -0.29523766041035199 0.26325150879709891 0 -0.28985028671148488 0.25537141990030859 0 -0.29523766041035199 0.26325150879709891 0 -0.28985028671148488 0.25537141990030859 0 -0.2724296921133022 0.25217156250687062 0 -0.26863301980023729 0.26794771562718522 0 -0.2724296921133022 0.25217156250687062 0 -0.26863301980023729 0.26794771562718522 0 -0.25693865295534157 0.25278860643768353 0 -0.26863301980023729 0.26794771562718522 0 -0.26277913973510902 0.29023342414179659 0 -0.28534189936007232 0.28197220440765719 0 -0.26277913973510902 0.29023342414179659 0 -0.2447247674615598 0.2718938593685879 0 -0.26863301980023729 0.26794771562718522 0 -0.26277913973510902 0.29023342414179659 0 -0.2447247674615598 0.2718938593685879 0 -0.26863301980023729 0.26794771562718522 0 -0.25693865295534157 0.25278860643768353 0 -0.2447247674615598 0.2718938593685879 0 -0.26277913973510902 0.29023342414179659 0 -0.25757488899104952 0.31786411623381933 0 -0.2366570207200871 0.30010935915934539 0 -0.26277913973510902 0.29023342414179659 0 -0.28083351200865853 0.30857298891500562 0 -0.28534189936007232 0.28197220440765719 0 -0.26277913973510902 0.29023342414179659 0 -0.28083351200865853 0.30857298891500562 0 -0.26277913973510902 0.29023342414179659 0 -0.28083351200865853 0.30857298891500562 0 -0.25757488899104952 0.31786411623381933 0 -0.28083351200865853 0.30857298891500562 0 -0.29574151564778611 0.28671646758259889 0 -0.30402337591517081 0.3051012194244167 0 -0.28083351200865853 0.30857298891500562 0 -0.29574151564778611 0.28671646758259889 0 -0.28534189936007232 0.28197220440765719 0 -0.28083351200865853 0.30857298891500562 0 -0.28534189936007232 0.28197220440765719 0 -0.31282926066102218 0.28898266864613842 0 -0.29574151564778611 0.28671646758259889 0 -0.30402337591517081 0.3051012194244167 0 -0.31282926066102218 0.28898266864613842 0 -0.30403346053568642 0.27611708872161922 0 -0.29574151564778611 0.28671646758259889 0 -0.31282926066102218 0.28898266864613842 0 -0.30403346053568642 0.27611708872161922 0 -0.31282926066102218 0.28898266864613842 0 -0.30402337591517081 0.3051012194244167 0 -0.30402337591517081 0.3051012194244167 0 -0.29932851783868691 0.32736014762988469 0 -0.31456388983813333 0.31636814557902659 0 -0.29932851783868691 0.32736014762988469 0 -0.31400963374603508 0.33178692824556621 0 -0.31456388983813333 0.31636814557902659 0 -0.29582778577295937 0.3462701483728044 0 -0.31354931950312093 0.34747342072874071 0 -0.31400963374603508 0.33178692824556621 0 -0.29582778577295937 0.3462701483728044 0 -0.31400963374603508 0.33178692824556621 0 -0.29932851783868691 0.32736014762988469 0 -0.29582778577295937 0.3462701483728044 0 -0.31400963374603508 0.33178692824556621 0 -0.29932851783868691 0.32736014762988469 0 -0.27670802547122531 0.33291454828341721 0 -0.29582778577295937 0.3462701483728044 0 -0.27670802547122531 0.33291454828341721 0 -0.29582778577295937 0.3462701483728044 0 -0.28186865011063378 0.34863084123191301 0 -0.28083351200865853 0.30857298891500562 0 -0.30402337591517081 0.3051012194244167 0 -0.29932851783868691 0.32736014762988469 0 -0.28083351200865853 0.30857298891500562 0 -0.29932851783868691 0.32736014762988469 0 -0.28083351200865853 0.30857298891500562 0 -0.29932851783868691 0.32736014762988469 0 -0.27670802547122531 0.33291454828341721 0 -0.28083351200865853 0.30857298891500562 0 -0.27670802547122531 0.33291454828341721 0 -0.25757488899104952 0.31786411623381933 0 -0.28083351200865853 0.30857298891500562 0 -0.27670802547122531 0.33291454828341721 0 -0.27670802547122531 0.33291454828341721 0 -0.25757488899104952 0.31786411623381933 0 -0.25368472498167011 0.34420349485172652 0 -0.2613799420943046 0.36179346951182628 0 -0.25453646971320443 0.37462232419521813 0 -0.26689531734350652 0.36931705260985792 0 -0.2613799420943046 0.36179346951182628 0 -0.25453646971320443 0.37462232419521813 0 -0.24822911175635759 0.36217347122335058 0 -0.25368472498167011 0.34420349485172652 0 -0.27258253893379292 0.35725610765182902 0 -0.2613799420943046 0.36179346951182628 0 -0.25368472498167011 0.34420349485172652 0 -0.24822911175635759 0.36217347122335058 0 -0.2613799420943046 0.36179346951182628 0 -0.25368472498167011 0.34420349485172652 0 -0.27258253893379292 0.35725610765182902 0 -0.27670802547122531 0.33291454828341721 0 -0.27258253893379292 0.35725610765182902 0 -0.27670802547122531 0.33291454828341721 0 -0.27258253893379292 0.35725610765182902 0 -0.28186865011063378 0.34863084123191301 0 -0.27670802547122531 0.33291454828341721 0 -0.25368472498167011 0.34420349485172652 0 -0.27258253893379292 0.35725610765182902 0 -0.27258253893379292 0.35725610765182902 0 -0.27764593779988228 0.36075336850004069 0 -0.28186865011063378 0.34863084123191301 0 -0.27258253893379292 0.35725610765182902 0 -0.27764593779988228 0.36075336850004069 0 -0.27764593779988228 0.36075336850004069 0 -0.27110701654299552 0.36596211494311248 0 -0.28943519450698252 0.3688961411714532 0 -0.27110701654299552 0.36596211494311248 0 -0.28943519450698252 0.3688961411714532 0 -0.27110701654299552 0.36596211494311248 0 -0.28943519450698252 0.3688961411714532 0 -0.28084635904778937 0.37544065550995409 0 -0.27258253893379292 0.35725610765182902 0 -0.27764593779988228 0.36075336850004069 0 -0.27110701654299552 0.36596211494311248 0 -0.27764593779988228 0.36075336850004069 0 -0.27110701654299552 0.36596211494311248 0 -0.2613799420943046 0.36179346951182628 0 -0.27258253893379292 0.35725610765182902 0 -0.27110701654299552 0.36596211494311248 0 -0.2613799420943046 0.36179346951182628 0 -0.27110701654299552 0.36596211494311248 0 -0.26689531734350652 0.36931705260985792 0 -0.27258253893379292 0.35725610765182902 0 -0.27110701654299552 0.36596211494311248 0 -0.27110701654299552 0.36596211494311248 0 -0.26689531734350652 0.36931705260985792 0 -0.27110701654299552 0.36596211494311248 0 -0.28084635904778937 0.37544065550995409 0 -0.27663284499009211 0.37939207802828528 0 -0.28943519450698252 0.3688961411714532 0 -0.28685204816290072 0.37621819500323123 0 -0.28084635904778937 0.37544065550995409 0 -0.27764593779988228 0.36075336850004069 0 -0.28943519450698252 0.3688961411714532 0 -0.29551252006441958 0.37309371542857861 0 -0.28943519450698252 0.3688961411714532 0 -0.28685204816290072 0.37621819500323123 0 -0.29551252006441958 0.37309371542857861 0 -0.28943519450698252 0.3688961411714532 0 -0.27764593779988228 0.36075336850004069 0 -0.29582778577295937 0.3462701483728044 0 -0.27764593779988228 0.36075336850004069 0 -0.29582778577295937 0.3462701483728044 0 -0.28186865011063378 0.34863084123191301 0 -0.28943519450698252 0.3688961411714532 0 -0.29582778577295937 0.3462701483728044 0 -0.30300283950081008 0.36051339397403093 0 -0.27764593779988228 0.36075336850004069 0 -0.28943519450698252 0.3688961411714532 0 -0.29582778577295937 0.3462701483728044 0 -0.29582778577295937 0.3462701483728044 0 -0.30300283950081008 0.36051339397403093 0 -0.31354931950312093 0.34747342072874071 0 -0.28943519450698252 0.3688961411714532 0 -0.31408843612631249 0.37197903781600761 0 -0.28943519450698252 0.3688961411714532 0 -0.30300283950081008 0.36051339397403093 0 -0.31408843612631249 0.37197903781600761 0 -0.29551252006441958 0.37309371542857861 0 -0.28943519450698252 0.3688961411714532 0 -0.31408843612631249 0.37197903781600761 0 -0.30300283950081008 0.36051339397403093 0 -0.31408843612631249 0.37197903781600761 0 -0.32472866683278162 0.35786931268145811 0 -0.31408843612631249 0.37197903781600761 0 -0.32472866683278162 0.35786931268145811 0 -0.33874167774564268 0.3750619344605613 0 -0.31408843612631249 0.37197903781600761 0 -0.33874167774564268 0.3750619344605613 0 -0.33942470910854639 0.36092010030626542 0 -0.32472866683278162 0.35786931268145811 0 -0.33874167774564268 0.3750619344605613 0 -0.33942470910854639 0.36092010030626542 0 -0.3497530714632448 0.36534695126967459 0 -0.33874167774564268 0.3750619344605613 0 -0.33815763529499693 0.35089104021064632 0 -0.32472866683278162 0.35786931268145811 0 -0.33017767166301859 0.34092732036984391 0 -0.33815763529499693 0.35089104021064632 0 -0.33017767166301859 0.34092732036984391 0 -0.34251680356524339 0.34321741671518669 0 -0.33815763529499693 0.35089104021064632 0 -0.3460879504978186 0.35511096805544279 0 -0.34556584107983002 0.34849125976349993 0 -0.33815763529499693 0.35089104021064632 0 -0.34251680356524339 0.34321741671518669 0 -0.34556584107983002 0.34849125976349993 0 -0.33942470910854639 0.36092010030626542 0 -0.33815763529499693 0.35089104021064632 0 -0.3460879504978186 0.35511096805544279 0 -0.33942470910854639 0.36092010030626542 0 -0.33815763529499693 0.35089104021064632 0 -0.32472866683278162 0.35786931268145811 0 -0.31354931950312093 0.34747342072874071 0 -0.32472866683278162 0.35786931268145811 0 -0.33017767166301859 0.34092732036984391 0 -0.30300283950081008 0.36051339397403093 0 -0.31354931950312093 0.34747342072874071 0 -0.32472866683278162 0.35786931268145811 0 -0.31400963374603508 0.33178692824556621 0 -0.33219148171911272 0.31730370811833031 0 -0.33017767166301859 0.34092732036984391 0 -0.31354931950312093 0.34747342072874071 0 -0.31400963374603508 0.33178692824556621 0 -0.33017767166301859 0.34092732036984391 0 -0.31400963374603508 0.33178692824556621 0 -0.33219148171911272 0.31730370811833031 0 -0.31400963374603508 0.33178692824556621 0 -0.31456388983813333 0.31636814557902659 0 -0.33219148171911272 0.31730370811833031 0 -0.33477104767585758 0.31524888829805342 0 -0.33219148171911272 0.31730370811833031 0 -0.34795343649956839 0.3209401758966518 0 -0.33219148171911272 0.31730370811833031 0 -0.34725440703092858 0.33933618574797492 0 -0.34795343649956839 0.3209401758966518 0 -0.33396296217470239 0.30554582684384218 0 -0.33477104767585758 0.31524888829805342 0 -0.33219148171911272 0.31730370811833031 0 -0.33477104767585758 0.31524888829805342 0 -0.33219148171911272 0.31730370811833031 0 -0.34268428286429659 0.31215346041211978 0 -0.33477104767585758 0.31524888829805342 0 -0.34795343649956839 0.3209401758966518 0 -0.33219148171911272 0.31730370811833031 0 -0.34725440703092858 0.33933618574797492 0 -0.33219148171911272 0.31730370811833031 0 -0.33017767166301859 0.34092732036984391 0 -0.34725440703092858 0.33933618574797492 0 -0.33017767166301859 0.34092732036984391 0 -0.34251680356524339 0.34321741671518669 0 -0.34725440703092858 0.33933618574797492 0 -0.34725440703092858 0.33933618574797492 0 -0.34795343649956839 0.3209401758966518 0 -0.36531193472093021 0.32454274932608829 0 -0.34251680356524339 0.34321741671518669 0 -0.35002774160894051 0.34339273059465159 0 -0.34725440703092858 0.33933618574797492 0 -0.34725440703092858 0.33933618574797492 0 -0.35848812135385522 0.33902175933596412 0 -0.36531193472093021 0.32454274932608829 0 -0.34725440703092858 0.33933618574797492 0 -0.36531193472093021 0.32454274932608829 0 -0.34251680356524339 0.34321741671518669 0 -0.34725440703092858 0.33933618574797492 0 -0.35002774160894051 0.34339273059465159 0 -0.34725440703092858 0.33933618574797492 0 -0.35002774160894051 0.34339273059465159 0 -0.35848812135385522 0.33902175933596412 0 -0.35712059876301439 0.34740413424876382 0 -0.35002774160894051 0.34339273059465159 0 -0.34725440703092858 0.33933618574797492 0 -0.35848812135385522 0.33902175933596412 0 -0.34795343649956839 0.3209401758966518 0 -0.35774913989266272 0.31391262040183171 0 -0.36531193472093021 0.32454274932608829 0 -0.35013945535461871 0.3105838988596446 0 -0.34268428286429659 0.31215346041211978 0 -0.34795343649956839 0.3209401758966518 0 -0.35013945535461871 0.3105838988596446 0 -0.34795343649956839 0.3209401758966518 0 -0.35774913989266272 0.31391262040183171 0 -0.38336946241093189 0.30974931290420182 0 -0.36596935852520629 0.30787018431111951 0 -0.36531193472093021 0.32454274932608829 0 -0.36596935852520629 0.30787018431111951 0 -0.35774913989266272 0.31391262040183171 0 -0.36531193472093021 0.32454274932608829 0 -0.37580907906339922 0.33647878059299557 0 -0.38201615891261242 0.31564575533693578 0 -0.36531193472093021 0.32454274932608829 0 -0.38336946241093189 0.30974931290420182 0 -0.36531193472093021 0.32454274932608829 0 -0.35848812135385522 0.33902175933596412 0 -0.36629538785756799 0.33494858662202331 0 -0.36491865814174967 0.34450616947628299 0 -0.35848812135385522 0.33902175933596412 0 -0.36491865814174967 0.34450616947628299 0 -0.35712059876301439 0.34740413424876382 0 -0.35848812135385522 0.33902175933596412 0 -0.36531193472093021 0.32454274932608829 0 -0.36629538785756799 0.33494858662202331 0 -0.37580907906339922 0.33647878059299557 0 -0.36531193472093021 0.32454274932608829 0 -0.36629538785756799 0.33494858662202331 0 -0.37580907906339922 0.33647878059299557 0 -0.36629538785756799 0.33494858662202331 0 -0.36491865814174967 0.34450616947628299 0 -0.37580907906339922 0.33647878059299557 0 -0.36491865814174967 0.34450616947628299 0 -0.36960199921418602 0.35731180584905542 0 -0.37580907906339922 0.33647878059299557 0 -0.36960199921418602 0.35731180584905542 0 -0.36491865814174967 0.34450616947628299 0 -0.36204010283369881 0.35293053614415609 0 -0.35712059876301439 0.34740413424876382 0 -0.36491865814174967 0.34450616947628299 0 -0.36204010283369881 0.35293053614415609 0 -0.36960199921418602 0.35731180584905542 0 -0.36231373349064938 0.3583368008115923 0 -0.36204010283369881 0.35293053614415609 0 -0.35577634304253192 0.35617190760009498 0 -0.36231373349064938 0.3583368008115923 0 -0.36204010283369881 0.35293053614415609 0 -0.36960199921418602 0.35731180584905542 0 -0.36960199921418602 0.35731180584905542 0 -0.36339491936497281 0.37814483110511521 0 -0.36960199921418602 0.35731180584905542 0 -0.37158620997362618 0.36500042586936587 0 -0.36339491936497281 0.37814483110511521 0 -0.36960199921418602 0.35731180584905542 0 -0.36108579844600058 0.36545797327707619 0 -0.36339491936497281 0.37814483110511521 0 -0.38141148745950948 0.38039780936179463 0 -0.37158620997362618 0.36500042586936587 0 -0.36339491936497281 0.37814483110511521 0 -0.38070440212728118 0.35956436367519867 0 -0.36960199921418602 0.35731180584905542 0 -0.37158620997362618 0.36500042586936587 0 -0.36231373349064938 0.3583368008115923 0 -0.36108579844600058 0.36545797327707619 0 -0.35577634304253192 0.35617190760009498 0 -0.36231373349064938 0.3583368008115923 0 -0.36960199921418602 0.35731180584905542 0 -0.36108579844600058 0.36545797327707619 0 -0.36108579844600058 0.36545797327707619 0 -0.3497530714632448 0.36534695126967459 0 -0.35577634304253192 0.35617190760009498 0 -0.3497530714632448 0.36534695126967459 0 -0.36339491936497281 0.37814483110511521 0 -0.33874167774564268 0.3750619344605613 0 -0.36108579844600058 0.36545797327707619 0 -0.3497530714632448 0.36534695126967459 0 -0.36339491936497281 0.37814483110511521 0 -0.33942470910854639 0.36092010030626542 0 -0.3497530714632448 0.36534695126967459 0 -0.3460879504978186 0.35511096805544279 0 -0.3497530714632448 0.36534695126967459 0 -0.3460879504978186 0.35511096805544279 0 -0.35577634304253192 0.35617190760009498 0 -0.3460879504978186 0.35511096805544279 0 -0.35103907443215082 0.34984414324157243 0 -0.35577634304253192 0.35617190760009498 0 -0.3460879504978186 0.35511096805544279 0 -0.34556584107983002 0.34849125976349993 0 -0.35103907443215082 0.34984414324157243 0 -0.34251680356524339 0.34321741671518669 0 -0.35002774160894051 0.34339273059465159 0 -0.34556584107983002 0.34849125976349993 0 -0.35002774160894051 0.34339273059465159 0 -0.34556584107983002 0.34849125976349993 0 -0.35103907443215082 0.34984414324157243 0 -0.35103907443215082 0.34984414324157243 0 -0.35712059876301439 0.34740413424876382 0 -0.35577634304253192 0.35617190760009498 0 -0.35002774160894051 0.34339273059465159 0 -0.35103907443215082 0.34984414324157243 0 -0.35712059876301439 0.34740413424876382 0 -0.36204010283369881 0.35293053614415609 0 -0.35712059876301439 0.34740413424876382 0 -0.35577634304253192 0.35617190760009498 0 -0.35746143571760969 0.39805957647408341 0 -0.33700984602307921 0.4055687403903776 0 -0.35746143571760969 0.39805957647408341 0 -0.36339491936497281 0.37814483110511521 0 -0.33874167774564268 0.3750619344605613 0 -0.36339491936497281 0.37814483110511521 0 -0.33874167774564268 0.3750619344605613 0 -0.38141148745950948 0.38039780936179463 0 -0.37844474563582792 0.390355182046278 0 -0.36339491936497281 0.37814483110511521 0 -0.37844474563582792 0.390355182046278 0 -0.35746143571760969 0.39805957647408341 0 -0.36339491936497281 0.37814483110511521 0 -0.35746143571760969 0.39805957647408341 0 -0.36339491936497281 0.37814483110511521 0 -0.38141148745950948 0.38039780936179463 0 -0.36339491936497281 0.37814483110511521 0 -0.37668454372729859 0.41206883315114529 0 -0.37844474563582792 0.390355182046278 0 -0.35746143571760969 0.39805957647408341 0 -0.37844474563582792 0.390355182046278 0 -0.35746143571760969 0.39805957647408341 0 -0.37668454372729859 0.41206883315114529 0 -0.36778315087773072 0.43214877602771662 0 -0.35179051953527918 0.41709305806631919 0 -0.37668454372729859 0.41206883315114529 0 -0.35746143571760969 0.39805957647408341 0 -0.35179051953527918 0.41709305806631919 0 -0.37668454372729859 0.41206883315114529 0 -0.35179051953527918 0.41709305806631919 0 -0.36778315087773072 0.43214877602771662 0 -0.35179051953527918 0.41709305806631919 0 -0.34355933144160938 0.44471966407244162 0 -0.35179051953527918 0.41709305806631919 0 -0.34355933144160938 0.44471966407244162 0 -0.35746143571760969 0.39805957647408341 0 -0.35179051953527918 0.41709305806631919 0 -0.33700984602307921 0.4055687403903776 0 -0.35746143571760969 0.39805957647408341 0 -0.35179051953527918 0.41709305806631919 0 -0.35179051953527918 0.41709305806631919 0 -0.33092261172728182 0.42130471390500562 0 -0.33700984602307921 0.4055687403903776 0 -0.35179051953527918 0.41709305806631919 0 -0.33092261172728182 0.42130471390500562 0 -0.33092261172728182 0.42130471390500562 0 -0.31655825632854873 0.41307790430667191 0 -0.33700984602307921 0.4055687403903776 0 -0.35179051953527918 0.41709305806631919 0 -0.33092261172728182 0.42130471390500562 0 -0.34355933144160938 0.44471966407244162 0 -0.33092261172728182 0.42130471390500562 0 -0.32304151796324199 0.43794530689545591 0 -0.34355933144160938 0.44471966407244162 0 -0.33092261172728182 0.42130471390500562 0 -0.31005470391928353 0.42551636974368717 0 -0.32304151796324199 0.43794530689545591 0 -0.33092261172728182 0.42130471390500562 0 -0.31005470391928353 0.42551636974368717 0 -0.31005470391928353 0.42551636974368717 0 -0.30636015846579262 0.44081646755455739 0 -0.32304151796324199 0.43794530689545591 0 -0.31655825632854873 0.41307790430667191 0 -0.32178824989383492 0.40044082628072353 0 -0.33700984602307921 0.4055687403903776 0 -0.33092261172728182 0.42130471390500562 0 -0.31655825632854873 0.41307790430667191 0 -0.31005470391928353 0.42551636974368717 0 -0.31655825632854873 0.41307790430667191 0 -0.33700984602307921 0.4055687403903776 0 -0.31655825632854873 0.41307790430667191 0 -0.32178824989383492 0.40044082628072353 0 -0.30820761894760612 0.40180007281058999 0 -0.31589124725359768 0.39098578459502642 0 -0.32178824989383492 0.40044082628072353 0 -0.30820761894760612 0.40180007281058999 0 -0.31589124725359768 0.39098578459502642 0 -0.32178824989383492 0.40044082628072353 0 -0.33127428091634248 0.39077162930095188 0 -0.35746143571760969 0.39805957647408341 0 -0.33127428091634248 0.39077162930095188 0 -0.33700984602307921 0.4055687403903776 0 -0.32178824989383492 0.40044082628072353 0 -0.33127428091634248 0.39077162930095188 0 -0.33700984602307921 0.4055687403903776 0 -0.35746143571760969 0.39805957647408341 0 -0.33127428091634248 0.39077162930095188 0 -0.33874167774564268 0.3750619344605613 0 -0.31408843612631249 0.37197903781600761 0 -0.33127428091634248 0.39077162930095188 0 -0.33874167774564268 0.3750619344605613 0 -0.31408843612631249 0.37197903781600761 0 -0.31589124725359768 0.39098578459502642 0 -0.33127428091634248 0.39077162930095188 0 -0.29551252006441958 0.37309371542857861 0 -0.31408843612631249 0.37197903781600761 0 -0.30568017353146049 0.38157918508743732 0 -0.31408843612631249 0.37197903781600761 0 -0.31589124725359768 0.39098578459502642 0 -0.30568017353146049 0.38157918508743732 0 -0.31589124725359768 0.39098578459502642 0 -0.30568017353146049 0.38157918508743732 0 -0.30603649680964828 0.39194203915736708 0 -0.30568017353146049 0.38157918508743732 0 -0.29743858983336929 0.38628170497916159 0 -0.30603649680964828 0.39194203915736708 0 -0.29551252006441958 0.37309371542857861 0 -0.30568017353146049 0.38157918508743732 0 -0.29743858983336929 0.38628170497916159 0 -0.31589124725359768 0.39098578459502642 0 -0.30820761894760612 0.40180007281058999 0 -0.30603649680964828 0.39194203915736708 0 -0.30820761894760612 0.40180007281058999 0 -0.30603649680964828 0.39194203915736708 0 -0.29604813782321171 0.40003827384795049 0 -0.29743858983336929 0.38628170497916159 0 -0.30603649680964828 0.39194203915736708 0 -0.29604813782321171 0.40003827384795049 0 -0.30820761894760612 0.40180007281058999 0 -0.29604813782321171 0.40003827384795049 0 -0.2987408814332651 0.40933989620534528 0 -0.29604813782321171 0.40003827384795049 0 -0.28905057763704689 0.40562835892549581 0 -0.28392778011776681 0.39892722844600809 0 -0.29604813782321171 0.40003827384795049 0 -0.28905057763704689 0.40562835892549581 0 -0.2987408814332651 0.40933989620534528 0 -0.29604813782321171 0.40003827384795049 0 -0.28980128107673031 0.39400368344191522 0 -0.28392778011776681 0.39892722844600809 0 -0.29743858983336929 0.38628170497916159 0 -0.29604813782321171 0.40003827384795049 0 -0.28980128107673031 0.39400368344191522 0 -0.28980128107673031 0.39400368344191522 0 -0.28179061653257348 0.3907675264945405 0 -0.28392778011776681 0.39892722844600809 0 -0.28905057763704689 0.40562835892549581 0 -0.28392778011776681 0.39892722844600809 0 -0.27817781655911977 0.40726136879628272 0 -0.29743858983336929 0.38628170497916159 0 -0.28980128107673031 0.39400368344191522 0 -0.28179061653257348 0.3907675264945405 0 -0.29743858983336929 0.38628170497916159 0 -0.28179061653257348 0.3907675264945405 0 -0.28819376848868639 0.38228739672622841 0 -0.29743858983336929 0.38628170497916159 0 -0.28179061653257348 0.3907675264945405 0 -0.29551252006441958 0.37309371542857861 0 -0.29743858983336929 0.38628170497916159 0 -0.28819376848868639 0.38228739672622841 0 -0.29551252006441958 0.37309371542857861 0 -0.28819376848868639 0.38228739672622841 0 -0.28685204816290072 0.37621819500323123 0 -0.28179061653257348 0.3907675264945405 0 -0.28158428542699082 0.38279668863870758 0 -0.28819376848868639 0.38228739672622841 0 -0.28158428542699082 0.38279668863870758 0 -0.28819376848868639 0.38228739672622841 0 -0.28685204816290072 0.37621819500323123 0 -0.28158428542699082 0.38279668863870758 0 -0.28685204816290072 0.37621819500323123 0 -0.28084635904778937 0.37544065550995409 0 -0.27110701654299552 0.36596211494311248 0 -0.26614264323177789 0.39525334800991979 0 -0.27110701654299552 0.36596211494311248 0 -0.27663284499009211 0.37939207802828528 0 -0.27229768174870289 0.38438446135480281 0 -0.27110701654299552 0.36596211494311248 0 -0.27229768174870289 0.38438446135480281 0 -0.26614264323177789 0.39525334800991979 0 -0.27110701654299552 0.36596211494311248 0 -0.26689531734350652 0.36931705260985792 0 -0.26614264323177789 0.39525334800991979 0 -0.28158428542699082 0.38279668863870758 0 -0.28084635904778937 0.37544065550995409 0 -0.27663284499009211 0.37939207802828528 0 -0.27229768174870289 0.38438446135480281 0 -0.27641046434025379 0.38710393959788297 0 -0.26614264323177789 0.39525334800991979 0 -0.28179061653257348 0.3907675264945405 0 -0.28158428542699082 0.38279668863870758 0 -0.27641046434025379 0.38710393959788297 0 -0.27663284499009211 0.37939207802828528 0 -0.27229768174870289 0.38438446135480281 0 -0.27641046434025379 0.38710393959788297 0 -0.28158428542699082 0.38279668863870758 0 -0.27663284499009211 0.37939207802828528 0 -0.27641046434025379 0.38710393959788297 0 -0.28179061653257348 0.3907675264945405 0 -0.27641046434025379 0.38710393959788297 0 -0.26614264323177789 0.39525334800991979 0 -0.28179061653257348 0.3907675264945405 0 -0.27661435207820328 0.39472461325581981 0 -0.26614264323177789 0.39525334800991979 0 -0.28179061653257348 0.3907675264945405 0 -0.28392778011776681 0.39892722844600809 0 -0.27661435207820328 0.39472461325581981 0 -0.28179061653257348 0.3907675264945405 0 -0.26614264323177789 0.39525334800991979 0 -0.28392778011776681 0.39892722844600809 0 -0.27661435207820328 0.39472461325581981 0 -0.27572094251528112 0.40196054452149499 0 -0.28392778011776681 0.39892722844600809 0 -0.27572094251528112 0.40196054452149499 0 -0.27817781655911977 0.40726136879628272 0 -0.27572094251528112 0.40196054452149499 0 -0.26416382130603389 0.40692896758786917 0 -0.27817781655911977 0.40726136879628272 0 -0.27661435207820328 0.39472461325581981 0 -0.27572094251528112 0.40196054452149499 0 -0.26416382130603389 0.40692896758786917 0 -0.27661435207820328 0.39472461325581981 0 -0.26614264323177789 0.39525334800991979 0 -0.26416382130603389 0.40692896758786917 0 -0.27661435207820328 0.39472461325581981 0 -0.26416382130603389 0.40692896758786917 0 -0.26614264323177789 0.39525334800991979 0 -0.24781733580734391 0.38604582424895789 0 -0.24388213391773941 0.40163479241199579 0 -0.26614264323177789 0.39525334800991979 0 -0.25157066981256843 0.40894445920752592 0 -0.24388213391773941 0.40163479241199579 0 -0.26614264323177789 0.39525334800991979 0 -0.24388213391773941 0.40163479241199579 0 -0.26614264323177789 0.39525334800991979 0 -0.26416382130603389 0.40692896758786917 0 -0.26614264323177789 0.39525334800991979 0 -0.25157066981256843 0.40894445920752592 0 -0.26416382130603389 0.40692896758786917 0 -0.25453646971320443 0.37462232419521813 0 -0.26614264323177789 0.39525334800991979 0 -0.24781733580734391 0.38604582424895789 0 -0.25453646971320443 0.37462232419521813 0 -0.26689531734350652 0.36931705260985792 0 -0.26614264323177789 0.39525334800991979 0 -0.26107936510946472 0.42512814796255138 0 -0.25799490891289278 0.4433273283372331 0 -0.26107936510946472 0.42512814796255138 0 -0.27138668263498972 0.43431468825499642 0 -0.25799490891289278 0.4433273283372331 0 -0.26107936510946472 0.42512814796255138 0 -0.25799490891289278 0.4433273283372331 0 -0.24263019791012411 0.42803682032005991 0 -0.25799490891289278 0.4433273283372331 0 -0.24263019791012411 0.42803682032005991 0 -0.26107936510946472 0.42512814796255138 0 -0.26416382130603389 0.40692896758786917 0 -0.26107936510946472 0.42512814796255138 0 -0.26416382130603389 0.40692896758786917 0 -0.24263019791012411 0.42803682032005991 0 -0.26416382130603389 0.40692896758786917 0 -0.24263019791012411 0.42803682032005991 0 -0.25157066981256843 0.40894445920752592 0 -0.26416382130603389 0.40692896758786917 0 -0.24263019791012411 0.42803682032005991 0 -0.26107936510946472 0.42512814796255138 0 -0.26416382130603389 0.40692896758786917 0 -0.27370875903762831 0.41905129137381081 0 -0.26416382130603389 0.40692896758786917 0 -0.27817781655911977 0.40726136879628272 0 -0.27370875903762831 0.41905129137381081 0 -0.27817781655911977 0.40726136879628272 0 -0.27370875903762831 0.41905129137381081 0 -0.28647403122915938 0.41490769911839809 0 -0.27370875903762831 0.41905129137381081 0 -0.27138668263498972 0.43431468825499642 0 -0.28359142860916292 0.42646623900898489 0 -0.26107936510946472 0.42512814796255138 0 -0.27370875903762831 0.41905129137381081 0 -0.27138668263498972 0.43431468825499642 0 -0.27138668263498972 0.43431468825499642 0 -0.28359142860916292 0.42646623900898489 0 -0.28426041238301858 0.43930471826406531 0 -0.28359142860916292 0.42646623900898489 0 -0.29576073289665422 0.43347565529899762 0 -0.28426041238301858 0.43930471826406531 0 -0.28359142860916292 0.42646623900898489 0 -0.29576073289665422 0.43347565529899762 0 -0.29610666663401819 0.4205870682229661 0 -0.28905057763704689 0.40562835892549581 0 -0.27817781655911977 0.40726136879628272 0 -0.28647403122915938 0.41490769911839809 0 -0.27370875903762831 0.41905129137381081 0 -0.28359142860916292 0.42646623900898489 0 -0.28647403122915938 0.41490769911839809 0 -0.28359142860916292 0.42646623900898489 0 -0.28647403122915938 0.41490769911839809 0 -0.29610666663401819 0.4205870682229661 0 -0.28647403122915938 0.41490769911839809 0 -0.29610666663401819 0.4205870682229661 0 -0.2987408814332651 0.40933989620534528 0 -0.28905057763704689 0.40562835892549581 0 -0.28647403122915938 0.41490769911839809 0 -0.2987408814332651 0.40933989620534528 0 -0.31655825632854873 0.41307790430667191 0 -0.29610666663401819 0.4205870682229661 0 -0.2987408814332651 0.40933989620534528 0 -0.31655825632854873 0.41307790430667191 0 -0.29610666663401819 0.4205870682229661 0 -0.31005470391928353 0.42551636974368717 0 -0.31655825632854873 0.41307790430667191 0 -0.29610666663401819 0.4205870682229661 0 -0.31655825632854873 0.41307790430667191 0 -0.30820761894760612 0.40180007281058999 0 -0.2987408814332651 0.40933989620534528 0 -0.29576073289665422 0.43347565529899762 0 -0.31005470391928353 0.42551636974368717 0 -0.30636015846579262 0.44081646755455739 0 -0.29576073289665422 0.43347565529899762 0 -0.29610666663401819 0.4205870682229661 0 -0.31005470391928353 0.42551636974368717 0 -0.29576073289665422 0.43347565529899762 0 -0.30636015846579262 0.44081646755455739 0 -0.2944743431310044 0.45228094752776682 0 -0.30636015846579262 0.44081646755455739 0 -0.30512100021830008 0.46490456032657962 0 -0.30636015846579262 0.44081646755455739 0 -0.30512100021830008 0.46490456032657962 0 -0.2944743431310044 0.45228094752776682 0 -0.30636015846579262 0.44081646755455739 0 -0.30512100021830008 0.46490456032657962 0 -0.32381548421637429 0.45642326981327008 0 -0.30512100021830008 0.46490456032657962 0 -0.2944743431310044 0.45228094752776682 0 -0.28858619761816889 0.47377087817814589 0 -0.2944743431310044 0.45228094752776682 0 -0.27329055326553048 0.45854910325768988 0 -0.28858619761816889 0.47377087817814589 0 -0.2944743431310044 0.45228094752776682 0 -0.28426041238301858 0.43930471826406531 0 -0.27329055326553048 0.45854910325768988 0 -0.29576073289665422 0.43347565529899762 0 -0.2944743431310044 0.45228094752776682 0 -0.28426041238301858 0.43930471826406531 0 -0.27138668263498972 0.43431468825499642 0 -0.28426041238301858 0.43930471826406531 0 -0.27329055326553048 0.45854910325768988 0 -0.27138668263498972 0.43431468825499642 0 -0.27329055326553048 0.45854910325768988 0 -0.25799490891289278 0.4433273283372331 0 -0.27329055326553048 0.45854910325768988 0 -0.25799490891289278 0.4433273283372331 0 -0.27329055326553048 0.45854910325768988 0 -0.28858619761816889 0.47377087817814589 0 -0.27329055326553048 0.45854910325768988 0 -0.25438198006151169 0.46464464965965441 0 -0.25799490891289278 0.4433273283372331 0 -0.27329055326553048 0.45854910325768988 0 -0.25438198006151169 0.46464464965965441 0 -0.26859377699614329 0.4811575177290362 0 -0.25438198006151169 0.46464464965965441 0 -0.25799490891289278 0.4433273283372331 0 -0.25438198006151169 0.46464464965965441 0 -0.25799490891289278 0.4433273283372331 0 -0.24356894722331929 0.44821508210096461 0 -0.25080144613104921 0.5 0 -0.26859377699614329 0.4811575177290362 0 -0.2467553297522557 0.48147402383551691 0 -0.25080144613104921 0.5 0 -0.26859377699614329 0.4811575177290362 0 -0.27705851983630159 0.5 0 -0.25438198006151169 0.46464464965965441 0 -0.26859377699614329 0.4811575177290362 0 -0.2467553297522557 0.48147402383551691 0 -0.27329055326553048 0.45854910325768988 0 -0.26859377699614329 0.4811575177290362 0 -0.28858619761816889 0.47377087817814589 0 -0.26859377699614329 0.4811575177290362 0 -0.27705851983630159 0.5 0 -0.28830299895955541 0.48893487857068268 0 -0.27705851983630159 0.5 0 -0.28830299895955541 0.48893487857068268 0 -0.30331559354155391 0.49999999999999939 0 -0.26859377699614329 0.4811575177290362 0 -0.28830299895955541 0.48893487857068268 0 -0.28858619761816889 0.47377087817814589 0 -0.28830299895955541 0.48893487857068268 0 -0.28858619761816889 0.47377087817814589 0 -0.30388184197080759 0.48899265309860168 0 -0.28858619761816889 0.47377087817814589 0 -0.30388184197080759 0.48899265309860168 0 -0.30512100021830008 0.46490456032657962 0 -0.30388184197080759 0.48899265309860168 0 -0.30512100021830008 0.46490456032657962 0 -0.30388184197080759 0.48899265309860168 0 -0.31654611508668351 0.48621885406126381 0 -0.30512100021830008 0.46490456032657962 0 -0.28858619761816889 0.47377087817814589 0 -0.30388184197080759 0.48899265309860168 0 -0.30331559354155391 0.49999999999999939 0 -0.30388184197080759 0.48899265309860168 0 -0.28830299895955541 0.48893487857068268 0 -0.30331559354155391 0.49999999999999939 0 -0.30388184197080759 0.48899265309860168 0 -0.30388184197080759 0.48899265309860168 0 -0.31494260619507058 0.500000000000002 0 -0.31654611508668351 0.48621885406126381 0 -0.30331559354155391 0.49999999999999939 0 -0.30388184197080759 0.48899265309860168 0 -0.31494260619507058 0.500000000000002 0 -0.30388184197080759 0.48899265309860168 0 -0.31494260619507058 0.500000000000002 0 -0.31654611508668351 0.48621885406126381 0 -0.33275791060477139 0.5 0 -0.32602721644446891 0.47719705688113462 0 -0.31494260619507058 0.500000000000002 0 -0.31654611508668351 0.48621885406126381 0 -0.33275791060477139 0.5 0 -0.33275791060477139 0.5 0 -0.34200011506365208 0.48331572161184322 0 -0.32602721644446891 0.47719705688113462 0 -0.33275791060477139 0.5 0 -0.34200011506365208 0.48331572161184322 0 -0.35057321501447208 0.49999999999999872 0 -0.34200011506365208 0.48331572161184322 0 -0.32602721644446891 0.47719705688113462 0 -0.33593075250063148 0.46750731867274542 0 -0.34200011506365208 0.48331572161184322 0 -0.33593075250063148 0.46750731867274542 0 -0.35201810675435108 0.4676562019538536 0 -0.30512100021830008 0.46490456032657962 0 -0.31654611508668351 0.48621885406126381 0 -0.32602721644446891 0.47719705688113462 0 -0.30512100021830008 0.46490456032657962 0 -0.32602721644446891 0.47719705688113462 0 -0.32381548421637429 0.45642326981327008 0 -0.30636015846579262 0.44081646755455739 0 -0.32381548421637429 0.45642326981327008 0 -0.32304151796324199 0.43794530689545591 0 -0.32381548421637429 0.45642326981327008 0 -0.32304151796324199 0.43794530689545591 0 -0.34355933144160938 0.44471966407244162 0 -0.32381548421637429 0.45642326981327008 0 -0.34355933144160938 0.44471966407244162 0 -0.33593075250063148 0.46750731867274542 0 -0.32602721644446891 0.47719705688113462 0 -0.32381548421637429 0.45642326981327008 0 -0.33593075250063148 0.46750731867274542 0 -0.35201810675435108 0.4676562019538536 0 -0.36028404822733179 0.44939908513577981 0 -0.36566353784044697 0.46257036423753561 0 -0.34355933144160938 0.44471966407244162 0 -0.35201810675435108 0.4676562019538536 0 -0.36028404822733179 0.44939908513577981 0 -0.34355933144160938 0.44471966407244162 0 -0.33593075250063148 0.46750731867274542 0 -0.35201810675435108 0.4676562019538536 0 -0.36778315087773072 0.43214877602771662 0 -0.34355933144160938 0.44471966407244162 0 -0.36028404822733179 0.44939908513577981 0 -0.36778315087773072 0.43214877602771662 0 -0.36028404822733179 0.44939908513577981 0 -0.37376195539900242 0.45249759326054367 0 -0.37701653082709469 0.46900635458093531 0 -0.37376195539900242 0.45249759326054367 0 -0.36566353784044697 0.46257036423753561 0 -0.36028404822733179 0.44939908513577981 0 -0.37376195539900242 0.45249759326054367 0 -0.36566353784044697 0.46257036423753561 0 -0.36552159823955549 0.47691699748014749 0 -0.37220834978290879 0.49000150617251997 0 -0.35595833756876799 0.48470827593500232 0 -0.37701653082709469 0.46900635458093531 0 -0.36566353784044697 0.46257036423753561 0 -0.36552159823955549 0.47691699748014749 0 -0.37805640255927542 0.47903421333972468 0 -0.37701653082709469 0.46900635458093531 0 -0.36552159823955549 0.47691699748014749 0 -0.35201810675435108 0.4676562019538536 0 -0.36566353784044697 0.46257036423753561 0 -0.36552159823955549 0.47691699748014749 0 -0.37805640255927542 0.47903421333972468 0 -0.36552159823955549 0.47691699748014749 0 -0.37220834978290879 0.49000150617251997 0 -0.37220834978290879 0.49000150617251997 0 -0.35057321501447208 0.49999999999999872 0 -0.35595833756876799 0.48470827593500232 0 -0.37789332191386737 0.5 0 -0.37220834978290879 0.49000150617251997 0 -0.35057321501447208 0.49999999999999872 0 -0.37220834978290879 0.49000150617251997 0 -0.35057321501447208 0.49999999999999872 0 -0.34200011506365208 0.48331572161184322 0 -0.35057321501447208 0.49999999999999872 0 -0.35595833756876799 0.48470827593500232 0 -0.34200011506365208 0.48331572161184322 0 -0.35201810675435108 0.4676562019538536 0 -0.35595833756876799 0.48470827593500232 0 -0.35201810675435108 0.4676562019538536 0 -0.36552159823955549 0.47691699748014749 0 -0.35595833756876799 0.48470827593500232 0 -0.142080771754234 0.48212662116497451 0 -0.14744519938683801 0.47523243684594829 0 -0.1380962150490555 0.47248515407185221 0 -0.142080771754234 0.48212662116497451 0 -0.14744519938683801 0.47523243684594829 0 -0.15313912830386001 0.48632871978955722 0 -0.14744519938683801 0.47523243684594829 0 -0.1380962150490555 0.47248515407185221 0 -0.1446941887002707 0.46454185114692792 0 -0.14744519938683801 0.47523243684594829 0 -0.1446941887002707 0.46454185114692792 0 -0.15815775643206659 0.473198332503178 0 -0.14744519938683801 0.47523243684594829 0 -0.15313912830386001 0.48632871978955722 0 -0.15815775643206659 0.473198332503178 0 -0.142080771754234 0.48212662116497451 0 -0.15313912830386001 0.48632871978955722 0 -0.13803845513632401 0.5 0 -0.15313912830386001 0.48632871978955722 0 -0.13803845513632401 0.5 0 -0.1663114266205577 0.50000000000000011 0 -0.142080771754234 0.48212662116497451 0 -0.13803845513632401 0.5 0 -0.12908554574303099 0.47755934496718438 0 -0.13803845513632401 0.5 0 -0.12908554574303099 0.47755934496718438 0 -0.1160402402672886 0.48503019582547341 0 -0.142080771754234 0.48212662116497451 0 -0.12908554574303099 0.47755934496718438 0 -0.1380962150490555 0.47248515407185221 0 -0.12908554574303099 0.47755934496718438 0 -0.1380962150490555 0.47248515407185221 0 -0.13097929143795109 0.46459511115351071 0 -0.12908554574303099 0.47755934496718438 0 -0.13097929143795109 0.46459511115351071 0 -0.1176294132596279 0.46872710166108278 0 -0.13097929143795109 0.46459511115351071 0 -0.1351896940807357 0.45304119368279389 0 -0.1204057133641486 0.45504160574272429 0 -0.13097929143795109 0.46459511115351071 0 -0.1351896940807357 0.45304119368279389 0 -0.1446941887002707 0.46454185114692792 0 -0.1380962150490555 0.47248515407185221 0 -0.13097929143795109 0.46459511115351071 0 -0.1446941887002707 0.46454185114692792 0 -0.1351896940807357 0.45304119368279389 0 -0.13889501351409689 0.43598263237980822 0 -0.1242648033483075 0.43981492828754482 0 -0.1351896940807357 0.45304119368279389 0 -0.1242648033483075 0.43981492828754482 0 -0.1204057133641486 0.45504160574272429 0 -0.15017718620881049 0.45777983735391498 0 -0.13889501351409689 0.43598263237980822 0 -0.1351896940807357 0.45304119368279389 0 -0.15017718620881049 0.45777983735391498 0 -0.13889501351409689 0.43598263237980822 0 -0.15995177900170021 0.44572512983606088 0 -0.15376963845050121 0.4328235067909087 0 -0.13889501351409689 0.43598263237980822 0 -0.15017718620881049 0.45777983735391498 0 -0.15995177900170021 0.44572512983606088 0 -0.13889501351409689 0.43598263237980822 0 -0.15017718620881049 0.45777983735391498 0 -0.15995177900170021 0.44572512983606088 0 -0.1446941887002707 0.46454185114692792 0 -0.15017718620881049 0.45777983735391498 0 -0.1351896940807357 0.45304119368279389 0 -0.1446941887002707 0.46454185114692792 0 -0.15017718620881049 0.45777983735391498 0 -0.1446941887002707 0.46454185114692792 0 -0.15017718620881049 0.45777983735391498 0 -0.15815775643206659 0.473198332503178 0 -0.15017718620881049 0.45777983735391498 0 -0.15868634814382429 0.46531473325554851 0 -0.15815775643206659 0.473198332503178 0 -0.15017718620881049 0.45777983735391498 0 -0.15815775643206659 0.473198332503178 0 -0.160558198289461 0.46047642425523388 0 -0.1655661766345953 0.45099185016729298 0 -0.16585225164495951 0.46980433890986678 0 -0.1655661766345953 0.45099185016729298 0 -0.17867327812258871 0.46114583139567922 0 -0.16585225164495951 0.46980433890986678 0 -0.1655661766345953 0.45099185016729298 0 -0.16585225164495951 0.46980433890986678 0 -0.15868634814382429 0.46531473325554851 0 -0.160558198289461 0.46047642425523388 0 -0.16585225164495951 0.46980433890986678 0 -0.15017718620881049 0.45777983735391498 0 -0.15868634814382429 0.46531473325554851 0 -0.160558198289461 0.46047642425523388 0 -0.15017718620881049 0.45777983735391498 0 -0.160558198289461 0.46047642425523388 0 -0.15995177900170021 0.44572512983606088 0 -0.15995177900170021 0.44572512983606088 0 -0.1655661766345953 0.45099185016729298 0 -0.1697263717945888 0.43367042231820602 0 -0.160558198289461 0.46047642425523388 0 -0.15995177900170021 0.44572512983606088 0 -0.1655661766345953 0.45099185016729298 0 -0.15995177900170021 0.44572512983606088 0 -0.1697263717945888 0.43367042231820602 0 -0.1655661766345953 0.45099185016729298 0 -0.1926513277646352 0.45119866261047992 0 -0.1697263717945888 0.43367042231820602 0 -0.1926513277646352 0.45119866261047992 0 -0.1697263717945888 0.43367042231820602 0 -0.1926513277646352 0.45119866261047992 0 -0.18693863061853061 0.43491447939059907 0 -0.1697263717945888 0.43367042231820602 0 -0.1655661766345953 0.45099185016729298 0 -0.17867327812258871 0.46114583139567922 0 -0.1926513277646352 0.45119866261047992 0 -0.17867327812258871 0.46114583139567922 0 -0.17876854714149509 0.47093865696285842 0 -0.16585225164495951 0.46980433890986678 0 -0.17867327812258871 0.46114583139567922 0 -0.1899884502156329 0.46461586120334353 0 -0.1926513277646352 0.45119866261047992 0 -0.17867327812258871 0.46114583139567922 0 -0.17876854714149509 0.47093865696285842 0 -0.1899884502156329 0.46461586120334353 0 -0.17876854714149509 0.47093865696285842 0 -0.19138341924764241 0.47827032896460842 0 -0.1899884502156329 0.46461586120334353 0 -0.1757986315986971 0.48088398659212228 0 -0.17876854714149509 0.47093865696285842 0 -0.19138341924764241 0.47827032896460842 0 -0.1757986315986971 0.48088398659212228 0 -0.17876854714149509 0.47093865696285842 0 -0.16585225164495951 0.46980433890986678 0 -0.16585225164495951 0.46980433890986678 0 -0.16613832665532341 0.48861682765244069 0 -0.16585225164495951 0.46980433890986678 0 -0.15815775643206659 0.473198332503178 0 -0.16613832665532341 0.48861682765244069 0 -0.1757986315986971 0.48088398659212228 0 -0.16585225164495951 0.46980433890986678 0 -0.16613832665532341 0.48861682765244069 0 -0.15313912830386001 0.48632871978955722 0 -0.15815775643206659 0.473198332503178 0 -0.16613832665532341 0.48861682765244069 0 -0.15815775643206659 0.473198332503178 0 -0.16613832665532341 0.48861682765244069 0 -0.15868634814382429 0.46531473325554851 0 -0.16585225164495951 0.46980433890986678 0 -0.15815775643206659 0.473198332503178 0 -0.15313912830386001 0.48632871978955722 0 -0.16613832665532341 0.48861682765244069 0 -0.1663114266205577 0.50000000000000011 0 -0.16613832665532341 0.48861682765244069 0 -0.1720302250152923 0.50000000000000022 0 -0.16613832665532341 0.48861682765244069 0 -0.1663114266205577 0.50000000000000011 0 -0.1720302250152923 0.50000000000000022 0 -0.16613832665532341 0.48861682765244069 0 -0.1663114266205577 0.50000000000000011 0 -0.16613832665532341 0.48861682765244069 0 -0.17430115969348189 0.49501483184612438 0 -0.1720302250152923 0.50000000000000022 0 -0.17430115969348189 0.49501483184612438 0 -0.1720302250152923 0.50000000000000022 0 -0.1982872987205446 0.5 0 -0.1757986315986971 0.48088398659212228 0 -0.17430115969348189 0.49501483184612438 0 -0.19138341924764241 0.47827032896460842 0 -0.17430115969348189 0.49501483184612438 0 -0.19138341924764241 0.47827032896460842 0 -0.1757986315986971 0.48088398659212228 0 -0.16613832665532341 0.48861682765244069 0 -0.17430115969348189 0.49501483184612438 0 -0.17430115969348189 0.49501483184612438 0 -0.1982872987205446 0.5 0 -0.19138341924764241 0.47827032896460842 0 -0.1982872987205446 0.5 0 -0.19138341924764241 0.47827032896460842 0 -0.21217809917650449 0.48030286392854288 0 -0.19138341924764241 0.47827032896460842 0 -0.208465678801803 0.46152582608309223 0 -0.19138341924764241 0.47827032896460842 0 -0.21217809917650449 0.48030286392854288 0 -0.208465678801803 0.46152582608309223 0 -0.1982872987205446 0.5 0 -0.21217809917650449 0.48030286392854288 0 -0.22454437242579681 0.5 0 -0.22454437242579681 0.5 0 -0.2288960980978284 0.47674808914996208 0 -0.2467553297522557 0.48147402383551691 0 -0.21217809917650449 0.48030286392854288 0 -0.22454437242579681 0.5 0 -0.2288960980978284 0.47674808914996208 0 -0.21217809917650449 0.48030286392854288 0 -0.2288960980978284 0.47674808914996208 0 -0.22325063631842021 0.46203708915627778 0 -0.25438198006151169 0.46464464965965441 0 -0.2467553297522557 0.48147402383551691 0 -0.2372897108761052 0.46028528898629889 0 -0.2288960980978284 0.47674808914996208 0 -0.2467553297522557 0.48147402383551691 0 -0.2372897108761052 0.46028528898629889 0 -0.25080144613104921 0.5 0 -0.22454437242579681 0.5 0 -0.2467553297522557 0.48147402383551691 0 -0.24356894722331929 0.44821508210096461 0 -0.22554793835596351 0.44478132320157598 0 -0.24263019791012411 0.42803682032005991 0 -0.24356894722331929 0.44821508210096461 0 -0.2372897108761052 0.46028528898629889 0 -0.22554793835596351 0.44478132320157598 0 -0.25799490891289278 0.4433273283372331 0 -0.24356894722331929 0.44821508210096461 0 -0.24263019791012411 0.42803682032005991 0 -0.25438198006151169 0.46464464965965441 0 -0.24356894722331929 0.44821508210096461 0 -0.2372897108761052 0.46028528898629889 0 -0.2288960980978284 0.47674808914996208 0 -0.2372897108761052 0.46028528898629889 0 -0.22325063631842021 0.46203708915627778 0 -0.2372897108761052 0.46028528898629889 0 -0.22325063631842021 0.46203708915627778 0 -0.22554793835596351 0.44478132320157598 0 -0.22325063631842021 0.46203708915627778 0 -0.22554793835596351 0.44478132320157598 0 -0.208465678801803 0.46152582608309223 0 -0.22554793835596351 0.44478132320157598 0 -0.20785557032720109 0.44518798724498809 0 -0.21437917226951189 0.43588067273166847 0 -0.22554793835596351 0.44478132320157598 0 -0.20785557032720109 0.44518798724498809 0 -0.208465678801803 0.46152582608309223 0 -0.22554793835596351 0.44478132320157598 0 -0.208465678801803 0.46152582608309223 0 -0.21217809917650449 0.48030286392854288 0 -0.22325063631842021 0.46203708915627778 0 -0.208465678801803 0.46152582608309223 0 -0.19138341924764241 0.47827032896460842 0 -0.208465678801803 0.46152582608309223 0 -0.1899884502156329 0.46461586120334353 0 -0.208465678801803 0.46152582608309223 0 -0.1899884502156329 0.46461586120334353 0 -0.1926513277646352 0.45119866261047992 0 -0.20785557032720109 0.44518798724498809 0 -0.1926513277646352 0.45119866261047992 0 -0.18693863061853061 0.43491447939059907 0 -0.20785557032720109 0.44518798724498809 0 -0.208465678801803 0.46152582608309223 0 -0.1926513277646352 0.45119866261047992 0 -0.19176926968858449 0.42488004754311998 0 -0.20430089696141959 0.42856004989685992 0 -0.18693863061853061 0.43491447939059907 0 -0.20785557032720109 0.44518798724498809 0 -0.20430089696141959 0.42856004989685992 0 -0.18693863061853061 0.43491447939059907 0 -0.19176926968858449 0.42488004754311998 0 -0.19667758679306771 0.41738623802377928 0 -0.20430089696141959 0.42856004989685992 0 -0.19667758679306771 0.41738623802377928 0 -0.19460267291041519 0.40299123798476227 0 -0.182164522352502 0.41833083015148409 0 -0.19460267291041519 0.40299123798476227 0 -0.182164522352502 0.41833083015148409 0 -0.19176926968858449 0.42488004754311998 0 -0.19667758679306771 0.41738623802377928 0 -0.182164522352502 0.41833083015148409 0 -0.19667758679306771 0.41738623802377928 0 -0.2074030129404133 0.4163894186605448 0 -0.20430089696141959 0.42856004989685992 0 -0.19667758679306771 0.41738623802377928 0 -0.2074030129404133 0.4163894186605448 0 -0.19460267291041519 0.40299123798476227 0 -0.2074030129404133 0.4163894186605448 0 -0.21981228343346321 0.42499333058324978 0 -0.22162162460370111 0.40801623681407218 0 -0.2074030129404133 0.4163894186605448 0 -0.22162162460370111 0.40801623681407218 0 -0.19460267291041519 0.40299123798476227 0 -0.20785557032720109 0.44518798724498809 0 -0.20430089696141959 0.42856004989685992 0 -0.21437917226951189 0.43588067273166847 0 -0.2074030129404133 0.4163894186605448 0 -0.20430089696141959 0.42856004989685992 0 -0.21981228343346321 0.42499333058324978 0 -0.20430089696141959 0.42856004989685992 0 -0.21437917226951189 0.43588067273166847 0 -0.21981228343346321 0.42499333058324978 0 -0.22554793835596351 0.44478132320157598 0 -0.24263019791012411 0.42803682032005991 0 -0.22554793835596351 0.44478132320157598 0 -0.2313941741476824 0.42795323546389102 0 -0.24263019791012411 0.42803682032005991 0 -0.22554793835596351 0.44478132320157598 0 -0.21437917226951189 0.43588067273166847 0 -0.21981228343346321 0.42499333058324978 0 -0.22554793835596351 0.44478132320157598 0 -0.2313941741476824 0.42795323546389102 0 -0.21981228343346321 0.42499333058324978 0 -0.2313941741476824 0.42795323546389102 0 -0.21981228343346321 0.42499333058324978 0 -0.2301621318308705 0.41771135234831969 0 -0.2313941741476824 0.42795323546389102 0 -0.2301621318308705 0.41771135234831969 0 -0.23881831920799079 0.42424335086624981 0 -0.21981228343346321 0.42499333058324978 0 -0.22162162460370111 0.40801623681407218 0 -0.2301621318308705 0.41771135234831969 0 -0.22162162460370111 0.40801623681407218 0 -0.2301621318308705 0.41771135234831969 0 -0.241034552697166 0.41286836770778501 0 -0.25157066981256843 0.40894445920752592 0 -0.241034552697166 0.41286836770778501 0 -0.24263019791012411 0.42803682032005991 0 -0.241034552697166 0.41286836770778501 0 -0.24263019791012411 0.42803682032005991 0 -0.23881831920799079 0.42424335086624981 0 -0.22162162460370111 0.40801623681407218 0 -0.241034552697166 0.41286836770778501 0 -0.24388213391773941 0.40163479241199579 0 -0.2301621318308705 0.41771135234831969 0 -0.241034552697166 0.41286836770778501 0 -0.23881831920799079 0.42424335086624981 0 -0.25157066981256843 0.40894445920752592 0 -0.241034552697166 0.41286836770778501 0 -0.24388213391773941 0.40163479241199579 0 -0.2313941741476824 0.42795323546389102 0 -0.24263019791012411 0.42803682032005991 0 -0.23881831920799079 0.42424335086624981 0 -0.24263019791012411 0.42803682032005991 0 -0.23881831920799079 0.42424335086624981 0 -0.25453646971320443 0.37462232419521813 0 -0.24781733580734391 0.38604582424895789 0 -0.23735930512057779 0.37349779701461089 0 -0.2365264908337599 0.38834162546439549 0 -0.24781733580734391 0.38604582424895789 0 -0.23735930512057779 0.37349779701461089 0 -0.2365264908337599 0.38834162546439549 0 -0.24781733580734391 0.38604582424895789 0 -0.24388213391773941 0.40163479241199579 0 -0.22162162460370111 0.40801623681407218 0 -0.24388213391773941 0.40163479241199579 0 -0.22162162460370111 0.40801623681407218 0 -0.2365264908337599 0.38834162546439549 0 -0.2225569648072106 0.38059728391652659 0 -0.22162162460370111 0.40801623681407218 0 -0.2365264908337599 0.38834162546439549 0 -0.24388213391773941 0.40163479241199579 0 -0.2365264908337599 0.38834162546439549 0 -0.2225569648072106 0.38059728391652659 0 -0.23735930512057779 0.37349779701461089 0 -0.2225569648072106 0.38059728391652659 0 -0.20545957084956781 0.38789926664213359 0 -0.1994770785436861 0.36691897370504389 0 -0.22162162460370111 0.40801623681407218 0 -0.2225569648072106 0.38059728391652659 0 -0.20545957084956781 0.38789926664213359 0 -0.22162162460370111 0.40801623681407218 0 -0.20545957084956781 0.38789926664213359 0 -0.19460267291041519 0.40299123798476227 0 -0.20545957084956781 0.38789926664213359 0 -0.19460267291041519 0.40299123798476227 0 -0.18736095772118591 0.3836472042370111 0 -0.20545957084956781 0.38789926664213359 0 -0.18736095772118591 0.3836472042370111 0 -0.1994770785436861 0.36691897370504389 0 -0.18736095772118591 0.3836472042370111 0 -0.16248792359233191 0.38534127627451031 0 -0.17644948136236779 0.3976803029940168 0 -0.18736095772118591 0.3836472042370111 0 -0.16248792359233191 0.38534127627451031 0 -0.1741500565645078 0.37123080613525078 0 -0.16248792359233191 0.38534127627451031 0 -0.16330635783110381 0.4038062271485704 0 -0.14438589058212131 0.3948348353259919 0 -0.16248792359233191 0.38534127627451031 0 -0.16330635783110381 0.4038062271485704 0 -0.17644948136236779 0.3976803029940168 0 -0.19460267291041519 0.40299123798476227 0 -0.17644948136236779 0.3976803029940168 0 -0.17778078602166139 0.40821888849324761 0 -0.19460267291041519 0.40299123798476227 0 -0.18736095772118591 0.3836472042370111 0 -0.17644948136236779 0.3976803029940168 0 -0.16330635783110381 0.4038062271485704 0 -0.17644948136236779 0.3976803029940168 0 -0.17778078602166139 0.40821888849324761 0 -0.19460267291041519 0.40299123798476227 0 -0.182164522352502 0.41833083015148409 0 -0.17778078602166139 0.40821888849324761 0 -0.182164522352502 0.41833083015148409 0 -0.1723808956519178 0.41828584418740389 0 -0.17778078602166139 0.40821888849324761 0 -0.19176926968858449 0.42488004754311998 0 -0.182164522352502 0.41833083015148409 0 -0.18693863061853061 0.43491447939059907 0 -0.182164522352502 0.41833083015148409 0 -0.18693863061853061 0.43491447939059907 0 -0.1697263717945888 0.43367042231820602 0 -0.182164522352502 0.41833083015148409 0 -0.1697263717945888 0.43367042231820602 0 -0.182164522352502 0.41833083015148409 0 -0.1723808956519178 0.41828584418740389 0 -0.1697263717945888 0.43367042231820602 0 -0.15995177900170021 0.44572512983606088 0 -0.1697263717945888 0.43367042231820602 0 -0.15376963845050121 0.4328235067909087 0 -0.1697263717945888 0.43367042231820602 0 -0.14650538949161929 0.41591584262955861 0 -0.15376963845050121 0.4328235067909087 0 -0.1697263717945888 0.43367042231820602 0 -0.14650538949161929 0.41591584262955861 0 -0.1723808956519178 0.41828584418740389 0 -0.1697263717945888 0.43367042231820602 0 -0.14650538949161929 0.41591584262955861 0 -0.1723808956519178 0.41828584418740389 0 -0.14650538949161929 0.41591584262955861 0 -0.16330635783110381 0.4038062271485704 0 -0.1723808956519178 0.41828584418740389 0 -0.14650538949161929 0.41591584262955861 0 -0.16330635783110381 0.4038062271485704 0 -0.1723808956519178 0.41828584418740389 0 -0.17778078602166139 0.40821888849324761 0 -0.14650538949161929 0.41591584262955861 0 -0.15376963845050121 0.4328235067909087 0 -0.13889501351409689 0.43598263237980822 0 -0.13889501351409689 0.43598263237980822 0 -0.12761284081938409 0.41418542740570108 0 -0.14650538949161929 0.41591584262955861 0 -0.13889501351409689 0.43598263237980822 0 -0.12761284081938409 0.41418542740570108 0 -0.13889501351409689 0.43598263237980822 0 -0.12761284081938409 0.41418542740570108 0 -0.1242648033483075 0.43981492828754482 0 -0.14650538949161929 0.41591584262955861 0 -0.12761284081938409 0.41418542740570108 0 -0.12644786621320531 0.40058001872868543 0 -0.14650538949161929 0.41591584262955861 0 -0.12644786621320531 0.40058001872868543 0 -0.14650538949161929 0.41591584262955861 0 -0.12761284081938409 0.41418542740570108 0 -0.14650538949161929 0.41591584262955861 0 -0.12644786621320531 0.40058001872868543 0 -0.14438589058212131 0.3948348353259919 0 -0.12644786621320531 0.40058001872868543 0 -0.12826940643264259 0.38638828685515292 0 -0.14438589058212131 0.3948348353259919 0 -0.1399268433138337 0.37661104245066729 0 -0.12826940643264259 0.38638828685515292 0 -0.1198206075896991 0.37069234566290138 0 -0.1399268433138337 0.37661104245066729 0 -0.12826940643264259 0.38638828685515292 0 -0.14438589058212131 0.3948348353259919 0 -0.16248792359233191 0.38534127627451031 0 -0.1399268433138337 0.37661104245066729 0 -0.1571746455416145 0.36408416689185819 0 -0.16248792359233191 0.38534127627451031 0 -0.1399268433138337 0.37661104245066729 0 -0.14438589058212131 0.3948348353259919 0 -0.16330635783110381 0.4038062271485704 0 -0.14650538949161929 0.41591584262955861 0 -0.14438589058212131 0.3948348353259919 0 -0.1367685514822152 0.35851885971508118 0 -0.13367478836053351 0.33932016938713638 0 -0.15331730601663701 0.3395623532820784 0 -0.1367685514822152 0.35851885971508118 0 -0.15331730601663701 0.3395623532820784 0 -0.1571746455416145 0.36408416689185819 0 -0.1399268433138337 0.37661104245066729 0 -0.1367685514822152 0.35851885971508118 0 -0.1571746455416145 0.36408416689185819 0 -0.1399268433138337 0.37661104245066729 0 -0.1367685514822152 0.35851885971508118 0 -0.1198206075896991 0.37069234566290138 0 -0.1367685514822152 0.35851885971508118 0 -0.13367478836053351 0.33932016938713638 0 -0.1173066256070304 0.35104950557859033 0 -0.13367478836053351 0.33932016938713638 0 -0.1262409447270301 0.3211703831111522 0 -0.1175879007316586 0.33497855513245622 0 -0.13367478836053351 0.33932016938713638 0 -0.1262409447270301 0.3211703831111522 0 -0.14995133854557879 0.31573290008088639 0 -0.1262409447270301 0.3211703831111522 0 -0.14995133854557879 0.31573290008088639 0 -0.13170636281121431 0.30540396541675668 0 -0.13367478836053351 0.33932016938713638 0 -0.14995133854557879 0.31573290008088639 0 -0.15331730601663701 0.3395623532820784 0 -0.15331730601663701 0.3395623532820784 0 -0.17079439025487569 0.32494122108339912 0 -0.1763971922801616 0.3532406634935612 0 -0.14995133854557879 0.31573290008088639 0 -0.17079439025487569 0.32494122108339912 0 -0.167164841548782 0.29891422322321631 0 -0.14995133854557879 0.31573290008088639 0 -0.15331730601663701 0.3395623532820784 0 -0.17079439025487569 0.32494122108339912 0 -0.17079439025487569 0.32494122108339912 0 -0.19256976679114979 0.33165381796875049 0 -0.19699128312530151 0.30504565645142051 0 -0.17079439025487569 0.32494122108339912 0 -0.1763971922801616 0.3532406634935612 0 -0.19256976679114979 0.33165381796875049 0 -0.15331730601663701 0.3395623532820784 0 -0.1763971922801616 0.3532406634935612 0 -0.1571746455416145 0.36408416689185819 0 -0.15331730601663701 0.3395623532820784 0 -0.1763971922801616 0.3532406634935612 0 -0.1763971922801616 0.3532406634935612 0 -0.1571746455416145 0.36408416689185819 0 -0.1741500565645078 0.37123080613525078 0 -0.16248792359233191 0.38534127627451031 0 -0.1571746455416145 0.36408416689185819 0 -0.1741500565645078 0.37123080613525078 0 -0.18736095772118591 0.3836472042370111 0 -0.1741500565645078 0.37123080613525078 0 -0.1994770785436861 0.36691897370504389 0 -0.1763971922801616 0.3532406634935612 0 -0.1741500565645078 0.37123080613525078 0 -0.1994770785436861 0.36691897370504389 0 -0.1763971922801616 0.3532406634935612 0 -0.1994770785436861 0.36691897370504389 0 -0.1763971922801616 0.3532406634935612 0 -0.20127160642404629 0.34878804965207372 0 -0.19256976679114979 0.33165381796875049 0 -0.1763971922801616 0.3532406634935612 0 -0.1994770785436861 0.36691897370504389 0 -0.20127160642404629 0.34878804965207372 0 -0.1994770785436861 0.36691897370504389 0 -0.20127160642404629 0.34878804965207372 0 -0.22480168799342179 0.35512276170724633 0 -0.20127160642404629 0.34878804965207372 0 -0.22480168799342179 0.35512276170724633 0 -0.2131123065118124 0.33700403138576668 0 -0.2225569648072106 0.38059728391652659 0 -0.1994770785436861 0.36691897370504389 0 -0.2225569648072106 0.38059728391652659 0 -0.1994770785436861 0.36691897370504389 0 -0.22480168799342179 0.35512276170724633 0 -0.2225569648072106 0.38059728391652659 0 -0.22480168799342179 0.35512276170724633 0 -0.23735930512057779 0.37349779701461089 0 -0.25368472498167011 0.34420349485172652 0 -0.22480168799342179 0.35512276170724633 0 -0.24822911175635759 0.36217347122335058 0 -0.22480168799342179 0.35512276170724633 0 -0.24822911175635759 0.36217347122335058 0 -0.23735930512057779 0.37349779701461089 0 -0.25453646971320443 0.37462232419521813 0 -0.24822911175635759 0.36217347122335058 0 -0.23735930512057779 0.37349779701461089 0 -0.25757488899104952 0.31786411623381933 0 -0.23478691102954721 0.33115088205162452 0 -0.2366570207200871 0.30010935915934539 0 -0.25368472498167011 0.34420349485172652 0 -0.22480168799342179 0.35512276170724633 0 -0.23478691102954721 0.33115088205162452 0 -0.25368472498167011 0.34420349485172652 0 -0.23478691102954721 0.33115088205162452 0 -0.25757488899104952 0.31786411623381933 0 -0.25368472498167011 0.34420349485172652 0 -0.23478691102954721 0.33115088205162452 0 -0.23478691102954721 0.33115088205162452 0 -0.2158890970774244 0.31809826925152251 0 -0.2131123065118124 0.33700403138576668 0 -0.22480168799342179 0.35512276170724633 0 -0.23478691102954721 0.33115088205162452 0 -0.2131123065118124 0.33700403138576668 0 -0.23478691102954721 0.33115088205162452 0 -0.2158890970774244 0.31809826925152251 0 -0.2366570207200871 0.30010935915934539 0 -0.23478691102954721 0.33115088205162452 0 -0.2158890970774244 0.31809826925152251 0 -0.2158890970774244 0.31809826925152251 0 -0.2131123065118124 0.33700403138576668 0 -0.19256976679114979 0.33165381796875049 0 -0.20127160642404629 0.34878804965207372 0 -0.2131123065118124 0.33700403138576668 0 -0.19256976679114979 0.33165381796875049 0 -0.2158890970774244 0.31809826925152251 0 -0.19256976679114979 0.33165381796875049 0 -0.19699128312530151 0.30504565645142051 0 -0.19699128312530151 0.30504565645142051 0 -0.2044220976180971 0.2747921468301005 0 -0.18537993383704029 0.28397978744787411 0 -0.19699128312530151 0.30504565645142051 0 -0.21636901433909059 0.29447561219915308 0 -0.2044220976180971 0.2747921468301005 0 -0.2158890970774244 0.31809826925152251 0 -0.19699128312530151 0.30504565645142051 0 -0.21636901433909059 0.29447561219915308 0 -0.2158890970774244 0.31809826925152251 0 -0.19699128312530151 0.30504565645142051 0 -0.2158890970774244 0.31809826925152251 0 -0.21636901433909059 0.29447561219915308 0 -0.2366570207200871 0.30010935915934539 0 -0.21636901433909059 0.29447561219915308 0 -0.2366570207200871 0.30010935915934539 0 -0.2235041758045673 0.27405874977876837 0 -0.26277913973510902 0.29023342414179659 0 -0.2366570207200871 0.30010935915934539 0 -0.2447247674615598 0.2718938593685879 0 -0.2366570207200871 0.30010935915934539 0 -0.2447247674615598 0.2718938593685879 0 -0.2235041758045673 0.27405874977876837 0 -0.25693865295534157 0.25278860643768353 0 -0.2416444700809012 0.25186566196455601 0 -0.2447247674615598 0.2718938593685879 0 -0.2416444700809012 0.25186566196455601 0 -0.2447247674615598 0.2718938593685879 0 -0.22667039518801041 0.25355429459537898 0 -0.2447247674615598 0.2718938593685879 0 -0.22667039518801041 0.25355429459537898 0 -0.2447247674615598 0.2718938593685879 0 -0.2235041758045673 0.27405874977876837 0 -0.22667039518801041 0.25355429459537898 0 -0.2235041758045673 0.27405874977876837 0 -0.22667039518801041 0.25355429459537898 0 -0.21218175950055909 0.24952722652004439 0 -0.2044220976180971 0.2747921468301005 0 -0.1929026130837673 0.25762258695206858 0 -0.21218175950055909 0.24952722652004439 0 -0.2044220976180971 0.2747921468301005 0 -0.21218175950055909 0.24952722652004439 0 -0.2235041758045673 0.27405874977876837 0 -0.2044220976180971 0.2747921468301005 0 -0.21218175950055909 0.24952722652004439 0 -0.21636901433909059 0.29447561219915308 0 -0.2235041758045673 0.27405874977876837 0 -0.2044220976180971 0.2747921468301005 0 -0.2044220976180971 0.2747921468301005 0 -0.1929026130837673 0.25762258695206858 0 -0.18537993383704029 0.28397978744787411 0 -0.1929026130837673 0.25762258695206858 0 -0.16582228118094081 0.26466105519565358 0 -0.18651378479530609 0.23505073182760211 0 -0.1929026130837673 0.25762258695206858 0 -0.16582228118094081 0.26466105519565358 0 -0.18537993383704029 0.28397978744787411 0 -0.16582228118094081 0.26466105519565358 0 -0.167164841548782 0.29891422322321631 0 -0.14136362158270599 0.28508793949713551 0 -0.16582228118094081 0.26466105519565358 0 -0.18537993383704029 0.28397978744787411 0 -0.167164841548782 0.29891422322321631 0 -0.19699128312530151 0.30504565645142051 0 -0.18537993383704029 0.28397978744787411 0 -0.167164841548782 0.29891422322321631 0 -0.17079439025487569 0.32494122108339912 0 -0.19699128312530151 0.30504565645142051 0 -0.167164841548782 0.29891422322321631 0 -0.167164841548782 0.29891422322321631 0 -0.14136362158270599 0.28508793949713551 0 -0.14995133854557879 0.31573290008088639 0 -0.167164841548782 0.29891422322321631 0 -0.14136362158270599 0.28508793949713551 0 -0.14995133854557879 0.31573290008088639 0 -0.14136362158270599 0.28508793949713551 0 -0.13170636281121431 0.30540396541675668 0 -0.1262409447270301 0.3211703831111522 0 -0.13170636281121431 0.30540396541675668 0 -0.1173504618646501 0.30916380798395637 0 -0.14136362158270599 0.28508793949713551 0 -0.13170636281121431 0.30540396541675668 0 -0.1202787732923796 0.29457691953651272 0 -0.14136362158270599 0.28508793949713551 0 -0.1196693143642453 0.28329908912575552 0 -0.1202787732923796 0.29457691953651272 0 -0.14136362158270599 0.28508793949713551 0 -0.1155624016166297 0.27126165577105521 0 -0.1196693143642453 0.28329908912575552 0 -0.14136362158270599 0.28508793949713551 0 -0.1155624016166297 0.27126165577105521 0 -0.12872708527658799 0.25991420809329241 0 -0.1416417428525672 0.26777243923482702 0 -0.1155624016166297 0.27126165577105521 0 -0.14136362158270599 0.28508793949713551 0 -0.1416417428525672 0.26777243923482702 0 -0.1155624016166297 0.27126165577105521 0 -0.12872708527658799 0.25991420809329241 0 -0.14534546737678511 0.25129379472131641 0 -0.1416417428525672 0.26777243923482702 0 -0.12872708527658799 0.25991420809329241 0 -0.14534546737678511 0.25129379472131641 0 -0.12470300375741469 0.2457033751303839 0 -0.16582228118094081 0.26466105519565358 0 -0.14534546737678511 0.25129379472131641 0 -0.1416417428525672 0.26777243923482702 0 -0.16582228118094081 0.26466105519565358 0 -0.14136362158270599 0.28508793949713551 0 -0.1416417428525672 0.26777243923482702 0 -0.1083690905562489 0.27746201143443072 0 -0.10470287070229969 0.27376422074294909 0 -0.09206590757372593 0.27740472432850488 0 -0.099741497972773749 0.27068482051400677 0 -0.1098053558875477 0.27272524579145851 0 -0.092391857727521592 0.25884509119311472 0 -0.1155624016166297 0.27126165577105521 0 -0.1098053558875477 0.27272524579145851 0 -0.092391857727521592 0.25884509119311472 0 -0.099741497972773749 0.27068482051400677 0 -0.09206590757372593 0.27740472432850488 0 -0.092391857727521592 0.25884509119311472 0 -0.10470287070229969 0.27376422074294909 0 -0.099741497972773749 0.27068482051400677 0 -0.1098053558875477 0.27272524579145851 0 -0.1083690905562489 0.27746201143443072 0 -0.1098053558875477 0.27272524579145851 0 -0.1083690905562489 0.27746201143443072 0 -0.10470287070229969 0.27376422074294909 0 -0.1098053558875477 0.27272524579145851 0 -0.10470287070229969 0.27376422074294909 0 -0.099741497972773749 0.27068482051400677 0 -0.09206590757372593 0.27740472432850488 0 -0.1155624016166297 0.27126165577105521 0 -0.092391857727521592 0.25884509119311472 0 -0.11076524853809321 0.25238606884059173 0 -0.1155624016166297 0.27126165577105521 0 -0.092391857727521592 0.25884509119311472 0 -0.11076524853809321 0.25238606884059173 0 -0.1199394347971814 0.25731632695883078 0 -0.1155624016166297 0.27126165577105521 0 -0.12872708527658799 0.25991420809329241 0 -0.1199394347971814 0.25731632695883078 0 -0.12470300375741469 0.2457033751303839 0 -0.11076524853809321 0.25238606884059173 0 -0.1199394347971814 0.25731632695883078 0 -0.12470300375741469 0.2457033751303839 0 -0.12872708527658799 0.25991420809329241 0 -0.1199394347971814 0.25731632695883078 0 -0.1155624016166297 0.27126165577105521 0 -0.12872708527658799 0.25991420809329241 0 -0.1155624016166297 0.27126165577105521 0 -0.1083690905562489 0.27746201143443072 0 -0.1155624016166297 0.27126165577105521 0 -0.1196693143642453 0.28329908912575552 0 -0.1083690905562489 0.27746201143443072 0 -0.1155624016166297 0.27126165577105521 0 -0.1098053558875477 0.27272524579145851 0 -0.1083690905562489 0.27746201143443072 0 -0.1155624016166297 0.27126165577105521 0 -0.1083690905562489 0.27746201143443072 0 -0.1202787732923796 0.29457691953651272 0 -0.1003457715998239 0.30392270831765028 0 -0.1083690905562489 0.27746201143443072 0 -0.1196693143642453 0.28329908912575552 0 -0.1202787732923796 0.29457691953651272 0 -0.1202787732923796 0.29457691953651272 0 -0.1173504618646501 0.30916380798395637 0 -0.1003457715998239 0.30392270831765028 0 -0.13170636281121431 0.30540396541675668 0 -0.1202787732923796 0.29457691953651272 0 -0.1173504618646501 0.30916380798395637 0 -0.1173504618646501 0.30916380798395637 0 -0.1003457715998239 0.30392270831765028 0 -0.1081804568928026 0.32074506353771021 0 -0.1083690905562489 0.27746201143443072 0 -0.08834593029567378 0.29472120043351602 0 -0.09206590757372593 0.27740472432850488 0 -0.1083690905562489 0.27746201143443072 0 -0.1003457715998239 0.30392270831765028 0 -0.08834593029567378 0.29472120043351602 0 -0.1083690905562489 0.27746201143443072 0 -0.1003457715998239 0.30392270831765028 0 -0.1083690905562489 0.27746201143443072 0 -0.08834593029567378 0.29472120043351602 0 -0.08834593029567378 0.29472120043351602 0 -0.079344374197139078 0.28508182268507098 0 -0.09206590757372593 0.27740472432850488 0 -0.08834593029567378 0.29472120043351602 0 -0.072463929930227558 0.29930610977545041 0 -0.077617967212061698 0.29366907382828078 0 -0.08834593029567378 0.29472120043351602 0 -0.079344374197139078 0.28508182268507098 0 -0.077617967212061698 0.29366907382828078 0 -0.08834593029567378 0.29472120043351602 0 -0.087527931766016032 0.31235393694025021 0 -0.08121949171140587 0.31012908581564408 0 -0.08834593029567378 0.29472120043351602 0 -0.068322770035098762 0.31198038943260148 0 -0.1003457715998239 0.30392270831765028 0 -0.08834593029567378 0.29472120043351602 0 -0.087527931766016032 0.31235393694025021 0 -0.08834593029567378 0.29472120043351602 0 -0.08121949171140587 0.31012908581564408 0 -0.069852456288818351 0.31207980665071 0 -0.08834593029567378 0.29472120043351602 0 -0.068322770035098762 0.31198038943260148 0 -0.069852456288818351 0.31207980665071 0 -0.08834593029567378 0.29472120043351602 0 -0.072463929930227558 0.29930610977545041 0 -0.068322770035098762 0.31198038943260148 0 -0.072463929930227558 0.29930610977545041 0 -0.064179569528432873 0.29754197169583518 0 -0.063962500348327456 0.30379626580195229 0 -0.072463929930227558 0.29930610977545041 0 -0.063962500348327456 0.30379626580195229 0 -0.068322770035098762 0.31198038943260148 0 -0.068322770035098762 0.31198038943260148 0 -0.069852456288818351 0.31207980665071 0 -0.079344374197139078 0.28508182268507098 0 -0.070510141993048517 0.29225124769799787 0 -0.067485792004003509 0.28106498521306011 0 -0.079344374197139078 0.28508182268507098 0 -0.077617967212061698 0.29366907382828078 0 -0.070510141993048517 0.29225124769799787 0 -0.072463929930227558 0.29930610977545041 0 -0.077617967212061698 0.29366907382828078 0 -0.070510141993048517 0.29225124769799787 0 -0.064179569528432873 0.29754197169583518 0 -0.070510141993048517 0.29225124769799787 0 -0.059799020663136082 0.29068729405280619 0 -0.072463929930227558 0.29930610977545041 0 -0.064179569528432873 0.29754197169583518 0 -0.070510141993048517 0.29225124769799787 0 -0.070510141993048517 0.29225124769799787 0 -0.067485792004003509 0.28106498521306011 0 -0.059799020663136082 0.29068729405280619 0 -0.079344374197139078 0.28508182268507098 0 -0.077112635008727601 0.26938653581869981 0 -0.067485792004003509 0.28106498521306011 0 -0.077112635008727601 0.26938653581869981 0 -0.067485792004003509 0.28106498521306011 0 -0.060296114269721542 0.26705395206363342 0 -0.079344374197139078 0.28508182268507098 0 -0.077112635008727601 0.26938653581869981 0 -0.09206590757372593 0.27740472432850488 0 -0.077112635008727601 0.26938653581869981 0 -0.09206590757372593 0.27740472432850488 0 -0.092391857727521592 0.25884509119311472 0 -0.092391857727521592 0.25884509119311472 0 -0.069221313838413207 0.24642852661517459 0 -0.077112635008727601 0.26938653581869981 0 -0.092391857727521592 0.25884509119311472 0 -0.069221313838413207 0.24642852661517459 0 -0.077112635008727601 0.26938653581869981 0 -0.060296114269721542 0.26705395206363342 0 -0.069221313838413207 0.24642852661517459 0 -0.048126263350958612 0.25465777805589501 0 -0.060296114269721542 0.26705395206363342 0 -0.069221313838413207 0.24642852661517459 0 -0.048126263350958612 0.25465777805589501 0 -0.060296114269721542 0.26705395206363342 0 -0.041784573477856593 0.2719242686623195 0 -0.055384127889045079 0.27986410773994991 0 -0.060296114269721542 0.26705395206363342 0 -0.041784573477856593 0.2719242686623195 0 -0.055384127889045079 0.27986410773994991 0 -0.041784573477856593 0.2719242686623195 0 -0.044370237993260717 0.29032640624232281 0 -0.067485792004003509 0.28106498521306011 0 -0.055384127889045079 0.27986410773994991 0 -0.060296114269721542 0.26705395206363342 0 -0.041784573477856593 0.2719242686623195 0 -0.028053557715267439 0.25838243531431121 0 -0.02550209953536561 0.27186686885002359 0 -0.041784573477856593 0.2719242686623195 0 -0.02550209953536561 0.27186686885002359 0 -0.031040102747703489 0.28267752730564011 0 -0.048126263350958612 0.25465777805589501 0 -0.041784573477856593 0.2719242686623195 0 -0.028053557715267439 0.25838243531431121 0 -0.048126263350958612 0.25465777805589501 0 -0.028053557715267439 0.25838243531431121 0 -0.033382390283993792 0.24359412621706661 0 -0.028053557715267439 0.25838243531431121 0 -0.01504563196256534 0.26333196488375049 0 -0.01778818590069102 0.2421293126167848 0 -0.01504563196256534 0.26333196488375049 0 -0.01778818590069102 0.2421293126167848 0 -0.028053557715267439 0.25838243531431121 0 -0.02550209953536561 0.27186686885002359 0 -0.01504563196256534 0.26333196488375049 0 -0.028053557715267439 0.25838243531431121 0 -0.01504563196256534 0.26333196488375049 0 -0.02550209953536561 0.27186686885002359 0 -0.01214761008608776 0.28573653795517551 0 -0.031040102747703489 0.28267752730564011 0 -0.02550209953536561 0.27186686885002359 0 -0.01504563196256534 0.26333196488375049 0 -0.01214761008608776 0.28573653795517551 0 -0.001267499687089951 0.2776013217203892 0 -0.01504563196256534 0.26333196488375049 0 -0.01214761008608776 0.28573653795517551 0 -0.01504563196256534 0.26333196488375049 0 -0.01214761008608776 0.28573653795517551 0 -0.00067809962666212902 0.26216505597133072 0 -0.01504563196256534 0.26333196488375049 0 0.010965700908337589 0.27322930467739909 0 -0.001267499687089951 0.2776013217203892 0 -0.01504563196256534 0.26333196488375049 0 0.010965700908337589 0.27322930467739909 0 -0.01504563196256534 0.26333196488375049 0 0.010965700908337589 0.27322930467739909 0 -0.0087132352456033638 0.25173417187717928 0 -0.01504563196256534 0.26333196488375049 0 -0.01778818590069102 0.2421293126167848 0 -0.00067809962666212902 0.26216505597133072 0 -0.0087132352456033638 0.25173417187717928 0 0.0027594708259384838 0.25829047161104352 0 -0.00067809962666212902 0.26216505597133072 0 -0.0087132352456033638 0.25173417187717928 0 -0.01504563196256534 0.26333196488375049 0 -0.009249588209606344 0.30814111102660002 0 -0.01214761008608776 0.28573653795517551 0 0.0038021096493471361 0.29689124930627131 0 -0.009249588209606344 0.30814111102660002 0 -0.01214761008608776 0.28573653795517551 0 -0.01214761008608776 0.28573653795517551 0 0.002380999114604244 0.28599596302517022 0 0.0038021096493471361 0.29689124930627131 0 -0.001267499687089951 0.2776013217203892 0 -0.01214761008608776 0.28573653795517551 0 0.002380999114604244 0.28599596302517022 0 -0.009249588209606344 0.30814111102660002 0 -0.01214761008608776 0.28573653795517551 0 -0.02711874363180217 0.2953884665518679 0 -0.01214761008608776 0.28573653795517551 0 -0.031040102747703489 0.28267752730564011 0 -0.02711874363180217 0.2953884665518679 0 -0.009249588209606344 0.30814111102660002 0 -0.02711874363180217 0.2953884665518679 0 -0.038786179122352507 0.31006075022960111 0 -0.009249588209606344 0.30814111102660002 0 -0.038786179122352507 0.31006075022960111 0 -0.02711874363180217 0.2953884665518679 0 -0.038786179122352507 0.31006075022960111 0 -0.044370237993260717 0.29032640624232281 0 -0.038786179122352507 0.31006075022960111 0 -0.044370237993260717 0.29032640624232281 0 -0.054162254707424723 0.30166894115096898 0 -0.031040102747703489 0.28267752730564011 0 -0.02711874363180217 0.2953884665518679 0 -0.044370237993260717 0.29032640624232281 0 -0.041784573477856593 0.2719242686623195 0 -0.031040102747703489 0.28267752730564011 0 -0.044370237993260717 0.29032640624232281 0 -0.055384127889045079 0.27986410773994991 0 -0.044370237993260717 0.29032640624232281 0 -0.059799020663136082 0.29068729405280619 0 -0.044370237993260717 0.29032640624232281 0 -0.059799020663136082 0.29068729405280619 0 -0.054162254707424723 0.30166894115096898 0 -0.064179569528432873 0.29754197169583518 0 -0.059799020663136082 0.29068729405280619 0 -0.054162254707424723 0.30166894115096898 0 -0.067485792004003509 0.28106498521306011 0 -0.055384127889045079 0.27986410773994991 0 -0.059799020663136082 0.29068729405280619 0 -0.068322770035098762 0.31198038943260148 0 -0.038786179122352507 0.31006075022960111 0 -0.068322770035098762 0.31198038943260148 0 -0.038786179122352507 0.31006075022960111 0 -0.054162254707424723 0.30166894115096898 0 -0.064179569528432873 0.29754197169583518 0 -0.063962500348327456 0.30379626580195229 0 -0.054162254707424723 0.30166894115096898 0 -0.063962500348327456 0.30379626580195229 0 -0.068322770035098762 0.31198038943260148 0 -0.054162254707424723 0.30166894115096898 0 -0.068322770035098762 0.31198038943260148 0 -0.038786179122352507 0.31006075022960111 0 -0.053879496619987192 0.32442993198196868 0 -0.068322770035098762 0.31198038943260148 0 -0.053879496619987192 0.32442993198196868 0 -0.059045099567240703 0.33862263320968672 0 -0.059976501396798443 0.34640013057040159 0 -0.068046633572776155 0.34513696516333192 0 -0.053879496619987192 0.32442993198196868 0 -0.059045099567240703 0.33862263320968672 0 -0.06815446288386498 0.3263880450875648 0 -0.053879496619987192 0.32442993198196868 0 -0.059045099567240703 0.33862263320968672 0 -0.049717572699208172 0.33977374392884352 0 -0.053879496619987192 0.32442993198196868 0 -0.049717572699208172 0.33977374392884352 0 -0.039436223204876379 0.33687947453133682 0 -0.059045099567240703 0.33862263320968672 0 -0.049717572699208172 0.33977374392884352 0 -0.052933118771744558 0.34753778728834739 0 -0.049717572699208172 0.33977374392884352 0 -0.039436223204876379 0.33687947453133682 0 -0.045752302425533672 0.34929255203680049 0 -0.053879496619987192 0.32442993198196868 0 -0.039436223204876379 0.33687947453133682 0 -0.039359444206513459 0.32419621080282812 0 -0.053879496619987192 0.32442993198196868 0 -0.039436223204876379 0.33687947453133682 0 -0.039436223204876379 0.33687947453133682 0 -0.039359444206513459 0.32419621080282812 0 -0.02531264429424256 0.33765677836634578 0 -0.039436223204876379 0.33687947453133682 0 -0.02531264429424256 0.33765677836634578 0 -0.034795741464765127 0.3466441775467104 0 -0.038786179122352507 0.31006075022960111 0 -0.053879496619987192 0.32442993198196868 0 -0.039359444206513459 0.32419621080282812 0 -0.038786179122352507 0.31006075022960111 0 -0.039359444206513459 0.32419621080282812 0 -0.024068293084679539 0.32272721199300619 0 -0.009249588209606344 0.30814111102660002 0 -0.038786179122352507 0.31006075022960111 0 -0.024068293084679539 0.32272721199300619 0 -0.024068293084679539 0.32272721199300619 0 -0.02531264429424256 0.33765677836634578 0 -0.005758602284471958 0.33512988219008361 0 -0.039359444206513459 0.32419621080282812 0 -0.024068293084679539 0.32272721199300619 0 -0.02531264429424256 0.33765677836634578 0 -0.005758602284471958 0.33512988219008361 0 -0.0077202170519437719 0.34710906184019069 0 0.0082446038140756572 0.34376242611402219 0 -0.02531264429424256 0.33765677836634578 0 -0.005758602284471958 0.33512988219008361 0 -0.0077202170519437719 0.34710906184019069 0 -0.009249588209606344 0.30814111102660002 0 -0.005758602284471958 0.33512988219008361 0 0.0094307060340404689 0.32376070079746733 0 -0.009249588209606344 0.30814111102660002 0 -0.005758602284471958 0.33512988219008361 0 -0.009249588209606344 0.30814111102660002 0 -0.024068293084679539 0.32272721199300619 0 -0.005758602284471958 0.33512988219008361 0 -0.0045677851665312944 0.36532665559408428 0 -0.0087141207398781558 0.37710904293520409 0 0.0077169544749549623 0.36306791211952738 0 -0.0045677851665312944 0.36532665559408428 0 -0.019623601183504629 0.35541479533684739 0 -0.0087141207398781558 0.37710904293520409 0 -0.0087141207398781558 0.37710904293520409 0 0.0077169544749549623 0.36306791211952738 0 -0.0077202170519437719 0.34710906184019069 0 -0.019623601183504629 0.35541479533684739 0 0.0038095970876644218 0.35606187191015221 0 -0.019623601183504629 0.35541479533684739 0 0.0038095970876644218 0.35606187191015221 0 -0.0045677851665312944 0.36532665559408428 0 -0.019623601183504629 0.35541479533684739 0 0.0038095970876644218 0.35606187191015221 0 -0.02531264429424256 0.33765677836634578 0 -0.019623601183504629 0.35541479533684739 0 -0.034795741464765127 0.3466441775467104 0 -0.02531264429424256 0.33765677836634578 0 -0.0077202170519437719 0.34710906184019069 0 -0.019623601183504629 0.35541479533684739 0 -0.019623601183504629 0.35541479533684739 0 -0.034100997704691827 0.37295894625721099 0 -0.0087141207398781558 0.37710904293520409 0 -0.019623601183504629 0.35541479533684739 0 -0.034100997704691827 0.37295894625721099 0 -0.043056799454673583 0.35476771876354157 0 -0.034100997704691827 0.37295894625721099 0 -0.047131069669461997 0.36807368878450081 0 -0.054593457040109393 0.3822816536988497 0 -0.034100997704691827 0.37295894625721099 0 -0.043056799454673583 0.35476771876354157 0 -0.034100997704691827 0.37295894625721099 0 -0.043056799454673583 0.35476771876354157 0 -0.047131069669461997 0.36807368878450081 0 -0.019623601183504629 0.35541479533684739 0 -0.043056799454673583 0.35476771876354157 0 -0.019623601183504629 0.35541479533684739 0 -0.034795741464765127 0.3466441775467104 0 -0.043056799454673583 0.35476771876354157 0 -0.043056799454673583 0.35476771876354157 0 -0.045752302425533672 0.34929255203680049 0 -0.039436223204876379 0.33687947453133682 0 -0.034795741464765127 0.3466441775467104 0 -0.045752302425533672 0.34929255203680049 0 -0.034795741464765127 0.3466441775467104 0 -0.043056799454673583 0.35476771876354157 0 -0.045752302425533672 0.34929255203680049 0 -0.043056799454673583 0.35476771876354157 0 -0.052933118771744558 0.34753778728834739 0 -0.059881153675432383 0.35430313662024071 0 -0.043056799454673583 0.35476771876354157 0 -0.059881153675432383 0.35430313662024071 0 -0.051828064233363932 0.36038047858465339 0 -0.043056799454673583 0.35476771876354157 0 -0.059881153675432383 0.35430313662024071 0 -0.043056799454673583 0.35476771876354157 0 -0.045752302425533672 0.34929255203680049 0 -0.052933118771744558 0.34753778728834739 0 -0.049717572699208172 0.33977374392884352 0 -0.045752302425533672 0.34929255203680049 0 -0.052933118771744558 0.34753778728834739 0 -0.059881153675432383 0.35430313662024071 0 -0.051828064233363932 0.36038047858465339 0 -0.058626870601395778 0.36023180910453118 0 -0.059045099567240703 0.33862263320968672 0 -0.052933118771744558 0.34753778728834739 0 -0.059976501396798443 0.34640013057040159 0 -0.052933118771744558 0.34753778728834739 0 -0.059881153675432383 0.35430313662024071 0 -0.059976501396798443 0.34640013057040159 0 -0.047131069669461997 0.36807368878450081 0 -0.054116187566776573 0.36544526432200969 0 -0.058148679921659119 0.37186744297544022 0 -0.047131069669461997 0.36807368878450081 0 -0.058148679921659119 0.37186744297544022 0 -0.054593457040109393 0.3822816536988497 0 -0.043056799454673583 0.35476771876354157 0 -0.047131069669461997 0.36807368878450081 0 -0.051828064233363932 0.36038047858465339 0 -0.047131069669461997 0.36807368878450081 0 -0.051828064233363932 0.36038047858465339 0 -0.054116187566776573 0.36544526432200969 0 -0.054116187566776573 0.36544526432200969 0 -0.058626870601395778 0.36023180910453118 0 -0.058148679921659119 0.37186744297544022 0 -0.051828064233363932 0.36038047858465339 0 -0.054116187566776573 0.36544526432200969 0 -0.058626870601395778 0.36023180910453118 0 -0.058626870601395778 0.36023180910453118 0 -0.058148679921659119 0.37186744297544022 0 -0.076275814730551866 0.38330479896731001 0 -0.058626870601395778 0.36023180910453118 0 -0.071157696118109362 0.36170448025062218 0 -0.076275814730551866 0.38330479896731001 0 -0.071157696118109362 0.36170448025062218 0 -0.084299133686975572 0.35684410208409001 0 -0.076275814730551866 0.38330479896731001 0 -0.058626870601395778 0.36023180910453118 0 -0.076275814730551866 0.38330479896731001 0 -0.084299133686975572 0.35684410208409001 0 -0.089436666146690338 0.3774527594588406 0 -0.076275814730551866 0.38330479896731001 0 -0.084299133686975572 0.35684410208409001 0 -0.076275814730551866 0.38330479896731001 0 -0.093494049974744503 0.36523362229143391 0 -0.084299133686975572 0.35684410208409001 0 -0.089436666146690338 0.3774527594588406 0 -0.084299133686975572 0.35684410208409001 0 -0.076705507896191183 0.35383855447693902 0 -0.080753986599573127 0.33990497651870988 0 -0.084299133686975572 0.35684410208409001 0 -0.092322452643399749 0.33038340520087017 0 -0.095141502753968779 0.35097174187852381 0 -0.093494049974744503 0.36523362229143391 0 -0.084299133686975572 0.35684410208409001 0 -0.095141502753968779 0.35097174187852381 0 -0.059881153675432383 0.35430313662024071 0 -0.071157696118109362 0.36170448025062218 0 -0.076705507896191183 0.35383855447693902 0 -0.076705507896191183 0.35383855447693902 0 -0.068046633572776155 0.34513696516333192 0 -0.080753986599573127 0.33990497651870988 0 -0.059881153675432383 0.35430313662024071 0 -0.076705507896191183 0.35383855447693902 0 -0.068046633572776155 0.34513696516333192 0 -0.059881153675432383 0.35430313662024071 0 -0.076705507896191183 0.35383855447693902 0 -0.071157696118109362 0.36170448025062218 0 -0.084299133686975572 0.35684410208409001 0 -0.076705507896191183 0.35383855447693902 0 -0.059881153675432383 0.35430313662024071 0 -0.058626870601395778 0.36023180910453118 0 -0.071157696118109362 0.36170448025062218 0 -0.059881153675432383 0.35430313662024071 0 -0.059976501396798443 0.34640013057040159 0 -0.068046633572776155 0.34513696516333192 0 -0.06815446288386498 0.3263880450875648 0 -0.079151648495115301 0.32136139923810009 0 -0.080753986599573127 0.33990497651870988 0 -0.068046633572776155 0.34513696516333192 0 -0.06815446288386498 0.3263880450875648 0 -0.080753986599573127 0.33990497651870988 0 -0.059045099567240703 0.33862263320968672 0 -0.068046633572776155 0.34513696516333192 0 -0.06815446288386498 0.3263880450875648 0 -0.068322770035098762 0.31198038943260148 0 -0.069852456288818351 0.31207980665071 0 -0.06815446288386498 0.3263880450875648 0 -0.068322770035098762 0.31198038943260148 0 -0.053879496619987192 0.32442993198196868 0 -0.06815446288386498 0.3263880450875648 0 -0.08121949171140587 0.31012908581564408 0 -0.069852456288818351 0.31207980665071 0 -0.079151648495115301 0.32136139923810009 0 -0.069852456288818351 0.31207980665071 0 -0.06815446288386498 0.3263880450875648 0 -0.079151648495115301 0.32136139923810009 0 -0.087527931766016032 0.31235393694025021 0 -0.079151648495115301 0.32136139923810009 0 -0.092322452643399749 0.33038340520087017 0 -0.1003457715998239 0.30392270831765028 0 -0.087527931766016032 0.31235393694025021 0 -0.092322452643399749 0.33038340520087017 0 -0.087527931766016032 0.31235393694025021 0 -0.08121949171140587 0.31012908581564408 0 -0.079151648495115301 0.32136139923810009 0 -0.084299133686975572 0.35684410208409001 0 -0.092322452643399749 0.33038340520087017 0 -0.079151648495115301 0.32136139923810009 0 -0.092322452643399749 0.33038340520087017 0 -0.080753986599573127 0.33990497651870988 0 -0.084299133686975572 0.35684410208409001 0 -0.092322452643399749 0.33038340520087017 0 -0.080753986599573127 0.33990497651870988 0 -0.092322452643399749 0.33038340520087017 0 -0.10472406897533799 0.34168768652513631 0 -0.095141502753968779 0.35097174187852381 0 -0.092322452643399749 0.33038340520087017 0 -0.10472406897533799 0.34168768652513631 0 -0.1081804568928026 0.32074506353771021 0 -0.1003457715998239 0.30392270831765028 0 -0.092322452643399749 0.33038340520087017 0 -0.1003457715998239 0.30392270831765028 0 -0.092322452643399749 0.33038340520087017 0 -0.1081804568928026 0.32074506353771021 0 -0.1262409447270301 0.3211703831111522 0 -0.1173504618646501 0.30916380798395637 0 -0.1081804568928026 0.32074506353771021 0 -0.1262409447270301 0.3211703831111522 0 -0.1081804568928026 0.32074506353771021 0 -0.1175879007316586 0.33497855513245622 0 -0.13367478836053351 0.33932016938713638 0 -0.1175879007316586 0.33497855513245622 0 -0.1173066256070304 0.35104950557859033 0 -0.10472406897533799 0.34168768652513631 0 -0.1081804568928026 0.32074506353771021 0 -0.1175879007316586 0.33497855513245622 0 -0.10472406897533799 0.34168768652513631 0 -0.1175879007316586 0.33497855513245622 0 -0.1173066256070304 0.35104950557859033 0 -0.1173066256070304 0.35104950557859033 0 -0.1198206075896991 0.37069234566290138 0 -0.1030551893938276 0.35978992576853291 0 -0.1367685514822152 0.35851885971508118 0 -0.1173066256070304 0.35104950557859033 0 -0.1198206075896991 0.37069234566290138 0 -0.1198206075896991 0.37069234566290138 0 -0.1030551893938276 0.35978992576853291 0 -0.10026372758235801 0.37465761506622741 0 -0.093494049974744503 0.36523362229143391 0 -0.10026372758235801 0.37465761506622741 0 -0.089436666146690338 0.3774527594588406 0 -0.093494049974744503 0.36523362229143391 0 -0.1030551893938276 0.35978992576853291 0 -0.10026372758235801 0.37465761506622741 0 -0.10472406897533799 0.34168768652513631 0 -0.1030551893938276 0.35978992576853291 0 -0.095141502753968779 0.35097174187852381 0 -0.093494049974744503 0.36523362229143391 0 -0.1030551893938276 0.35978992576853291 0 -0.095141502753968779 0.35097174187852381 0 -0.10472406897533799 0.34168768652513631 0 -0.1173066256070304 0.35104950557859033 0 -0.1030551893938276 0.35978992576853291 0 -0.101128536279416 0.3977608810528192 0 -0.11378235269799521 0.38746486633725291 0 -0.11258596611237601 0.40408595479252452 0 -0.101128536279416 0.3977608810528192 0 -0.095244926421122186 0.38729621463576269 0 -0.11378235269799521 0.38746486633725291 0 -0.101128536279416 0.3977608810528192 0 -0.11258596611237601 0.40408595479252452 0 -0.097808874238227678 0.41145560844912898 0 -0.101128536279416 0.3977608810528192 0 -0.097808874238227678 0.41145560844912898 0 -0.087042344484389883 0.39738020370821953 0 -0.101128536279416 0.3977608810528192 0 -0.095244926421122186 0.38729621463576269 0 -0.087042344484389883 0.39738020370821953 0 -0.10026372758235801 0.37465761506622741 0 -0.095244926421122186 0.38729621463576269 0 -0.11378235269799521 0.38746486633725291 0 -0.10026372758235801 0.37465761506622741 0 -0.095244926421122186 0.38729621463576269 0 -0.089436666146690338 0.3774527594588406 0 -0.1198206075896991 0.37069234566290138 0 -0.10026372758235801 0.37465761506622741 0 -0.11378235269799521 0.38746486633725291 0 -0.12826940643264259 0.38638828685515292 0 -0.1198206075896991 0.37069234566290138 0 -0.11378235269799521 0.38746486633725291 0 -0.12644786621320531 0.40058001872868543 0 -0.12826940643264259 0.38638828685515292 0 -0.11378235269799521 0.38746486633725291 0 -0.12761284081938409 0.41418542740570108 0 -0.11378235269799521 0.38746486633725291 0 -0.12761284081938409 0.41418542740570108 0 -0.12644786621320531 0.40058001872868543 0 -0.11378235269799521 0.38746486633725291 0 -0.12761284081938409 0.41418542740570108 0 -0.11378235269799521 0.38746486633725291 0 -0.11258596611237601 0.40408595479252452 0 -0.12761284081938409 0.41418542740570108 0 -0.11258596611237601 0.40408595479252452 0 -0.097808874238227678 0.41145560844912898 0 -0.12761284081938409 0.41418542740570108 0 -0.1126245701039178 0.4308246085444013 0 -0.097808874238227678 0.41145560844912898 0 -0.12761284081938409 0.41418542740570108 0 -0.097808874238227678 0.41145560844912898 0 -0.12761284081938409 0.41418542740570108 0 -0.1126245701039178 0.4308246085444013 0 -0.1242648033483075 0.43981492828754482 0 -0.1126245701039178 0.4308246085444013 0 -0.096605527178418776 0.42311346390882398 0 -0.097170403390676049 0.43571281837191522 0 -0.1126245701039178 0.4308246085444013 0 -0.097170403390676049 0.43571281837191522 0 -0.10338783084247161 0.44098956532991213 0 -0.1126245701039178 0.4308246085444013 0 -0.097808874238227678 0.41145560844912898 0 -0.1126245701039178 0.4308246085444013 0 -0.096605527178418776 0.42311346390882398 0 -0.097808874238227678 0.41145560844912898 0 -0.096605527178418776 0.42311346390882398 0 -0.097808874238227678 0.41145560844912898 0 -0.090623427087895073 0.41079747558654428 0 -0.097808874238227678 0.41145560844912898 0 -0.090623427087895073 0.41079747558654428 0 -0.096605527178418776 0.42311346390882398 0 -0.090623427087895073 0.41079747558654428 0 -0.084800361071377284 0.4267768085921303 0 -0.090623427087895073 0.41079747558654428 0 -0.084347825254610875 0.40943513047528779 0 -0.084800361071377284 0.4267768085921303 0 -0.084800361071377284 0.4267768085921303 0 -0.074925168374781331 0.40278603401425761 0 -0.084347825254610875 0.40943513047528779 0 -0.084800361071377284 0.4267768085921303 0 -0.074925168374781331 0.40278603401425761 0 -0.097808874238227678 0.41145560844912898 0 -0.090623427087895073 0.41079747558654428 0 -0.087042344484389883 0.39738020370821953 0 -0.096605527178418776 0.42311346390882398 0 -0.097170403390676049 0.43571281837191522 0 -0.084800361071377284 0.4267768085921303 0 -0.084800361071377284 0.4267768085921303 0 -0.077689053426030094 0.43734830183904833 0 -0.073740177733494089 0.43015549729097768 0 -0.084800361071377284 0.4267768085921303 0 -0.077689053426030094 0.43734830183904833 0 -0.085627028266785254 0.44117175463919189 0 -0.077689053426030094 0.43734830183904833 0 -0.073740177733494089 0.43015549729097768 0 -0.069373851585076945 0.43677151010665521 0 -0.084800361071377284 0.4267768085921303 0 -0.073740177733494089 0.43015549729097768 0 -0.074963529381557356 0.42372471124402672 0 -0.084800361071377284 0.4267768085921303 0 -0.074963529381557356 0.42372471124402672 0 -0.074207610301873977 0.415826985147286 0 -0.073740177733494089 0.43015549729097768 0 -0.07134827269677288 0.42521816639912852 0 -0.067010261651664849 0.42692585223643509 0 -0.073740177733494089 0.43015549729097768 0 -0.074963529381557356 0.42372471124402672 0 -0.07134827269677288 0.42521816639912852 0 -0.074963529381557356 0.42372471124402672 0 -0.07134827269677288 0.42521816639912852 0 -0.069903249343569923 0.42035209495099629 0 -0.06803153127557314 0.42418340705062968 0 -0.063864341410284964 0.42423751461595932 0 -0.069903249343569923 0.42035209495099629 0 -0.07134827269677288 0.42521816639912852 0 -0.06803153127557314 0.42418340705062968 0 -0.067010261651664849 0.42692585223643509 0 -0.07134827269677288 0.42521816639912852 0 -0.06803153127557314 0.42418340705062968 0 -0.069903249343569923 0.42035209495099629 0 -0.06803153127557314 0.42418340705062968 0 -0.063864341410284964 0.42423751461595932 0 -0.067010261651664849 0.42692585223643509 0 -0.063864341410284964 0.42423751461595932 0 -0.067010261651664849 0.42692585223643509 0 -0.067010261651664849 0.42692585223643509 0 -0.06657591115514655 0.43192586875325267 0 -0.062357688865182517 0.42920641545622512 0 -0.063864341410284964 0.42423751461595932 0 -0.067010261651664849 0.42692585223643509 0 -0.062357688865182517 0.42920641545622512 0 -0.063864341410284964 0.42423751461595932 0 -0.062357688865182517 0.42920641545622512 0 -0.073740177733494089 0.43015549729097768 0 -0.067010261651664849 0.42692585223643509 0 -0.06657591115514655 0.43192586875325267 0 -0.073740177733494089 0.43015549729097768 0 -0.06657591115514655 0.43192586875325267 0 -0.069373851585076945 0.43677151010665521 0 -0.06657591115514655 0.43192586875325267 0 -0.062750456602468974 0.43554137489064498 0 -0.062357688865182517 0.42920641545622512 0 -0.06657591115514655 0.43192586875325267 0 -0.062750456602468974 0.43554137489064498 0 -0.069373851585076945 0.43677151010665521 0 -0.063864341410284964 0.42423751461595932 0 -0.069903249343569923 0.42035209495099629 0 -0.070070078070418332 0.40377115679163461 0 -0.074207610301873977 0.415826985147286 0 -0.069903249343569923 0.42035209495099629 0 -0.070070078070418332 0.40377115679163461 0 -0.063864341410284964 0.42423751461595932 0 -0.070070078070418332 0.40377115679163461 0 -0.058881304157308093 0.40804381518971672 0 -0.063864341410284964 0.42423751461595932 0 -0.070070078070418332 0.40377115679163461 0 -0.084800361071377284 0.4267768085921303 0 -0.074207610301873977 0.415826985147286 0 -0.074925168374781331 0.40278603401425761 0 -0.074207610301873977 0.415826985147286 0 -0.070070078070418332 0.40377115679163461 0 -0.074925168374781331 0.40278603401425761 0 -0.074963529381557356 0.42372471124402672 0 -0.074207610301873977 0.415826985147286 0 -0.069903249343569923 0.42035209495099629 0 -0.070070078070418332 0.40377115679163461 0 -0.064506344576777661 0.39145758865641178 0 -0.076275814730551866 0.38330479896731001 0 -0.070070078070418332 0.40377115679163461 0 -0.074925168374781331 0.40278603401425761 0 -0.076275814730551866 0.38330479896731001 0 -0.070070078070418332 0.40377115679163461 0 -0.076275814730551866 0.38330479896731001 0 -0.070070078070418332 0.40377115679163461 0 -0.064506344576777661 0.39145758865641178 0 -0.057086028466031037 0.39647274516785291 0 -0.074925168374781331 0.40278603401425761 0 -0.087042344484389883 0.39738020370821953 0 -0.076275814730551866 0.38330479896731001 0 -0.084347825254610875 0.40943513047528779 0 -0.074925168374781331 0.40278603401425761 0 -0.087042344484389883 0.39738020370821953 0 -0.097808874238227678 0.41145560844912898 0 -0.087042344484389883 0.39738020370821953 0 -0.090623427087895073 0.41079747558654428 0 -0.084347825254610875 0.40943513047528779 0 -0.087042344484389883 0.39738020370821953 0 -0.087042344484389883 0.39738020370821953 0 -0.089436666146690338 0.3774527594588406 0 -0.076275814730551866 0.38330479896731001 0 -0.095244926421122186 0.38729621463576269 0 -0.087042344484389883 0.39738020370821953 0 -0.089436666146690338 0.3774527594588406 0 -0.087042344484389883 0.39738020370821953 0 -0.076275814730551866 0.38330479896731001 0 -0.064506344576777661 0.39145758865641178 0 -0.076275814730551866 0.38330479896731001 0 -0.054593457040109393 0.3822816536988497 0 -0.058148679921659119 0.37186744297544022 0 -0.076275814730551866 0.38330479896731001 0 -0.054593457040109393 0.3822816536988497 0 -0.064506344576777661 0.39145758865641178 0 -0.054593457040109393 0.3822816536988497 0 -0.057086028466031037 0.39647274516785291 0 -0.054593457040109393 0.3822816536988497 0 -0.057086028466031037 0.39647274516785291 0 -0.042391572779214973 0.39096282696345341 0 -0.057086028466031037 0.39647274516785291 0 -0.042391572779214973 0.39096282696345341 0 -0.044504768682498037 0.40769384418342008 0 -0.070070078070418332 0.40377115679163461 0 -0.057086028466031037 0.39647274516785291 0 -0.058881304157308093 0.40804381518971672 0 -0.057086028466031037 0.39647274516785291 0 -0.044504768682498037 0.40769384418342008 0 -0.058881304157308093 0.40804381518971672 0 -0.02514519595471108 0.39115017375088101 0 -0.044504768682498037 0.40769384418342008 0 -0.042391572779214973 0.39096282696345341 0 -0.02514519595471108 0.39115017375088101 0 -0.044504768682498037 0.40769384418342008 0 -0.034100997704691827 0.37295894625721099 0 -0.054593457040109393 0.3822816536988497 0 -0.042391572779214973 0.39096282696345341 0 -0.034100997704691827 0.37295894625721099 0 -0.042391572779214973 0.39096282696345341 0 -0.02514519595471108 0.39115017375088101 0 -0.034100997704691827 0.37295894625721099 0 -0.02514519595471108 0.39115017375088101 0 -0.034100997704691827 0.37295894625721099 0 -0.02514519595471108 0.39115017375088101 0 -0.0087141207398781558 0.37710904293520409 0 -0.02514519595471108 0.39115017375088101 0 -0.0087141207398781558 0.37710904293520409 0 -0.02514519595471108 0.39115017375088101 0 -0.014810785045769751 0.41214166341376801 0 -0.02514519595471108 0.39115017375088101 0 -0.014810785045769751 0.41214166341376801 0 -0.044504768682498037 0.40769384418342008 0 -0.0068648610501423502 0.39382000907293813 0 -0.014810785045769751 0.41214166341376801 0 0.0046995574085186929 0.41194005205042061 0 -0.02514519595471108 0.39115017375088101 0 -0.0068648610501423502 0.39382000907293813 0 -0.014810785045769751 0.41214166341376801 0 -0.02514519595471108 0.39115017375088101 0 -0.0068648610501423502 0.39382000907293813 0 -0.0087141207398781558 0.37710904293520409 0 -0.0068648610501423502 0.39382000907293813 0 -0.0087141207398781558 0.37710904293520409 0 0.0053185270157129726 0.37689571945341471 0 -0.0044763741368290672 0.43313315307665529 0 -0.014810785045769751 0.41214166341376801 0 -0.0044763741368290672 0.43313315307665529 0 -0.014810785045769751 0.41214166341376801 0 -0.026116443713473419 0.4246575807879529 0 -0.0044763741368290672 0.43313315307665529 0 -0.014810785045769751 0.41214166341376801 0 0.0046995574085186929 0.41194005205042061 0 -0.014810785045769751 0.41214166341376801 0 -0.026116443713473419 0.4246575807879529 0 -0.044504768682498037 0.40769384418342008 0 -0.0044763741368290672 0.43313315307665529 0 -0.026116443713473419 0.4246575807879529 0 -0.02623027688729573 0.44118750916919391 0 -0.026116443713473419 0.4246575807879529 0 -0.040560013814974517 0.42913173409672722 0 -0.02623027688729573 0.44118750916919391 0 -0.040560013814974517 0.42913173409672722 0 -0.048293098329248912 0.43867666423002288 0 -0.039090066940739521 0.44352471403713711 0 -0.026116443713473419 0.4246575807879529 0 -0.040560013814974517 0.42913173409672722 0 -0.044504768682498037 0.40769384418342008 0 -0.040560013814974517 0.42913173409672722 0 -0.044504768682498037 0.40769384418342008 0 -0.051886787429848112 0.42350176277299723 0 -0.063864341410284964 0.42423751461595932 0 -0.044504768682498037 0.40769384418342008 0 -0.058881304157308093 0.40804381518971672 0 -0.063864341410284964 0.42423751461595932 0 -0.044504768682498037 0.40769384418342008 0 -0.051886787429848112 0.42350176277299723 0 -0.063864341410284964 0.42423751461595932 0 -0.044504768682498037 0.40769384418342008 0 -0.053936434918908913 0.43159717611494758 0 -0.057641003333182179 0.44086754716312743 0 -0.048293098329248912 0.43867666423002288 0 -0.040560013814974517 0.42913173409672722 0 -0.053936434918908913 0.43159717611494758 0 -0.048293098329248912 0.43867666423002288 0 -0.040560013814974517 0.42913173409672722 0 -0.053936434918908913 0.43159717611494758 0 -0.051886787429848112 0.42350176277299723 0 -0.053936434918908913 0.43159717611494758 0 -0.051886787429848112 0.42350176277299723 0 -0.062357688865182517 0.42920641545622512 0 -0.063864341410284964 0.42423751461595932 0 -0.051886787429848112 0.42350176277299723 0 -0.062357688865182517 0.42920641545622512 0 -0.062750456602468974 0.43554137489064498 0 -0.053936434918908913 0.43159717611494758 0 -0.062357688865182517 0.42920641545622512 0 -0.062750456602468974 0.43554137489064498 0 -0.053936434918908913 0.43159717611494758 0 -0.057641003333182179 0.44086754716312743 0 -0.062750456602468974 0.43554137489064498 0 -0.057641003333182179 0.44086754716312743 0 -0.065491549478626135 0.44200233464982802 0 -0.057641003333182179 0.44086754716312743 0 -0.062398417199954148 0.4499603094023914 0 -0.065491549478626135 0.44200233464982802 0 -0.057641003333182179 0.44086754716312743 0 -0.062398417199954148 0.4499603094023914 0 -0.050237972638439453 0.44826214973817502 0 -0.057641003333182179 0.44086754716312743 0 -0.050237972638439453 0.44826214973817502 0 -0.048293098329248912 0.43867666423002288 0 -0.062398417199954148 0.4499603094023914 0 -0.050230730183752688 0.46259696058471089 0 -0.064501224992871267 0.46542691543905351 0 -0.062398417199954148 0.4499603094023914 0 -0.050237972638439453 0.44826214973817502 0 -0.050230730183752688 0.46259696058471089 0 -0.050230730183752688 0.46259696058471089 0 -0.035748626011326709 0.45858167758110602 0 -0.046040344352481867 0.47841272498986082 0 -0.050237972638439453 0.44826214973817502 0 -0.050230730183752688 0.46259696058471089 0 -0.035748626011326709 0.45858167758110602 0 -0.035748626011326709 0.45858167758110602 0 -0.039090066940739521 0.44352471403713711 0 -0.02623027688729573 0.44118750916919391 0 -0.050237972638439453 0.44826214973817502 0 -0.048293098329248912 0.43867666423002288 0 -0.039090066940739521 0.44352471403713711 0 -0.050237972638439453 0.44826214973817502 0 -0.035748626011326709 0.45858167758110602 0 -0.039090066940739521 0.44352471403713711 0 -0.040560013814974517 0.42913173409672722 0 -0.039090066940739521 0.44352471403713711 0 -0.02623027688729573 0.44118750916919391 0 -0.035748626011326709 0.45858167758110602 0 -0.02623027688729573 0.44118750916919391 0 -0.01728298942402769 0.45556140426229003 0 -0.0044763741368290672 0.43313315307665529 0 -0.02623027688729573 0.44118750916919391 0 -0.01728298942402769 0.45556140426229003 0 -0.035748626011326709 0.45858167758110602 0 -0.01728298942402769 0.45556140426229003 0 -0.022784747477638551 0.4775754860453762 0 -0.01728298942402769 0.45556140426229003 0 -0.0062093312902834459 0.46527566221073008 0 0.006403582431216831 0.45126676372832991 0 -0.01728298942402769 0.45556140426229003 0 -0.0062093312902834459 0.46527566221073008 0 -0.022784747477638551 0.4775754860453762 0 -0.0044763741368290672 0.43313315307665529 0 -0.01728298942402769 0.45556140426229003 0 0.006403582431216831 0.45126676372832991 0 -0.0062093312902834459 0.46527566221073008 0 -0.022784747477638551 0.4775754860453762 0 0.0095498935665802413 0.47810272379952351 0 -0.022784747477638551 0.4775754860453762 0 -0.021427984417146221 0.5 0 0.0095498935665802413 0.47810272379952351 0 -0.021427984417146221 0.5 0 0.0095498935665802413 0.47810272379952351 0 0.0086042794582089632 0.5 0 -0.022784747477638551 0.4775754860453762 0 -0.021427984417146221 0.5 0 -0.046040344352481867 0.47841272498986082 0 -0.021427984417146221 0.5 0 -0.046040344352481867 0.47841272498986082 0 -0.051460248292501398 0.5 0 -0.035748626011326709 0.45858167758110602 0 -0.022784747477638551 0.4775754860453762 0 -0.046040344352481867 0.47841272498986082 0 -0.046040344352481867 0.47841272498986082 0 -0.067939054777113927 0.48291587414950521 0 -0.064501224992871267 0.46542691543905351 0 -0.050230730183752688 0.46259696058471089 0 -0.046040344352481867 0.47841272498986082 0 -0.064501224992871267 0.46542691543905351 0 -0.046040344352481867 0.47841272498986082 0 -0.051460248292501398 0.5 0 -0.067939054777113927 0.48291587414950521 0 -0.051460248292501398 0.5 0 -0.081492512167856565 0.50000000000000011 0 -0.067939054777113927 0.48291587414950521 0 -0.081492512167856565 0.50000000000000011 0 -0.085878896958769185 0.47675925450649242 0 -0.067939054777113927 0.48291587414950521 0 -0.081492512167856565 0.50000000000000011 0 -0.085878896958769185 0.47675925450649242 0 -0.099362977551805121 0.48745008538217821 0 -0.081492512167856565 0.50000000000000011 0 -0.085878896958769185 0.47675925450649242 0 -0.085878896958769185 0.47675925450649242 0 -0.075452149305044958 0.46933040044586682 0 -0.067939054777113927 0.48291587414950521 0 -0.075452149305044958 0.46933040044586682 0 -0.067939054777113927 0.48291587414950521 0 -0.064501224992871267 0.46542691543905351 0 -0.064501224992871267 0.46542691543905351 0 -0.075214053997903707 0.45912990264989012 0 -0.070315415620740368 0.45334812155980347 0 -0.062398417199954148 0.4499603094023914 0 -0.064501224992871267 0.46542691543905351 0 -0.070315415620740368 0.45334812155980347 0 -0.075214053997903707 0.45912990264989012 0 -0.070315415620740368 0.45334812155980347 0 -0.081419329692844739 0.44979703694502599 0 -0.075452149305044958 0.46933040044586682 0 -0.064501224992871267 0.46542691543905351 0 -0.075214053997903707 0.45912990264989012 0 -0.075452149305044958 0.46933040044586682 0 -0.075214053997903707 0.45912990264989012 0 -0.082509194984251868 0.46007906520350089 0 -0.069373851585076945 0.43677151010665521 0 -0.065491549478626135 0.44200233464982802 0 -0.073041418115067244 0.44511613748665291 0 -0.062750456602468974 0.43554137489064498 0 -0.069373851585076945 0.43677151010665521 0 -0.065491549478626135 0.44200233464982802 0 -0.062398417199954148 0.4499603094023914 0 -0.065491549478626135 0.44200233464982802 0 -0.073041418115067244 0.44511613748665291 0 -0.062398417199954148 0.4499603094023914 0 -0.070315415620740368 0.45334812155980347 0 -0.073041418115067244 0.44511613748665291 0 -0.070315415620740368 0.45334812155980347 0 -0.073041418115067244 0.44511613748665291 0 -0.081419329692844739 0.44979703694502599 0 -0.073041418115067244 0.44511613748665291 0 -0.07941018481149445 0.44345804230003222 0 -0.081419329692844739 0.44979703694502599 0 -0.077689053426030094 0.43734830183904833 0 -0.069373851585076945 0.43677151010665521 0 -0.073041418115067244 0.44511613748665291 0 -0.077689053426030094 0.43734830183904833 0 -0.073041418115067244 0.44511613748665291 0 -0.07941018481149445 0.44345804230003222 0 -0.097170403390676049 0.43571281837191522 0 -0.084800361071377284 0.4267768085921303 0 -0.094675553767973264 0.45076758317000298 0 -0.084800361071377284 0.4267768085921303 0 -0.094675553767973264 0.45076758317000298 0 -0.084800361071377284 0.4267768085921303 0 -0.085627028266785254 0.44117175463919189 0 -0.094675553767973264 0.45076758317000298 0 -0.085627028266785254 0.44117175463919189 0 -0.07941018481149445 0.44345804230003222 0 -0.081419329692844739 0.44979703694502599 0 -0.077689053426030094 0.43734830183904833 0 -0.085627028266785254 0.44117175463919189 0 -0.07941018481149445 0.44345804230003222 0 -0.085627028266785254 0.44117175463919189 0 -0.081419329692844739 0.44979703694502599 0 -0.088082484801868088 0.44854024150695748 0 -0.081419329692844739 0.44979703694502599 0 -0.086047819819581178 0.45134535453790131 0 -0.088082484801868088 0.44854024150695748 0 -0.085627028266785254 0.44117175463919189 0 -0.088082484801868088 0.44854024150695748 0 -0.094675553767973264 0.45076758317000298 0 -0.086047819819581178 0.45134535453790131 0 -0.088082484801868088 0.44854024150695748 0 -0.090265281749681819 0.45351850901298468 0 -0.088082484801868088 0.44854024150695748 0 -0.090265281749681819 0.45351850901298468 0 -0.094675553767973264 0.45076758317000298 0 -0.085878896958769185 0.47675925450649242 0 -0.075452149305044958 0.46933040044586682 0 -0.082509194984251868 0.46007906520350089 0 -0.085878896958769185 0.47675925450649242 0 -0.090265281749681819 0.45351850901298468 0 -0.085878896958769185 0.47675925450649242 0 -0.090265281749681819 0.45351850901298468 0 -0.093944937474792503 0.46462082789344678 0 -0.085878896958769185 0.47675925450649242 0 -0.082509194984251868 0.46007906520350089 0 -0.090265281749681819 0.45351850901298468 0 -0.081419329692844739 0.44979703694502599 0 -0.086047819819581178 0.45134535453790131 0 -0.082509194984251868 0.46007906520350089 0 -0.075214053997903707 0.45912990264989012 0 -0.081419329692844739 0.44979703694502599 0 -0.082509194984251868 0.46007906520350089 0 -0.090265281749681819 0.45351850901298468 0 -0.093944937474792503 0.46462082789344678 0 -0.094675553767973264 0.45076758317000298 0 -0.086047819819581178 0.45134535453790131 0 -0.082509194984251868 0.46007906520350089 0 -0.090265281749681819 0.45351850901298468 0 -0.093944937474792503 0.46462082789344678 0 -0.094675553767973264 0.45076758317000298 0 -0.1045507464645692 0.47475835774787573 0 -0.094675553767973264 0.45076758317000298 0 -0.1045507464645692 0.47475835774787573 0 -0.1087715055698807 0.4588247561088431 0 -0.094675553767973264 0.45076758317000298 0 -0.1045507464645692 0.47475835774787573 0 -0.1126245701039178 0.4308246085444013 0 -0.1090807961073193 0.44665325123332839 0 -0.10338783084247161 0.44098956532991213 0 -0.097170403390676049 0.43571281837191522 0 -0.094675553767973264 0.45076758317000298 0 -0.10338783084247161 0.44098956532991213 0 -0.1087715055698807 0.4588247561088431 0 -0.094675553767973264 0.45076758317000298 0 -0.1090807961073193 0.44665325123332839 0 -0.094675553767973264 0.45076758317000298 0 -0.1090807961073193 0.44665325123332839 0 -0.10338783084247161 0.44098956532991213 0 -0.1126245701039178 0.4308246085444013 0 -0.1090807961073193 0.44665325123332839 0 -0.1242648033483075 0.43981492828754482 0 -0.1090807961073193 0.44665325123332839 0 -0.1242648033483075 0.43981492828754482 0 -0.1204057133641486 0.45504160574272429 0 -0.1087715055698807 0.4588247561088431 0 -0.1176294132596279 0.46872710166108278 0 -0.1045507464645692 0.47475835774787573 0 -0.1087715055698807 0.4588247561088431 0 -0.1204057133641486 0.45504160574272429 0 -0.1176294132596279 0.46872710166108278 0 -0.1087715055698807 0.4588247561088431 0 -0.1090807961073193 0.44665325123332839 0 -0.1204057133641486 0.45504160574272429 0 -0.13097929143795109 0.46459511115351071 0 -0.1204057133641486 0.45504160574272429 0 -0.1176294132596279 0.46872710166108278 0 -0.12908554574303099 0.47755934496718438 0 -0.1176294132596279 0.46872710166108278 0 -0.1160402402672886 0.48503019582547341 0 -0.1176294132596279 0.46872710166108278 0 -0.1160402402672886 0.48503019582547341 0 -0.1045507464645692 0.47475835774787573 0 -0.13803845513632401 0.5 0 -0.1097654836520903 0.5 0 -0.1160402402672886 0.48503019582547341 0 -0.1097654836520903 0.5 0 -0.1160402402672886 0.48503019582547341 0 -0.099362977551805121 0.48745008538217821 0 -0.081492512167856565 0.50000000000000011 0 -0.1097654836520903 0.5 0 -0.099362977551805121 0.48745008538217821 0 -0.085878896958769185 0.47675925450649242 0 -0.093944937474792503 0.46462082789344678 0 -0.1045507464645692 0.47475835774787573 0 -0.085878896958769185 0.47675925450649242 0 -0.099362977551805121 0.48745008538217821 0 -0.1045507464645692 0.47475835774787573 0 -0.1160402402672886 0.48503019582547341 0 -0.099362977551805121 0.48745008538217821 0 -0.1045507464645692 0.47475835774787573 0 -0.15850742705232401 0.077073165420907211 0 -0.17832815471062741 0.080370175701138483 0 -0.15596223049933161 0.089669487892629185 0 -0.17128916945913089 0.092189477241546317 0 -0.17832815471062741 0.080370175701138483 0 -0.15596223049933161 0.089669487892629185 0 -0.17832815471062741 0.080370175701138483 0 -0.15596223049933161 0.089669487892629185 0 -0.15850742705232401 0.077073165420907211 0 -0.16907692184479731 0.071953328836937142 0 -0.17832815471062741 0.080370175701138483 0 -0.15850742705232401 0.077073165420907211 0 -0.15722519427174569 0.065058312825911402 0 -0.16907692184479731 0.071953328836937142 0 -0.16907692184479731 0.071953328836937142 0 -0.1809864334298861 0.069780609401686525 0 -0.17832815471062741 0.080370175701138483 0 -0.16907692184479731 0.071953328836937142 0 -0.1809864334298861 0.069780609401686525 0 -0.18167022033174851 0.056262687610226528 0 -0.1809864334298861 0.069780609401686525 0 -0.17832815471062741 0.080370175701138483 0 -0.20069407892192309 0.071070863509647808 0 -0.1809864334298861 0.069780609401686525 0 -0.18167022033174851 0.056262687610226528 0 -0.1876556690991136 0.063313821709693935 0 -0.17128916945913089 0.092189477241546317 0 -0.18444466814129201 0.081023499242751457 0 -0.17631468167186989 0.1066384650542631 0 -0.17128916945913089 0.092189477241546317 0 -0.18444466814129201 0.081023499242751457 0 -0.17832815471062741 0.080370175701138483 0 -0.18444466814129201 0.081023499242751457 0 -0.17631468167186989 0.1066384650542631 0 -0.19937405773042491 0.1071019237599893 0 -0.17631468167186989 0.1066384650542631 0 -0.16393492635195239 0.1245978723337525 0 -0.1795193575176991 0.1294692331289829 0 -0.17631468167186989 0.1066384650542631 0 -0.19937405773042491 0.1071019237599893 0 -0.1795193575176991 0.1294692331289829 0 -0.16393492635195239 0.1245978723337525 0 -0.16139611227253359 0.1032457583169494 0 -0.15311233888185891 0.1152965378839053 0 -0.17631468167186989 0.1066384650542631 0 -0.16393492635195239 0.1245978723337525 0 -0.16139611227253359 0.1032457583169494 0 -0.17128916945913089 0.092189477241546317 0 -0.17631468167186989 0.1066384650542631 0 -0.16139611227253359 0.1032457583169494 0 -0.17128916945913089 0.092189477241546317 0 -0.16139611227253359 0.1032457583169494 0 -0.15596223049933161 0.089669487892629185 0 -0.16139611227253359 0.1032457583169494 0 -0.13359630628803579 0.098968800084119873 0 -0.15596223049933161 0.089669487892629185 0 -0.16139611227253359 0.1032457583169494 0 -0.15311233888185891 0.1152965378839053 0 -0.13359630628803579 0.098968800084119873 0 -0.13359630628803579 0.098968800084119873 0 -0.15596223049933161 0.089669487892629185 0 -0.15311233888185891 0.1152965378839053 0 -0.13930859898956699 0.1145050369687237 0 -0.153752621985453 0.14073392350839439 0 -0.15311233888185891 0.1152965378839053 0 -0.13930859898956699 0.1145050369687237 0 -0.13359630628803579 0.098968800084119873 0 -0.13930859898956699 0.1145050369687237 0 -0.12607259725238279 0.11330641960449821 0 -0.12916618827146031 0.12390190950899049 0 -0.13930859898956699 0.1145050369687237 0 -0.12607259725238279 0.11330641960449821 0 -0.13359630628803579 0.098968800084119873 0 -0.13359630628803579 0.098968800084119873 0 -0.12697672020224329 0.087309090757334687 0 -0.14089006822782121 0.082531143958766096 0 -0.12697672020224329 0.087309090757334687 0 -0.14089006822782121 0.082531143958766096 0 -0.12697985749263241 0.07630636069427757 0 -0.15850742705232401 0.077073165420907211 0 -0.14089006822782121 0.082531143958766096 0 -0.15596223049933161 0.089669487892629185 0 -0.13359630628803579 0.098968800084119873 0 -0.14089006822782121 0.082531143958766096 0 -0.15596223049933161 0.089669487892629185 0 -0.15850742705232401 0.077073165420907211 0 -0.14089006822782121 0.082531143958766096 0 -0.14764327064684279 0.071644858797684771 0 -0.15722519427174569 0.065058312825911402 0 -0.14764327064684279 0.071644858797684771 0 -0.1471722955607111 0.059591957907519158 0 -0.15850742705232401 0.077073165420907211 0 -0.15722519427174569 0.065058312825911402 0 -0.14764327064684279 0.071644858797684771 0 -0.14089006822782121 0.082531143958766096 0 -0.14764327064684279 0.071644858797684771 0 -0.13666502121529681 0.069478967649866344 0 -0.14764327064684279 0.071644858797684771 0 -0.13666502121529681 0.069478967649866344 0 -0.1471722955607111 0.059591957907519158 0 -0.14089006822782121 0.082531143958766096 0 -0.13666502121529681 0.069478967649866344 0 -0.12697985749263241 0.07630636069427757 0 -0.13666502121529681 0.069478967649866344 0 -0.12697985749263241 0.07630636069427757 0 -0.12509646681095879 0.065597408261105467 0 -0.13666502121529681 0.069478967649866344 0 -0.12509646681095879 0.065597408261105467 0 -0.13233523162579211 0.057527865090889828 0 -0.13233523162579211 0.057527865090889828 0 -0.1197320338084647 0.057760070231756527 0 -0.1244920148619628 0.050381604022983993 0 -0.12509646681095879 0.065597408261105467 0 -0.13233523162579211 0.057527865090889828 0 -0.1197320338084647 0.057760070231756527 0 -0.13666502121529681 0.069478967649866344 0 -0.13233523162579211 0.057527865090889828 0 -0.1471722955607111 0.059591957907519158 0 -0.13233523162579211 0.057527865090889828 0 -0.131277092146349 0.043237905602295942 0 -0.1435202772377579 0.047601805401877667 0 -0.13233523162579211 0.057527865090889828 0 -0.131277092146349 0.043237905602295942 0 -0.1244920148619628 0.050381604022983993 0 -0.131277092146349 0.043237905602295942 0 -0.14194951185496399 0.035172378083737049 0 -0.12424451236807239 0.027069144312366941 0 -0.131277092146349 0.043237905602295942 0 -0.12424451236807239 0.027069144312366941 0 -0.12075472355362291 0.04122338309529356 0 -0.131277092146349 0.043237905602295942 0 -0.12075472355362291 0.04122338309529356 0 -0.1244920148619628 0.050381604022983993 0 -0.131277092146349 0.043237905602295942 0 -0.14194951185496399 0.035172378083737049 0 -0.1435202772377579 0.047601805401877667 0 -0.14194951185496399 0.035172378083737049 0 -0.15126073753592009 0.02487777788828089 0 -0.1637260562540532 0.045028253166508762 0 -0.14194951185496399 0.035172378083737049 0 -0.1435202772377579 0.047601805401877667 0 -0.1637260562540532 0.045028253166508762 0 -0.15722519427174569 0.065058312825911402 0 -0.1471722955607111 0.059591957907519158 0 -0.1637260562540532 0.045028253166508762 0 -0.1471722955607111 0.059591957907519158 0 -0.1435202772377579 0.047601805401877667 0 -0.1637260562540532 0.045028253166508762 0 -0.13233523162579211 0.057527865090889828 0 -0.1471722955607111 0.059591957907519158 0 -0.1435202772377579 0.047601805401877667 0 -0.1244522405185825 -0.00038769298458709092 0 -0.1310798501921922 0.016754836893075501 0 -0.12424451236807239 0.027069144312366941 0 -0.1244522405185825 -0.00038769298458709092 0 -0.13302987177733741 0.0072862060594841918 0 -0.1310798501921922 0.016754836893075501 0 -0.13796817939809339 -7.5853332940862265e-05 0 -0.13302987177733741 0.0072862060594841918 0 -0.13861921700048169 0.01285353366238922 0 -0.1244522405185825 -0.00038769298458709092 0 -0.13796817939809339 -7.5853332940862265e-05 0 -0.13302987177733741 0.0072862060594841918 0 -0.13302987177733741 0.0072862060594841918 0 -0.13861921700048169 0.01285353366238922 0 -0.1310798501921922 0.016754836893075501 0 -0.14194951185496399 0.035172378083737049 0 -0.1395360945068517 0.023372288850015029 0 -0.12424451236807239 0.027069144312366941 0 -0.13861921700048169 0.01285353366238922 0 -0.1395360945068517 0.023372288850015029 0 -0.1310798501921922 0.016754836893075501 0 -0.1395360945068517 0.023372288850015029 0 -0.1310798501921922 0.016754836893075501 0 -0.12424451236807239 0.027069144312366941 0 -0.14194951185496399 0.035172378083737049 0 -0.1395360945068517 0.023372288850015029 0 -0.15126073753592009 0.02487777788828089 0 -0.15126073753592009 0.02487777788828089 0 -0.15188271994169991 0.01786916074884114 0 -0.14657132146084931 0.01677767438903701 0 -0.15126073753592009 0.02487777788828089 0 -0.15837519066330749 0.018103177496080571 0 -0.1567842680697151 0.017821512483746641 0 -0.15126073753592009 0.02487777788828089 0 -0.15188271994169991 0.01786916074884114 0 -0.1567842680697151 0.017821512483746641 0 -0.1543123506052223 0.01567032783345056 0 -0.15188271994169991 0.01786916074884114 0 -0.1567842680697151 0.017821512483746641 0 -0.13861921700048169 0.01285353366238922 0 -0.1395360945068517 0.023372288850015029 0 -0.14657132146084931 0.01677767438903701 0 -0.1395360945068517 0.023372288850015029 0 -0.15126073753592009 0.02487777788828089 0 -0.14657132146084931 0.01677767438903701 0 -0.15381676672243971 -0.0048344028756085976 0 -0.13796817939809339 -7.5853332940862265e-05 0 -0.14598604308907309 0.0075397954886723484 0 -0.15381676672243971 -0.0048344028756085976 0 -0.15837519066330749 0.018103177496080571 0 -0.15381676672243971 -0.0048344028756085976 0 -0.15182406541376531 0.011854288846745499 0 -0.15837519066330749 0.018103177496080571 0 -0.15381676672243971 -0.0048344028756085976 0 -0.15182406541376531 0.011854288846745499 0 -0.14598604308907309 0.0075397954886723484 0 -0.13861921700048169 0.01285353366238922 0 -0.14657132146084931 0.01677767438903701 0 -0.14598604308907309 0.0075397954886723484 0 -0.14657132146084931 0.01677767438903701 0 -0.15182406541376531 0.011854288846745499 0 -0.14598604308907309 0.0075397954886723484 0 -0.15188271994169991 0.01786916074884114 0 -0.14657132146084931 0.01677767438903701 0 -0.15182406541376531 0.011854288846745499 0 -0.1543123506052223 0.01567032783345056 0 -0.15182406541376531 0.011854288846745499 0 -0.15837519066330749 0.018103177496080571 0 -0.1543123506052223 0.01567032783345056 0 -0.15188271994169991 0.01786916074884114 0 -0.15182406541376531 0.011854288846745499 0 -0.13796817939809339 -7.5853332940862265e-05 0 -0.13861921700048169 0.01285353366238922 0 -0.14598604308907309 0.0075397954886723484 0 -0.15381676672243971 -0.0048344028756085976 0 -0.16872927738725291 0.0066655648670224509 0 -0.15837519066330749 0.018103177496080571 0 -0.16872927738725291 0.0066655648670224509 0 -0.15837519066330749 0.018103177496080571 0 -0.17312315274812851 0.016956976572924821 0 -0.15837519066330749 0.018103177496080571 0 -0.17088268452158301 0.030303691123205939 0 -0.18416549926151529 0.022669224655560441 0 -0.15837519066330749 0.018103177496080571 0 -0.17088268452158301 0.030303691123205939 0 -0.1637260562540532 0.045028253166508762 0 -0.15126073753592009 0.02487777788828089 0 -0.15837519066330749 0.018103177496080571 0 -0.1637260562540532 0.045028253166508762 0 -0.15837519066330749 0.018103177496080571 0 -0.18416549926151529 0.022669224655560441 0 -0.1543123506052223 0.01567032783345056 0 -0.15837519066330749 0.018103177496080571 0 -0.1567842680697151 0.017821512483746641 0 -0.15837519066330749 0.018103177496080571 0 -0.1567842680697151 0.017821512483746641 0 -0.15837519066330749 0.018103177496080571 0 -0.18416549926151529 0.022669224655560441 0 -0.17312315274812851 0.016956976572924821 0 -0.17088268452158301 0.030303691123205939 0 -0.18416549926151529 0.022669224655560441 0 -0.1815242396402782 0.037713578252632912 0 -0.18416549926151529 0.022669224655560441 0 -0.17919408738426101 0.017592611389363012 0 -0.18518118592807509 0.0154377595936586 0 -0.18416549926151529 0.022669224655560441 0 -0.17312315274812851 0.016956976572924821 0 -0.17919408738426101 0.017592611389363012 0 -0.1785064095432054 -0.0066611219507198768 0 -0.16872927738725291 0.0066655648670224509 0 -0.193034969706537 0.00064734206737222756 0 -0.16872927738725291 0.0066655648670224509 0 -0.193034969706537 0.00064734206737222756 0 -0.16872927738725291 0.0066655648670224509 0 -0.18518118592807509 0.0154377595936586 0 -0.193034969706537 0.00064734206737222756 0 -0.16872927738725291 0.0066655648670224509 0 -0.17919408738426101 0.017592611389363012 0 -0.18518118592807509 0.0154377595936586 0 -0.16872927738725291 0.0066655648670224509 0 -0.17312315274812851 0.016956976572924821 0 -0.17919408738426101 0.017592611389363012 0 -0.16907692184479731 0.071953328836937142 0 -0.1637260562540532 0.045028253166508762 0 -0.18167022033174851 0.056262687610226528 0 -0.15722519427174569 0.065058312825911402 0 -0.16907692184479731 0.071953328836937142 0 -0.1637260562540532 0.045028253166508762 0 -0.16907692184479731 0.071953328836937142 0 -0.1637260562540532 0.045028253166508762 0 -0.15837519066330749 0.018103177496080571 0 -0.1637260562540532 0.045028253166508762 0 -0.17088268452158301 0.030303691123205939 0 -0.1637260562540532 0.045028253166508762 0 -0.1815242396402782 0.037713578252632912 0 -0.1815242396402782 0.037713578252632912 0 -0.18167022033174851 0.056262687610226528 0 -0.1948999673891425 0.045815662425189529 0 -0.1637260562540532 0.045028253166508762 0 -0.1815242396402782 0.037713578252632912 0 -0.18167022033174851 0.056262687610226528 0 -0.18416549926151529 0.022669224655560441 0 -0.1815242396402782 0.037713578252632912 0 -0.19539241544158811 0.034915353149486399 0 -0.19598386328254799 0.058823167906541372 0 -0.20873259774339259 0.055173182954087172 0 -0.20069407892192309 0.071070863509647808 0 -0.18167022033174851 0.056262687610226528 0 -0.19598386328254799 0.058823167906541372 0 -0.1876556690991136 0.063313821709693935 0 -0.19598386328254799 0.058823167906541372 0 -0.1948999673891425 0.045815662425189529 0 -0.20873259774339259 0.055173182954087172 0 -0.18167022033174851 0.056262687610226528 0 -0.19598386328254799 0.058823167906541372 0 -0.1948999673891425 0.045815662425189529 0 -0.1815242396402782 0.037713578252632912 0 -0.1948999673891425 0.045815662425189529 0 -0.19539241544158811 0.034915353149486399 0 -0.1948999673891425 0.045815662425189529 0 -0.19539241544158811 0.034915353149486399 0 -0.20641656305728129 0.041143028599009299 0 -0.20641656305728129 0.041143028599009299 0 -0.20995580785972329 0.027235271815039791 0 -0.22080882119384479 0.043900986742667819 0 -0.19539241544158811 0.034915353149486399 0 -0.20641656305728129 0.041143028599009299 0 -0.20995580785972329 0.027235271815039791 0 -0.20641656305728129 0.041143028599009299 0 -0.20873259774339259 0.055173182954087172 0 -0.22080882119384479 0.043900986742667819 0 -0.20873259774339259 0.055173182954087172 0 -0.2267202713125637 0.058975611642501508 0 -0.2176358721649875 0.072186860311035453 0 -0.1948999673891425 0.045815662425189529 0 -0.20641656305728129 0.041143028599009299 0 -0.20873259774339259 0.055173182954087172 0 -0.20993853639106591 -0.0035380738047605968 0 -0.2009137908539024 0.01431144198083124 0 -0.193034969706537 0.00064734206737222756 0 -0.18518118592807509 0.0154377595936586 0 -0.2009137908539024 0.01431144198083124 0 -0.193034969706537 0.00064734206737222756 0 -0.18518118592807509 0.0154377595936586 0 -0.193034969706537 0.00064734206737222756 0 -0.18416549926151529 0.022669224655560441 0 -0.20995580785972329 0.027235271815039791 0 -0.18416549926151529 0.022669224655560441 0 -0.18518118592807509 0.0154377595936586 0 -0.2009137908539024 0.01431144198083124 0 -0.18416549926151529 0.022669224655560441 0 -0.2009137908539024 0.01431144198083124 0 -0.20995580785972329 0.027235271815039791 0 -0.18416549926151529 0.022669224655560441 0 -0.19539241544158811 0.034915353149486399 0 -0.20995580785972329 0.027235271815039791 0 -0.2009137908539024 0.01431144198083124 0 -0.20995580785972329 0.027235271815039791 0 -0.21568563774484731 0.0082874278720449449 0 -0.20993853639106591 -0.0035380738047605968 0 -0.2009137908539024 0.01431144198083124 0 -0.21568563774484731 0.0082874278720449449 0 -0.22684210307559549 -0.0077234896768903086 0 -0.21568563774484731 0.0082874278720449449 0 -0.23077795054394901 0.01115198904600462 0 -0.22684210307559549 -0.0077234896768903086 0 -0.23077795054394901 0.01115198904600462 0 -0.20995580785972329 0.027235271815039791 0 -0.21568563774484731 0.0082874278720449449 0 -0.23077795054394901 0.01115198904600462 0 -0.20995580785972329 0.027235271815039791 0 -0.2357461164579312 0.03180131897451912 0 -0.20995580785972329 0.027235271815039791 0 -0.23077795054394901 0.01115198904600462 0 -0.2357461164579312 0.03180131897451912 0 -0.23077795054394901 0.01115198904600462 0 -0.24854849079604721 0.020569936005881421 0 -0.2357461164579312 0.03180131897451912 0 -0.26153642505613889 0.036367366133998442 0 -0.24854849079604721 0.020569936005881421 0 -0.2357461164579312 0.03180131897451912 0 -0.23077795054394901 0.01115198904600462 0 -0.24854849079604721 0.020569936005881421 0 -0.24598119983726671 0.0037338506766126851 0 -0.22684210307559549 -0.0077234896768903086 0 -0.23077795054394901 0.01115198904600462 0 -0.24598119983726671 0.0037338506766126851 0 -0.20873259774339259 0.055173182954087172 0 -0.2267202713125637 0.058975611642501508 0 -0.22080882119384479 0.043900986742667819 0 -0.2267202713125637 0.058975611642501508 0 -0.22080882119384479 0.043900986742667819 0 -0.239388393447095 0.04766651035075449 0 -0.22080882119384479 0.043900986742667819 0 -0.2357461164579312 0.03180131897451912 0 -0.239388393447095 0.04766651035075449 0 -0.20995580785972329 0.027235271815039791 0 -0.22080882119384479 0.043900986742667819 0 -0.2357461164579312 0.03180131897451912 0 -0.26153642505613889 0.036367366133998442 0 -0.2357461164579312 0.03180131897451912 0 -0.26153642505613889 0.036367366133998442 0 -0.2357461164579312 0.03180131897451912 0 -0.239388393447095 0.04766651035075449 0 -0.25116276906762952 0.054241108780248931 0 -0.239388393447095 0.04766651035075449 0 -0.24035595759446179 0.060712669830591162 0 -0.2267202713125637 0.058975611642501508 0 -0.239388393447095 0.04766651035075449 0 -0.24035595759446179 0.060712669830591162 0 -0.25116276906762952 0.054241108780248931 0 -0.24035595759446179 0.060712669830591162 0 -0.24829977196364941 0.065213336215906109 0 -0.2267202713125637 0.058975611642501508 0 -0.24035595759446179 0.060712669830591162 0 -0.23791909572611269 0.075142721002645518 0 -0.24035595759446179 0.060712669830591162 0 -0.24829977196364941 0.065213336215906109 0 -0.23791909572611269 0.075142721002645518 0 -0.25064083865024739 0.073628726666345984 0 -0.23791909572611269 0.075142721002645518 0 -0.24857020570659841 0.081659589420377987 0 -0.25064083865024739 0.073628726666345984 0 -0.24829977196364941 0.065213336215906109 0 -0.23791909572611269 0.075142721002645518 0 -0.23791909572611269 0.075142721002645518 0 -0.2427234934652894 0.090762762990284518 0 -0.22646138453880821 0.085461994072224837 0 -0.25413031243694739 0.089521027236778197 0 -0.2427234934652894 0.090762762990284518 0 -0.24857020570659841 0.081659589420377987 0 -0.23791909572611269 0.075142721002645518 0 -0.2427234934652894 0.090762762990284518 0 -0.24857020570659841 0.081659589420377987 0 -0.2267202713125637 0.058975611642501508 0 -0.23791909572611269 0.075142721002645518 0 -0.2176358721649875 0.072186860311035453 0 -0.23791909572611269 0.075142721002645518 0 -0.22646138453880821 0.085461994072224837 0 -0.2176358721649875 0.072186860311035453 0 -0.20873259774339259 0.055173182954087172 0 -0.2176358721649875 0.072186860311035453 0 -0.20069407892192309 0.071070863509647808 0 -0.2176358721649875 0.072186860311035453 0 -0.20525373999263671 0.08640341449760941 0 -0.20069407892192309 0.071070863509647808 0 -0.22646138453880821 0.085461994072224837 0 -0.2176358721649875 0.072186860311035453 0 -0.20525373999263671 0.08640341449760941 0 -0.22646138453880821 0.085461994072224837 0 -0.20525373999263671 0.08640341449760941 0 -0.2161514522581473 0.1006972439961434 0 -0.18444466814129201 0.081023499242751457 0 -0.20525373999263671 0.08640341449760941 0 -0.20069407892192309 0.071070863509647808 0 -0.18444466814129201 0.081023499242751457 0 -0.20525373999263671 0.08640341449760941 0 -0.19937405773042491 0.1071019237599893 0 -0.17832815471062741 0.080370175701138483 0 -0.20069407892192309 0.071070863509647808 0 -0.18444466814129201 0.081023499242751457 0 -0.17832815471062741 0.080370175701138483 0 -0.20069407892192309 0.071070863509647808 0 -0.1809864334298861 0.069780609401686525 0 -0.1876556690991136 0.063313821709693935 0 -0.20069407892192309 0.071070863509647808 0 -0.19598386328254799 0.058823167906541372 0 -0.1876556690991136 0.063313821709693935 0 -0.20069407892192309 0.071070863509647808 0 -0.19937405773042491 0.1071019237599893 0 -0.2161514522581473 0.1006972439961434 0 -0.21430344731955769 0.133180348277227 0 -0.19937405773042491 0.1071019237599893 0 -0.19727411993202021 0.1275714443648302 0 -0.1795193575176991 0.1294692331289829 0 -0.18444466814129201 0.081023499242751457 0 -0.19937405773042491 0.1071019237599893 0 -0.20525373999263671 0.08640341449760941 0 -0.19937405773042491 0.1071019237599893 0 -0.2161514522581473 0.1006972439961434 0 -0.19937405773042491 0.1071019237599893 0 -0.21430344731955769 0.133180348277227 0 -0.19937405773042491 0.1071019237599893 0 -0.19727411993202021 0.1275714443648302 0 -0.21430344731955769 0.133180348277227 0 -0.2161514522581473 0.1006972439961434 0 -0.23231730930006211 0.10853516007106349 0 -0.21430344731955769 0.133180348277227 0 -0.2427234934652894 0.090762762990284518 0 -0.22646138453880821 0.085461994072224837 0 -0.23231730930006211 0.10853516007106349 0 -0.22646138453880821 0.085461994072224837 0 -0.2161514522581473 0.1006972439961434 0 -0.23231730930006211 0.10853516007106349 0 -0.25610310449345419 0.1041046972302731 0 -0.2427234934652894 0.090762762990284518 0 -0.23231730930006211 0.10853516007106349 0 -0.25610310449345419 0.1041046972302731 0 -0.23231730930006211 0.10853516007106349 0 -0.2495823492922267 0.12121763785839371 0 -0.23231730930006211 0.10853516007106349 0 -0.2495823492922267 0.12121763785839371 0 -0.23849568892714909 0.13696143350773771 0 -0.23231730930006211 0.10853516007106349 0 -0.23849568892714909 0.13696143350773771 0 -0.25477231595188199 0.13792181725732239 0 -0.2495823492922267 0.12121763785839371 0 -0.23849568892714909 0.13696143350773771 0 -0.23231730930006211 0.10853516007106349 0 -0.23849568892714909 0.13696143350773771 0 -0.21430344731955769 0.133180348277227 0 -0.23849568892714909 0.13696143350773771 0 -0.22923283690869051 0.15925877279446471 0 -0.21430344731955769 0.133180348277227 0 -0.22923283690869051 0.15925877279446471 0 -0.21430344731955769 0.133180348277227 0 -0.2543915534089356 0.15018751405662761 0 -0.23849568892714909 0.13696143350773771 0 -0.24467406855423091 0.1653877069444131 0 -0.23849568892714909 0.13696143350773771 0 -0.24467406855423091 0.1653877069444131 0 -0.22923283690869051 0.15925877279446471 0 -0.2543915534089356 0.15018751405662761 0 -0.25477231595188199 0.13792181725732239 0 -0.23849568892714909 0.13696143350773771 0 -0.23849568892714909 0.13696143350773771 0 -0.24467406855423091 0.1653877069444131 0 -0.24467406855423091 0.1653877069444131 0 -0.2350219134637796 0.18103954803765679 0 -0.22379977898383499 0.16989282922580509 0 -0.24467406855423091 0.1653877069444131 0 -0.24947341468037071 0.1874691479585941 0 -0.2350219134637796 0.18103954803765679 0 -0.24467406855423091 0.1653877069444131 0 -0.24947341468037071 0.1874691479585941 0 -0.2350219134637796 0.18103954803765679 0 -0.22004124654446131 0.18611549732905991 0 -0.22379977898383499 0.16989282922580509 0 -0.24467406855423091 0.1653877069444131 0 -0.22379977898383499 0.16989282922580509 0 -0.22923283690869051 0.15925877279446471 0 -0.22379977898383499 0.16989282922580509 0 -0.22923283690869051 0.15925877279446471 0 -0.20989634202023699 0.1560844752241346 0 -0.24467406855423091 0.1653877069444131 0 -0.22379977898383499 0.16989282922580509 0 -0.22379977898383499 0.16989282922580509 0 -0.20292548941343971 0.17439795150720031 0 -0.20989634202023699 0.1560844752241346 0 -0.20292548941343971 0.17439795150720031 0 -0.20989634202023699 0.1560844752241346 0 -0.17833905569944569 0.15756593750779829 0 -0.22379977898383499 0.16989282922580509 0 -0.20292548941343971 0.17439795150720031 0 -0.22004124654446131 0.18611549732905991 0 -0.22379977898383499 0.16989282922580509 0 -0.20292548941343971 0.17439795150720031 0 -0.22004124654446131 0.18611549732905991 0 -0.20292548941343971 0.17439795150720031 0 -0.22004124654446131 0.18611549732905991 0 -0.20292548941343971 0.17439795150720031 0 -0.20568385543668641 0.19260324117033031 0 -0.20292548941343971 0.17439795150720031 0 -0.1757122088887666 0.1802711648698879 0 -0.20292548941343971 0.17439795150720031 0 -0.1897130520823497 0.19444680225630501 0 -0.1757122088887666 0.1802711648698879 0 -0.20292548941343971 0.17439795150720031 0 -0.20568385543668641 0.19260324117033031 0 -0.1897130520823497 0.19444680225630501 0 -0.20292548941343971 0.17439795150720031 0 -0.17833905569944569 0.15756593750779829 0 -0.19589961716039911 0.1405342722931214 0 -0.20989634202023699 0.1560844752241346 0 -0.17833905569944569 0.15756593750779829 0 -0.19727411993202021 0.1275714443648302 0 -0.19589961716039911 0.1405342722931214 0 -0.1795193575176991 0.1294692331289829 0 -0.19727411993202021 0.1275714443648302 0 -0.19589961716039911 0.1405342722931214 0 -0.21430344731955769 0.133180348277227 0 -0.22923283690869051 0.15925877279446471 0 -0.21430344731955769 0.133180348277227 0 -0.20989634202023699 0.1560844752241346 0 -0.19589961716039911 0.1405342722931214 0 -0.21430344731955769 0.133180348277227 0 -0.20989634202023699 0.1560844752241346 0 -0.23288038931281729 0.23888496135878451 0 -0.21994142138302111 0.22426230620998819 0 -0.21218175950055909 0.24952722652004439 0 -0.22667039518801041 0.25355429459537898 0 -0.23288038931281729 0.23888496135878451 0 -0.21218175950055909 0.24952722652004439 0 -0.2416444700809012 0.25186566196455601 0 -0.22667039518801041 0.25355429459537898 0 -0.23288038931281729 0.23888496135878451 0 -0.2416444700809012 0.25186566196455601 0 -0.23288038931281729 0.23888496135878451 0 -0.2470081454867771 0.2422065880623451 0 -0.25693865295534157 0.25278860643768353 0 -0.2416444700809012 0.25186566196455601 0 -0.2470081454867771 0.2422065880623451 0 -0.25109603964961891 0.234366577265785 0 -0.2470081454867771 0.2422065880623451 0 -0.24424918889796191 0.23342051569475999 0 -0.23288038931281729 0.23888496135878451 0 -0.2470081454867771 0.2422065880623451 0 -0.24424918889796191 0.23342051569475999 0 -0.23288038931281729 0.23888496135878451 0 -0.24424918889796191 0.23342051569475999 0 -0.2396805993576108 0.22455316273993289 0 -0.24424918889796191 0.23342051569475999 0 -0.249817319625419 0.2274340479663062 0 -0.2396805993576108 0.22455316273993289 0 -0.25109603964961891 0.234366577265785 0 -0.24424918889796191 0.23342051569475999 0 -0.249817319625419 0.2274340479663062 0 -0.249817319625419 0.2274340479663062 0 -0.24904636230289101 0.22050689045355901 0 -0.2396805993576108 0.22455316273993289 0 -0.24904636230289101 0.22050689045355901 0 -0.2396805993576108 0.22455316273993289 0 -0.24333230173327219 0.21221501244476959 0 -0.2396805993576108 0.22455316273993289 0 -0.21994142138302111 0.22426230620998819 0 -0.23304733008138001 0.21339205942673259 0 -0.23288038931281729 0.23888496135878451 0 -0.2396805993576108 0.22455316273993289 0 -0.21994142138302111 0.22426230620998819 0 -0.21994142138302111 0.22426230620998819 0 -0.22770108326548311 0.19899738589993199 0 -0.210353022999335 0.20567537760669019 0 -0.21994142138302111 0.22426230620998819 0 -0.23304733008138001 0.21339205942673259 0 -0.22770108326548311 0.19899738589993199 0 -0.21994142138302111 0.22426230620998819 0 -0.22770108326548311 0.19899738589993199 0 -0.23304733008138001 0.21339205942673259 0 -0.2346933251094325 0.20523388649383931 0 -0.22770108326548311 0.19899738589993199 0 -0.25427276080650663 0.20955058897277601 0 -0.23715700367548431 0.1978330431509176 0 -0.2396805993576108 0.22455316273993289 0 -0.23304733008138001 0.21339205942673259 0 -0.24333230173327219 0.21221501244476959 0 -0.25427276080650663 0.20955058897277601 0 -0.24333230173327219 0.21221501244476959 0 -0.23715700367548431 0.1978330431509176 0 -0.25561524088587501 0.21572724177218369 0 -0.24904636230289101 0.22050689045355901 0 -0.24333230173327219 0.21221501244476959 0 -0.24333230173327219 0.21221501244476959 0 -0.2346933251094325 0.20523388649383931 0 -0.23715700367548431 0.1978330431509176 0 -0.23304733008138001 0.21339205942673259 0 -0.24333230173327219 0.21221501244476959 0 -0.2346933251094325 0.20523388649383931 0 -0.25427276080650663 0.20955058897277601 0 -0.24947341468037071 0.1874691479585941 0 -0.23715700367548431 0.1978330431509176 0 -0.24947341468037071 0.1874691479585941 0 -0.2350219134637796 0.18103954803765679 0 -0.23715700367548431 0.1978330431509176 0 -0.22004124654446131 0.18611549732905991 0 -0.23715700367548431 0.1978330431509176 0 -0.22004124654446131 0.18611549732905991 0 -0.23715700367548431 0.1978330431509176 0 -0.22770108326548311 0.19899738589993199 0 -0.2350219134637796 0.18103954803765679 0 -0.22004124654446131 0.18611549732905991 0 -0.23715700367548431 0.1978330431509176 0 -0.2346933251094325 0.20523388649383931 0 -0.23715700367548431 0.1978330431509176 0 -0.22770108326548311 0.19899738589993199 0 -0.22004124654446131 0.18611549732905991 0 -0.22770108326548311 0.19899738589993199 0 -0.21594480206149139 0.19584787550150309 0 -0.22770108326548311 0.19899738589993199 0 -0.21594480206149139 0.19584787550150309 0 -0.210353022999335 0.20567537760669019 0 -0.22004124654446131 0.18611549732905991 0 -0.21594480206149139 0.19584787550150309 0 -0.20568385543668641 0.19260324117033031 0 -0.21594480206149139 0.19584787550150309 0 -0.20568385543668641 0.19260324117033031 0 -0.210353022999335 0.20567537760669019 0 -0.20568385543668641 0.19260324117033031 0 -0.19800517532583911 0.2033181044808495 0 -0.210353022999335 0.20567537760669019 0 -0.20568385543668641 0.19260324117033031 0 -0.1897130520823497 0.19444680225630501 0 -0.19800517532583911 0.2033181044808495 0 -0.1897130520823497 0.19444680225630501 0 -0.19800517532583911 0.2033181044808495 0 -0.1863200837324982 0.20555600776477401 0 -0.19800517532583911 0.2033181044808495 0 -0.19795586237832599 0.21830909360614789 0 -0.210353022999335 0.20567537760669019 0 -0.19800517532583911 0.2033181044808495 0 -0.19795586237832599 0.21830909360614789 0 -0.1863200837324982 0.20555600776477401 0 -0.19795586237832599 0.21830909360614789 0 -0.18240126852579899 0.21930684119835961 0 -0.1863200837324982 0.20555600776477401 0 -0.21994142138302111 0.22426230620998819 0 -0.19795586237832599 0.21830909360614789 0 -0.210353022999335 0.20567537760669019 0 -0.21994142138302111 0.22426230620998819 0 -0.19795586237832599 0.21830909360614789 0 -0.20314208847108339 0.23556135501649109 0 -0.19795586237832599 0.21830909360614789 0 -0.18651378479530609 0.23505073182760211 0 -0.18240126852579899 0.21930684119835961 0 -0.19795586237832599 0.21830909360614789 0 -0.20314208847108339 0.23556135501649109 0 -0.18651378479530609 0.23505073182760211 0 -0.1929026130837673 0.25762258695206858 0 -0.20314208847108339 0.23556135501649109 0 -0.18651378479530609 0.23505073182760211 0 -0.1929026130837673 0.25762258695206858 0 -0.20314208847108339 0.23556135501649109 0 -0.21218175950055909 0.24952722652004439 0 -0.21994142138302111 0.22426230620998819 0 -0.21218175950055909 0.24952722652004439 0 -0.21994142138302111 0.22426230620998819 0 -0.20314208847108339 0.23556135501649109 0 -0.21218175950055909 0.24952722652004439 0 -0.16582228118094081 0.26466105519565358 0 -0.18651378479530609 0.23505073182760211 0 -0.1608218935138386 0.23306973899941771 0 -0.16582228118094081 0.26466105519565358 0 -0.14534546737678511 0.25129379472131641 0 -0.1608218935138386 0.23306973899941771 0 -0.18651378479530609 0.23505073182760211 0 -0.1608218935138386 0.23306973899941771 0 -0.18651378479530609 0.23505073182760211 0 -0.18240126852579899 0.21930684119835961 0 -0.1608218935138386 0.23306973899941771 0 -0.1608218935138386 0.23306973899941771 0 -0.16716432822862029 0.21469463307327219 0 -0.14537567171977789 0.21373021027012479 0 -0.18240126852579899 0.21930684119835961 0 -0.1608218935138386 0.23306973899941771 0 -0.16716432822862029 0.21469463307327219 0 -0.16716432822862029 0.21469463307327219 0 -0.15728284033457929 0.19872471446884221 0 -0.14537567171977789 0.21373021027012479 0 -0.16716432822862029 0.21469463307327219 0 -0.1863200837324982 0.20555600776477401 0 -0.15728284033457929 0.19872471446884221 0 -0.18240126852579899 0.21930684119835961 0 -0.16716432822862029 0.21469463307327219 0 -0.1863200837324982 0.20555600776477401 0 -0.1863200837324982 0.20555600776477401 0 -0.1747365466553682 0.1940095109997643 0 -0.15728284033457929 0.19872471446884221 0 -0.1897130520823497 0.19444680225630501 0 -0.1863200837324982 0.20555600776477401 0 -0.1747365466553682 0.1940095109997643 0 -0.1897130520823497 0.19444680225630501 0 -0.1747365466553682 0.1940095109997643 0 -0.1757122088887666 0.1802711648698879 0 -0.1747365466553682 0.1940095109997643 0 -0.16534449221108169 0.19019064904669619 0 -0.1757122088887666 0.1802711648698879 0 -0.1863200837324982 0.20555600776477401 0 -0.15728284033457929 0.19872471446884221 0 -0.1747365466553682 0.1940095109997643 0 -0.16534449221108169 0.19019064904669619 0 -0.15728284033457929 0.19872471446884221 0 -0.16534449221108169 0.19019064904669619 0 -0.15728284033457929 0.19872471446884221 0 -0.15629575781976141 0.184461654133797 0 -0.15728284033457929 0.19872471446884221 0 -0.12824559693666041 0.19189342117291039 0 -0.15629575781976141 0.184461654133797 0 -0.15728284033457929 0.19872471446884221 0 -0.12824559693666041 0.19189342117291039 0 -0.14537567171977789 0.21373021027012479 0 -0.15728284033457929 0.19872471446884221 0 -0.12824559693666041 0.19189342117291039 0 -0.12824559693666041 0.19189342117291039 0 -0.14537567171977789 0.21373021027012479 0 -0.1242544958201173 0.21504107598638081 0 -0.1608218935138386 0.23306973899941771 0 -0.14537567171977789 0.21373021027012479 0 -0.13513000223237101 0.23108874617123329 0 -0.1608218935138386 0.23306973899941771 0 -0.13513000223237101 0.23108874617123329 0 -0.14537567171977789 0.21373021027012479 0 -0.13513000223237101 0.23108874617123329 0 -0.1242544958201173 0.21504107598638081 0 -0.14534546737678511 0.25129379472131641 0 -0.13513000223237101 0.23108874617123329 0 -0.12470300375741469 0.2457033751303839 0 -0.14534546737678511 0.25129379472131641 0 -0.1608218935138386 0.23306973899941771 0 -0.13513000223237101 0.23108874617123329 0 -0.17833905569944569 0.15756593750779829 0 -0.1561619761378806 0.16047685630827471 0 -0.153752621985453 0.14073392350839439 0 -0.1795193575176991 0.1294692331289829 0 -0.17833905569944569 0.15756593750779829 0 -0.153752621985453 0.14073392350839439 0 -0.17833905569944569 0.15756593750779829 0 -0.153752621985453 0.14073392350839439 0 -0.16393492635195239 0.1245978723337525 0 -0.15311233888185891 0.1152965378839053 0 -0.153752621985453 0.14073392350839439 0 -0.16393492635195239 0.1245978723337525 0 -0.1795193575176991 0.1294692331289829 0 -0.153752621985453 0.14073392350839439 0 -0.19589961716039911 0.1405342722931214 0 -0.1795193575176991 0.1294692331289829 0 -0.17833905569944569 0.15756593750779829 0 -0.20292548941343971 0.17439795150720031 0 -0.17833905569944569 0.15756593750779829 0 -0.1757122088887666 0.1802711648698879 0 -0.1897130520823497 0.19444680225630501 0 -0.1757122088887666 0.1802711648698879 0 -0.16534449221108169 0.19019064904669619 0 -0.1757122088887666 0.1802711648698879 0 -0.15629575781976141 0.184461654133797 0 -0.1757122088887666 0.1802711648698879 0 -0.15629575781976141 0.184461654133797 0 -0.1757122088887666 0.1802711648698879 0 -0.15629575781976141 0.184461654133797 0 -0.1561619761378806 0.16047685630827471 0 -0.17833905569944569 0.15756593750779829 0 -0.1757122088887666 0.1802711648698879 0 -0.1561619761378806 0.16047685630827471 0 -0.1757122088887666 0.1802711648698879 0 -0.1561619761378806 0.16047685630827471 0 -0.1561619761378806 0.16047685630827471 0 -0.14126926821389521 0.17232478353634881 0 -0.1371080151487378 0.15864895140394189 0 -0.15629575781976141 0.184461654133797 0 -0.1561619761378806 0.16047685630827471 0 -0.14126926821389521 0.17232478353634881 0 -0.12824559693666041 0.19189342117291039 0 -0.15629575781976141 0.184461654133797 0 -0.14126926821389521 0.17232478353634881 0 -0.12824559693666041 0.19189342117291039 0 -0.14126926821389521 0.17232478353634881 0 -0.1248941403316576 0.1686438139500778 0 -0.14126926821389521 0.17232478353634881 0 -0.1371080151487378 0.15864895140394189 0 -0.1248941403316576 0.1686438139500778 0 -0.1371080151487378 0.15864895140394189 0 -0.1239269324459726 0.1539154783358255 0 -0.1248941403316576 0.1686438139500778 0 -0.1371080151487378 0.15864895140394189 0 -0.13661174338699569 0.1406825477466605 0 -0.1239269324459726 0.1539154783358255 0 -0.1561619761378806 0.16047685630827471 0 -0.13661174338699569 0.1406825477466605 0 -0.1561619761378806 0.16047685630827471 0 -0.13661174338699569 0.1406825477466605 0 -0.153752621985453 0.14073392350839439 0 -0.1561619761378806 0.16047685630827471 0 -0.1371080151487378 0.15864895140394189 0 -0.13661174338699569 0.1406825477466605 0 -0.12916618827146031 0.12390190950899049 0 -0.153752621985453 0.14073392350839439 0 -0.13930859898956699 0.1145050369687237 0 -0.12916618827146031 0.12390190950899049 0 -0.153752621985453 0.14073392350839439 0 -0.13661174338699569 0.1406825477466605 0 -0.11706151063611089 0.1208882391850464 0 -0.12916618827146031 0.12390190950899049 0 -0.13661174338699569 0.1406825477466605 0 -0.11706151063611089 0.1208882391850464 0 -0.12916618827146031 0.12390190950899049 0 -0.13661174338699569 0.1406825477466605 0 -0.153752621985453 0.14073392350839439 0 -0.13661174338699569 0.1406825477466605 0 -0.11473911200363 0.13153944404780621 0 -0.1132109842275667 0.1430328284895945 0 -0.13661174338699569 0.1406825477466605 0 -0.11473911200363 0.13153944404780621 0 -0.11706151063611089 0.1208882391850464 0 -0.11473911200363 0.13153944404780621 0 -0.1039338124667491 0.13009472872812991 0 -0.1132109842275667 0.1430328284895945 0 -0.11473911200363 0.13153944404780621 0 -0.1039338124667491 0.13009472872812991 0 -0.10601879130899509 0.12208205668825579 0 -0.1039338124667491 0.13009472872812991 0 -0.093398168270057425 0.14218175111966569 0 -0.093946486761182085 0.1175508364221631 0 -0.1039338124667491 0.13009472872812991 0 -0.1132109842275667 0.1430328284895945 0 -0.093398168270057425 0.14218175111966569 0 -0.1078097791349048 0.15856925008885259 0 -0.089544080768145809 0.16137822361845131 0 -0.093398168270057425 0.14218175111966569 0 -0.1132109842275667 0.1430328284895945 0 -0.1078097791349048 0.15856925008885259 0 -0.093398168270057425 0.14218175111966569 0 -0.13661174338699569 0.1406825477466605 0 -0.1132109842275667 0.1430328284895945 0 -0.1239269324459726 0.1539154783358255 0 -0.1132109842275667 0.1430328284895945 0 -0.1239269324459726 0.1539154783358255 0 -0.1078097791349048 0.15856925008885259 0 -0.1248941403316576 0.1686438139500778 0 -0.099208353538741523 0.18506212787697859 0 -0.1078097791349048 0.15856925008885259 0 -0.1239269324459726 0.1539154783358255 0 -0.1248941403316576 0.1686438139500778 0 -0.1078097791349048 0.15856925008885259 0 -0.12824559693666041 0.19189342117291039 0 -0.1248941403316576 0.1686438139500778 0 -0.099208353538741523 0.18506212787697859 0 -0.099208353538741523 0.18506212787697859 0 -0.1078097791349048 0.15856925008885259 0 -0.089544080768145809 0.16137822361845131 0 -0.089544080768145809 0.16137822361845131 0 -0.070171110140822543 0.1782308345810468 0 -0.074669823138777097 0.15727584041375819 0 -0.099208353538741523 0.18506212787697859 0 -0.089544080768145809 0.16137822361845131 0 -0.070171110140822543 0.1782308345810468 0 -0.099208353538741523 0.18506212787697859 0 -0.070171110140822543 0.1782308345810468 0 -0.070171110140822543 0.1782308345810468 0 -0.074669823138777097 0.15727584041375819 0 -0.057722578482997257 0.16273086802879619 0 -0.074669823138777097 0.15727584041375819 0 -0.066369438716585821 0.14892706699039879 0 -0.057722578482997257 0.16273086802879619 0 -0.074669823138777097 0.15727584041375819 0 -0.066369438716585821 0.14892706699039879 0 -0.074733199104357148 0.14603812585323231 0 -0.074669823138777097 0.15727584041375819 0 -0.074733199104357148 0.14603812585323231 0 -0.082756465015383474 0.1492386270883771 0 -0.074733199104357148 0.14603812585323231 0 -0.067315024607703278 0.13662092079142449 0 -0.081437053795579945 0.1393191944367777 0 -0.066369438716585821 0.14892706699039879 0 -0.074733199104357148 0.14603812585323231 0 -0.067315024607703278 0.13662092079142449 0 -0.066369438716585821 0.14892706699039879 0 -0.067315024607703278 0.13662092079142449 0 -0.054361576129613079 0.15178129246158931 0 -0.067315024607703278 0.13662092079142449 0 -0.088852304720190942 0.12644129241805541 0 -0.067315024607703278 0.13662092079142449 0 -0.088852304720190942 0.12644129241805541 0 -0.075786521408142987 0.12443322189858901 0 -0.067315024607703278 0.13662092079142449 0 -0.062016764747578973 0.12884034001808189 0 -0.075786521408142987 0.12443322189858901 0 -0.088852304720190942 0.12644129241805541 0 -0.093398168270057425 0.14218175111966569 0 -0.093946486761182085 0.1175508364221631 0 -0.067315024607703278 0.13662092079142449 0 -0.081437053795579945 0.1393191944367777 0 -0.088852304720190942 0.12644129241805541 0 -0.093398168270057425 0.14218175111966569 0 -0.093946486761182085 0.1175508364221631 0 -0.081437053795579945 0.1393191944367777 0 -0.088852304720190942 0.12644129241805541 0 -0.093398168270057425 0.14218175111966569 0 -0.089544080768145809 0.16137822361845131 0 -0.093398168270057425 0.14218175111966569 0 -0.082756465015383474 0.1492386270883771 0 -0.089544080768145809 0.16137822361845131 0 -0.074669823138777097 0.15727584041375819 0 -0.082756465015383474 0.1492386270883771 0 -0.074733199104357148 0.14603812585323231 0 -0.081437053795579945 0.1393191944367777 0 -0.082756465015383474 0.1492386270883771 0 -0.081437053795579945 0.1393191944367777 0 -0.093398168270057425 0.14218175111966569 0 -0.082756465015383474 0.1492386270883771 0 -0.11076524853809321 0.25238606884059173 0 -0.1094381109509034 0.22910775334304889 0 -0.091345724210048884 0.23566487628332011 0 -0.11076524853809321 0.25238606884059173 0 -0.092391857727521592 0.25884509119311472 0 -0.091345724210048884 0.23566487628332011 0 -0.13513000223237101 0.23108874617123329 0 -0.12470300375741469 0.2457033751303839 0 -0.1094381109509034 0.22910775334304889 0 -0.11076524853809321 0.25238606884059173 0 -0.12470300375741469 0.2457033751303839 0 -0.1094381109509034 0.22910775334304889 0 -0.13513000223237101 0.23108874617123329 0 -0.1094381109509034 0.22910775334304889 0 -0.13513000223237101 0.23108874617123329 0 -0.1094381109509034 0.22910775334304889 0 -0.1242544958201173 0.21504107598638081 0 -0.1094381109509034 0.22910775334304889 0 -0.10308309726087379 0.20938524897458621 0 -0.091345724210048884 0.23566487628332011 0 -0.1094381109509034 0.22910775334304889 0 -0.10308309726087379 0.20938524897458621 0 -0.1242544958201173 0.21504107598638081 0 -0.12824559693666041 0.19189342117291039 0 -0.10308309726087379 0.20938524897458621 0 -0.1242544958201173 0.21504107598638081 0 -0.12824559693666041 0.19189342117291039 0 -0.099208353538741523 0.18506212787697859 0 -0.12824559693666041 0.19189342117291039 0 -0.099208353538741523 0.18506212787697859 0 -0.10308309726087379 0.20938524897458621 0 -0.099208353538741523 0.18506212787697859 0 -0.070171110140822543 0.1782308345810468 0 -0.078220861930521898 0.21057701145176541 0 -0.070171110140822543 0.1782308345810468 0 -0.078220861930521898 0.21057701145176541 0 -0.056949983849450658 0.19269083667038239 0 -0.099208353538741523 0.18506212787697859 0 -0.10308309726087379 0.20938524897458621 0 -0.078220861930521898 0.21057701145176541 0 -0.078220861930521898 0.21057701145176541 0 -0.056178602179823331 0.21732906463454121 0 -0.056949983849450658 0.19269083667038239 0 -0.10308309726087379 0.20938524897458621 0 -0.078220861930521898 0.21057701145176541 0 -0.091345724210048884 0.23566487628332011 0 -0.078220861930521898 0.21057701145176541 0 -0.069221313838413207 0.24642852661517459 0 -0.091345724210048884 0.23566487628332011 0 -0.078220861930521898 0.21057701145176541 0 -0.069221313838413207 0.24642852661517459 0 -0.056178602179823331 0.21732906463454121 0 -0.092391857727521592 0.25884509119311472 0 -0.069221313838413207 0.24642852661517459 0 -0.091345724210048884 0.23566487628332011 0 -0.033382390283993792 0.24359412621706661 0 -0.046050769949304807 0.23401196203723451 0 -0.025866468353912139 0.2289639569827632 0 -0.048126263350958612 0.25465777805589501 0 -0.033382390283993792 0.24359412621706661 0 -0.046050769949304807 0.23401196203723451 0 -0.048126263350958612 0.25465777805589501 0 -0.069221313838413207 0.24642852661517459 0 -0.046050769949304807 0.23401196203723451 0 -0.069221313838413207 0.24642852661517459 0 -0.046050769949304807 0.23401196203723451 0 -0.069221313838413207 0.24642852661517459 0 -0.046050769949304807 0.23401196203723451 0 -0.056178602179823331 0.21732906463454121 0 -0.046050769949304807 0.23401196203723451 0 -0.03692704292774221 0.2147422921961073 0 -0.025866468353912139 0.2289639569827632 0 -0.046050769949304807 0.23401196203723451 0 -0.03692704292774221 0.2147422921961073 0 -0.056178602179823331 0.21732906463454121 0 -0.03692704292774221 0.2147422921961073 0 -0.056178602179823331 0.21732906463454121 0 -0.044221089124866657 0.20193605474889509 0 -0.03692704292774221 0.2147422921961073 0 -0.044221089124866657 0.20193605474889509 0 -0.032331133115066808 0.19858524020914661 0 -0.056178602179823331 0.21732906463454121 0 -0.056949983849450658 0.19269083667038239 0 -0.044221089124866657 0.20193605474889509 0 -0.056949983849450658 0.19269083667038239 0 -0.040360849617421202 0.18777351164107661 0 -0.044221089124866657 0.20193605474889509 0 -0.040360849617421202 0.18777351164107661 0 -0.032331133115066808 0.19858524020914661 0 -0.026751027678188599 0.18229597604057349 0 -0.040360849617421202 0.18777351164107661 0 -0.044221089124866657 0.20193605474889509 0 -0.032331133115066808 0.19858524020914661 0 -0.016914194843479571 0.2076274745640635 0 -0.026751027678188599 0.18229597604057349 0 -0.032331133115066808 0.19858524020914661 0 -0.016914194843479571 0.2076274745640635 0 -0.026751027678188599 0.18229597604057349 0 -0.01405220631290922 0.19352016069679451 0 -0.016914194843479571 0.2076274745640635 0 -0.026751027678188599 0.18229597604057349 0 -0.01405220631290922 0.19352016069679451 0 -0.0012364494800765971 0.1960628175593882 0 -0.01891215499648707 0.1765136475382359 0 -0.01405220631290922 0.19352016069679451 0 -0.0012364494800765971 0.1960628175593882 0 -0.0064787008301582438 0.20475797647738719 0 -0.0012364494800765971 0.1960628175593882 0 -0.0064787008301582438 0.20475797647738719 0 0.003893562275735573 0.2064819102401671 0 -0.01405220631290922 0.19352016069679451 0 -0.0064787008301582438 0.20475797647738719 0 -0.016914194843479571 0.2076274745640635 0 -0.0045317147067566524 0.21522543551468479 0 -0.016914194843479571 0.2076274745640635 0 -0.0070773620087705444 0.23295897308755351 0 -0.0064787008301582438 0.20475797647738719 0 -0.0045317147067566524 0.21522543551468479 0 -0.016914194843479571 0.2076274745640635 0 -0.0064787008301582438 0.20475797647738719 0 -0.0045317147067566524 0.21522543551468479 0 0.003893562275735573 0.2064819102401671 0 -0.03692704292774221 0.2147422921961073 0 -0.016914194843479571 0.2076274745640635 0 -0.025866468353912139 0.2289639569827632 0 -0.03692704292774221 0.2147422921961073 0 -0.032331133115066808 0.19858524020914661 0 -0.016914194843479571 0.2076274745640635 0 -0.016914194843479571 0.2076274745640635 0 -0.025866468353912139 0.2289639569827632 0 -0.0070773620087705444 0.23295897308755351 0 -0.016914194843479571 0.2076274745640635 0 -0.0070773620087705444 0.23295897308755351 0 -0.0045317147067566524 0.21522543551468479 0 -0.0070773620087705444 0.23295897308755351 0 0.0038866256090455522 0.2239579318999283 0 -0.0070773620087705444 0.23295897308755351 0 0.001894876929373096 0.24743045501984201 0 0.0027594708259384838 0.25829047161104352 0 -0.0070773620087705444 0.23295897308755351 0 0.0027594708259384838 0.25829047161104352 0 -0.0087132352456033638 0.25173417187717928 0 -0.0070773620087705444 0.23295897308755351 0 -0.01778818590069102 0.2421293126167848 0 -0.0087132352456033638 0.25173417187717928 0 -0.0070773620087705444 0.23295897308755351 0 0.0027594708259384838 0.25829047161104352 0 -0.025866468353912139 0.2289639569827632 0 -0.0070773620087705444 0.23295897308755351 0 -0.01778818590069102 0.2421293126167848 0 -0.028053557715267439 0.25838243531431121 0 -0.033382390283993792 0.24359412621706661 0 -0.01778818590069102 0.2421293126167848 0 -0.033382390283993792 0.24359412621706661 0 -0.025866468353912139 0.2289639569827632 0 -0.01778818590069102 0.2421293126167848 0 -0.044416936009294992 0.14744373737619401 0 -0.030319635528424791 0.14770209815471691 0 -0.021396469969749188 0.1374028974533886 0 -0.044416936009294992 0.14744373737619401 0 -0.030319635528424791 0.14770209815471691 0 -0.027639103276038759 0.15537380566908321 0 -0.044416936009294992 0.14744373737619401 0 -0.038116788675066252 0.15302723042411279 0 -0.027639103276038759 0.15537380566908321 0 -0.044416936009294992 0.14744373737619401 0 -0.041458398192443832 0.13942314763129199 0 -0.021396469969749188 0.1374028974533886 0 -0.044416936009294992 0.14744373737619401 0 -0.027639103276038759 0.15537380566908321 0 -0.044416936009294992 0.14744373737619401 0 -0.021396469969749188 0.1374028974533886 0 -0.044416936009294992 0.14744373737619401 0 -0.036587860512897558 0.15696447751708351 0 -0.044416936009294992 0.14744373737619401 0 -0.047012455662473793 0.15786975055381819 0 -0.036587860512897558 0.15696447751708351 0 -0.044416936009294992 0.14744373737619401 0 -0.038116788675066252 0.15302723042411279 0 -0.036587860512897558 0.15696447751708351 0 -0.038116788675066252 0.15302723042411279 0 -0.036587860512897558 0.15696447751708351 0 -0.027639103276038759 0.15537380566908321 0 -0.038116788675066252 0.15302723042411279 0 -0.036587860512897558 0.15696447751708351 0 -0.037500573576258918 0.13069979942664511 0 -0.041458398192443832 0.13942314763129199 0 -0.021396469969749188 0.1374028974533886 0 -0.037500573576258918 0.13069979942664511 0 -0.028643554108799551 0.12806760582925611 0 -0.034668926388748328 0.1237436995229996 0 -0.037500573576258918 0.13069979942664511 0 -0.047589673205635397 0.1324549890601831 0 -0.046884900963607742 0.11986348336078891 0 -0.037500573576258918 0.13069979942664511 0 -0.041458398192443832 0.13942314763129199 0 -0.047589673205635397 0.1324549890601831 0 -0.044416936009294992 0.14744373737619401 0 -0.041458398192443832 0.13942314763129199 0 -0.047589673205635397 0.1324549890601831 0 -0.067315024607703278 0.13662092079142449 0 -0.044416936009294992 0.14744373737619401 0 -0.062016764747578973 0.12884034001808189 0 -0.044416936009294992 0.14744373737619401 0 -0.062016764747578973 0.12884034001808189 0 -0.044416936009294992 0.14744373737619401 0 -0.047589673205635397 0.1324549890601831 0 -0.062016764747578973 0.12884034001808189 0 -0.047589673205635397 0.1324549890601831 0 -0.062016764747578973 0.12884034001808189 0 -0.046884900963607742 0.11986348336078891 0 -0.067315024607703278 0.13662092079142449 0 -0.044416936009294992 0.14744373737619401 0 -0.054361576129613079 0.15178129246158931 0 -0.067315024607703278 0.13662092079142449 0 -0.044416936009294992 0.14744373737619401 0 -0.044416936009294992 0.14744373737619401 0 -0.054361576129613079 0.15178129246158931 0 -0.044416936009294992 0.14744373737619401 0 -0.054361576129613079 0.15178129246158931 0 -0.047012455662473793 0.15786975055381819 0 -0.066369438716585821 0.14892706699039879 0 -0.054361576129613079 0.15178129246158931 0 -0.057722578482997257 0.16273086802879619 0 -0.057722578482997257 0.16273086802879619 0 -0.050411583818504503 0.1777900037548745 0 -0.045636115300606919 0.16650756778262649 0 -0.054361576129613079 0.15178129246158931 0 -0.057722578482997257 0.16273086802879619 0 -0.047012455662473793 0.15786975055381819 0 -0.057722578482997257 0.16273086802879619 0 -0.047012455662473793 0.15786975055381819 0 -0.045636115300606919 0.16650756778262649 0 -0.070171110140822543 0.1782308345810468 0 -0.056949983849450658 0.19269083667038239 0 -0.050411583818504503 0.1777900037548745 0 -0.070171110140822543 0.1782308345810468 0 -0.057722578482997257 0.16273086802879619 0 -0.050411583818504503 0.1777900037548745 0 -0.056949983849450658 0.19269083667038239 0 -0.040360849617421202 0.18777351164107661 0 -0.050411583818504503 0.1777900037548745 0 -0.040360849617421202 0.18777351164107661 0 -0.050411583818504503 0.1777900037548745 0 -0.039949487385523758 0.17426630734724691 0 -0.050411583818504503 0.1777900037548745 0 -0.039949487385523758 0.17426630734724691 0 -0.045636115300606919 0.16650756778262649 0 -0.040360849617421202 0.18777351164107661 0 -0.039949487385523758 0.17426630734724691 0 -0.026751027678188599 0.18229597604057349 0 -0.039949487385523758 0.17426630734724691 0 -0.036587860512897558 0.15696447751708351 0 -0.026751027678188599 0.18229597604057349 0 -0.036587860512897558 0.15696447751708351 0 -0.026751027678188599 0.18229597604057349 0 -0.039949487385523758 0.17426630734724691 0 -0.045636115300606919 0.16650756778262649 0 -0.036587860512897558 0.15696447751708351 0 -0.047012455662473793 0.15786975055381819 0 -0.045636115300606919 0.16650756778262649 0 -0.036587860512897558 0.15696447751708351 0 -0.01891215499648707 0.1765136475382359 0 -0.010861270542782259 0.1633038739619718 0 -0.027639103276038759 0.15537380566908321 0 -0.010861270542782259 0.1633038739619718 0 -0.027639103276038759 0.15537380566908321 0 -0.036587860512897558 0.15696447751708351 0 -0.01891215499648707 0.1765136475382359 0 -0.036587860512897558 0.15696447751708351 0 -0.01891215499648707 0.1765136475382359 0 -0.027639103276038759 0.15537380566908321 0 -0.01405220631290922 0.19352016069679451 0 -0.01891215499648707 0.1765136475382359 0 -0.026751027678188599 0.18229597604057349 0 -0.036587860512897558 0.15696447751708351 0 -0.01891215499648707 0.1765136475382359 0 -0.026751027678188599 0.18229597604057349 0 -0.01891215499648707 0.1765136475382359 0 -0.010861270542782259 0.1633038739619718 0 0.00061104658230836653 0.17769045695541219 0 -0.0012364494800765971 0.1960628175593882 0 -0.01891215499648707 0.1765136475382359 0 0.00061104658230836653 0.17769045695541219 0 -0.0012364494800765971 0.1960628175593882 0 -0.01891215499648707 0.1765136475382359 0 -0.010861270542782259 0.1633038739619718 0 0.001788155555331062 0.1557637096651584 0 0.00061104658230836653 0.17769045695541219 0 -0.01542264584752753 0.14956457798035719 0 -0.015783289274076458 0.13495459563681389 0 0.001788155555331062 0.1557637096651584 0 -0.015783289274076458 0.13495459563681389 0 0.001788155555331062 0.1557637096651584 0 0.01185912902997375 0.14130758542593569 0 -0.010861270542782259 0.1633038739619718 0 -0.01542264584752753 0.14956457798035719 0 0.001788155555331062 0.1557637096651584 0 -0.015783289274076458 0.13495459563681389 0 0.001788155555331062 0.1557637096651584 0 -0.01542264584752753 0.14956457798035719 0 -0.023159931299824549 0.14839209377580129 0 -0.027639103276038759 0.15537380566908321 0 -0.010861270542782259 0.1633038739619718 0 -0.01542264584752753 0.14956457798035719 0 -0.027639103276038759 0.15537380566908321 0 -0.01542264584752753 0.14956457798035719 0 -0.023159931299824549 0.14839209377580129 0 -0.021396469969749188 0.1374028974533886 0 -0.01542264584752753 0.14956457798035719 0 -0.021396469969749188 0.1374028974533886 0 -0.015783289274076458 0.13495459563681389 0 -0.030319635528424791 0.14770209815471691 0 -0.021396469969749188 0.1374028974533886 0 -0.023159931299824549 0.14839209377580129 0 -0.030319635528424791 0.14770209815471691 0 -0.021396469969749188 0.1374028974533886 0 -0.023159931299824549 0.14839209377580129 0 -0.030319635528424791 0.14770209815471691 0 -0.027639103276038759 0.15537380566908321 0 -0.028643554108799551 0.12806760582925611 0 -0.017506847497941139 0.13291345901070739 0 -0.032144953111298558 0.1155781737325411 0 -0.037500573576258918 0.13069979942664511 0 -0.028643554108799551 0.12806760582925611 0 -0.021396469969749188 0.1374028974533886 0 -0.021396469969749188 0.1374028974533886 0 -0.015783289274076458 0.13495459563681389 0 -0.017506847497941139 0.13291345901070739 0 -0.021396469969749188 0.1374028974533886 0 -0.015783289274076458 0.13495459563681389 0 -0.021396469969749188 0.1374028974533886 0 -0.017506847497941139 0.13291345901070739 0 -0.015783289274076458 0.13495459563681389 0 -0.017506847497941139 0.13291345901070739 0 -0.028643554108799551 0.12806760582925611 0 -0.021396469969749188 0.1374028974533886 0 -0.017506847497941139 0.13291345901070739 0 -0.015783289274076458 0.13495459563681389 0 -0.017506847497941139 0.13291345901070739 0 -0.0052228475358298988 0.1187351519746004 0 -0.015783289274076458 0.13495459563681389 0 -0.0052228475358298988 0.1187351519746004 0 0.0081407562022233586 0.1245196413435004 0 -0.017506847497941139 0.13291345901070739 0 -0.0052228475358298988 0.1187351519746004 0 -0.015783289274076458 0.13495459563681389 0 0.0081407562022233586 0.1245196413435004 0 -0.0052228475358298988 0.1187351519746004 0 -0.0040597014752050652 0.1051126182356364 0 -0.02761291541641378 0.1090435214711212 0 -0.017506847497941139 0.13291345901070739 0 -0.0052228475358298988 0.1187351519746004 0 -0.019344259015361451 0.119617058157429 0 -0.0040597014752050652 0.1051126182356364 0 -0.01533391803445322 0.09737838425916874 0 0.0051087594610210148 0.080527692295617709 0 -0.0052228475358298988 0.1187351519746004 0 -0.0040597014752050652 0.1051126182356364 0 0.0092582498306486675 0.1020209346744549 0 -0.0040597014752050652 0.1051126182356364 0 -0.01533391803445322 0.09737838425916874 0 -0.02761291541641378 0.1090435214711212 0 -0.01533391803445322 0.09737838425916874 0 -0.027797722535604891 0.095528124355643507 0 -0.02761291541641378 0.1090435214711212 0 -0.0052228475358298988 0.1187351519746004 0 -0.02761291541641378 0.1090435214711212 0 -0.019344259015361451 0.119617058157429 0 -0.017506847497941139 0.13291345901070739 0 -0.019344259015361451 0.119617058157429 0 -0.032144953111298558 0.1155781737325411 0 -0.02761291541641378 0.1090435214711212 0 -0.019344259015361451 0.119617058157429 0 -0.032144953111298558 0.1155781737325411 0 -0.0052228475358298988 0.1187351519746004 0 -0.02761291541641378 0.1090435214711212 0 -0.017506847497941139 0.13291345901070739 0 -0.032144953111298558 0.1155781737325411 0 -0.0012292332505543029 0.06378464068123596 0 -0.011084303888442551 0.081696622097620714 0 -0.018620569400409771 0.06708533464306303 0 -0.0012292332505543029 0.06378464068123596 0 -0.011084303888442551 0.081696622097620714 0 0.0051087594610210148 0.080527692295617709 0 -0.01533391803445322 0.09737838425916874 0 -0.011084303888442551 0.081696622097620714 0 0.0051087594610210148 0.080527692295617709 0 -0.01533391803445322 0.09737838425916874 0 0.0051087594610210148 0.080527692295617709 0 -0.011084303888442551 0.081696622097620714 0 0.0051087594610210148 0.080527692295617709 0 -0.027797722535604891 0.095528124355643507 0 -0.011084303888442551 0.081696622097620714 0 -0.032921925083363349 0.0833654898886593 0 -0.01533391803445322 0.09737838425916874 0 -0.027797722535604891 0.095528124355643507 0 -0.011084303888442551 0.081696622097620714 0 -0.018620569400409771 0.06708533464306303 0 -0.031868141831282552 0.069818555696904067 0 -0.028283535649973771 0.053358049395037133 0 -0.018620569400409771 0.06708533464306303 0 -0.031868141831282552 0.069818555696904067 0 -0.032921925083363349 0.0833654898886593 0 -0.011084303888442551 0.081696622097620714 0 -0.018620569400409771 0.06708533464306303 0 -0.032921925083363349 0.0833654898886593 0 -0.046276495737503101 0.06795068115397529 0 -0.032921925083363349 0.0833654898886593 0 -0.055882409073029139 0.082732437330199013 0 -0.046276495737503101 0.06795068115397529 0 -0.031868141831282552 0.069818555696904067 0 -0.028283535649973771 0.053358049395037133 0 -0.046276495737503101 0.06795068115397529 0 -0.031868141831282552 0.069818555696904067 0 -0.032921925083363349 0.0833654898886593 0 -0.027797722535604891 0.095528124355643507 0 -0.032921925083363349 0.0833654898886593 0 -0.050002983296997462 0.099351890967641507 0 -0.032921925083363349 0.0833654898886593 0 -0.055882409073029139 0.082732437330199013 0 -0.050002983296997462 0.099351890967641507 0 -0.055882409073029139 0.082732437330199013 0 -0.050002983296997462 0.099351890967641507 0 -0.072393051177581158 0.089660260464161839 0 -0.046276495737503101 0.06795068115397529 0 -0.055882409073029139 0.082732437330199013 0 -0.062589921296568873 0.06642957971461419 0 -0.032144953111298558 0.1155781737325411 0 -0.050002983296997462 0.099351890967641507 0 -0.046884900963607742 0.11986348336078891 0 -0.037500573576258918 0.13069979942664511 0 -0.034668926388748328 0.1237436995229996 0 -0.046884900963607742 0.11986348336078891 0 -0.028643554108799551 0.12806760582925611 0 -0.034668926388748328 0.1237436995229996 0 -0.032144953111298558 0.1155781737325411 0 -0.034668926388748328 0.1237436995229996 0 -0.032144953111298558 0.1155781737325411 0 -0.046884900963607742 0.11986348336078891 0 -0.027797722535604891 0.095528124355643507 0 -0.02761291541641378 0.1090435214711212 0 -0.050002983296997462 0.099351890967641507 0 -0.02761291541641378 0.1090435214711212 0 -0.050002983296997462 0.099351890967641507 0 -0.02761291541641378 0.1090435214711212 0 -0.032144953111298558 0.1155781737325411 0 -0.050002983296997462 0.099351890967641507 0 -0.050002983296997462 0.099351890967641507 0 -0.072393051177581158 0.089660260464161839 0 -0.050002983296997462 0.099351890967641507 0 -0.062115440392200259 0.1100516779477724 0 -0.072393051177581158 0.089660260464161839 0 -0.062016764747578973 0.12884034001808189 0 -0.062115440392200259 0.1100516779477724 0 -0.046884900963607742 0.11986348336078891 0 -0.050002983296997462 0.099351890967641507 0 -0.062115440392200259 0.1100516779477724 0 -0.046884900963607742 0.11986348336078891 0 -0.062016764747578973 0.12884034001808189 0 -0.062115440392200259 0.1100516779477724 0 -0.07825578499994286 0.1108801308713713 0 -0.062016764747578973 0.12884034001808189 0 -0.07825578499994286 0.1108801308713713 0 -0.062016764747578973 0.12884034001808189 0 -0.075786521408142987 0.12443322189858901 0 -0.07825578499994286 0.1108801308713713 0 -0.088852304720190942 0.12644129241805541 0 -0.075786521408142987 0.12443322189858901 0 -0.083719546898917335 0.119699814685821 0 -0.083719546898917335 0.119699814685821 0 -0.07825578499994286 0.1108801308713713 0 -0.093946486761182085 0.1175508364221631 0 -0.075786521408142987 0.12443322189858901 0 -0.083719546898917335 0.119699814685821 0 -0.07825578499994286 0.1108801308713713 0 -0.088852304720190942 0.12644129241805541 0 -0.083719546898917335 0.119699814685821 0 -0.093946486761182085 0.1175508364221631 0 -0.07825578499994286 0.1108801308713713 0 -0.072393051177581158 0.089660260464161839 0 -0.094494805252306774 0.092919921724660626 0 -0.07825578499994286 0.1108801308713713 0 -0.094494805252306774 0.092919921724660626 0 -0.093946486761182085 0.1175508364221631 0 -0.07825578499994286 0.1108801308713713 0 -0.094494805252306774 0.092919921724660626 0 -0.062115440392200259 0.1100516779477724 0 -0.07825578499994286 0.1108801308713713 0 -0.072393051177581158 0.089660260464161839 0 -0.055882409073029139 0.082732437330199013 0 -0.072393051177581158 0.089660260464161839 0 -0.062589921296568873 0.06642957971461419 0 -0.072393051177581158 0.089660260464161839 0 -0.062589921296568873 0.06642957971461419 0 -0.079461892795990779 0.070449194571112136 0 -0.062589921296568873 0.06642957971461419 0 -0.079461892795990779 0.070449194571112136 0 -0.072380178782229632 0.053292134703331731 0 -0.079461892795990779 0.070449194571112136 0 -0.094783119058163612 0.079968629960679383 0 -0.095163193665411511 0.062895368012773595 0 -0.072393051177581158 0.089660260464161839 0 -0.079461892795990779 0.070449194571112136 0 -0.094783119058163612 0.079968629960679383 0 -0.072393051177581158 0.089660260464161839 0 -0.094494805252306774 0.092919921724660626 0 -0.094783119058163612 0.079968629960679383 0 -0.072393051177581158 0.089660260464161839 0 -0.094783119058163612 0.079968629960679383 0 -0.094494805252306774 0.092919921724660626 0 -0.1072570836689255 0.074569224449017327 0 -0.1143352617609841 0.070976556735617355 0 -0.094494805252306774 0.092919921724660626 0 -0.094783119058163612 0.079968629960679383 0 -0.1072570836689255 0.074569224449017327 0 -0.094494805252306774 0.092919921724660626 0 -0.094783119058163612 0.079968629960679383 0 -0.094494805252306774 0.092919921724660626 0 -0.1143352617609841 0.070976556735617355 0 -0.11134444788944529 0.091345452974062963 0 -0.094494805252306774 0.092919921724660626 0 -0.1143352617609841 0.070976556735617355 0 -0.094783119058163612 0.079968629960679383 0 -0.095163193665411511 0.062895368012773595 0 -0.094783119058163612 0.079968629960679383 0 -0.095163193665411511 0.062895368012773595 0 -0.1072570836689255 0.074569224449017327 0 -0.095163193665411511 0.062895368012773595 0 -0.1143352617609841 0.070976556735617355 0 -0.1079186055395126 0.059947093390224047 0 -0.095163193665411511 0.062895368012773595 0 -0.1072570836689255 0.074569224449017327 0 -0.1143352617609841 0.070976556735617355 0 -0.095163193665411511 0.062895368012773595 0 -0.1143352617609841 0.070976556735617355 0 -0.094783119058163612 0.079968629960679383 0 -0.1072570836689255 0.074569224449017327 0 -0.1131683311422218 0.062814464837820119 0 -0.1163519950294771 0.068746068028026575 0 -0.1143352617609841 0.070976556735617355 0 -0.1131683311422218 0.062814464837820119 0 -0.1143352617609841 0.070976556735617355 0 -0.1079186055395126 0.059947093390224047 0 -0.1131683311422218 0.062814464837820119 0 -0.1163519950294771 0.068746068028026575 0 -0.1185872066977806 0.063729502839677182 0 -0.1163519950294771 0.068746068028026575 0 -0.1143352617609841 0.070976556735617355 0 -0.12697985749263241 0.07630636069427757 0 -0.1143352617609841 0.070976556735617355 0 -0.12697985749263241 0.07630636069427757 0 -0.1143352617609841 0.070976556735617355 0 -0.1200161930876608 0.081776906418299489 0 -0.12697985749263241 0.07630636069427757 0 -0.1163519950294771 0.068746068028026575 0 -0.1143352617609841 0.070976556735617355 0 -0.12697985749263241 0.07630636069427757 0 -0.12509646681095879 0.065597408261105467 0 -0.1163519950294771 0.068746068028026575 0 -0.12509646681095879 0.065597408261105467 0 -0.1163519950294771 0.068746068028026575 0 -0.1185872066977806 0.063729502839677182 0 -0.13359630628803579 0.098968800084119873 0 -0.12697672020224329 0.087309090757334687 0 -0.11134444788944529 0.091345452974062963 0 -0.1143352617609841 0.070976556735617355 0 -0.11134444788944529 0.091345452974062963 0 -0.1200161930876608 0.081776906418299489 0 -0.12697672020224329 0.087309090757334687 0 -0.11134444788944529 0.091345452974062963 0 -0.1200161930876608 0.081776906418299489 0 -0.12697672020224329 0.087309090757334687 0 -0.12697985749263241 0.07630636069427757 0 -0.1200161930876608 0.081776906418299489 0 -0.12607259725238279 0.11330641960449821 0 -0.13359630628803579 0.098968800084119873 0 -0.11123038207674001 0.1082681122756106 0 -0.13359630628803579 0.098968800084119873 0 -0.11134444788944529 0.091345452974062963 0 -0.11123038207674001 0.1082681122756106 0 -0.13359630628803579 0.098968800084119873 0 -0.11123038207674001 0.1082681122756106 0 -0.11134444788944529 0.091345452974062963 0 -0.11123038207674001 0.1082681122756106 0 -0.1057361510920251 0.099277959283072717 0 -0.12607259725238279 0.11330641960449821 0 -0.11123038207674001 0.1082681122756106 0 -0.11706151063611089 0.1208882391850464 0 -0.12607259725238279 0.11330641960449821 0 -0.12916618827146031 0.12390190950899049 0 -0.11706151063611089 0.1208882391850464 0 -0.11473911200363 0.13153944404780621 0 -0.11706151063611089 0.1208882391850464 0 -0.10601879130899509 0.12208205668825579 0 -0.1036345166478785 0.1154037657297244 0 -0.093946486761182085 0.1175508364221631 0 -0.097511277885226108 0.1010939306234323 0 -0.11123038207674001 0.1082681122756106 0 -0.11706151063611089 0.1208882391850464 0 -0.097511277885226108 0.1010939306234323 0 -0.11706151063611089 0.1208882391850464 0 -0.1036345166478785 0.1154037657297244 0 -0.097511277885226108 0.1010939306234323 0 -0.11706151063611089 0.1208882391850464 0 -0.097511277885226108 0.1010939306234323 0 -0.11706151063611089 0.1208882391850464 0 -0.1036345166478785 0.1154037657297244 0 -0.10601879130899509 0.12208205668825579 0 -0.1039338124667491 0.13009472872812991 0 -0.10601879130899509 0.12208205668825579 0 -0.093946486761182085 0.1175508364221631 0 -0.1036345166478785 0.1154037657297244 0 -0.10601879130899509 0.12208205668825579 0 -0.093946486761182085 0.1175508364221631 0 -0.094494805252306774 0.092919921724660626 0 -0.11134444788944529 0.091345452974062963 0 -0.1057361510920251 0.099277959283072717 0 -0.094494805252306774 0.092919921724660626 0 -0.093946486761182085 0.1175508364221631 0 -0.094494805252306774 0.092919921724660626 0 -0.093946486761182085 0.1175508364221631 0 -0.097511277885226108 0.1010939306234323 0 -0.094494805252306774 0.092919921724660626 0 -0.097511277885226108 0.1010939306234323 0 -0.1057361510920251 0.099277959283072717 0 -0.11123038207674001 0.1082681122756106 0 -0.097511277885226108 0.1010939306234323 0 -0.1057361510920251 0.099277959283072717 0 -0.1001339578063882 0.022436777626384768 0 -0.09536928659882779 0.01424719335382847 0 -0.1128440433065038 0.01636018592503535 0 -0.1001339578063882 0.022436777626384768 0 -0.1128440433065038 0.01636018592503535 0 -0.1012358460944251 0.033108064834657697 0 -0.1128440433065038 0.01636018592503535 0 -0.11393466639619521 0.035004472642448957 0 -0.1012358460944251 0.033108064834657697 0 -0.1128440433065038 0.01636018592503535 0 -0.1012358460944251 0.033108064834657697 0 -0.1001339578063882 0.022436777626384768 0 -0.1012358460944251 0.033108064834657697 0 -0.091086655225796079 0.026031666392017531 0 -0.1001339578063882 0.022436777626384768 0 -0.09536928659882779 0.01424719335382847 0 -0.091086655225796079 0.026031666392017531 0 -0.10394313851700079 0.0020556251079679459 0 -0.09536928659882779 0.01424719335382847 0 -0.085958893623968774 0.001514634656162053 0 -0.10394313851700079 0.0020556251079679459 0 -0.09536928659882779 0.01424719335382847 0 -0.1128440433065038 0.01636018592503535 0 -0.1244522405185825 -0.00038769298458709092 0 -0.12424451236807239 0.027069144312366941 0 -0.1244522405185825 -0.00038769298458709092 0 -0.1128440433065038 0.01636018592503535 0 -0.12424451236807239 0.027069144312366941 0 -0.1244522405185825 -0.00038769298458709092 0 -0.1128440433065038 0.01636018592503535 0 -0.1244522405185825 -0.00038769298458709092 0 -0.10394313851700079 0.0020556251079679459 0 -0.1128440433065038 0.01636018592503535 0 -0.1128440433065038 0.01636018592503535 0 -0.12424451236807239 0.027069144312366941 0 -0.11393466639619521 0.035004472642448957 0 -0.12424451236807239 0.027069144312366941 0 -0.12075472355362291 0.04122338309529356 0 -0.11393466639619521 0.035004472642448957 0 -0.12075472355362291 0.04122338309529356 0 -0.1244920148619628 0.050381604022983993 0 -0.1151670195775447 0.0482238646449 0 -0.11393466639619521 0.035004472642448957 0 -0.1151670195775447 0.0482238646449 0 -0.10635909785250069 0.04125385698526951 0 -0.12075472355362291 0.04122338309529356 0 -0.11393466639619521 0.035004472642448957 0 -0.1151670195775447 0.0482238646449 0 -0.12509646681095879 0.065597408261105467 0 -0.1185872066977806 0.063729502839677182 0 -0.1197320338084647 0.057760070231756527 0 -0.1197320338084647 0.057760070231756527 0 -0.1244920148619628 0.050381604022983993 0 -0.1151670195775447 0.0482238646449 0 -0.1151670195775447 0.0482238646449 0 -0.1125210466915524 0.054978807834542787 0 -0.1051700993263314 0.050476507920077678 0 -0.1197320338084647 0.057760070231756527 0 -0.1151670195775447 0.0482238646449 0 -0.1125210466915524 0.054978807834542787 0 -0.1131683311422218 0.062814464837820119 0 -0.1197320338084647 0.057760070231756527 0 -0.1125210466915524 0.054978807834542787 0 -0.1131683311422218 0.062814464837820119 0 -0.1125210466915524 0.054978807834542787 0 -0.1079186055395126 0.059947093390224047 0 -0.1131683311422218 0.062814464837820119 0 -0.1185872066977806 0.063729502839677182 0 -0.1197320338084647 0.057760070231756527 0 -0.095163193665411511 0.062895368012773595 0 -0.1051700993263314 0.050476507920077678 0 -0.095336714328198874 0.041619114628837717 0 -0.095163193665411511 0.062895368012773595 0 -0.095336714328198874 0.041619114628837717 0 -0.1125210466915524 0.054978807834542787 0 -0.1079186055395126 0.059947093390224047 0 -0.1051700993263314 0.050476507920077678 0 -0.095163193665411511 0.062895368012773595 0 -0.1079186055395126 0.059947093390224047 0 -0.1051700993263314 0.050476507920077678 0 -0.11393466639619521 0.035004472642448957 0 -0.10635909785250069 0.04125385698526951 0 -0.1012358460944251 0.033108064834657697 0 -0.1051700993263314 0.050476507920077678 0 -0.10635909785250069 0.04125385698526951 0 -0.095336714328198874 0.041619114628837717 0 -0.1151670195775447 0.0482238646449 0 -0.1051700993263314 0.050476507920077678 0 -0.10635909785250069 0.04125385698526951 0 -0.095336714328198874 0.041619114628837717 0 -0.1012358460944251 0.033108064834657697 0 -0.08853862327275358 0.036894035852943478 0 -0.10635909785250069 0.04125385698526951 0 -0.095336714328198874 0.041619114628837717 0 -0.1012358460944251 0.033108064834657697 0 -0.095336714328198874 0.041619114628837717 0 -0.1012358460944251 0.033108064834657697 0 -0.1012358460944251 0.033108064834657697 0 -0.08853862327275358 0.036894035852943478 0 -0.091086655225796079 0.026031666392017531 0 -0.08853862327275358 0.036894035852943478 0 -0.081088353484909961 0.032020518526829703 0 -0.091086655225796079 0.026031666392017531 0 -0.08853862327275358 0.036894035852943478 0 -0.079654612676290371 0.043453985766932421 0 -0.089627648882346422 0.049855943744280047 0 -0.095336714328198874 0.041619114628837717 0 -0.08853862327275358 0.036894035852943478 0 -0.089627648882346422 0.049855943744280047 0 -0.095336714328198874 0.041619114628837717 0 -0.089627648882346422 0.049855943744280047 0 -0.08853862327275358 0.036894035852943478 0 -0.079654612676290371 0.043453985766932421 0 -0.081088353484909961 0.032020518526829703 0 -0.095163193665411511 0.062895368012773595 0 -0.089627648882346422 0.049855943744280047 0 -0.072380178782229632 0.053292134703331731 0 -0.095163193665411511 0.062895368012773595 0 -0.095336714328198874 0.041619114628837717 0 -0.089627648882346422 0.049855943744280047 0 -0.095163193665411511 0.062895368012773595 0 -0.072380178782229632 0.053292134703331731 0 -0.079461892795990779 0.070449194571112136 0 -0.095163193665411511 0.062895368012773595 0 -0.072380178782229632 0.053292134703331731 0 -0.079654612676290371 0.043453985766932421 0 -0.089627648882346422 0.049855943744280047 0 -0.072380178782229632 0.053292134703331731 0 -0.079654612676290371 0.043453985766932421 0 -0.072380178782229632 0.053292134703331731 0 -0.065785112224924183 0.037111289768743512 0 -0.072380178782229632 0.053292134703331731 0 -0.065785112224924183 0.037111289768743512 0 -0.049597163899048183 0.043688901393888827 0 -0.079654612676290371 0.043453985766932421 0 -0.081088353484909961 0.032020518526829703 0 -0.065785112224924183 0.037111289768743512 0 -0.081088353484909961 0.032020518526829703 0 -0.065785112224924183 0.037111289768743512 0 -0.069646162847898541 0.026335067629459381 0 -0.069646162847898541 0.026335067629459381 0 -0.076118231742993758 0.01527396050979404 0 -0.05559295393876626 0.02093450171247024 0 -0.065785112224924183 0.037111289768743512 0 -0.069646162847898541 0.026335067629459381 0 -0.05559295393876626 0.02093450171247024 0 -0.081088353484909961 0.032020518526829703 0 -0.069646162847898541 0.026335067629459381 0 -0.076118231742993758 0.01527396050979404 0 -0.081088353484909961 0.032020518526829703 0 -0.091086655225796079 0.026031666392017531 0 -0.076118231742993758 0.01527396050979404 0 -0.09536928659882779 0.01424719335382847 0 -0.091086655225796079 0.026031666392017531 0 -0.076118231742993758 0.01527396050979404 0 -0.09536928659882779 0.01424719335382847 0 -0.085958893623968774 0.001514634656162053 0 -0.076118231742993758 0.01527396050979404 0 -0.076118231742993758 0.01527396050979404 0 -0.065648076432031049 0.00090955339710942099 0 -0.05559295393876626 0.02093450171247024 0 -0.085958893623968774 0.001514634656162053 0 -0.076118231742993758 0.01527396050979404 0 -0.065648076432031049 0.00090955339710942099 0 -0.045118160941850949 -0.00049033847668307538 0 -0.065648076432031049 0.00090955339710942099 0 -0.05559295393876626 0.02093450171247024 0 -0.05559295393876626 0.02093450171247024 0 -0.041197297059898302 0.028587588038626519 0 -0.049597163899048183 0.043688901393888827 0 -0.05559295393876626 0.02093450171247024 0 -0.032784921385912158 0.01564128096370114 0 -0.041197297059898302 0.028587588038626519 0 -0.032784921385912158 0.01564128096370114 0 -0.041197297059898302 0.028587588038626519 0 -0.02681414901586664 0.034085668084445887 0 -0.045118160941850949 -0.00049033847668307538 0 -0.05559295393876626 0.02093450171247024 0 -0.032784921385912158 0.01564128096370114 0 -0.045118160941850949 -0.00049033847668307538 0 -0.027025641752002061 -0.0079319500279313396 0 -0.032784921385912158 0.01564128096370114 0 -0.062589921296568873 0.06642957971461419 0 -0.072380178782229632 0.053292134703331731 0 -0.049597163899048183 0.043688901393888827 0 -0.046276495737503101 0.06795068115397529 0 -0.062589921296568873 0.06642957971461419 0 -0.049597163899048183 0.043688901393888827 0 -0.072380178782229632 0.053292134703331731 0 -0.049597163899048183 0.043688901393888827 0 -0.065785112224924183 0.037111289768743512 0 -0.05559295393876626 0.02093450171247024 0 -0.049597163899048183 0.043688901393888827 0 -0.049597163899048183 0.043688901393888827 0 -0.02681414901586664 0.034085668084445887 0 -0.041197297059898302 0.028587588038626519 0 -0.049597163899048183 0.043688901393888827 0 -0.02681414901586664 0.034085668084445887 0 -0.049597163899048183 0.043688901393888827 0 -0.028283535649973771 0.053358049395037133 0 -0.02681414901586664 0.034085668084445887 0 -0.046276495737503101 0.06795068115397529 0 -0.028283535649973771 0.053358049395037133 0 -0.046276495737503101 0.06795068115397529 0 -0.049597163899048183 0.043688901393888827 0 -0.028283535649973771 0.053358049395037133 0 -0.028283535649973771 0.053358049395037133 0 -0.010290575562444429 0.038765417636098962 0 -0.0097640400442320502 0.053032197103308337 0 -0.018620569400409771 0.06708533464306303 0 -0.028283535649973771 0.053358049395037133 0 -0.0097640400442320502 0.053032197103308337 0 -0.028283535649973771 0.053358049395037133 0 -0.010290575562444429 0.038765417636098962 0 -0.02681414901586664 0.034085668084445887 0 -0.010290575562444429 0.038765417636098962 0 -0.020835528804160591 0.022374223573919171 0 -0.028283535649973771 0.053358049395037133 0 -0.02681414901586664 0.034085668084445887 0 -0.010290575562444429 0.038765417636098962 0 -0.010290575562444429 0.038765417636098962 0 0.0077023845250848884 0.024172785877160811 0 -0.010290575562444429 0.038765417636098962 0 -0.0034349793211087142 0.044893397967285961 0 0.0047272217829380687 0.036246676438490527 0 -0.010290575562444429 0.038765417636098962 0 -0.0034349793211087142 0.044893397967285961 0 -0.0097640400442320502 0.053032197103308337 0 -0.0012292332505543029 0.06378464068123596 0 -0.018620569400409771 0.06708533464306303 0 -0.0097640400442320502 0.053032197103308337 0 -0.0034349793211087142 0.044893397967285961 0 -0.0097640400442320502 0.053032197103308337 0 0.0015874765393035599 0.051529300691246019 0 -0.0012292332505543029 0.06378464068123596 0 -0.0097640400442320502 0.053032197103308337 0 0.0015874765393035599 0.051529300691246019 0 -0.027025641752002061 -0.0079319500279313396 0 -0.032784921385912158 0.01564128096370114 0 -0.01566814095190756 0.010235570601176981 0 -0.032784921385912158 0.01564128096370114 0 -0.02681414901586664 0.034085668084445887 0 -0.020835528804160591 0.022374223573919171 0 -0.032784921385912158 0.01564128096370114 0 -0.01566814095190756 0.010235570601176981 0 -0.020835528804160591 0.022374223573919171 0 -0.010290575562444429 0.038765417636098962 0 -0.020835528804160591 0.022374223573919171 0 -0.0077262750329500059 0.02266504195052366 0 -0.01566814095190756 0.010235570601176981 0 -0.020835528804160591 0.022374223573919171 0 -0.0077262750329500059 0.02266504195052366 0 -0.010290575562444429 0.038765417636098962 0 -0.0077262750329500059 0.02266504195052366 0 0.0077023845250848884 0.024172785877160811 0 -0.0091716063734174208 -0.003332990253060792 0 -0.01566814095190756 0.010235570601176981 0 0.001118487675879971 0.0096665619175221752 0 -0.0091716063734174208 -0.003332990253060792 0 0.001118487675879971 0.0096665619175221752 0 0.006935528729737548 -0.0054826371559186567 0 -0.01566814095190756 0.010235570601176981 0 -0.0077262750329500059 0.02266504195052366 0 0.001118487675879971 0.0096665619175221752 0 0.001118487675879971 0.0096665619175221752 0 0.0077023845250848884 0.024172785877160811 0 0.025695344612614111 0.0095801541182225364 0 0.001118487675879971 0.0096665619175221752 0 0.025695344612614111 0.0095801541182225364 0 0.006935528729737548 -0.0054826371559186567 0 -0.0077262750329500059 0.02266504195052366 0 0.001118487675879971 0.0096665619175221752 0 0.0077023845250848884 0.024172785877160811 0 0.0077023845250848884 0.024172785877160811 0 0.024648998497944961 0.02642224341189468 0 0.015911730558903318 0.034762274935307848 0 0.024648998497944961 0.02642224341189468 0 0.025695344612614111 0.0095801541182225364 0 0.038363400138324961 0.019751697241263279 0 0.0077023845250848884 0.024172785877160811 0 0.024648998497944961 0.02642224341189468 0 0.025695344612614111 0.0095801541182225364 0 0.0077023845250848884 0.024172785877160811 0 0.025695344612614111 0.0095801541182225364 0 0.025695344612614111 0.0095801541182225364 0 0.006935528729737548 -0.0054826371559186567 0 0.01459521235494949 0.061710637509134872 0 0.0047272217829380687 0.036246676438490527 0 -0.0012292332505543029 0.06378464068123596 0 0.01459521235494949 0.061710637509134872 0 0.0015874765393035599 0.051529300691246019 0 0.01459521235494949 0.061710637509134872 0 0.0015874765393035599 0.051529300691246019 0 0.0047272217829380687 0.036246676438490527 0 0.01459521235494949 0.061710637509134872 0 0.0047272217829380687 0.036246676438490527 0 0.016570281580619739 0.045526930476817662 0 -0.010290575562444429 0.038765417636098962 0 0.0077023845250848884 0.024172785877160811 0 0.0047272217829380687 0.036246676438490527 0 -0.0034349793211087142 0.044893397967285961 0 0.0015874765393035599 0.051529300691246019 0 0.0047272217829380687 0.036246676438490527 0 0.0047272217829380687 0.036246676438490527 0 0.015911730558903318 0.034762274935307848 0 0.016570281580619739 0.045526930476817662 0 0.0077023845250848884 0.024172785877160811 0 0.0047272217829380687 0.036246676438490527 0 0.015911730558903318 0.034762274935307848 0 0.024648998497944961 0.02642224341189468 0 0.015911730558903318 0.034762274935307848 0 0.025892041879535671 0.039420421904702428 0 0.024648998497944961 0.02642224341189468 0 0.025892041879535671 0.039420421904702428 0 0.038236142792751733 0.035111405712831077 0 0.015911730558903318 0.034762274935307848 0 0.025892041879535671 0.039420421904702428 0 0.016570281580619739 0.045526930476817662 0 0.025892041879535671 0.039420421904702428 0 0.016570281580619739 0.045526930476817662 0 0.021716339062575678 0.05448348331271597 0 0.01459521235494949 0.061710637509134872 0 0.016570281580619739 0.045526930476817662 0 0.021716339062575678 0.05448348331271597 0 0.01459521235494949 0.061710637509134872 0 0.021716339062575678 0.05448348331271597 0 0.030459386295035529 0.05963142741263059 0 0.01459521235494949 0.061710637509134872 0 0.030459386295035529 0.05963142741263059 0 0.021716339062575678 0.05448348331271597 0 0.030459386295035529 0.05963142741263059 0 0.032703710623893968 0.046893395464013943 0 0.025892041879535671 0.039420421904702428 0 0.021716339062575678 0.05448348331271597 0 0.032703710623893968 0.046893395464013943 0 0.030459386295035529 0.05963142741263059 0 0.032703710623893968 0.046893395464013943 0 0.047214643089571059 0.045820238977188371 0 0.030459386295035529 0.05963142741263059 0 0.04797297407010033 0.057336039788577382 0 0.030459386295035529 0.05963142741263059 0 0.04797297407010033 0.057336039788577382 0 0.027635028654909001 0.06907575978797427 0 0.030459386295035529 0.05963142741263059 0 0.047214643089571059 0.045820238977188371 0 0.04797297407010033 0.057336039788577382 0 0.030459386295035529 0.05963142741263059 0 0.047214643089571059 0.045820238977188371 0 0.038236142792751733 0.035111405712831077 0 0.047214643089571059 0.045820238977188371 0 0.051031455664035288 0.029923240364304559 0 0.032703710623893968 0.046893395464013943 0 0.038236142792751733 0.035111405712831077 0 0.047214643089571059 0.045820238977188371 0 0.025892041879535671 0.039420421904702428 0 0.032703710623893968 0.046893395464013943 0 0.038236142792751733 0.035111405712831077 0 0.062359133547200143 0.040731400683572692 0 0.047214643089571059 0.045820238977188371 0 0.063969899884107562 0.032009050541747332 0 0.047214643089571059 0.045820238977188371 0 0.063969899884107562 0.032009050541747332 0 0.047214643089571059 0.045820238977188371 0 0.051031455664035288 0.029923240364304559 0 0.063969899884107562 0.032009050541747332 0 0.062359133547200143 0.040731400683572692 0 0.04797297407010033 0.057336039788577382 0 0.072379857481358154 0.054137194478101919 0 0.04797297407010033 0.057336039788577382 0 0.072379857481358154 0.054137194478101919 0 0.062359133547200143 0.040731400683572692 0 0.04797297407010033 0.057336039788577382 0 0.062359133547200143 0.040731400683572692 0 0.047214643089571059 0.045820238977188371 0 0.04797297407010033 0.057336039788577382 0 0.04797297407010033 0.057336039788577382 0 0.072379857481358154 0.054137194478101919 0 0.06072113176624426 0.066105246874810966 0 0.040835927619124697 0.0088703260301804514 0 0.038363400138324961 0.019751697241263279 0 0.051939500327619889 0.017318508583630769 0 0.040835927619124697 0.0088703260301804514 0 0.046640351189982193 0.001482106492276504 0 0.040314465242246092 -0.002276229875846851 0 0.025695344612614111 0.0095801541182225364 0 0.040314465242246092 -0.002276229875846851 0 0.025695344612614111 0.0095801541182225364 0 0.040835927619124697 0.0088703260301804514 0 0.040314465242246092 -0.002276229875846851 0 0.025695344612614111 0.0095801541182225364 0 0.040835927619124697 0.0088703260301804514 0 0.038363400138324961 0.019751697241263279 0 0.025695344612614111 0.0095801541182225364 0 0.038363400138324961 0.019751697241263279 0 0.024648998497944961 0.02642224341189468 0 0.038236142792751733 0.035111405712831077 0 0.038363400138324961 0.019751697241263279 0 0.038363400138324961 0.019751697241263279 0 0.051031455664035288 0.029923240364304559 0 0.038236142792751733 0.035111405712831077 0 0.038363400138324961 0.019751697241263279 0 0.051031455664035288 0.029923240364304559 0 0.038363400138324961 0.019751697241263279 0 0.051939500327619889 0.017318508583630769 0 0.051031455664035288 0.029923240364304559 0 0.051031455664035288 0.029923240364304559 0 0.062107590562420073 0.0228568457980407 0 0.063969899884107562 0.032009050541747332 0 0.051939500327619889 0.017318508583630769 0 0.062107590562420073 0.0228568457980407 0 0.064696567818308529 0.01472149906873369 0 0.051939500327619889 0.017318508583630769 0 0.051031455664035288 0.029923240364304559 0 0.062107590562420073 0.0228568457980407 0 0.055514373943813228 0.0067304088365214816 0 0.075461568133428525 0.0044331687040122013 0 0.049896637954744763 -0.0073960790217490677 0 0.051939500327619889 0.017318508583630769 0 0.055514373943813228 0.0067304088365214816 0 0.064696567818308529 0.01472149906873369 0 0.040835927619124697 0.0088703260301804514 0 0.051939500327619889 0.017318508583630769 0 0.055514373943813228 0.0067304088365214816 0 0.046640351189982193 0.001482106492276504 0 0.055514373943813228 0.0067304088365214816 0 0.049896637954744763 -0.0073960790217490677 0 0.040835927619124697 0.0088703260301804514 0 0.046640351189982193 0.001482106492276504 0 0.055514373943813228 0.0067304088365214816 0 0.075461568133428525 0.0044331687040122013 0 0.064696567818308529 0.01472149906873369 0 0.08072515667864405 0.018197862106306289 0 0.055514373943813228 0.0067304088365214816 0 0.075461568133428525 0.0044331687040122013 0 0.064696567818308529 0.01472149906873369 0 0.075461568133428525 0.0044331687040122013 0 0.1010264983121123 0.016262416429773479 0 0.075461568133428525 0.0044331687040122013 0 0.1010264983121123 0.016262416429773479 0 0.098011391193308373 -0.0056982583262641584 0 0.075461568133428525 0.0044331687040122013 0 0.08072515667864405 0.018197862106306289 0 0.1010264983121123 0.016262416429773479 0 0.088041666307225416 0.02743399724937181 0 0.08072515667864405 0.018197862106306289 0 0.1010264983121123 0.016262416429773479 0 0.088041666307225416 0.02743399724937181 0 0.08072515667864405 0.018197862106306289 0 0.076745293024301803 0.02412676157856956 0 0.088041666307225416 0.02743399724937181 0 0.076745293024301803 0.02412676157856956 0 0.082258845210710349 0.03253561428057717 0 0.08072515667864405 0.018197862106306289 0 0.076745293024301803 0.02412676157856956 0 0.063969899884107562 0.032009050541747332 0 0.062107590562420073 0.0228568457980407 0 0.064696567818308529 0.01472149906873369 0 0.08072515667864405 0.018197862106306289 0 0.08072515667864405 0.018197862106306289 0 0.063969899884107562 0.032009050541747332 0 0.062107590562420073 0.0228568457980407 0 0.08072515667864405 0.018197862106306289 0 0.063969899884107562 0.032009050541747332 0 0.062359133547200143 0.040731400683572692 0 0.076745293024301803 0.02412676157856956 0 0.062359133547200143 0.040731400683572692 0 0.076745293024301803 0.02412676157856956 0 0.076375628159171968 0.038405412939545532 0 0.062359133547200143 0.040731400683572692 0 0.076745293024301803 0.02412676157856956 0 0.063969899884107562 0.032009050541747332 0 0.062359133547200143 0.040731400683572692 0 0.076375628159171968 0.038405412939545532 0 0.072379857481358154 0.054137194478101919 0 0.072379857481358154 0.054137194478101919 0 0.087872793352142223 0.040176285354821803 0 0.096786740892615686 0.050938349167624693 0 0.072379857481358154 0.054137194478101919 0 0.096786740892615686 0.050938349167624693 0 0.072379857481358154 0.054137194478101919 0 0.096786740892615686 0.050938349167624693 0 0.089592915186254174 0.067390154600646832 0 0.076375628159171968 0.038405412939545532 0 0.072379857481358154 0.054137194478101919 0 0.087872793352142223 0.040176285354821803 0 0.076375628159171968 0.038405412939545532 0 0.082258845210710349 0.03253561428057717 0 0.087872793352142223 0.040176285354821803 0 0.076745293024301803 0.02412676157856956 0 0.076375628159171968 0.038405412939545532 0 0.082258845210710349 0.03253561428057717 0 0.088041666307225416 0.02743399724937181 0 0.087872793352142223 0.040176285354821803 0 0.098246025398924644 0.032379674771496843 0 0.088041666307225416 0.02743399724937181 0 0.082258845210710349 0.03253561428057717 0 0.087872793352142223 0.040176285354821803 0 0.098246025398924644 0.032379674771496843 0 0.09859813872304253 0.041737690340159041 0 0.1063796333462841 0.038668109643535398 0 0.087872793352142223 0.040176285354821803 0 0.098246025398924644 0.032379674771496843 0 0.09859813872304253 0.041737690340159041 0 0.087872793352142223 0.040176285354821803 0 0.09859813872304253 0.041737690340159041 0 0.096786740892615686 0.050938349167624693 0 0.09859813872304253 0.041737690340159041 0 0.1037055006252459 0.04652603276331644 0 0.096786740892615686 0.050938349167624693 0 0.1037055006252459 0.04652603276331644 0 0.1091701701315707 0.045405346223324289 0 0.1063796333462841 0.038668109643535398 0 0.09859813872304253 0.041737690340159041 0 0.1037055006252459 0.04652603276331644 0 0.1063796333462841 0.038668109643535398 0 0.098246025398924644 0.032379674771496843 0 0.1063796333462841 0.038668109643535398 0 0.1080469394596527 0.029312409717345649 0 0.1063796333462841 0.038668109643535398 0 0.11369005285381351 0.036564640387925021 0 0.1080469394596527 0.029312409717345649 0 0.10140855114010359 0.056741753968867333 0 0.1082136550722141 0.059696613986540442 0 0.089592915186254174 0.067390154600646832 0 0.10140855114010359 0.056741753968867333 0 0.096786740892615686 0.050938349167624693 0 0.089592915186254174 0.067390154600646832 0 0.10140855114010359 0.056741753968867333 0 0.096786740892615686 0.050938349167624693 0 0.1040187002827474 0.052009313231975308 0 0.1037055006252459 0.04652603276331644 0 0.096786740892615686 0.050938349167624693 0 0.1040187002827474 0.052009313231975308 0 0.1037055006252459 0.04652603276331644 0 0.10828434687670541 0.049049973369521209 0 0.1040187002827474 0.052009313231975308 0 0.1037055006252459 0.04652603276331644 0 0.1091701701315707 0.045405346223324289 0 0.10828434687670541 0.049049973369521209 0 0.10828434687670541 0.049049973369521209 0 0.1040187002827474 0.052009313231975308 0 0.1085923347430168 0.054888678040205661 0 0.10140855114010359 0.056741753968867333 0 0.1040187002827474 0.052009313231975308 0 0.1085923347430168 0.054888678040205661 0 0.10140855114010359 0.056741753968867333 0 0.1085923347430168 0.054888678040205661 0 0.1082136550722141 0.059696613986540442 0 0.1082136550722141 0.059696613986540442 0 0.12683439495817461 0.052003073372435288 0 0.1085923347430168 0.054888678040205661 0 0.1082136550722141 0.059696613986540442 0 0.12683439495817461 0.052003073372435288 0 0.1082136550722141 0.059696613986540442 0 0.1213053233293625 0.063977455960140386 0 0.12683439495817461 0.052003073372435288 0 0.1085923347430168 0.054888678040205661 0 0.11545296983014219 0.044674578582556468 0 0.12683439495817461 0.052003073372435288 0 0.1085923347430168 0.054888678040205661 0 0.11545296983014219 0.044674578582556468 0 0.10828434687670541 0.049049973369521209 0 0.1085923347430168 0.054888678040205661 0 0.11545296983014219 0.044674578582556468 0 0.11545296983014219 0.044674578582556468 0 0.12683439495817461 0.052003073372435288 0 0.11545296983014219 0.044674578582556468 0 0.12659142849079691 0.028091664155532971 0 0.13015300311198849 0.040381385354086502 0 0.11369005285381351 0.036564640387925021 0 0.11545296983014219 0.044674578582556468 0 0.12659142849079691 0.028091664155532971 0 0.11369005285381351 0.036564640387925021 0 0.1080469394596527 0.029312409717345649 0 0.12659142849079691 0.028091664155532971 0 0.11545296983014219 0.044674578582556468 0 0.12659142849079691 0.028091664155532971 0 0.1091701701315707 0.045405346223324289 0 0.1063796333462841 0.038668109643535398 0 0.11316657253878901 0.043202368340974628 0 0.11369005285381351 0.036564640387925021 0 0.11316657253878901 0.043202368340974628 0 0.11545296983014219 0.044674578582556468 0 0.1063796333462841 0.038668109643535398 0 0.11369005285381351 0.036564640387925021 0 0.11316657253878901 0.043202368340974628 0 0.1091701701315707 0.045405346223324289 0 0.10828434687670541 0.049049973369521209 0 0.11545296983014219 0.044674578582556468 0 0.1091701701315707 0.045405346223324289 0 0.11316657253878901 0.043202368340974628 0 0.11545296983014219 0.044674578582556468 0 0.11316657253878901 0.043202368340974628 0 0.11545296983014219 0.044674578582556468 0 0.11545296983014219 0.044674578582556468 0 0.13015300311198849 0.040381385354086502 0 0.12683439495817461 0.052003073372435288 0 0.11882011836095251 0.0065886106746579649 0 0.1010264983121123 0.016262416429773479 0 0.12659142849079691 0.028091664155532971 0 0.1010264983121123 0.016262416429773479 0 0.12659142849079691 0.028091664155532971 0 0.1010264983121123 0.016262416429773479 0 0.1080469394596527 0.029312409717345649 0 0.12659142849079691 0.028091664155532971 0 0.11882011836095251 0.0065886106746579649 0 0.1010264983121123 0.016262416429773479 0 0.098011391193308373 -0.0056982583262641584 0 0.088041666307225416 0.02743399724937181 0 0.098246025398924644 0.032379674771496843 0 0.1010264983121123 0.016262416429773479 0 0.098246025398924644 0.032379674771496843 0 0.1010264983121123 0.016262416429773479 0 0.1080469394596527 0.029312409717345649 0 0.102028599401492 0.1079210482782756 0 0.1185648575779607 0.095458187827811403 0 0.097454497296707604 0.093489332089851121 0 0.102028599401492 0.1079210482782756 0 0.094862282777670462 0.1196438628042634 0 0.1117522404438802 0.12667258555115829 0 0.123281054128593 0.11724462113534739 0 0.1117522404438802 0.12667258555115829 0 0.13947052033133081 0.1245003570974072 0 0.102028599401492 0.1079210482782756 0 0.123281054128593 0.11724462113534739 0 0.1117522404438802 0.12667258555115829 0 0.102028599401492 0.1079210482782756 0 0.123281054128593 0.11724462113534739 0 0.102028599401492 0.1079210482782756 0 0.123281054128593 0.11724462113534739 0 0.1185648575779607 0.095458187827811403 0 0.1185648575779607 0.095458187827811403 0 0.10766661625946521 0.081617344394697103 0 0.12679961534922851 0.075073796793526271 0 0.1127439035567581 0.069567645006608142 0 0.10766661625946521 0.081617344394697103 0 0.12679961534922851 0.075073796793526271 0 0.1213053233293625 0.063977455960140386 0 0.1127439035567581 0.069567645006608142 0 0.12679961534922851 0.075073796793526271 0 0.1082136550722141 0.059696613986540442 0 0.1213053233293625 0.063977455960140386 0 0.1127439035567581 0.069567645006608142 0 0.1082136550722141 0.059696613986540442 0 0.089592915186254174 0.067390154600646832 0 0.1014387622560044 0.070574023901201433 0 0.10766661625946521 0.081617344394697103 0 0.08998097741878798 0.081820185866337797 0 0.1082136550722141 0.059696613986540442 0 0.1014387622560044 0.070574023901201433 0 0.089592915186254174 0.067390154600646832 0 0.1082136550722141 0.059696613986540442 0 0.1127439035567581 0.069567645006608142 0 0.1014387622560044 0.070574023901201433 0 0.1127439035567581 0.069567645006608142 0 0.1014387622560044 0.070574023901201433 0 0.10766661625946521 0.081617344394697103 0 0.1185648575779607 0.095458187827811403 0 0.097454497296707604 0.093489332089851121 0 0.10766661625946521 0.081617344394697103 0 0.097454497296707604 0.093489332089851121 0 0.10766661625946521 0.081617344394697103 0 0.08998097741878798 0.081820185866337797 0 0.097454497296707604 0.093489332089851121 0 0.08998097741878798 0.081820185866337797 0 0.080776144674391009 0.098597475421203867 0 0.08998097741878798 0.081820185866337797 0 0.071888117261322881 0.075707086101057836 0 0.080776144674391009 0.098597475421203867 0 0.08998097741878798 0.081820185866337797 0 0.089592915186254174 0.067390154600646832 0 0.071888117261322881 0.075707086101057836 0 0.1014387622560044 0.070574023901201433 0 0.08998097741878798 0.081820185866337797 0 0.089592915186254174 0.067390154600646832 0 0.072379857481358154 0.054137194478101919 0 0.089592915186254174 0.067390154600646832 0 0.071888117261322881 0.075707086101057836 0 0.072379857481358154 0.054137194478101919 0 0.071888117261322881 0.075707086101057836 0 0.06072113176624426 0.066105246874810966 0 0.071888117261322881 0.075707086101057836 0 0.080776144674391009 0.098597475421203867 0 0.059523689947290133 0.089273902564132146 0 0.069834633883481517 0.1065625652268001 0 0.059315065316452309 0.1025539410383776 0 0.059523689947290133 0.089273902564132146 0 0.080776144674391009 0.098597475421203867 0 0.059523689947290133 0.089273902564132146 0 0.069834633883481517 0.1065625652268001 0 0.080776144674391009 0.098597475421203867 0 0.081634330708880196 0.1151370033827101 0 0.069834633883481517 0.1065625652268001 0 0.080776144674391009 0.098597475421203867 0 0.059523689947290133 0.089273902564132146 0 0.069834633883481517 0.1065625652268001 0 0.064307476710745728 0.1098785041095611 0 0.059315065316452309 0.1025539410383776 0 0.102028599401492 0.1079210482782756 0 0.080776144674391009 0.098597475421203867 0 0.081634330708880196 0.1151370033827101 0 0.102028599401492 0.1079210482782756 0 0.080776144674391009 0.098597475421203867 0 0.102028599401492 0.1079210482782756 0 0.097454497296707604 0.093489332089851121 0 0.080776144674391009 0.098597475421203867 0 0.102028599401492 0.1079210482782756 0 0.094862282777670462 0.1196438628042634 0 0.081634330708880196 0.1151370033827101 0 0.094862282777670462 0.1196438628042634 0 0.081634330708880196 0.1151370033827101 0 0.084033960556429532 0.12884481400490949 0 0.081634330708880196 0.1151370033827101 0 0.071861500007931359 0.1232467005620789 0 0.084033960556429532 0.12884481400490949 0 0.081634330708880196 0.1151370033827101 0 0.071861500007931359 0.1232467005620789 0 0.068543873750645412 0.1149277749384955 0 0.069834633883481517 0.1065625652268001 0 0.081634330708880196 0.1151370033827101 0 0.068543873750645412 0.1149277749384955 0 0.068543873750645412 0.1149277749384955 0 0.064307476710745728 0.1098785041095611 0 0.059536333892403683 0.1154697352345713 0 0.069834633883481517 0.1065625652268001 0 0.068543873750645412 0.1149277749384955 0 0.064307476710745728 0.1098785041095611 0 0.071861500007931359 0.1232467005620789 0 0.068543873750645412 0.1149277749384955 0 0.059536333892403683 0.1154697352345713 0 0.056458373241313059 0.1220229844831647 0 0.046980594318971967 0.103944553472415 0 0.044984286063853948 0.1144984098979744 0 0.056458373241313059 0.1220229844831647 0 0.059536333892403683 0.1154697352345713 0 0.047111977694586651 0.095143209078012936 0 0.056458373241313059 0.1220229844831647 0 0.047823074661834691 0.1229743903388081 0 0.044984286063853948 0.1144984098979744 0 0.056458373241313059 0.1220229844831647 0 0.047111977694586651 0.095143209078012936 0 0.056458373241313059 0.1220229844831647 0 0.047111977694586651 0.095143209078012936 0 0.046980594318971967 0.103944553472415 0 0.059536333892403683 0.1154697352345713 0 0.059315065316452309 0.1025539410383776 0 0.048250118395506067 0.092934788779969885 0 0.064307476710745728 0.1098785041095611 0 0.059536333892403683 0.1154697352345713 0 0.059315065316452309 0.1025539410383776 0 0.059536333892403683 0.1154697352345713 0 0.047111977694586651 0.095143209078012936 0 0.048250118395506067 0.092934788779969885 0 0.059536333892403683 0.1154697352345713 0 0.048250118395506067 0.092934788779969885 0 0.059315065316452309 0.1025539410383776 0 0.059523689947290133 0.089273902564132146 0 0.048250118395506067 0.092934788779969885 0 0.046980594318971967 0.103944553472415 0 0.031997015267580219 0.10661530464401089 0 0.044984286063853948 0.1144984098979744 0 0.046980594318971967 0.103944553472415 0 0.039592722901722707 0.099159129702000026 0 0.031997015267580219 0.10661530464401089 0 0.047111977694586651 0.095143209078012936 0 0.046980594318971967 0.103944553472415 0 0.044236279529428407 0.098362398272746204 0 0.043259823202432338 0.095202700838556822 0 0.039592722901722707 0.099159129702000026 0 0.040006298791842428 0.091064350555588536 0 0.047111977694586651 0.095143209078012936 0 0.043259823202432338 0.095202700838556822 0 0.043326765309194368 0.091114650811160686 0 0.047111977694586651 0.095143209078012936 0 0.043259823202432338 0.095202700838556822 0 0.044236279529428407 0.098362398272746204 0 0.046980594318971967 0.103944553472415 0 0.044236279529428407 0.098362398272746204 0 0.039592722901722707 0.099159129702000026 0 0.043259823202432338 0.095202700838556822 0 0.044236279529428407 0.098362398272746204 0 0.039592722901722707 0.099159129702000026 0 0.039592722901722707 0.099159129702000026 0 0.040006298791842428 0.091064350555588536 0 0.033999193661208522 0.092549709374426317 0 0.039592722901722707 0.099159129702000026 0 0.031997015267580219 0.10661530464401089 0 0.033999193661208522 0.092549709374426317 0 0.031997015267580219 0.10661530464401089 0 0.044984286063853948 0.1144984098979744 0 0.040254683338031831 0.12792389191371131 0 0.031997015267580219 0.10661530464401089 0 0.027418588341799281 0.11951208787462859 0 0.040254683338031831 0.12792389191371131 0 0.031997015267580219 0.10661530464401089 0 0.040254683338031831 0.12792389191371131 0 0.047823074661834691 0.1229743903388081 0 0.044984286063853948 0.1144984098979744 0 0.040254683338031831 0.12792389191371131 0 0.071888117261322881 0.075707086101057836 0 0.050643578252195447 0.077240667131504986 0 0.06072113176624426 0.066105246874810966 0 0.071888117261322881 0.075707086101057836 0 0.050643578252195447 0.077240667131504986 0 0.04797297407010033 0.057336039788577382 0 0.050643578252195447 0.077240667131504986 0 0.06072113176624426 0.066105246874810966 0 0.059523689947290133 0.089273902564132146 0 0.048250118395506067 0.092934788779969885 0 0.038271235220189187 0.079950329707060411 0 0.050643578252195447 0.077240667131504986 0 0.059523689947290133 0.089273902564132146 0 0.038271235220189187 0.079950329707060411 0 0.059523689947290133 0.089273902564132146 0 0.038271235220189187 0.079950329707060411 0 0.071888117261322881 0.075707086101057836 0 0.050643578252195447 0.077240667131504986 0 0.059523689947290133 0.089273902564132146 0 0.050643578252195447 0.077240667131504986 0 0.038271235220189187 0.079950329707060411 0 0.029399039243067929 0.078774248161950916 0 0.043326765309194368 0.091114650811160686 0 0.040006298791842428 0.091064350555588536 0 0.038271235220189187 0.079950329707060411 0 0.048250118395506067 0.092934788779969885 0 0.043326765309194368 0.091114650811160686 0 0.038271235220189187 0.079950329707060411 0 0.047111977694586651 0.095143209078012936 0 0.048250118395506067 0.092934788779969885 0 0.043326765309194368 0.091114650811160686 0 0.043259823202432338 0.095202700838556822 0 0.043326765309194368 0.091114650811160686 0 0.040006298791842428 0.091064350555588536 0 0.040006298791842428 0.091064350555588536 0 0.033999193661208522 0.092549709374426317 0 0.035112272261912547 0.085996705185296951 0 0.033999193661208522 0.092549709374426317 0 0.035112272261912547 0.085996705185296951 0 0.030562463090829231 0.085656845023995995 0 0.040006298791842428 0.091064350555588536 0 0.035112272261912547 0.085996705185296951 0 0.038271235220189187 0.079950329707060411 0 0.035112272261912547 0.085996705185296951 0 0.038271235220189187 0.079950329707060411 0 0.029399039243067929 0.078774248161950916 0 0.035112272261912547 0.085996705185296951 0 0.029399039243067929 0.078774248161950916 0 0.030562463090829231 0.085656845023995995 0 0.04797297407010033 0.057336039788577382 0 0.027635028654909001 0.06907575978797427 0 0.029399039243067929 0.078774248161950916 0 0.04797297407010033 0.057336039788577382 0 0.050643578252195447 0.077240667131504986 0 0.029399039243067929 0.078774248161950916 0 0.050643578252195447 0.077240667131504986 0 0.029399039243067929 0.078774248161950916 0 0.04797297407010033 0.057336039788577382 0 0.029399039243067929 0.078774248161950916 0 0.01459521235494949 0.061710637509134872 0 0.030459386295035529 0.05963142741263059 0 0.017825248683011649 0.070045619055208203 0 0.01459521235494949 0.061710637509134872 0 0.017825248683011649 0.070045619055208203 0 0.030459386295035529 0.05963142741263059 0 0.017825248683011649 0.070045619055208203 0 0.030459386295035529 0.05963142741263059 0 0.017825248683011649 0.070045619055208203 0 0.027635028654909001 0.06907575978797427 0 0.027635028654909001 0.06907575978797427 0 0.021430743364398389 0.07934945609652827 0 0.029399039243067929 0.078774248161950916 0 0.017825248683011649 0.070045619055208203 0 0.027635028654909001 0.06907575978797427 0 0.021430743364398389 0.07934945609652827 0 0.017825248683011649 0.070045619055208203 0 0.021430743364398389 0.07934945609652827 0 0.023739347197128589 0.085306717374310406 0 0.0092582498306486675 0.1020209346744549 0 0.021430743364398389 0.07934945609652827 0 0.023739347197128589 0.085306717374310406 0 0.01369104835205702 0.085774757015682671 0 0.021430743364398389 0.07934945609652827 0 0.023739347197128589 0.085306717374310406 0 0.021430743364398389 0.07934945609652827 0 0.029399039243067929 0.078774248161950916 0 0.023739347197128589 0.085306717374310406 0 0.021430743364398389 0.07934945609652827 0 0.029399039243067929 0.078774248161950916 0 0.029399039243067929 0.078774248161950916 0 0.030562463090829231 0.085656845023995995 0 0.023739347197128589 0.085306717374310406 0 0.029399039243067929 0.078774248161950916 0 0.023739347197128589 0.085306717374310406 0 0.033999193661208522 0.092549709374426317 0 0.030562463090829231 0.085656845023995995 0 0.023739347197128589 0.085306717374310406 0 0.023739347197128589 0.085306717374310406 0 0.01369104835205702 0.085774757015682671 0 0.0092582498306486675 0.1020209346744549 0 0.0051087594610210148 0.080527692295617709 0 0.01369104835205702 0.085774757015682671 0 0.0092582498306486675 0.1020209346744549 0 0.021430743364398389 0.07934945609652827 0 0.0051087594610210148 0.080527692295617709 0 0.021430743364398389 0.07934945609652827 0 0.0051087594610210148 0.080527692295617709 0 0.01369104835205702 0.085774757015682671 0 -0.0012292332505543029 0.06378464068123596 0 0.01459521235494949 0.061710637509134872 0 -0.0012292332505543029 0.06378464068123596 0 0.01459521235494949 0.061710637509134872 0 0.0080955592782806732 0.069159055867407046 0 0.017825248683011649 0.070045619055208203 0 0.021430743364398389 0.07934945609652827 0 0.0051087594610210148 0.080527692295617709 0 -0.0012292332505543029 0.06378464068123596 0 0.0051087594610210148 0.080527692295617709 0 0.0080955592782806732 0.069159055867407046 0 0.017825248683011649 0.070045619055208203 0 0.0051087594610210148 0.080527692295617709 0 0.0080955592782806732 0.069159055867407046 0 0.017825248683011649 0.070045619055208203 0 0.0051087594610210148 0.080527692295617709 0 0.01459521235494949 0.061710637509134872 0 0.017825248683011649 0.070045619055208203 0 0.0080955592782806732 0.069159055867407046 0 0.019482067178466251 0.1107491432724047 0 0.017356945103072018 0.1204998149293544 0 0.027418588341799281 0.11951208787462859 0 0.017356945103072018 0.1204998149293544 0 0.027418588341799281 0.11951208787462859 0 0.028136896369567631 0.1331750506540591 0 0.031997015267580219 0.10661530464401089 0 0.019482067178466251 0.1107491432724047 0 0.027418588341799281 0.11951208787462859 0 0.031997015267580219 0.10661530464401089 0 0.033999193661208522 0.092549709374426317 0 0.023739347197128589 0.085306717374310406 0 0.023739347197128589 0.085306717374310406 0 0.02108550348152554 0.10082233348119581 0 0.0092582498306486675 0.1020209346744549 0 0.031997015267580219 0.10661530464401089 0 0.023739347197128589 0.085306717374310406 0 0.031997015267580219 0.10661530464401089 0 0.023739347197128589 0.085306717374310406 0 0.02108550348152554 0.10082233348119581 0 0.031997015267580219 0.10661530464401089 0 0.019482067178466251 0.1107491432724047 0 0.02108550348152554 0.10082233348119581 0 0.019482067178466251 0.1107491432724047 0 0.02108550348152554 0.10082233348119581 0 0.0092582498306486675 0.1020209346744549 0 -0.0040597014752050652 0.1051126182356364 0 0.0051087594610210148 0.080527692295617709 0 0.0092582498306486675 0.1020209346744549 0 0.019482067178466251 0.1107491432724047 0 0.0092582498306486675 0.1020209346744549 0 0.0097761010461718117 0.1150243840307837 0 -0.0052228475358298988 0.1187351519746004 0 0.0092582498306486675 0.1020209346744549 0 -0.0052228475358298988 0.1187351519746004 0 0.0092582498306486675 0.1020209346744549 0 0.0097761010461718117 0.1150243840307837 0 0.019482067178466251 0.1107491432724047 0 0.017356945103072018 0.1204998149293544 0 0.0097761010461718117 0.1150243840307837 0 0.017356945103072018 0.1204998149293544 0 0.0081407562022233586 0.1245196413435004 0 0.017356945103072018 0.1204998149293544 0 0.0097761010461718117 0.1150243840307837 0 0.0081407562022233586 0.1245196413435004 0 -0.0052228475358298988 0.1187351519746004 0 0.0097761010461718117 0.1150243840307837 0 0.0081407562022233586 0.1245196413435004 0 -0.0052228475358298988 0.1187351519746004 0 0.0081407562022233586 0.1245196413435004 0 -0.015783289274076458 0.13495459563681389 0 0.0081407562022233586 0.1245196413435004 0 0.01185912902997375 0.14130758542593569 0 0.017356945103072018 0.1204998149293544 0 0.0081407562022233586 0.1245196413435004 0 0.028136896369567631 0.1331750506540591 0 0.0081407562022233586 0.1245196413435004 0 0.028136896369567631 0.1331750506540591 0 0.0081407562022233586 0.1245196413435004 0 0.028136896369567631 0.1331750506540591 0 0.01185912902997375 0.14130758542593569 0 0.028136896369567631 0.1331750506540591 0 0.0267736462585265 0.15269096182544131 0 0.035919394343652343 0.14075559589415579 0 0.028136896369567631 0.1331750506540591 0 0.0267736462585265 0.15269096182544131 0 0.01185912902997375 0.14130758542593569 0 0.0267736462585265 0.15269096182544131 0 0.001788155555331062 0.1557637096651584 0 0.01185912902997375 0.14130758542593569 0 0.001788155555331062 0.1557637096651584 0 0.00061104658230836653 0.17769045695541219 0 0.019359600384737739 0.17657282369350361 0 0.001788155555331062 0.1557637096651584 0 0.019359600384737739 0.17657282369350361 0 0.00061104658230836653 0.17769045695541219 0 0.019359600384737739 0.17657282369350361 0 0.017852612557627559 0.19656860209324539 0 0.019359600384737739 0.17657282369350361 0 0.036931045214144441 0.19738193772184889 0 0.0267736462585265 0.15269096182544131 0 0.001788155555331062 0.1557637096651584 0 0.019359600384737739 0.17657282369350361 0 0.0267736462585265 0.15269096182544131 0 0.019359600384737739 0.17657282369350361 0 0.038399134829123632 0.17159850230738899 0 0.0267736462585265 0.15269096182544131 0 0.038399134829123632 0.17159850230738899 0 0.048512351408483409 0.1492324791834117 0 0.019359600384737739 0.17657282369350361 0 0.038399134829123632 0.17159850230738899 0 0.036931045214144441 0.19738193772184889 0 0.038399134829123632 0.17159850230738899 0 0.053915020648589329 0.181809847856817 0 0.036931045214144441 0.19738193772184889 0 0.053915020648589329 0.181809847856817 0 0.056298621576963533 0.16595151756685289 0 0.075151164334765874 0.17578253529346821 0 0.038399134829123632 0.17159850230738899 0 0.053915020648589329 0.181809847856817 0 0.056298621576963533 0.16595151756685289 0 0.038399134829123632 0.17159850230738899 0 0.056298621576963533 0.16595151756685289 0 0.048512351408483409 0.1492324791834117 0 0.048512351408483409 0.1492324791834117 0 0.055211699142625699 0.13746009370018761 0 0.065804768788039439 0.14890275988831639 0 0.056298621576963533 0.16595151756685289 0 0.048512351408483409 0.1492324791834117 0 0.065804768788039439 0.14890275988831639 0 0.048512351408483409 0.1492324791834117 0 0.055211699142625699 0.13746009370018761 0 0.049904412172306151 0.13036597214331841 0 0.056458373241313059 0.1220229844831647 0 0.059536333892403683 0.1154697352345713 0 0.070822549389301243 0.1380046816891726 0 0.056458373241313059 0.1220229844831647 0 0.055211699142625699 0.13746009370018761 0 0.065804768788039439 0.14890275988831639 0 0.056458373241313059 0.1220229844831647 0 0.065804768788039439 0.14890275988831639 0 0.056458373241313059 0.1220229844831647 0 0.047823074661834691 0.1229743903388081 0 0.049904412172306151 0.13036597214331841 0 0.056458373241313059 0.1220229844831647 0 0.055211699142625699 0.13746009370018761 0 0.049904412172306151 0.13036597214331841 0 0.048512351408483409 0.1492324791834117 0 0.040254683338031831 0.12792389191371131 0 0.048512351408483409 0.1492324791834117 0 0.040254683338031831 0.12792389191371131 0 0.035919394343652343 0.14075559589415579 0 0.048512351408483409 0.1492324791834117 0 0.049904412172306151 0.13036597214331841 0 0.040254683338031831 0.12792389191371131 0 0.047823074661834691 0.1229743903388081 0 0.049904412172306151 0.13036597214331841 0 0.040254683338031831 0.12792389191371131 0 0.027418588341799281 0.11951208787462859 0 0.028136896369567631 0.1331750506540591 0 0.040254683338031831 0.12792389191371131 0 0.028136896369567631 0.1331750506540591 0 0.040254683338031831 0.12792389191371131 0 0.035919394343652343 0.14075559589415579 0 0.0267736462585265 0.15269096182544131 0 0.048512351408483409 0.1492324791834117 0 0.035919394343652343 0.14075559589415579 0 0.020197736684044801 0.2291273398277828 0 0.034114961552744377 0.23516115760169301 0 0.036501911092354018 0.25177276941539839 0 0.018629400856135309 0.24429501886194191 0 0.020197736684044801 0.2291273398277828 0 0.02692674034290404 0.25134916217479408 0 0.020197736684044801 0.2291273398277828 0 0.02692674034290404 0.25134916217479408 0 0.036501911092354018 0.25177276941539839 0 0.020197736684044801 0.2291273398277828 0 0.036501911092354018 0.25177276941539839 0 0.018629400856135309 0.24429501886194191 0 0.0082785766384091443 0.23618007315607359 0 0.020197736684044801 0.2291273398277828 0 0.018629400856135309 0.24429501886194191 0 0.012944211518790589 0.24639919126045251 0 0.0082785766384091443 0.23618007315607359 0 0.012944211518790589 0.24639919126045251 0 0.001894876929373096 0.24743045501984201 0 0.0082785766384091443 0.23618007315607359 0 -0.0070773620087705444 0.23295897308755351 0 0.001894876929373096 0.24743045501984201 0 0.0082785766384091443 0.23618007315607359 0 0.0082785766384091443 0.23618007315607359 0 0.0038866256090455522 0.2239579318999283 0 0.020197736684044801 0.2291273398277828 0 0.0038866256090455522 0.2239579318999283 0 0.020197736684044801 0.2291273398277828 0 0.003893562275735573 0.2064819102401671 0 -0.0070773620087705444 0.23295897308755351 0 0.0082785766384091443 0.23618007315607359 0 0.0038866256090455522 0.2239579318999283 0 0.01643925603633389 0.21561198758054059 0 0.035370792182188207 0.216260201755786 0 0.034114961552744377 0.23516115760169301 0 0.020197736684044801 0.2291273398277828 0 0.01643925603633389 0.21561198758054059 0 0.034114961552744377 0.23516115760169301 0 0.01643925603633389 0.21561198758054059 0 0.034114961552744377 0.23516115760169301 0 0.017852612557627559 0.19656860209324539 0 0.036931045214144441 0.19738193772184889 0 0.035370792182188207 0.216260201755786 0 0.01643925603633389 0.21561198758054059 0 0.017852612557627559 0.19656860209324539 0 0.035370792182188207 0.216260201755786 0 0.020197736684044801 0.2291273398277828 0 0.003893562275735573 0.2064819102401671 0 -0.0045317147067566524 0.21522543551468479 0 0.0038866256090455522 0.2239579318999283 0 0.003893562275735573 0.2064819102401671 0 -0.0012364494800765971 0.1960628175593882 0 0.01643925603633389 0.21561198758054059 0 -0.0012364494800765971 0.1960628175593882 0 0.01643925603633389 0.21561198758054059 0 0.003893562275735573 0.2064819102401671 0 0.020197736684044801 0.2291273398277828 0 0.01643925603633389 0.21561198758054059 0 0.003893562275735573 0.2064819102401671 0 -0.0012364494800765971 0.1960628175593882 0 0.01643925603633389 0.21561198758054059 0 0.017852612557627559 0.19656860209324539 0 -0.0012364494800765971 0.1960628175593882 0 0.00061104658230836653 0.17769045695541219 0 0.017852612557627559 0.19656860209324539 0 0.019359600384737739 0.17657282369350361 0 0.017852612557627559 0.19656860209324539 0 0.036931045214144441 0.19738193772184889 0 0.053915020648589329 0.181809847856817 0 0.036931045214144441 0.19738193772184889 0 0.062795137287949193 0.19833474639452611 0 0.036931045214144441 0.19738193772184889 0 0.054502490043551163 0.2181910517501941 0 0.062795137287949193 0.19833474639452611 0 0.036931045214144441 0.19738193772184889 0 0.054502490043551163 0.2181910517501941 0 0.036931045214144441 0.19738193772184889 0 0.054502490043551163 0.2181910517501941 0 0.035370792182188207 0.216260201755786 0 0.054502490043551163 0.2181910517501941 0 0.035370792182188207 0.216260201755786 0 0.034114961552744377 0.23516115760169301 0 0.054502490043551163 0.2181910517501941 0 0.055174909047777811 0.2396291133956362 0 0.034114961552744377 0.23516115760169301 0 0.054502490043551163 0.2181910517501941 0 0.055174909047777811 0.2396291133956362 0 0.072073934872957782 0.23900016577853919 0 0.055174909047777811 0.2396291133956362 0 0.034114961552744377 0.23516115760169301 0 0.051790667069154861 0.2547103276228454 0 0.055174909047777811 0.2396291133956362 0 0.051790667069154861 0.2547103276228454 0 0.063392491700480919 0.2510828642249095 0 0.034114961552744377 0.23516115760169301 0 0.036501911092354018 0.25177276941539839 0 0.051790667069154861 0.2547103276228454 0 0.034114961552744377 0.23516115760169301 0 0.051790667069154861 0.2547103276228454 0 0.072073934872957782 0.23900016577853919 0 0.093843955428218759 0.229542086103772 0 0.089645379702363526 0.25980927980688501 0 0.072073934872957782 0.23900016577853919 0 0.089645379702363526 0.25980927980688501 0 0.055174909047777811 0.2396291133956362 0 0.072073934872957782 0.23900016577853919 0 0.063392491700480919 0.2510828642249095 0 0.072073934872957782 0.23900016577853919 0 0.063392491700480919 0.2510828642249095 0 0.074261774750864804 0.25289133929391111 0 0.054502490043551163 0.2181910517501941 0 0.072073934872957782 0.23900016577853919 0 0.054502490043551163 0.2181910517501941 0 0.072073934872957782 0.23900016577853919 0 0.07691655231929137 0.22036312128655 0 0.072073934872957782 0.23900016577853919 0 0.07691655231929137 0.22036312128655 0 0.093843955428218759 0.229542086103772 0 0.084497559881492323 0.20266231069862009 0 0.1011551627426199 0.2154511434485995 0 0.093843955428218759 0.229542086103772 0 0.084497559881492323 0.20266231069862009 0 0.093843955428218759 0.229542086103772 0 0.07691655231929137 0.22036312128655 0 0.084497559881492323 0.20266231069862009 0 0.093843955428218759 0.229542086103772 0 0.07691655231929137 0.22036312128655 0 0.062795137287949193 0.19833474639452611 0 0.084497559881492323 0.20266231069862009 0 0.054502490043551163 0.2181910517501941 0 0.07691655231929137 0.22036312128655 0 0.062795137287949193 0.19833474639452611 0 0.062795137287949193 0.19833474639452611 0 0.084497559881492323 0.20266231069862009 0 0.075151164334765874 0.17578253529346821 0 0.084497559881492323 0.20266231069862009 0 0.075151164334765874 0.17578253529346821 0 0.084497559881492323 0.20266231069862009 0 0.10184565838461331 0.1924014028594688 0 0.093394980383096363 0.18307457459837531 0 0.084497559881492323 0.20266231069862009 0 0.10184565838461331 0.1924014028594688 0 0.10260278643249959 0.20376756124449391 0 0.10184565838461331 0.1924014028594688 0 0.1105875138732399 0.1994169567440035 0 0.10260278643249959 0.20376756124449391 0 0.10184565838461331 0.1924014028594688 0 0.1131184160342838 0.18994185980391479 0 0.1105875138732399 0.1994169567440035 0 0.10184565838461331 0.1924014028594688 0 0.1131184160342838 0.18994185980391479 0 0.1054525685194168 0.18020148819897211 0 0.1131184160342838 0.18994185980391479 0 0.1210814068145178 0.19423580856195369 0 0.1131184160342838 0.18994185980391479 0 0.1210814068145178 0.19423580856195369 0 0.1196286990311512 0.18236386641526309 0 0.1210814068145178 0.19423580856195369 0 0.11958782189190099 0.20227867846385961 0 0.13241563583181001 0.2003476577346209 0 0.1131184160342838 0.18994185980391479 0 0.1210814068145178 0.19423580856195369 0 0.11958782189190099 0.20227867846385961 0 0.1131184160342838 0.18994185980391479 0 0.11958782189190099 0.20227867846385961 0 0.1105875138732399 0.1994169567440035 0 0.11958782189190099 0.20227867846385961 0 0.1105875138732399 0.1994169567440035 0 0.11467542950451071 0.21015036581969679 0 0.11958782189190099 0.20227867846385961 0 0.11467542950451071 0.21015036581969679 0 0.12714211421566091 0.2115365522170618 0 0.11467542950451071 0.21015036581969679 0 0.1287590091161889 0.22454109023782651 0 0.12714211421566091 0.2115365522170618 0 0.11467542950451071 0.21015036581969679 0 0.1011551627426199 0.2154511434485995 0 0.1117838155087727 0.22779371718329239 0 0.084497559881492323 0.20266231069862009 0 0.10260278643249959 0.20376756124449391 0 0.1011551627426199 0.2154511434485995 0 0.1105875138732399 0.1994169567440035 0 0.11467542950451071 0.21015036581969679 0 0.10260278643249959 0.20376756124449391 0 0.11467542950451071 0.21015036581969679 0 0.10260278643249959 0.20376756124449391 0 0.1011551627426199 0.2154511434485995 0 0.1011551627426199 0.2154511434485995 0 0.093843955428218759 0.229542086103772 0 0.1117838155087727 0.22779371718329239 0 0.11467542950451071 0.21015036581969679 0 0.1117838155087727 0.22779371718329239 0 0.1287590091161889 0.22454109023782651 0 0.1117838155087727 0.22779371718329239 0 0.1287590091161889 0.22454109023782651 0 0.116065923487036 0.25155424759680489 0 0.093843955428218759 0.229542086103772 0 0.089645379702363526 0.25980927980688501 0 0.116065923487036 0.25155424759680489 0 0.093843955428218759 0.229542086103772 0 0.1117838155087727 0.22779371718329239 0 0.116065923487036 0.25155424759680489 0 0.085867858697711436 0.14453522140638461 0 0.070822549389301243 0.1380046816891726 0 0.082108764886198796 0.1605396281437739 0 0.085867858697711436 0.14453522140638461 0 0.082108764886198796 0.1605396281437739 0 0.098061838006449922 0.1524476624703702 0 0.085867858697711436 0.14453522140638461 0 0.084033960556429532 0.12884481400490949 0 0.098019367542785563 0.1407790739484335 0 0.085867858697711436 0.14453522140638461 0 0.084033960556429532 0.12884481400490949 0 0.070822549389301243 0.1380046816891726 0 0.071861500007931359 0.1232467005620789 0 0.059536333892403683 0.1154697352345713 0 0.070822549389301243 0.1380046816891726 0 0.059536333892403683 0.1154697352345713 0 0.070822549389301243 0.1380046816891726 0 0.056458373241313059 0.1220229844831647 0 0.070822549389301243 0.1380046816891726 0 0.065804768788039439 0.14890275988831639 0 0.071861500007931359 0.1232467005620789 0 0.084033960556429532 0.12884481400490949 0 0.070822549389301243 0.1380046816891726 0 0.070822549389301243 0.1380046816891726 0 0.082108764886198796 0.1605396281437739 0 0.070822549389301243 0.1380046816891726 0 0.065804768788039439 0.14890275988831639 0 0.082108764886198796 0.1605396281437739 0 0.056298621576963533 0.16595151756685289 0 0.065804768788039439 0.14890275988831639 0 0.075151164334765874 0.17578253529346821 0 0.065804768788039439 0.14890275988831639 0 0.075151164334765874 0.17578253529346821 0 0.082108764886198796 0.1605396281437739 0 0.065804768788039439 0.14890275988831639 0 0.075151164334765874 0.17578253529346821 0 0.053915020648589329 0.181809847856817 0 0.062795137287949193 0.19833474639452611 0 0.075151164334765874 0.17578253529346821 0 0.075151164334765874 0.17578253529346821 0 0.093394980383096363 0.18307457459837531 0 0.082108764886198796 0.1605396281437739 0 0.084497559881492323 0.20266231069862009 0 0.075151164334765874 0.17578253529346821 0 0.093394980383096363 0.18307457459837531 0 0.093394980383096363 0.18307457459837531 0 0.082108764886198796 0.1605396281437739 0 0.1017810834163356 0.16778327145988009 0 0.093394980383096363 0.18307457459837531 0 0.082108764886198796 0.1605396281437739 0 0.082108764886198796 0.1605396281437739 0 0.1017810834163356 0.16778327145988009 0 0.098061838006449922 0.1524476624703702 0 0.1017810834163356 0.16778327145988009 0 0.1094413004412432 0.1568441156191657 0 0.098061838006449922 0.1524476624703702 0 0.10184565838461331 0.1924014028594688 0 0.093394980383096363 0.18307457459837531 0 0.1054525685194168 0.18020148819897211 0 0.093394980383096363 0.18307457459837531 0 0.1017810834163356 0.16778327145988009 0 0.1054525685194168 0.18020148819897211 0 0.1017810834163356 0.16778327145988009 0 0.1054525685194168 0.18020148819897211 0 0.1143103312636523 0.17467474260035151 0 0.1131184160342838 0.18994185980391479 0 0.1132877880089454 0.18182979361660931 0 0.1196286990311512 0.18236386641526309 0 0.1131184160342838 0.18994185980391479 0 0.1054525685194168 0.18020148819897211 0 0.1132877880089454 0.18182979361660931 0 0.1054525685194168 0.18020148819897211 0 0.1132877880089454 0.18182979361660931 0 0.1143103312636523 0.17467474260035151 0 0.1132877880089454 0.18182979361660931 0 0.1143103312636523 0.17467474260035151 0 0.1196286990311512 0.18236386641526309 0 0.1143103312636523 0.17467474260035151 0 0.1229466648353691 0.17360959233997481 0 0.1196286990311512 0.18236386641526309 0 0.1229466648353691 0.17360959233997481 0 0.1196286990311512 0.18236386641526309 0 0.1315359285025598 0.17914174819028489 0 0.1210814068145178 0.19423580856195369 0 0.1196286990311512 0.18236386641526309 0 0.1315359285025598 0.17914174819028489 0 0.1017810834163356 0.16778327145988009 0 0.1143103312636523 0.17467474260035151 0 0.11826309888899959 0.1638296446882945 0 0.1017810834163356 0.16778327145988009 0 0.1094413004412432 0.1568441156191657 0 0.11826309888899959 0.1638296446882945 0 0.1094413004412432 0.1568441156191657 0 0.11826309888899959 0.1638296446882945 0 0.12116198843957229 0.15461983439099389 0 0.1143103312636523 0.17467474260035151 0 0.1229466648353691 0.17360959233997481 0 0.11826309888899959 0.1638296446882945 0 0.1229466648353691 0.17360959233997481 0 0.11826309888899959 0.1638296446882945 0 0.1286748755814317 0.16568949079043779 0 0.11826309888899959 0.1638296446882945 0 0.12116198843957229 0.15461983439099389 0 0.1286748755814317 0.16568949079043779 0 0.12116198843957229 0.15461983439099389 0 0.1235319134973574 0.14279740261083959 0 0.11069945258584669 0.14552439304262721 0 0.1094413004412432 0.1568441156191657 0 0.12116198843957229 0.15461983439099389 0 0.11069945258584669 0.14552439304262721 0 0.1094413004412432 0.1568441156191657 0 0.11069945258584669 0.14552439304262721 0 0.098061838006449922 0.1524476624703702 0 0.11069945258584669 0.14552439304262721 0 0.098019367542785563 0.1407790739484335 0 0.098061838006449922 0.1524476624703702 0 0.085867858697711436 0.14453522140638461 0 0.098019367542785563 0.1407790739484335 0 0.098061838006449922 0.1524476624703702 0 0.084033960556429532 0.12884481400490949 0 0.1117522404438802 0.12667258555115829 0 0.094862282777670462 0.1196438628042634 0 0.084033960556429532 0.12884481400490949 0 0.1117522404438802 0.12667258555115829 0 0.084033960556429532 0.12884481400490949 0 0.098019367542785563 0.1407790739484335 0 0.1117522404438802 0.12667258555115829 0 0.11069945258584669 0.14552439304262721 0 0.098019367542785563 0.1407790739484335 0 0.1117522404438802 0.12667258555115829 0 0.1235319134973574 0.14279740261083959 0 0.11069945258584669 0.14552439304262721 0 0.1117522404438802 0.12667258555115829 0 0.1235319134973574 0.14279740261083959 0 0.1117522404438802 0.12667258555115829 0 0.1338250830151082 0.13680555700437169 0 0.1117522404438802 0.12667258555115829 0 0.1338250830151082 0.13680555700437169 0 0.13947052033133081 0.1245003570974072 0 0.1117522404438802 0.12667258555115829 0 0.13947052033133081 0.1245003570974072 0 0.1338250830151082 0.13680555700437169 0 0.14773514824261011 0.13994704674368119 0 0.13947052033133081 0.1245003570974072 0 0.14773514824261011 0.13994704674368119 0 0.13947052033133081 0.1245003570974072 0 0.16718880021878149 0.12232812864365609 0 0.14773514824261011 0.13994704674368119 0 0.1492794596183103 0.15557552201751701 0 0.16307655427518189 0.1461583771030025 0 0.14773514824261011 0.13994704674368119 0 0.1492794596183103 0.15557552201751701 0 0.13636128964255501 0.15303395959459851 0 0.1235319134973574 0.14279740261083959 0 0.1338250830151082 0.13680555700437169 0 0.13636128964255501 0.15303395959459851 0 0.1338250830151082 0.13680555700437169 0 0.14773514824261011 0.13994704674368119 0 0.13636128964255501 0.15303395959459851 0 0.12116198843957229 0.15461983439099389 0 0.1235319134973574 0.14279740261083959 0 0.13636128964255501 0.15303395959459851 0 0.12116198843957229 0.15461983439099389 0 0.13636128964255501 0.15303395959459851 0 0.1286748755814317 0.16568949079043779 0 0.13636128964255501 0.15303395959459851 0 0.1286748755814317 0.16568949079043779 0 0.1402599975996246 0.1687496010839549 0 0.1286748755814317 0.16568949079043779 0 0.1402599975996246 0.1687496010839549 0 0.1315359285025598 0.17914174819028489 0 0.1210814068145178 0.19423580856195369 0 0.1315359285025598 0.17914174819028489 0 0.14172685770208041 0.18088834424850889 0 0.1229466648353691 0.17360959233997481 0 0.1286748755814317 0.16568949079043779 0 0.1315359285025598 0.17914174819028489 0 0.1402599975996246 0.1687496010839549 0 0.1315359285025598 0.17914174819028489 0 0.14172685770208041 0.18088834424850889 0 0.1315359285025598 0.17914174819028489 0 0.14172685770208041 0.18088834424850889 0 0.14172685770208041 0.18088834424850889 0 0.1589643083315804 0.1699886255623487 0 0.15664227980061579 0.1834446584897341 0 0.14172685770208041 0.18088834424850889 0 0.1589643083315804 0.1699886255623487 0 0.1402599975996246 0.1687496010839549 0 0.14172685770208041 0.18088834424850889 0 0.1589643083315804 0.1699886255623487 0 0.14172685770208041 0.18088834424850889 0 0.15664227980061579 0.1834446584897341 0 0.14735069213281321 0.19092796682168489 0 0.14172685770208041 0.18088834424850889 0 0.15664227980061579 0.1834446584897341 0 0.1492794596183103 0.15557552201751701 0 0.1402599975996246 0.1687496010839549 0 0.1589643083315804 0.1699886255623487 0 0.1492794596183103 0.15557552201751701 0 0.13636128964255501 0.15303395959459851 0 0.1402599975996246 0.1687496010839549 0 0.1492794596183103 0.15557552201751701 0 0.1589643083315804 0.1699886255623487 0 0.16307655427518189 0.1461583771030025 0 0.1589643083315804 0.1699886255623487 0 0.1832181015668064 0.15465227861531949 0 0.16307655427518189 0.1461583771030025 0 0.1589643083315804 0.1699886255623487 0 0.16307655427518189 0.1461583771030025 0 0.1589643083315804 0.1699886255623487 0 0.1832181015668064 0.15465227861531949 0 0.1589643083315804 0.1699886255623487 0 0.15664227980061579 0.1834446584897341 0 0.17367876449497299 0.17356388092826039 0 0.15664227980061579 0.1834446584897341 0 0.17803712215301101 0.18711146321258301 0 0.15664227980061579 0.1834446584897341 0 0.17367876449497299 0.17356388092826039 0 0.17803712215301101 0.18711146321258301 0 0.1589643083315804 0.1699886255623487 0 0.15664227980061579 0.1834446584897341 0 0.17367876449497299 0.17356388092826039 0 0.17803712215301101 0.18711146321258301 0 0.1915320106228488 0.17262237876131631 0 0.1589643083315804 0.1699886255623487 0 0.17367876449497299 0.17356388092826039 0 0.1832181015668064 0.15465227861531949 0 0.17367876449497299 0.17356388092826039 0 0.1832181015668064 0.15465227861531949 0 0.1915320106228488 0.17262237876131631 0 0.1832181015668064 0.15465227861531949 0 0.18154761934540289 0.13534417850528041 0 0.16307655427518189 0.1461583771030025 0 0.18154761934540289 0.13534417850528041 0 0.19370351113240411 0.1202502215829211 0 0.16718880021878149 0.12232812864365609 0 0.16307655427518189 0.1461583771030025 0 0.16718880021878149 0.12232812864365609 0 0.14773514824261011 0.13994704674368119 0 0.16307655427518189 0.1461583771030025 0 0.16718880021878149 0.12232812864365609 0 0.18154761934540289 0.13534417850528041 0 0.16307655427518189 0.1461583771030025 0 0.16718880021878149 0.12232812864365609 0 0.14248646727170791 0.24329921538672239 0 0.16890701105638031 0.23504418317664161 0 0.14248646727170791 0.24329921538672239 0 0.116065923487036 0.25155424759680489 0 0.14248646727170791 0.24329921538672239 0 0.1287590091161889 0.22454109023782651 0 0.116065923487036 0.25155424759680489 0 0.14248646727170791 0.24329921538672239 0 0.1287590091161889 0.22454109023782651 0 0.14216045677169509 0.2226427774354276 0 0.1287590091161889 0.22454109023782651 0 0.14216045677169509 0.2226427774354276 0 0.13903299807830019 0.21154409335764149 0 0.14248646727170791 0.24329921538672239 0 0.14216045677169509 0.2226427774354276 0 0.16890701105638031 0.23504418317664161 0 0.14216045677169509 0.2226427774354276 0 0.1513137794066001 0.21432303737238931 0 0.16890701105638031 0.23504418317664161 0 0.15183105921464751 0.210852851725322 0 0.13241563583181001 0.2003476577346209 0 0.15183105921464751 0.210852851725322 0 0.13903299807830019 0.21154409335764149 0 0.13241563583181001 0.2003476577346209 0 0.1513137794066001 0.21432303737238931 0 0.15183105921464751 0.210852851725322 0 0.14522842943996589 0.21534193400985699 0 0.1513137794066001 0.21432303737238931 0 0.15183105921464751 0.210852851725322 0 0.15183105921464751 0.210852851725322 0 0.14522842943996589 0.21534193400985699 0 0.13903299807830019 0.21154409335764149 0 0.14216045677169509 0.2226427774354276 0 0.1513137794066001 0.21432303737238931 0 0.14522842943996589 0.21534193400985699 0 0.14216045677169509 0.2226427774354276 0 0.14522842943996589 0.21534193400985699 0 0.13903299807830019 0.21154409335764149 0 0.1287590091161889 0.22454109023782651 0 0.13903299807830019 0.21154409335764149 0 0.12714211421566091 0.2115365522170618 0 0.11958782189190099 0.20227867846385961 0 0.12714211421566091 0.2115365522170618 0 0.13241563583181001 0.2003476577346209 0 0.13903299807830019 0.21154409335764149 0 0.12714211421566091 0.2115365522170618 0 0.13241563583181001 0.2003476577346209 0 0.1210814068145178 0.19423580856195369 0 0.13241563583181001 0.2003476577346209 0 0.13808072668616231 0.19149491569441959 0 0.1210814068145178 0.19423580856195369 0 0.14172685770208041 0.18088834424850889 0 0.13808072668616231 0.19149491569441959 0 0.1210814068145178 0.19423580856195369 0 0.14172685770208041 0.18088834424850889 0 0.1210814068145178 0.19423580856195369 0 0.13241563583181001 0.2003476577346209 0 0.15664227980061579 0.1834446584897341 0 0.15183105921464751 0.210852851725322 0 0.14735069213281321 0.19092796682168489 0 0.14172685770208041 0.18088834424850889 0 0.13808072668616231 0.19149491569441959 0 0.14735069213281321 0.19092796682168489 0 0.15183105921464751 0.210852851725322 0 0.13808072668616231 0.19149491569441959 0 0.14735069213281321 0.19092796682168489 0 0.15664227980061579 0.1834446584897341 0 0.15183105921464751 0.210852851725322 0 0.15183105921464751 0.210852851725322 0 0.13241563583181001 0.2003476577346209 0 0.13808072668616231 0.19149491569441959 0 0.15183105921464751 0.210852851725322 0 0.13808072668616231 0.19149491569441959 0 0.15664227980061579 0.1834446584897341 0 0.17803712215301101 0.18711146321258301 0 0.17078007948547791 0.20461318166966591 0 0.15664227980061579 0.1834446584897341 0 0.15183105921464751 0.210852851725322 0 0.17078007948547791 0.20461318166966591 0 0.17803712215301101 0.18711146321258301 0 0.18699821765939811 0.20575379358823331 0 0.17078007948547791 0.20461318166966591 0 0.18699821765939811 0.20575379358823331 0 0.18150256540618689 0.21619068467845909 0 0.17078007948547791 0.20461318166966591 0 0.18150256540618689 0.21619068467845909 0 0.17078007948547791 0.20461318166966591 0 0.1696832039875637 0.2204437538389574 0 0.15183105921464751 0.210852851725322 0 0.1696832039875637 0.2204437538389574 0 0.15183105921464751 0.210852851725322 0 0.17078007948547791 0.20461318166966591 0 0.1696832039875637 0.2204437538389574 0 0.15183105921464751 0.210852851725322 0 0.16890701105638031 0.23504418317664161 0 0.15183105921464751 0.210852851725322 0 0.1696832039875637 0.2204437538389574 0 0.16890701105638031 0.23504418317664161 0 0.1513137794066001 0.21432303737238931 0 0.15183105921464751 0.210852851725322 0 0.16890701105638031 0.23504418317664161 0 0.1696832039875637 0.2204437538389574 0 0.1730962958839812 0.23373525170759399 0 0.16890701105638031 0.23504418317664161 0 0.18150256540618689 0.21619068467845909 0 0.1696832039875637 0.2204437538389574 0 0.1874551123034256 0.23002704556275291 0 0.1696832039875637 0.2204437538389574 0 0.1874551123034256 0.23002704556275291 0 0.1730962958839812 0.23373525170759399 0 0.1696832039875637 0.2204437538389574 0 0.1874551123034256 0.23002704556275291 0 0.16890701105638031 0.23504418317664161 0 0.18564289691528729 0.25868749876629671 0 0.1821848497420967 0.24129823675235251 0 0.16890701105638031 0.23504418317664161 0 0.18564289691528729 0.25868749876629671 0 0.1730962958839812 0.23373525170759399 0 0.1821848497420967 0.24129823675235251 0 0.16890701105638031 0.23504418317664161 0 0.1874551123034256 0.23002704556275291 0 0.1730962958839812 0.23373525170759399 0 0.1821848497420967 0.24129823675235251 0 0.14248646727170791 0.24329921538672239 0 0.16890701105638031 0.23504418317664161 0 0.1631161995596529 0.25657386530356069 0 0.1730962958839812 0.23373525170759399 0 0.16890701105638031 0.23504418317664161 0 0.2052270206192876 0.23961033728654851 0 0.2245441737887168 0.23093760545441711 0 0.21458810326103989 0.25029177234766842 0 0.2052270206192876 0.23961033728654851 0 0.2050239072751949 0.2492833193895482 0 0.21458810326103989 0.25029177234766842 0 0.2052270206192876 0.23961033728654851 0 0.2050239072751949 0.2492833193895482 0 0.1956251304139873 0.24830732682566101 0 0.1874551123034256 0.23002704556275291 0 0.1821848497420967 0.24129823675235251 0 0.1956251304139873 0.24830732682566101 0 0.1874551123034256 0.23002704556275291 0 0.2052270206192876 0.23961033728654851 0 0.1821848497420967 0.24129823675235251 0 0.1956251304139873 0.24830732682566101 0 0.18564289691528729 0.25868749876629671 0 0.1874551123034256 0.23002704556275291 0 0.2052270206192876 0.23961033728654851 0 0.1956251304139873 0.24830732682566101 0 0.1874551123034256 0.23002704556275291 0 0.2052270206192876 0.23961033728654851 0 0.20110338325899621 0.22697869990708769 0 0.18150256540618689 0.21619068467845909 0 0.1874551123034256 0.23002704556275291 0 0.19422843088031849 0.2167901493339745 0 0.1874551123034256 0.23002704556275291 0 0.20110338325899621 0.22697869990708769 0 0.19422843088031849 0.2167901493339745 0 0.20110338325899621 0.22697869990708769 0 0.2086865974780466 0.21738525977654841 0 0.19422843088031849 0.2167901493339745 0 0.2052270206192876 0.23961033728654851 0 0.21155197229915221 0.22775520817690251 0 0.2245441737887168 0.23093760545441711 0 0.20110338325899621 0.22697869990708769 0 0.21155197229915221 0.22775520817690251 0 0.2086865974780466 0.21738525977654841 0 0.2052270206192876 0.23961033728654851 0 0.20110338325899621 0.22697869990708769 0 0.21155197229915221 0.22775520817690251 0 0.21155197229915221 0.22775520817690251 0 0.2086865974780466 0.21738525977654841 0 0.22156171208109349 0.2232889965660497 0 0.211417792929007 0.20448623071467029 0 0.2086865974780466 0.21738525977654841 0 0.22411523440486891 0.2128525325182862 0 0.2086865974780466 0.21738525977654841 0 0.22411523440486891 0.2128525325182862 0 0.22156171208109349 0.2232889965660497 0 0.211417792929007 0.20448623071467029 0 0.2086865974780466 0.21738525977654841 0 0.19996516513116139 0.20542151256053021 0 0.2086865974780466 0.21738525977654841 0 0.19422843088031849 0.2167901493339745 0 0.19996516513116139 0.20542151256053021 0 0.18699821765939811 0.20575379358823331 0 0.18150256540618689 0.21619068467845909 0 0.19422843088031849 0.2167901493339745 0 0.18699821765939811 0.20575379358823331 0 0.19422843088031849 0.2167901493339745 0 0.19996516513116139 0.20542151256053021 0 0.18699821765939811 0.20575379358823331 0 0.19996516513116139 0.20542151256053021 0 0.19943196450540629 0.19077826793543179 0 0.17803712215301101 0.18711146321258301 0 0.19943196450540629 0.19077826793543179 0 0.17803712215301101 0.18711146321258301 0 0.18699821765939811 0.20575379358823331 0 0.19943196450540629 0.19077826793543179 0 0.211417792929007 0.20448623071467029 0 0.19943196450540629 0.19077826793543179 0 0.22082680685780151 0.19444507265828059 0 0.19943196450540629 0.19077826793543179 0 0.22082680685780151 0.19444507265828059 0 0.211417792929007 0.20448623071467029 0 0.19996516513116139 0.20542151256053021 0 0.19943196450540629 0.19077826793543179 0 0.22082680685780151 0.19444507265828059 0 0.2418323282778008 0.1922485172988235 0 0.23200417938957321 0.20455559625434991 0 0.22082680685780151 0.19444507265828059 0 0.2418323282778008 0.1922485172988235 0 0.2298041727050075 0.1787595393801808 0 0.2418323282778008 0.1922485172988235 0 0.24124234801782149 0.21867626254200909 0 0.2418323282778008 0.1922485172988235 0 0.24124234801782149 0.21867626254200909 0 0.25471258750952741 0.20148162901819469 0 0.2418323282778008 0.1922485172988235 0 0.24124234801782149 0.21867626254200909 0 0.23200417938957321 0.20455559625434991 0 0.24124234801782149 0.21867626254200909 0 0.25357276657721323 0.21641202867955539 0 0.25471258750952741 0.20148162901819469 0 0.24124234801782149 0.21867626254200909 0 0.22411523440486891 0.2128525325182862 0 0.2303270751280653 0.22194856436908961 0 0.211417792929007 0.20448623071467029 0 0.22082680685780151 0.19444507265828059 0 0.22411523440486891 0.2128525325182862 0 0.22082680685780151 0.19444507265828059 0 0.23200417938957321 0.20455559625434991 0 0.22411523440486891 0.2128525325182862 0 0.24124234801782149 0.21867626254200909 0 0.23200417938957321 0.20455559625434991 0 0.22411523440486891 0.2128525325182862 0 0.22411523440486891 0.2128525325182862 0 0.22156171208109349 0.2232889965660497 0 0.2303270751280653 0.22194856436908961 0 0.22156171208109349 0.2232889965660497 0 0.2245441737887168 0.23093760545441711 0 0.2301452193877111 0.22885480910105491 0 0.21155197229915221 0.22775520817690251 0 0.22156171208109349 0.2232889965660497 0 0.2245441737887168 0.23093760545441711 0 0.2301452193877111 0.22885480910105491 0 0.23408043491912681 0.23335190051361199 0 0.23787356880598759 0.22384871304106421 0 0.2301452193877111 0.22885480910105491 0 0.23408043491912681 0.23335190051361199 0 0.2258394828391487 0.23585902185418811 0 0.2245441737887168 0.23093760545441711 0 0.2301452193877111 0.22885480910105491 0 0.2258394828391487 0.23585902185418811 0 0.2301452193877111 0.22885480910105491 0 0.2303270751280653 0.22194856436908961 0 0.23787356880598759 0.22384871304106421 0 0.22156171208109349 0.2232889965660497 0 0.2301452193877111 0.22885480910105491 0 0.2303270751280653 0.22194856436908961 0 0.24124234801782149 0.21867626254200909 0 0.2303270751280653 0.22194856436908961 0 0.23787356880598759 0.22384871304106421 0 0.24124234801782149 0.21867626254200909 0 0.23787356880598759 0.22384871304106421 0 0.25357276657721323 0.21641202867955539 0 0.23408043491912681 0.23335190051361199 0 0.24868260911088891 0.2303107595792985 0 0.25357276657721323 0.21641202867955539 0 0.23408043491912681 0.23335190051361199 0 0.23787356880598759 0.22384871304106421 0 0.25357276657721323 0.21641202867955539 0 0.23408043491912681 0.23335190051361199 0 0.25357276657721323 0.21641202867955539 0 0.24868260911088891 0.2303107595792985 0 0.2392512687495113 0.23539683186585869 0 0.2471090749199483 0.2357199094212839 0 0.23408043491912681 0.23335190051361199 0 0.24868260911088891 0.2303107595792985 0 0.2392512687495113 0.23539683186585869 0 0.23408043491912681 0.23335190051361199 0 0.2356673672060029 0.23553231024254659 0 0.23369101455560959 0.23545012385447089 0 0.2356673672060029 0.23553231024254659 0 0.23652425047500741 0.24096462129343871 0 0.23369101455560959 0.23545012385447089 0 0.23652425047500741 0.24096462129343871 0 0.2392512687495113 0.23539683186585869 0 0.24523436150048811 0.24199469982198529 0 0.2356673672060029 0.23553231024254659 0 0.23652425047500741 0.24096462129343871 0 0.2392512687495113 0.23539683186585869 0 0.23408043491912681 0.23335190051361199 0 0.2356673672060029 0.23553231024254659 0 0.2392512687495113 0.23539683186585869 0 0.24523436150048811 0.24199469982198529 0 0.2471090749199483 0.2357199094212839 0 0.25452501640087027 0.2374112721999547 0 0.2392512687495113 0.23539683186585869 0 0.24523436150048811 0.24199469982198529 0 0.2471090749199483 0.2357199094212839 0 0.24523436150048811 0.24199469982198529 0 0.23995652529561701 0.25039133628829258 0 0.25404003316197471 0.25208422786308371 0 0.23652425047500741 0.24096462129343871 0 0.24523436150048811 0.24199469982198529 0 0.23995652529561701 0.25039133628829258 0 0.23652425047500741 0.24096462129343871 0 0.23169913173193779 0.25404958449575432 0 0.23995652529561701 0.25039133628829258 0 0.23369101455560959 0.23545012385447089 0 0.2170338530129477 0.25958452376210089 0 0.21458810326103989 0.25029177234766842 0 0.23408043491912681 0.23335190051361199 0 0.23369101455560959 0.23545012385447089 0 0.21458810326103989 0.25029177234766842 0 0.23408043491912681 0.23335190051361199 0 0.21458810326103989 0.25029177234766842 0 0.2245441737887168 0.23093760545441711 0 0.21458810326103989 0.25029177234766842 0 0.23408043491912681 0.23335190051361199 0 0.2258394828391487 0.23585902185418811 0 0.21458810326103989 0.25029177234766842 0 0.23369101455560959 0.23545012385447089 0 0.2170338530129477 0.25958452376210089 0 0.23169913173193779 0.25404958449575432 0 0.23652425047500741 0.24096462129343871 0 0.23369101455560959 0.23545012385447089 0 0.23169913173193779 0.25404958449575432 0 0.23369101455560959 0.23545012385447089 0 0.2170338530129477 0.25958452376210089 0 0.2245441737887168 0.23093760545441711 0 0.2258394828391487 0.23585902185418811 0 0.21458810326103989 0.25029177234766842 0 0.2074718948020329 0.13931593166829101 0 0.2035930282546865 0.1573108976369578 0 0.22801201431925219 0.15227861461809999 0 0.2074718948020329 0.13931593166829101 0 0.22815060196587239 0.13250420183309389 0 0.2202182220460269 0.1181723145221887 0 0.2074718948020329 0.13931593166829101 0 0.2202182220460269 0.1181723145221887 0 0.19370351113240411 0.1202502215829211 0 0.18154761934540289 0.13534417850528041 0 0.2074718948020329 0.13931593166829101 0 0.19370351113240411 0.1202502215829211 0 0.1832181015668064 0.15465227861531949 0 0.2074718948020329 0.13931593166829101 0 0.1832181015668064 0.15465227861531949 0 0.18154761934540289 0.13534417850528041 0 0.2074718948020329 0.13931593166829101 0 0.1832181015668064 0.15465227861531949 0 0.2074718948020329 0.13931593166829101 0 0.2035930282546865 0.1573108976369578 0 0.1832181015668064 0.15465227861531949 0 0.1915320106228488 0.17262237876131631 0 0.2035930282546865 0.1573108976369578 0 0.1915320106228488 0.17262237876131631 0 0.21309098299550949 0.1707274381193544 0 0.2035930282546865 0.1573108976369578 0 0.19943196450540629 0.19077826793543179 0 0.1915320106228488 0.17262237876131631 0 0.21309098299550949 0.1707274381193544 0 0.17803712215301101 0.18711146321258301 0 0.19943196450540629 0.19077826793543179 0 0.1915320106228488 0.17262237876131631 0 0.19943196450540629 0.19077826793543179 0 0.22082680685780151 0.19444507265828059 0 0.21309098299550949 0.1707274381193544 0 0.21309098299550949 0.1707274381193544 0 0.2035930282546865 0.1573108976369578 0 0.22801201431925219 0.15227861461809999 0 0.2298041727050075 0.1787595393801808 0 0.2424223085377801 0.16582077205563811 0 0.22801201431925219 0.15227861461809999 0 0.21309098299550949 0.1707274381193544 0 0.2298041727050075 0.1787595393801808 0 0.22801201431925219 0.15227861461809999 0 0.22082680685780151 0.19444507265828059 0 0.21309098299550949 0.1707274381193544 0 0.2298041727050075 0.1787595393801808 0 0.2418323282778008 0.1922485172988235 0 0.2424223085377801 0.16582077205563811 0 0.2418323282778008 0.1922485172988235 0 0.2424223085377801 0.16582077205563811 0 0.26032431562704572 0.18342712708893841 0 0.2418323282778008 0.1922485172988235 0 0.2298041727050075 0.1787595393801808 0 0.2424223085377801 0.16582077205563811 0 0.2424223085377801 0.16582077205563811 0 0.24301228879775941 0.13939302681245261 0 0.2424223085377801 0.16582077205563811 0 0.24301228879775941 0.13939302681245261 0 0.25486404381895789 0.1523024957907583 0 0.22801201431925219 0.15227861461809999 0 0.23648687609860089 0.13476882232929049 0 0.24301228879775941 0.13939302681245261 0 0.2424223085377801 0.16582077205563811 0 0.22801201431925219 0.15227861461809999 0 0.24301228879775941 0.13939302681245261 0 0.2074718948020329 0.13931593166829101 0 0.22801201431925219 0.15227861461809999 0 0.22815060196587239 0.13250420183309389 0 0.22815060196587239 0.13250420183309389 0 0.24420216851797599 0.1292372680552665 0 0.2202182220460269 0.1181723145221887 0 0.22801201431925219 0.15227861461809999 0 0.22815060196587239 0.13250420183309389 0 0.23648687609860089 0.13476882232929049 0 0.22815060196587239 0.13250420183309389 0 0.23648687609860089 0.13476882232929049 0 0.24420216851797599 0.1292372680552665 0 0.23648687609860089 0.13476882232929049 0 0.24301228879775941 0.13939302681245261 0 0.24420216851797599 0.1292372680552665 0 0.24646482385440791 0.1109165710353929 0 0.23770217468454991 0.11680213067385049 0 0.255186127323073 0.11543194682551421 0 0.24420216851797599 0.1292372680552665 0 0.23770217468454991 0.11680213067385049 0 0.255186127323073 0.11543194682551421 0 0.23770217468454991 0.11680213067385049 0 0.255186127323073 0.11543194682551421 0 0.23770217468454991 0.11680213067385049 0 0.24055722746134861 0.1095612663226197 0 0.23538797832625211 0.10692464088038291 0 0.24646482385440791 0.1109165710353929 0 0.23770217468454991 0.11680213067385049 0 0.24055722746134861 0.1095612663226197 0 0.24174744587836799 0.1033548466348798 0 0.22816008327650389 0.097918375238235045 0 0.24736227196270541 0.090270970101712061 0 0.22816008327650389 0.097918375238235045 0 0.24736227196270541 0.090270970101712061 0 0.24174744587836799 0.1033548466348798 0 0.24736227196270541 0.090270970101712061 0 0.25459763100830068 0.096141582858552177 0 0.24174744587836799 0.1033548466348798 0 0.25459763100830068 0.096141582858552177 0 0.24646482385440791 0.1109165710353929 0 0.24174744587836799 0.1033548466348798 0 0.25655208948606423 0.10927836717886751 0 0.24174744587836799 0.1033548466348798 0 0.25655208948606423 0.10927836717886751 0 0.24646482385440791 0.1109165710353929 0 0.24055722746134861 0.1095612663226197 0 0.24174744587836799 0.1033548466348798 0 0.23538797832625211 0.10692464088038291 0 0.24174744587836799 0.1033548466348798 0 0.22816008327650389 0.097918375238235045 0 0.24055722746134861 0.1095612663226197 0 0.23538797832625211 0.10692464088038291 0 0.24174744587836799 0.1033548466348798 0 0.23538797832625211 0.10692464088038291 0 0.24174744587836799 0.1033548466348798 0 0.24174744587836799 0.1033548466348798 0 0.22816008327650389 0.097918375238235045 0 0.23538797832625211 0.10692464088038291 0 0.22816008327650389 0.097918375238235045 0 0.22436085098549791 0.1097634104313145 0 0.23770217468454991 0.11680213067385049 0 0.2202182220460269 0.1181723145221887 0 0.23770217468454991 0.11680213067385049 0 0.2202182220460269 0.1181723145221887 0 0.22436085098549791 0.1097634104313145 0 0.24420216851797599 0.1292372680552665 0 0.23770217468454991 0.11680213067385049 0 0.2202182220460269 0.1181723145221887 0 0.24420216851797599 0.1292372680552665 0 0.2202182220460269 0.1181723145221887 0 0.23770217468454991 0.11680213067385049 0 0.23538797832625211 0.10692464088038291 0 0.22436085098549791 0.1097634104313145 0 0.2202182220460269 0.1181723145221887 0 0.20033579659415629 0.10899959084191641 0 0.19370351113240411 0.1202502215829211 0 0.2202182220460269 0.1181723145221887 0 0.20033579659415629 0.10899959084191641 0 0.2202182220460269 0.1181723145221887 0 0.19370351113240411 0.1202502215829211 0 0.2202182220460269 0.1181723145221887 0 0.22436085098549791 0.1097634104313145 0 0.20033579659415629 0.10899959084191641 0 0.22816008327650389 0.097918375238235045 0 0.22436085098549791 0.1097634104313145 0 0.20033579659415629 0.10899959084191641 0 0.22816008327650389 0.097918375238235045 0 0.20033579659415629 0.10899959084191641 0 0.2016134769563831 0.087296750559026068 0 0.22816008327650389 0.097918375238235045 0 0.20033579659415629 0.10899959084191641 0 0.20033579659415629 0.10899959084191641 0 0.18422746814952201 0.1154148446289336 0 0.1860496622757298 0.1024087067025775 0 0.20033579659415629 0.10899959084191641 0 0.2016134769563831 0.087296750559026068 0 0.1860496622757298 0.1024087067025775 0 0.20033579659415629 0.10899959084191641 0 0.1860496622757298 0.1024087067025775 0 0.20033579659415629 0.10899959084191641 0 0.19370351113240411 0.1202502215829211 0 0.18422746814952201 0.1154148446289336 0 0.20033579659415629 0.10899959084191641 0 0.18422746814952201 0.1154148446289336 0 0.19220101611619109 0.069455466931817506 0 0.2016134769563831 0.087296750559026068 0 0.22553753830923129 0.072562856517635971 0 0.19220101611619109 0.069455466931817506 0 0.22553753830923129 0.072562856517635971 0 0.20371280465575431 0.054854742933563613 0 0.19220101611619109 0.069455466931817506 0 0.2016134769563831 0.087296750559026068 0 0.17506687063626211 0.076675125879817507 0 0.2016134769563831 0.087296750559026068 0 0.17506687063626211 0.076675125879817507 0 0.2016134769563831 0.087296750559026068 0 0.1860496622757298 0.1024087067025775 0 0.17954517331912459 0.085943521096986275 0 0.22816008327650389 0.097918375238235045 0 0.2016134769563831 0.087296750559026068 0 0.22553753830923129 0.072562856517635971 0 0.22816008327650389 0.097918375238235045 0 0.2016134769563831 0.087296750559026068 0 0.22553753830923129 0.072562856517635971 0 0.20371280465575431 0.054854742933563613 0 0.22816008327650389 0.097918375238235045 0 0.22553753830923129 0.072562856517635971 0 0.24736227196270541 0.090270970101712061 0 0.22553753830923129 0.072562856517635971 0 0.24736227196270541 0.090270970101712061 0 0.22553753830923129 0.072562856517635971 0 0.24736227196270541 0.090270970101712061 0 0.24874122334595 0.07170785510379532 0 0.22553753830923129 0.072562856517635971 0 0.24874122334595 0.07170785510379532 0 0.24629062771517271 0.052820950830226497 0 0.24629062771517271 0.052820950830226497 0 0.22540450977275331 0.044226989078737088 0 0.24629062771517271 0.052820950830226497 0 0.2492733855269578 0.041579555173777823 0 0.22540450977275331 0.044226989078737088 0 0.2492733855269578 0.041579555173777823 0 0.23050941707716249 0.025621187905106171 0 0.2492733855269578 0.041579555173777823 0 0.22540450977275331 0.044226989078737088 0 0.23050941707716249 0.025621187905106171 0 0.22540450977275331 0.044226989078737088 0 0.23050941707716249 0.025621187905106171 0 0.21805144048265651 0.031797176764528597 0 0.22553753830923129 0.072562856517635971 0 0.24629062771517271 0.052820950830226497 0 0.22540450977275331 0.044226989078737088 0 0.23790413247208811 0.0091049515404343275 0 0.25322369798355371 0.0032948183560677501 0 0.2464198669495459 -0.012097030270161889 0 0.23790413247208811 0.0091049515404343275 0 0.25442723867738032 0.016379625870619269 0 0.25322369798355371 0.0032948183560677501 0 0.2492733855269578 0.041579555173777823 0 0.24818833723327199 0.02644705719899533 0 0.23050941707716249 0.025621187905106171 0 0.23790413247208811 0.0091049515404343275 0 0.24818833723327199 0.02644705719899533 0 0.25442723867738032 0.016379625870619269 0 0.23790413247208811 0.0091049515404343275 0 0.24818833723327199 0.02644705719899533 0 0.23050941707716249 0.025621187905106171 0 0.23050941707716249 0.025621187905106171 0 0.2117734432503762 0.02170750274702346 0 0.21805144048265651 0.031797176764528597 0 0.23050941707716249 0.025621187905106171 0 0.21174544862736719 0.0096628206364345465 0 0.23050941707716249 0.025621187905106171 0 0.22518260227175371 0.0072623370788317187 0 0.21174544862736719 0.0096628206364345465 0 0.23790413247208811 0.0091049515404343275 0 0.22518260227175371 0.0072623370788317187 0 0.2300866381754704 -0.0072438550720441714 0 0.23790413247208811 0.0091049515404343275 0 0.23050941707716249 0.025621187905106171 0 0.22518260227175371 0.0072623370788317187 0 0.21174544862736719 0.0096628206364345465 0 0.2117734432503762 0.02170750274702346 0 0.20589386385567829 -0.0063134785331596111 0 0.2117734432503762 0.02170750274702346 0 0.19985428483697371 0.01027601627170664 0 0.20589386385567829 -0.0063134785331596111 0 0.2117734432503762 0.02170750274702346 0 0.20589386385567829 -0.0063134785331596111 0 0.22518260227175371 0.0072623370788317187 0 0.21174544862736719 0.0096628206364345465 0 0.2185782736923042 -0.0038367730406402641 0 0.23050941707716249 0.025621187905106171 0 0.21174544862736719 0.0096628206364345465 0 0.2117734432503762 0.02170750274702346 0 0.2117734432503762 0.02170750274702346 0 0.19994459845139961 0.023663902980434019 0 0.19985428483697371 0.01027601627170664 0 0.2117734432503762 0.02170750274702346 0 0.21805144048265651 0.031797176764528597 0 0.20451839183033399 0.035633027327247678 0 0.2117734432503762 0.02170750274702346 0 0.19994459845139961 0.023663902980434019 0 0.20451839183033399 0.035633027327247678 0 0.19994459845139961 0.023663902980434019 0 0.20451839183033399 0.035633027327247678 0 0.1836322738879155 0.027039065575756291 0 0.19994459845139961 0.023663902980434019 0 0.19985428483697371 0.01027601627170664 0 0.1836322738879155 0.027039065575756291 0 0.19985428483697371 0.01027601627170664 0 0.20589386385567829 -0.0063134785331596111 0 0.18863989258252481 -0.001979820774580698 0 0.19985428483697371 0.01027601627170664 0 0.1836322738879155 0.027039065575756291 0 0.18863989258252481 -0.001979820774580698 0 0.22553753830923129 0.072562856517635971 0 0.22540450977275331 0.044226989078737088 0 0.20371280465575431 0.054854742933563613 0 0.22540450977275331 0.044226989078737088 0 0.20451839183033399 0.035633027327247678 0 0.22540450977275331 0.044226989078737088 0 0.21805144048265651 0.031797176764528597 0 0.20451839183033399 0.035633027327247678 0 0.22540450977275331 0.044226989078737088 0 0.20371280465575431 0.054854742933563613 0 0.20451839183033399 0.035633027327247678 0 0.20451839183033399 0.035633027327247678 0 0.1818880710022803 0.03714662934948755 0 0.1836322738879155 0.027039065575756291 0 0.20371280465575431 0.054854742933563613 0 0.20451839183033399 0.035633027327247678 0 0.1818880710022803 0.03714662934948755 0 0.20371280465575431 0.054854742933563613 0 0.1818880710022803 0.03714662934948755 0 0.20451839183033399 0.035633027327247678 0 0.1836322738879155 0.027039065575756291 0 0.20371280465575431 0.054854742933563613 0 0.17847747081927551 0.05691087761465332 0 0.1818880710022803 0.03714662934948755 0 0.19220101611619109 0.069455466931817506 0 0.20371280465575431 0.054854742933563613 0 0.17847747081927551 0.05691087761465332 0 0.17847747081927551 0.05691087761465332 0 0.1818880710022803 0.03714662934948755 0 0.17847747081927551 0.05691087761465332 0 0.1818880710022803 0.03714662934948755 0 0.1636569447874848 0.036789081642687432 0 0.1818880710022803 0.03714662934948755 0 0.1836322738879155 0.027039065575756291 0 0.1818880710022803 0.03714662934948755 0 0.1636569447874848 0.036789081642687432 0 0.1620242678869008 0.02102957209859084 0 0.17847747081927551 0.05691087761465332 0 0.1636569447874848 0.036789081642687432 0 0.15962551614652079 0.053115759904931073 0 0.17847747081927551 0.05691087761465332 0 0.15962551614652079 0.053115759904931073 0 0.16641746421004469 0.065589342706300277 0 0.15962551614652079 0.053115759904931073 0 0.15045482833334159 0.067212260357143019 0 0.16641746421004469 0.065589342706300277 0 0.1716695151525548 0.011722155214289249 0 0.17506184651935949 -0.0021247232161890161 0 0.18863989258252481 -0.001979820774580698 0 0.1836322738879155 0.027039065575756291 0 0.18863989258252481 -0.001979820774580698 0 0.1836322738879155 0.027039065575756291 0 0.1716695151525548 0.011722155214289249 0 0.18863989258252481 -0.001979820774580698 0 0.1818880710022803 0.03714662934948755 0 0.1730573255808272 0.02268781650565178 0 0.1620242678869008 0.02102957209859084 0 0.1818880710022803 0.03714662934948755 0 0.1620242678869008 0.02102957209859084 0 0.1730573255808272 0.02268781650565178 0 0.1836322738879155 0.027039065575756291 0 0.1716695151525548 0.011722155214289249 0 0.1730573255808272 0.02268781650565178 0 0.1836322738879155 0.027039065575756291 0 0.1818880710022803 0.03714662934948755 0 0.1730573255808272 0.02268781650565178 0 0.1836322738879155 0.027039065575756291 0 0.1636569447874848 0.036789081642687432 0 0.1620242678869008 0.02102957209859084 0 0.15032019737810451 0.03113296745297477 0 0.1730573255808272 0.02268781650565178 0 0.1620242678869008 0.02102957209859084 0 0.1716695151525548 0.011722155214289249 0 0.1620242678869008 0.02102957209859084 0 0.1716695151525548 0.011722155214289249 0 0.15871689523486121 0.010399441389301141 0 0.1716695151525548 0.011722155214289249 0 0.15871689523486121 0.010399441389301141 0 0.1628037813635097 0.0015330777282007481 0 0.15871689523486121 0.010399441389301141 0 0.1628037813635097 0.0015330777282007481 0 0.15453230216132671 0.0032055715019124438 0 0.1716695151525548 0.011722155214289249 0 0.1628037813635097 0.0015330777282007481 0 0.17506184651935949 -0.0021247232161890161 0 0.1620242678869008 0.02102957209859084 0 0.14216046477152491 0.0049125148476896544 0 0.15871689523486121 0.010399441389301141 0 0.14216046477152491 0.0049125148476896544 0 0.15453230216132671 0.0032055715019124438 0 0.14216046477152491 0.0049125148476896544 0 0.15453230216132671 0.0032055715019124438 0 0.15849764294065671 -0.0060544572746906826 0 0.1620242678869008 0.02102957209859084 0 0.15871689523486121 0.010399441389301141 0 0.14216046477152491 0.0049125148476896544 0 0.1620242678869008 0.02102957209859084 0 0.14216046477152491 0.0049125148476896544 0 0.1432298655490542 0.02239521632663263 0 0.1620242678869008 0.02102957209859084 0 0.1432298655490542 0.02239521632663263 0 0.15032019737810451 0.03113296745297477 0 0.1432298655490542 0.02239521632663263 0 0.15032019737810451 0.03113296745297477 0 0.1366405524080008 0.032741533152345258 0 0.1432298655490542 0.02239521632663263 0 0.12659142849079691 0.028091664155532971 0 0.1366405524080008 0.032741533152345258 0 0.14216046477152491 0.0049125148476896544 0 0.1432298655490542 0.02239521632663263 0 0.12659142849079691 0.028091664155532971 0 0.14216046477152491 0.0049125148476896544 0 0.12659142849079691 0.028091664155532971 0 0.1323442420055404 0.014884056975098 0 0.14216046477152491 0.0049125148476896544 0 0.12659142849079691 0.028091664155532971 0 0.11882011836095251 0.0065886106746579649 0 0.12659142849079691 0.028091664155532971 0 0.1323442420055404 0.014884056975098 0 0.12659142849079691 0.028091664155532971 0 0.1366405524080008 0.032741533152345258 0 0.11882011836095251 0.0065886106746579649 0 0.1323442420055404 0.014884056975098 0 0.13735218555535891 0.001011181807127467 0 0.1323442420055404 0.014884056975098 0 0.13735218555535891 0.001011181807127467 0 0.14216046477152491 0.0049125148476896544 0 0.1323442420055404 0.014884056975098 0 0.13735218555535891 0.001011181807127467 0 0.14216046477152491 0.0049125148476896544 0 0.13735218555535891 0.001011181807127467 0 0.15962551614652079 0.053115759904931073 0 0.1452456698728295 0.044396077507560729 0 0.15045482833334159 0.067212260357143019 0 0.1452456698728295 0.044396077507560729 0 0.12683439495817461 0.052003073372435288 0 0.15045482833334159 0.067212260357143019 0 0.1636569447874848 0.036789081642687432 0 0.15032019737810451 0.03113296745297477 0 0.1452456698728295 0.044396077507560729 0 0.1636569447874848 0.036789081642687432 0 0.15962551614652079 0.053115759904931073 0 0.1452456698728295 0.044396077507560729 0 0.1636569447874848 0.036789081642687432 0 0.1452456698728295 0.044396077507560729 0 0.15032019737810451 0.03113296745297477 0 0.1452456698728295 0.044396077507560729 0 0.1366405524080008 0.032741533152345258 0 0.1452456698728295 0.044396077507560729 0 0.13015300311198849 0.040381385354086502 0 0.12683439495817461 0.052003073372435288 0 0.1452456698728295 0.044396077507560729 0 0.1366405524080008 0.032741533152345258 0 0.13015300311198849 0.040381385354086502 0 0.12659142849079691 0.028091664155532971 0 0.1366405524080008 0.032741533152345258 0 0.13015300311198849 0.040381385354086502 0 0.12683439495817461 0.052003073372435288 0 0.13134854049252651 0.064566646620811727 0 0.15045482833334159 0.067212260357143019 0 0.1452456698728295 0.044396077507560729 0 0.12683439495817461 0.052003073372435288 0 0.12683439495817461 0.052003073372435288 0 0.15045482833334159 0.067212260357143019 0 0.1213053233293625 0.063977455960140386 0 0.12683439495817461 0.052003073372435288 0 0.13134854049252651 0.064566646620811727 0 0.13134854049252651 0.064566646620811727 0 0.12679961534922851 0.075073796793526271 0 0.15045482833334159 0.067212260357143019 0 0.1213053233293625 0.063977455960140386 0 0.13134854049252651 0.064566646620811727 0 0.12679961534922851 0.075073796793526271 0 0.12679961534922851 0.075073796793526271 0 0.15045482833334159 0.067212260357143019 0 0.1492815716532653 0.085445809678383625 0 0.1185648575779607 0.095458187827811403 0 0.12679961534922851 0.075073796793526271 0 0.13332649773741079 0.089989738391902788 0 0.1492815716532653 0.085445809678383625 0 0.13332649773741079 0.089989738391902788 0 0.13865994636918871 0.10398115926788989 0 0.12679961534922851 0.075073796793526271 0 0.1492815716532653 0.085445809678383625 0 0.12679961534922851 0.075073796793526271 0 0.1492815716532653 0.085445809678383625 0 0.13332649773741079 0.089989738391902788 0 0.123281054128593 0.11724462113534739 0 0.1185648575779607 0.095458187827811403 0 0.13865994636918871 0.10398115926788989 0 0.1185648575779607 0.095458187827811403 0 0.13332649773741079 0.089989738391902788 0 0.13865994636918871 0.10398115926788989 0 0.123281054128593 0.11724462113534739 0 0.13865994636918871 0.10398115926788989 0 0.13947052033133081 0.1245003570974072 0 0.13947052033133081 0.1245003570974072 0 0.15026369300765779 0.1129544164764977 0 0.16718880021878149 0.12232812864365609 0 0.13947052033133081 0.1245003570974072 0 0.16718880021878149 0.12232812864365609 0 0.13865994636918871 0.10398115926788989 0 0.13947052033133081 0.1245003570974072 0 0.15026369300765779 0.1129544164764977 0 0.1492815716532653 0.085445809678383625 0 0.13865994636918871 0.10398115926788989 0 0.15573550511132991 0.1010080208970377 0 0.13865994636918871 0.10398115926788989 0 0.15026369300765779 0.1129544164764977 0 0.15573550511132991 0.1010080208970377 0 0.15573550511132991 0.1010080208970377 0 0.17176352795730221 0.095817822563241214 0 0.16718880021878149 0.12232812864365609 0 0.17176352795730221 0.095817822563241214 0 0.16718880021878149 0.12232812864365609 0 0.1492815716532653 0.085445809678383625 0 0.15573550511132991 0.1010080208970377 0 0.17176352795730221 0.095817822563241214 0 0.15026369300765779 0.1129544164764977 0 0.15573550511132991 0.1010080208970377 0 0.16718880021878149 0.12232812864365609 0 0.16718880021878149 0.12232812864365609 0 0.18422746814952201 0.1154148446289336 0 0.17176352795730221 0.095817822563241214 0 0.16718880021878149 0.12232812864365609 0 0.18422746814952201 0.1154148446289336 0 0.19370351113240411 0.1202502215829211 0 0.16718880021878149 0.12232812864365609 0 0.19370351113240411 0.1202502215829211 0 0.16718880021878149 0.12232812864365609 0 0.18422746814952201 0.1154148446289336 0 0.17176352795730221 0.095817822563241214 0 0.18422746814952201 0.1154148446289336 0 0.1860496622757298 0.1024087067025775 0 0.17176352795730221 0.095817822563241214 0 0.1860496622757298 0.1024087067025775 0 0.17954517331912459 0.085943521096986275 0 0.17176352795730221 0.095817822563241214 0 0.1860496622757298 0.1024087067025775 0 0.2016134769563831 0.087296750559026068 0 0.17954517331912459 0.085943521096986275 0 0.17506687063626211 0.076675125879817507 0 0.17176352795730221 0.095817822563241214 0 0.17407526170850959 0.082421447341849294 0 0.17176352795730221 0.095817822563241214 0 0.17954517331912459 0.085943521096986275 0 0.17407526170850959 0.082421447341849294 0 0.17954517331912459 0.085943521096986275 0 0.17407526170850959 0.082421447341849294 0 0.17506687063626211 0.076675125879817507 0 0.17407526170850959 0.082421447341849294 0 0.17506687063626211 0.076675125879817507 0 0.17954517331912459 0.085943521096986275 0 0.17407526170850959 0.082421447341849294 0 0.17847747081927551 0.05691087761465332 0 0.17506687063626211 0.076675125879817507 0 0.19220101611619109 0.069455466931817506 0 0.17847747081927551 0.05691087761465332 0 0.17506687063626211 0.076675125879817507 0 0.17847747081927551 0.05691087761465332 0 0.17506687063626211 0.076675125879817507 0 0.16641746421004469 0.065589342706300277 0 0.17407526170850959 0.082421447341849294 0 0.17506687063626211 0.076675125879817507 0 0.16846263511482451 0.074032689774956653 0 0.15045482833334159 0.067212260357143019 0 0.16846263511482451 0.074032689774956653 0 0.16641746421004469 0.065589342706300277 0 0.17506687063626211 0.076675125879817507 0 0.16846263511482451 0.074032689774956653 0 0.16641746421004469 0.065589342706300277 0 0.15045482833334159 0.067212260357143019 0 0.17407526170850959 0.082421447341849294 0 0.16846263511482451 0.074032689774956653 0 0.17506687063626211 0.076675125879817507 0 0.16846263511482451 0.074032689774956653 0 0.15045482833334159 0.067212260357143019 0 0.17407526170850959 0.082421447341849294 0 0.1492815716532653 0.085445809678383625 0 0.17176352795730221 0.095817822563241214 0 0.1492815716532653 0.085445809678383625 0 0.17176352795730221 0.095817822563241214 0 0.17407526170850959 0.082421447341849294 0 0.15045482833334159 0.067212260357143019 0 0.1492815716532653 0.085445809678383625 0 0.17407526170850959 0.082421447341849294 0 0.094789198081262169 0.47221984895451657 0 0.09870107108427445 0.5 0 0.1248616532684987 0.47476888169724352 0 0.09870107108427445 0.5 0 0.1248616532684987 0.47476888169724352 0 0.1287333349596296 0.50000000000000233 0 0.1248616532684987 0.47476888169724352 0 0.1154926134483955 0.45328817880533262 0 0.094789198081262169 0.47221984895451657 0 0.1248616532684987 0.47476888169724352 0 0.1154926134483955 0.45328817880533262 0 0.1248616532684987 0.47476888169724352 0 0.1205619018159948 0.44674810255646558 0 0.1248616532684987 0.47476888169724352 0 0.1154926134483955 0.45328817880533262 0 0.1205619018159948 0.44674810255646558 0 0.1154926134483955 0.45328817880533262 0 0.106123573628292 0.43180747591342172 0 0.1154926134483955 0.45328817880533262 0 0.1205619018159948 0.44674810255646558 0 0.106123573628292 0.43180747591342172 0 0.1154926134483955 0.45328817880533262 0 0.096722182691352548 0.44869154901932268 0 0.106123573628292 0.43180747591342172 0 0.094789198081262169 0.47221984895451657 0 0.1154926134483955 0.45328817880533262 0 0.096722182691352548 0.44869154901932268 0 0.094789198081262169 0.47221984895451657 0 0.077453222292990773 0.45016302493177879 0 0.067202034968243438 0.47028323083424428 0 0.094789198081262169 0.47221984895451657 0 0.096722182691352548 0.44869154901932268 0 0.077453222292990773 0.45016302493177879 0 0.096722182691352548 0.44869154901932268 0 0.077453222292990773 0.45016302493177879 0 0.085233479690329184 0.42595657570789891 0 0.077453222292990773 0.45016302493177879 0 0.085233479690329184 0.42595657570789891 0 0.077453222292990773 0.45016302493177879 0 0.055846149836862702 0.43889490050586683 0 0.065639666334966471 0.42409002317344818 0 0.077453222292990773 0.45016302493177879 0 0.067202034968243438 0.47028323083424428 0 0.051776939420019832 0.45519588853091181 0 0.094789198081262169 0.47221984895451657 0 0.067202034968243438 0.47028323083424428 0 0.068668807208919325 0.5 0 0.094789198081262169 0.47221984895451657 0 0.09870107108427445 0.5 0 0.068668807208919325 0.5 0 0.068668807208919325 0.5 0 0.043814234576468783 0.4752156274217324 0 0.038636543333564137 0.5 0 0.067202034968243438 0.47028323083424428 0 0.068668807208919325 0.5 0 0.043814234576468783 0.4752156274217324 0 0.038636543333564137 0.5 0 0.0095498935665802413 0.47810272379952351 0 0.0086042794582089632 0.5 0 0.043814234576468783 0.4752156274217324 0 0.038636543333564137 0.5 0 0.0095498935665802413 0.47810272379952351 0 0.043814234576468783 0.4752156274217324 0 0.0095498935665802413 0.47810272379952351 0 0.02936257191825143 0.45548825099001988 0 -0.0044763741368290672 0.43313315307665529 0 0.006403582431216831 0.45126676372832991 0 0.01131617767293759 0.43066417693356068 0 0.006403582431216831 0.45126676372832991 0 0.024585063983693121 0.43937755350337049 0 0.01131617767293759 0.43066417693356068 0 -0.0062093312902834459 0.46527566221073008 0 0.0095498935665802413 0.47810272379952351 0 0.006403582431216831 0.45126676372832991 0 0.0095498935665802413 0.47810272379952351 0 0.006403582431216831 0.45126676372832991 0 0.02936257191825143 0.45548825099001988 0 0.02936257191825143 0.45548825099001988 0 0.024585063983693121 0.43937755350337049 0 0.039439570502417587 0.44016889882154447 0 0.006403582431216831 0.45126676372832991 0 0.02936257191825143 0.45548825099001988 0 0.024585063983693121 0.43937755350337049 0 0.02936257191825143 0.45548825099001988 0 0.039439570502417587 0.44016889882154447 0 0.051776939420019832 0.45519588853091181 0 0.043814234576468783 0.4752156274217324 0 0.02936257191825143 0.45548825099001988 0 0.051776939420019832 0.45519588853091181 0 0.067202034968243438 0.47028323083424428 0 0.043814234576468783 0.4752156274217324 0 0.051776939420019832 0.45519588853091181 0 0.039439570502417587 0.44016889882154447 0 0.051776939420019832 0.45519588853091181 0 0.055846149836862702 0.43889490050586683 0 0.077453222292990773 0.45016302493177879 0 0.051776939420019832 0.45519588853091181 0 0.055846149836862702 0.43889490050586683 0 0.055846149836862702 0.43889490050586683 0 0.044352211855280779 0.42435697566478181 0 0.065639666334966471 0.42409002317344818 0 0.054179592762823331 0.4124556941646933 0 0.065774511826563423 0.40583773171119408 0 0.065639666334966471 0.42409002317344818 0 0.054179592762823331 0.4124556941646933 0 0.044352211855280779 0.42435697566478181 0 0.042551786202842029 0.40583695196884878 0 0.054179592762823331 0.4124556941646933 0 0.044352211855280779 0.42435697566478181 0 0.065639666334966471 0.42409002317344818 0 0.054179592762823331 0.4124556941646933 0 0.052579787594463898 0.40215678830519391 0 0.065774511826563423 0.40583773171119408 0 0.054179592762823331 0.4124556941646933 0 0.042551786202842029 0.40583695196884878 0 0.052579787594463898 0.40215678830519391 0 0.031615607723292562 0.41237007764590089 0 0.044352211855280779 0.42435697566478181 0 0.042551786202842029 0.40583695196884878 0 0.031615607723292562 0.41237007764590089 0 0.044352211855280779 0.42435697566478181 0 0.029348552931666359 0.42650056435783129 0 0.039439570502417587 0.44016889882154447 0 0.055846149836862702 0.43889490050586683 0 0.044352211855280779 0.42435697566478181 0 0.039439570502417587 0.44016889882154447 0 0.044352211855280779 0.42435697566478181 0 0.029348552931666359 0.42650056435783129 0 0.024585063983693121 0.43937755350337049 0 0.039439570502417587 0.44016889882154447 0 0.029348552931666359 0.42650056435783129 0 0.024585063983693121 0.43937755350337049 0 0.029348552931666359 0.42650056435783129 0 0.01131617767293759 0.43066417693356068 0 0.029348552931666359 0.42650056435783129 0 0.019479081626689841 0.41692126840220728 0 0.01131617767293759 0.43066417693356068 0 0.031615607723292562 0.41237007764590089 0 0.029348552931666359 0.42650056435783129 0 0.019479081626689841 0.41692126840220728 0 0.031615607723292562 0.41237007764590089 0 0.019479081626689841 0.41692126840220728 0 0.02210553341445062 0.40298972327242938 0 0.019479081626689841 0.41692126840220728 0 0.0046995574085186929 0.41194005205042061 0 0.02210553341445062 0.40298972327242938 0 0.019479081626689841 0.41692126840220728 0 0.0046995574085186929 0.41194005205042061 0 0.01131617767293759 0.43066417693356068 0 -0.0044763741368290672 0.43313315307665529 0 0.0046995574085186929 0.41194005205042061 0 0.01131617767293759 0.43066417693356068 0 -0.0068648610501423502 0.39382000907293813 0 0.0053185270157129726 0.37689571945341471 0 0.0079727676898529512 0.39395805239723503 0 0.0053185270157129726 0.37689571945341471 0 0.0079727676898529512 0.39395805239723503 0 0.017055050774382831 0.3783760363496293 0 0.0053185270157129726 0.37689571945341471 0 0.017055050774382831 0.3783760363496293 0 0.014905446519761849 0.37011919055753012 0 -0.0068648610501423502 0.39382000907293813 0 0.0046995574085186929 0.41194005205042061 0 0.0079727676898529512 0.39395805239723503 0 0.0046995574085186929 0.41194005205042061 0 0.0079727676898529512 0.39395805239723503 0 0.02210553341445062 0.40298972327242938 0 0.0079727676898529512 0.39395805239723503 0 0.02210553341445062 0.40298972327242938 0 0.02735486101880703 0.39232044610694311 0 0.031615607723292562 0.41237007764590089 0 0.02210553341445062 0.40298972327242938 0 0.03492587150599015 0.39714318271575322 0 0.02210553341445062 0.40298972327242938 0 0.02735486101880703 0.39232044610694311 0 0.03492587150599015 0.39714318271575322 0 0.0079727676898529512 0.39395805239723503 0 0.02735486101880703 0.39232044610694311 0 0.033420514628485373 0.38302977191180709 0 0.017055050774382831 0.3783760363496293 0 0.033420514628485373 0.38302977191180709 0 0.023779055828078009 0.37097747554075361 0 0.0079727676898529512 0.39395805239723503 0 0.017055050774382831 0.3783760363496293 0 0.033420514628485373 0.38302977191180709 0 0.0079727676898529512 0.39395805239723503 0 0.033420514628485373 0.38302977191180709 0 0.02735486101880703 0.39232044610694311 0 0.032859848824407727 0.38560668074253002 0 0.033420514628485373 0.38302977191180709 0 0.02735486101880703 0.39232044610694311 0 0.032859848824407727 0.38560668074253002 0 0.032844630049655758 0.3911952656019041 0 0.033420514628485373 0.38302977191180709 0 0.040531910439000007 0.38820627445006711 0 0.055078026168592691 0.37372917012189599 0 0.033420514628485373 0.38302977191180709 0 0.055078026168592691 0.37372917012189599 0 0.032859848824407727 0.38560668074253002 0 0.033420514628485373 0.38302977191180709 0 0.032859848824407727 0.38560668074253002 0 0.040531910439000007 0.38820627445006711 0 0.032844630049655758 0.3911952656019041 0 0.032859848824407727 0.38560668074253002 0 0.033420514628485373 0.38302977191180709 0 0.040531910439000007 0.38820627445006711 0 0.031615607723292562 0.41237007764590089 0 0.03492587150599015 0.39714318271575322 0 0.042551786202842029 0.40583695196884878 0 0.040531910439000007 0.38820627445006711 0 0.03492587150599015 0.39714318271575322 0 0.032844630049655758 0.3911952656019041 0 0.02735486101880703 0.39232044610694311 0 0.03492587150599015 0.39714318271575322 0 0.032844630049655758 0.3911952656019041 0 0.040531910439000007 0.38820627445006711 0 0.03492587150599015 0.39714318271575322 0 0.044409534997012647 0.39663533348309749 0 0.040531910439000007 0.38820627445006711 0 0.044409534997012647 0.39663533348309749 0 0.05145831924276717 0.38983346997562462 0 0.044409534997012647 0.39663533348309749 0 0.042551786202842029 0.40583695196884878 0 0.052579787594463898 0.40215678830519391 0 0.03492587150599015 0.39714318271575322 0 0.044409534997012647 0.39663533348309749 0 0.042551786202842029 0.40583695196884878 0 0.052579787594463898 0.40215678830519391 0 0.065929237187869999 0.38841376689227869 0 0.065774511826563423 0.40583773171119408 0 0.044409534997012647 0.39663533348309749 0 0.052579787594463898 0.40215678830519391 0 0.05145831924276717 0.38983346997562462 0 0.052579787594463898 0.40215678830519391 0 0.05145831924276717 0.38983346997562462 0 0.065929237187869999 0.38841376689227869 0 0.05145831924276717 0.38983346997562462 0 0.065929237187869999 0.38841376689227869 0 0.055078026168592691 0.37372917012189599 0 0.040531910439000007 0.38820627445006711 0 0.05145831924276717 0.38983346997562462 0 0.055078026168592691 0.37372917012189599 0 0.065929237187869999 0.38841376689227869 0 0.07065435961583541 0.37741521318853999 0 0.055078026168592691 0.37372917012189599 0 0.065929237187869999 0.38841376689227869 0 0.07065435961583541 0.37741521318853999 0 0.084874637398179506 0.3830893474080016 0 0.065929237187869999 0.38841376689227869 0 0.084874637398179506 0.3830893474080016 0 0.078183007061163587 0.39730645121706609 0 0.084874637398179506 0.3830893474080016 0 0.09301373708766289 0.40175012648401748 0 0.1017514530376761 0.37456476915266362 0 0.084874637398179506 0.3830893474080016 0 0.1017514530376761 0.37456476915266362 0 0.089894590955766338 0.37016501712229671 0 0.084874637398179506 0.3830893474080016 0 0.09301373708766289 0.40175012648401748 0 0.084874637398179506 0.3830893474080016 0 0.09301373708766289 0.40175012648401748 0 0.078183007061163587 0.39730645121706609 0 0.09301373708766289 0.40175012648401748 0 0.078183007061163587 0.39730645121706609 0 0.0779125114683729 0.4107996813321716 0 0.065929237187869999 0.38841376689227869 0 0.078183007061163587 0.39730645121706609 0 0.065774511826563423 0.40583773171119408 0 0.078183007061163587 0.39730645121706609 0 0.065774511826563423 0.40583773171119408 0 0.0779125114683729 0.4107996813321716 0 0.065774511826563423 0.40583773171119408 0 0.0779125114683729 0.4107996813321716 0 0.065639666334966471 0.42409002317344818 0 0.0779125114683729 0.4107996813321716 0 0.065639666334966471 0.42409002317344818 0 0.085233479690329184 0.42595657570789891 0 0.077453222292990773 0.45016302493177879 0 0.065639666334966471 0.42409002317344818 0 0.085233479690329184 0.42595657570789891 0 0.09301373708766289 0.40175012648401748 0 0.085233479690329184 0.42595657570789891 0 0.09301373708766289 0.40175012648401748 0 0.0779125114683729 0.4107996813321716 0 0.085233479690329184 0.42595657570789891 0 0.09301373708766289 0.40175012648401748 0 0.085233479690329184 0.42595657570789891 0 0.096641093798834857 0.4103746730739769 0 0.096641093798834857 0.4103746730739769 0 0.106123573628292 0.43180747591342172 0 0.096641093798834857 0.4103746730739769 0 0.1162621503634904 0.41872732341568758 0 0.11303311796937431 0.39768424579749467 0 0.096641093798834857 0.4103746730739769 0 0.106123573628292 0.43180747591342172 0 0.1162621503634904 0.41872732341568758 0 0.096641093798834857 0.4103746730739769 0 0.1162621503634904 0.41872732341568758 0 0.085233479690329184 0.42595657570789891 0 0.096641093798834857 0.4103746730739769 0 0.106123573628292 0.43180747591342172 0 0.096722182691352548 0.44869154901932268 0 0.085233479690329184 0.42595657570789891 0 0.106123573628292 0.43180747591342172 0 0.1205619018159948 0.44674810255646558 0 0.1162621503634904 0.41872732341568758 0 0.1205619018159948 0.44674810255646558 0 0.106123573628292 0.43180747591342172 0 0.1162621503634904 0.41872732341568758 0 0.1162621503634904 0.41872732341568758 0 0.11303311796937431 0.39768424579749467 0 0.11303311796937431 0.39768424579749467 0 0.1231373165426977 0.3806134049577457 0 0.1271742827044339 0.39597619803598749 0 0.1162621503634904 0.41872732341568758 0 0.11303311796937431 0.39768424579749467 0 0.1271742827044339 0.39597619803598749 0 0.11303311796937431 0.39768424579749467 0 0.1098040855752573 0.37664116817930182 0 0.11303311796937431 0.39768424579749467 0 0.1098040855752573 0.37664116817930182 0 0.1231373165426977 0.3806134049577457 0 0.09301373708766289 0.40175012648401748 0 0.10162794664532369 0.38287681265592 0 0.1017514530376761 0.37456476915266362 0 0.11303311796937431 0.39768424579749467 0 0.1098040855752573 0.37664116817930182 0 0.10162794664532369 0.38287681265592 0 0.09301373708766289 0.40175012648401748 0 0.1017514530376761 0.37456476915266362 0 0.09301373708766289 0.40175012648401748 0 0.096641093798834857 0.4103746730739769 0 0.10162794664532369 0.38287681265592 0 0.096641093798834857 0.4103746730739769 0 0.10162794664532369 0.38287681265592 0 0.096641093798834857 0.4103746730739769 0 0.11303311796937431 0.39768424579749467 0 0.10162794664532369 0.38287681265592 0 0.09301373708766289 0.40175012648401748 0 0.096641093798834857 0.4103746730739769 0 0.10657505318114149 0.3555980905611088 0 0.1040837309638282 0.33936254988137232 0 0.10657505318114149 0.3555980905611088 0 0.096269577202366938 0.34885221845001108 0 0.090674694454237537 0.35844253683721511 0 0.10657505318114149 0.3555980905611088 0 0.1081370103155585 0.34698533999968961 0 0.1040837309638282 0.33936254988137232 0 0.10657505318114149 0.3555980905611088 0 0.096269577202366938 0.34885221845001108 0 0.1040837309638282 0.33936254988137232 0 0.10657505318114149 0.3555980905611088 0 0.1081370103155585 0.34698533999968961 0 0.1081370103155585 0.34698533999968961 0 0.1105857944332822 0.35159063999376577 0 0.10657505318114149 0.3555980905611088 0 0.1081370103155585 0.34698533999968961 0 0.1105857944332822 0.35159063999376577 0 0.10657505318114149 0.3555980905611088 0 0.097223947907205094 0.36469260341832099 0 0.090674694454237537 0.35844253683721511 0 0.1098040855752573 0.37664116817930182 0 0.10657505318114149 0.3555980905611088 0 0.1098040855752573 0.37664116817930182 0 0.10162794664532369 0.38287681265592 0 0.10657505318114149 0.3555980905611088 0 0.10657505318114149 0.3555980905611088 0 0.097223947907205094 0.36469260341832099 0 0.1017514530376761 0.37456476915266362 0 0.10162794664532369 0.38287681265592 0 0.10657505318114149 0.3555980905611088 0 0.10162794664532369 0.38287681265592 0 0.10657505318114149 0.3555980905611088 0 0.1017514530376761 0.37456476915266362 0 0.097223947907205094 0.36469260341832099 0 0.1017514530376761 0.37456476915266362 0 0.089894590955766338 0.37016501712229671 0 0.1231373165426977 0.3806134049577457 0 0.1176766025370503 0.36283148293627721 0 0.13271547193899449 0.36524458735671972 0 0.1098040855752573 0.37664116817930182 0 0.10657505318114149 0.3555980905611088 0 0.1176766025370503 0.36283148293627721 0 0.1098040855752573 0.37664116817930182 0 0.1231373165426977 0.3806134049577457 0 0.1176766025370503 0.36283148293627721 0 0.1176766025370503 0.36283148293627721 0 0.1232256624926347 0.35239419723674059 0 0.13271547193899449 0.36524458735671972 0 0.10657505318114149 0.3555980905611088 0 0.1176766025370503 0.36283148293627721 0 0.1105857944332822 0.35159063999376577 0 0.1176766025370503 0.36283148293627721 0 0.1232256624926347 0.35239419723674059 0 0.1105857944332822 0.35159063999376577 0 0.1081370103155585 0.34698533999968961 0 0.1105857944332822 0.35159063999376577 0 0.1168368962248217 0.34531303274388031 0 0.1232256624926347 0.35239419723674059 0 0.1105857944332822 0.35159063999376577 0 0.1168368962248217 0.34531303274388031 0 0.1232256624926347 0.35239419723674059 0 0.1168368962248217 0.34531303274388031 0 0.1260676383484185 0.3399282146226113 0 0.1081370103155585 0.34698533999968961 0 0.1173014636805894 0.33730338313169689 0 0.1117137236550247 0.32726307032677399 0 0.1081370103155585 0.34698533999968961 0 0.1117137236550247 0.32726307032677399 0 0.1168368962248217 0.34531303274388031 0 0.1173014636805894 0.33730338313169689 0 0.1260676383484185 0.3399282146226113 0 0.1173014636805894 0.33730338313169689 0 0.12375204985912221 0.32702725796552912 0 0.1260676383484185 0.3399282146226113 0 0.1173014636805894 0.33730338313169689 0 0.12375204985912221 0.32702725796552912 0 0.1117137236550247 0.32726307032677399 0 0.1081370103155585 0.34698533999968961 0 0.1168368962248217 0.34531303274388031 0 0.1173014636805894 0.33730338313169689 0 0.1117137236550247 0.32726307032677399 0 0.11529043699448981 0.30754080065385803 0 0.1117137236550247 0.32726307032677399 0 0.1095765413243488 0.31862098055757049 0 0.11529043699448981 0.30754080065385803 0 0.1214195525311879 0.31440901896845502 0 0.1117137236550247 0.32726307032677399 0 0.11529043699448981 0.30754080065385803 0 0.1214195525311879 0.31440901896845502 0 0.12375204985912221 0.32702725796552912 0 0.12817088130983889 0.317450689473041 0 0.1214195525311879 0.31440901896845502 0 0.12375204985912221 0.32702725796552912 0 0.1117137236550247 0.32726307032677399 0 0.1040837309638282 0.33936254988137232 0 0.090103400857782137 0.31307047550514489 0 0.1040837309638282 0.33936254988137232 0 0.1025673515982234 0.32948055280164651 0 0.090103400857782137 0.31307047550514489 0 0.10278173829001019 0.3206216626476312 0 0.1025673515982234 0.32948055280164651 0 0.090103400857782137 0.31307047550514489 0 0.1095765413243488 0.31862098055757049 0 0.10278173829001019 0.3206216626476312 0 0.099947674014671917 0.31467323404701991 0 0.1095765413243488 0.31862098055757049 0 0.099947674014671917 0.31467323404701991 0 0.09732687347400408 0.30507295899279041 0 0.1117137236550247 0.32726307032677399 0 0.1095765413243488 0.31862098055757049 0 0.10278173829001019 0.3206216626476312 0 0.1117137236550247 0.32726307032677399 0 0.10278173829001019 0.3206216626476312 0 0.1025673515982234 0.32948055280164651 0 0.10278173829001019 0.3206216626476312 0 0.099947674014671917 0.31467323404701991 0 0.090103400857782137 0.31307047550514489 0 0.096269577202366938 0.34885221845001108 0 0.1040837309638282 0.33936254988137232 0 0.085896102217652828 0.34083244099607402 0 0.1081370103155585 0.34698533999968961 0 0.1117137236550247 0.32726307032677399 0 0.1040837309638282 0.33936254988137232 0 0.1081370103155585 0.34698533999968961 0 0.1040837309638282 0.33936254988137232 0 0.1117137236550247 0.32726307032677399 0 0.1040837309638282 0.33936254988137232 0 0.1025673515982234 0.32948055280164651 0 0.1040837309638282 0.33936254988137232 0 0.1025673515982234 0.32948055280164651 0 0.1040837309638282 0.33936254988137232 0 0.085896102217652828 0.34083244099607402 0 0.090103400857782137 0.31307047550514489 0 0.085896102217652828 0.34083244099607402 0 0.090103400857782137 0.31307047550514489 0 0.073944851781294785 0.32640562720437011 0 0.073944851781294785 0.32640562720437011 0 0.05926959110604698 0.32438382341666039 0 0.066452600317618793 0.30933520022964911 0 0.090103400857782137 0.31307047550514489 0 0.073944851781294785 0.32640562720437011 0 0.066452600317618793 0.30933520022964911 0 0.068002564407373206 0.3444061958743222 0 0.05926959110604698 0.32438382341666039 0 0.085896102217652828 0.34083244099607402 0 0.073944851781294785 0.32640562720437011 0 0.068002564407373206 0.3444061958743222 0 0.073944851781294785 0.32640562720437011 0 0.068002564407373206 0.3444061958743222 0 0.05926959110604698 0.32438382341666039 0 0.068002564407373206 0.3444061958743222 0 0.081709153938225559 0.35166937446406898 0 0.076735537708699481 0.364428568331984 0 0.068002564407373206 0.3444061958743222 0 0.076735537708699481 0.364428568331984 0 0.068002564407373206 0.3444061958743222 0 0.076735537708699481 0.364428568331984 0 0.058880509289504487 0.35752542115937253 0 0.085896102217652828 0.34083244099607402 0 0.068002564407373206 0.3444061958743222 0 0.081709153938225559 0.35166937446406898 0 0.081709153938225559 0.35166937446406898 0 0.090674694454237537 0.35844253683721511 0 0.076735537708699481 0.364428568331984 0 0.096269577202366938 0.34885221845001108 0 0.081709153938225559 0.35166937446406898 0 0.090674694454237537 0.35844253683721511 0 0.096269577202366938 0.34885221845001108 0 0.085896102217652828 0.34083244099607402 0 0.081709153938225559 0.35166937446406898 0 0.084874637398179506 0.3830893474080016 0 0.089894590955766338 0.37016501712229671 0 0.076735537708699481 0.364428568331984 0 0.084874637398179506 0.3830893474080016 0 0.076735537708699481 0.364428568331984 0 0.097223947907205094 0.36469260341832099 0 0.090674694454237537 0.35844253683721511 0 0.089894590955766338 0.37016501712229671 0 0.090674694454237537 0.35844253683721511 0 0.089894590955766338 0.37016501712229671 0 0.076735537708699481 0.364428568331984 0 0.090674694454237537 0.35844253683721511 0 0.076735537708699481 0.364428568331984 0 0.076735537708699481 0.364428568331984 0 0.055078026168592691 0.37372917012189599 0 0.058880509289504487 0.35752542115937253 0 0.07065435961583541 0.37741521318853999 0 0.084874637398179506 0.3830893474080016 0 0.076735537708699481 0.364428568331984 0 0.07065435961583541 0.37741521318853999 0 0.076735537708699481 0.364428568331984 0 0.055078026168592691 0.37372917012189599 0 0.076735537708699481 0.364428568331984 0 0.055078026168592691 0.37372917012189599 0 0.055078026168592691 0.37372917012189599 0 0.058880509289504487 0.35752542115937253 0 0.039125882353897343 0.35680699826087081 0 0.068002564407373206 0.3444061958743222 0 0.058880509289504487 0.35752542115937253 0 0.05148455776782021 0.34576385860545072 0 0.058880509289504487 0.35752542115937253 0 0.05148455776782021 0.34576385860545072 0 0.039125882353897343 0.35680699826087081 0 0.039125882353897343 0.35680699826087081 0 0.031548662582759998 0.36398682567210089 0 0.025752053585936779 0.33511492304397028 0 0.05148455776782021 0.34576385860545072 0 0.039125882353897343 0.35680699826087081 0 0.044831250079309708 0.3305842246099347 0 0.033420514628485373 0.38302977191180709 0 0.039125882353897343 0.35680699826087081 0 0.031548662582759998 0.36398682567210089 0 0.033420514628485373 0.38302977191180709 0 0.055078026168592691 0.37372917012189599 0 0.039125882353897343 0.35680699826087081 0 0.033420514628485373 0.38302977191180709 0 0.039125882353897343 0.35680699826087081 0 0.033420514628485373 0.38302977191180709 0 0.031548662582759998 0.36398682567210089 0 0.023779055828078009 0.37097747554075361 0 0.017055050774382831 0.3783760363496293 0 0.023779055828078009 0.37097747554075361 0 0.014905446519761849 0.37011919055753012 0 0.023779055828078009 0.37097747554075361 0 0.019349684376360511 0.36318206543595072 0 0.014905446519761849 0.37011919055753012 0 0.031548662582759998 0.36398682567210089 0 0.019349684376360511 0.36318206543595072 0 0.019690074755218789 0.35178644121934483 0 0.031548662582759998 0.36398682567210089 0 0.023779055828078009 0.37097747554075361 0 0.019349684376360511 0.36318206543595072 0 0.031548662582759998 0.36398682567210089 0 0.025752053585936779 0.33511492304397028 0 0.031548662582759998 0.36398682567210089 0 0.019690074755218789 0.35178644121934483 0 0.025752053585936779 0.33511492304397028 0 0.019349684376360511 0.36318206543595072 0 0.019690074755218789 0.35178644121934483 0 0.0119730942360182 0.35563939605115702 0 0.0119730942360182 0.35563939605115702 0 0.0038095970876644218 0.35606187191015221 0 0.0077169544749549623 0.36306791211952738 0 -0.0077202170519437719 0.34710906184019069 0 0.0082446038140756572 0.34376242611402219 0 0.0038095970876644218 0.35606187191015221 0 0.0119730942360182 0.35563939605115702 0 0.0082446038140756572 0.34376242611402219 0 0.0038095970876644218 0.35606187191015221 0 0.019690074755218789 0.35178644121934483 0 0.0119730942360182 0.35563939605115702 0 0.0082446038140756572 0.34376242611402219 0 -0.0045677851665312944 0.36532665559408428 0 0.0038095970876644218 0.35606187191015221 0 0.0077169544749549623 0.36306791211952738 0 -0.0087141207398781558 0.37710904293520409 0 0.0053185270157129726 0.37689571945341471 0 0.0077169544749549623 0.36306791211952738 0 0.0053185270157129726 0.37689571945341471 0 0.0077169544749549623 0.36306791211952738 0 0.014905446519761849 0.37011919055753012 0 0.019349684376360511 0.36318206543595072 0 0.0077169544749549623 0.36306791211952738 0 0.014905446519761849 0.37011919055753012 0 0.019349684376360511 0.36318206543595072 0 0.0119730942360182 0.35563939605115702 0 0.0077169544749549623 0.36306791211952738 0 -0.009249588209606344 0.30814111102660002 0 0.0094307060340404689 0.32376070079746733 0 0.01995544458911469 0.30624302041583928 0 -0.005758602284471958 0.33512988219008361 0 0.0082446038140756572 0.34376242611402219 0 0.0094307060340404689 0.32376070079746733 0 0.0082446038140756572 0.34376242611402219 0 0.0094307060340404689 0.32376070079746733 0 0.025752053585936779 0.33511492304397028 0 0.019690074755218789 0.35178644121934483 0 0.0082446038140756572 0.34376242611402219 0 0.025752053585936779 0.33511492304397028 0 0.025752053585936779 0.33511492304397028 0 0.01995544458911469 0.30624302041583928 0 0.025752053585936779 0.33511492304397028 0 0.034898059553693392 0.31581284699138767 0 0.01995544458911469 0.30624302041583928 0 0.0094307060340404689 0.32376070079746733 0 0.025752053585936779 0.33511492304397028 0 0.01995544458911469 0.30624302041583928 0 0.034898059553693392 0.31581284699138767 0 0.044831250079309708 0.3305842246099347 0 0.05053661780472133 0.30436145095899841 0 0.025752053585936779 0.33511492304397028 0 0.034898059553693392 0.31581284699138767 0 0.044831250079309708 0.3305842246099347 0 0.039125882353897343 0.35680699826087081 0 0.025752053585936779 0.33511492304397028 0 0.044831250079309708 0.3305842246099347 0 0.039125882353897343 0.35680699826087081 0 0.044831250079309708 0.3305842246099347 0 0.068002564407373206 0.3444061958743222 0 0.05148455776782021 0.34576385860545072 0 0.05926959110604698 0.32438382341666039 0 0.05148455776782021 0.34576385860545072 0 0.044831250079309708 0.3305842246099347 0 0.05926959110604698 0.32438382341666039 0 0.044831250079309708 0.3305842246099347 0 0.05053661780472133 0.30436145095899841 0 0.044831250079309708 0.3305842246099347 0 0.05926959110604698 0.32438382341666039 0 0.05053661780472133 0.30436145095899841 0 0.05926959110604698 0.32438382341666039 0 0.05053661780472133 0.30436145095899841 0 0.05926959110604698 0.32438382341666039 0 0.05053661780472133 0.30436145095899841 0 0.066452600317618793 0.30933520022964911 0 0.059204269303370749 0.30137448027593422 0 0.05053661780472133 0.30436145095899841 0 0.066452600317618793 0.30933520022964911 0 0.04765756321016474 0.29776054867416191 0 0.05053661780472133 0.30436145095899841 0 0.052561166870736087 0.29505630281458828 0 0.059204269303370749 0.30137448027593422 0 0.05053661780472133 0.30436145095899841 0 0.052561166870736087 0.29505630281458828 0 0.05053661780472133 0.30436145095899841 0 0.052561166870736087 0.29505630281458828 0 0.04765756321016474 0.29776054867416191 0 0.05053661780472133 0.30436145095899841 0 0.052561166870736087 0.29505630281458828 0 0.036977033779240318 0.28312664447104818 0 0.062988366650143207 0.29302398426469728 0 0.036977033779240318 0.28312664447104818 0 0.048149862160842181 0.27985089866820428 0 0.062988366650143207 0.29302398426469728 0 0.036977033779240318 0.28312664447104818 0 0.062988366650143207 0.29302398426469728 0 0.048149862160842181 0.27985089866820428 0 0.054778979573680928 0.27715841955607551 0 0.062988366650143207 0.29302398426469728 0 0.059204269303370749 0.30137448027593422 0 0.052561166870736087 0.29505630281458828 0 0.062988366650143207 0.29302398426469728 0 0.04765756321016474 0.29776054867416191 0 0.036186098738389023 0.29603891009636157 0 0.036977033779240318 0.28312664447104818 0 0.04765756321016474 0.29776054867416191 0 0.052561166870736087 0.29505630281458828 0 0.036977033779240318 0.28312664447104818 0 0.036186098738389023 0.29603891009636157 0 0.036977033779240318 0.28312664447104818 0 0.027757552790527541 0.29644954410470781 0 0.034898059553693392 0.31581284699138767 0 0.05053661780472133 0.30436145095899841 0 0.039754971674175903 0.30430037111620312 0 0.04765756321016474 0.29776054867416191 0 0.05053661780472133 0.30436145095899841 0 0.039754971674175903 0.30430037111620312 0 0.04765756321016474 0.29776054867416191 0 0.036186098738389023 0.29603891009636157 0 0.039754971674175903 0.30430037111620312 0 0.036186098738389023 0.29603891009636157 0 0.039754971674175903 0.30430037111620312 0 0.028740536311392211 0.30567206060121932 0 0.034898059553693392 0.31581284699138767 0 0.039754971674175903 0.30430037111620312 0 0.028740536311392211 0.30567206060121932 0 0.034898059553693392 0.31581284699138767 0 0.028740536311392211 0.30567206060121932 0 0.01995544458911469 0.30624302041583928 0 0.028740536311392211 0.30567206060121932 0 0.01995544458911469 0.30624302041583928 0 0.01995544458911469 0.30624302041583928 0 0.027757552790527541 0.29644954410470781 0 0.016928650534501429 0.29116708493907051 0 0.01995544458911469 0.30624302041583928 0 0.016928650534501429 0.29116708493907051 0 0.036186098738389023 0.29603891009636157 0 0.028740536311392211 0.30567206060121932 0 0.027757552790527541 0.29644954410470781 0 0.028740536311392211 0.30567206060121932 0 0.01995544458911469 0.30624302041583928 0 0.027757552790527541 0.29644954410470781 0 0.036977033779240318 0.28312664447104818 0 0.016928650534501429 0.29116708493907051 0 0.013901856479889301 0.2760911494623014 0 0.036977033779240318 0.28312664447104818 0 0.027757552790527541 0.29644954410470781 0 0.016928650534501429 0.29116708493907051 0 0.016928650534501429 0.29116708493907051 0 0.0075090435902615098 0.27971283806045072 0 0.013901856479889301 0.2760911494623014 0 0.016928650534501429 0.29116708493907051 0 0.013901856479889301 0.2760911494623014 0 0.016928650534501429 0.29116708493907051 0 0.002380999114604244 0.28599596302517022 0 0.0075090435902615098 0.27971283806045072 0 0.016928650534501429 0.29116708493907051 0 0.002380999114604244 0.28599596302517022 0 0.0038021096493471361 0.29689124930627131 0 0.01995544458911469 0.30624302041583928 0 0.016928650534501429 0.29116708493907051 0 0.0038021096493471361 0.29689124930627131 0 -0.009249588209606344 0.30814111102660002 0 0.01995544458911469 0.30624302041583928 0 -0.009249588209606344 0.30814111102660002 0 0.01995544458911469 0.30624302041583928 0 0.0038021096493471361 0.29689124930627131 0 0.012944211518790589 0.24639919126045251 0 0.001894876929373096 0.24743045501984201 0 0.027350481215018482 0.26092432701142793 0 0.001894876929373096 0.24743045501984201 0 0.01235577794179212 0.26160751525750708 0 0.027350481215018482 0.26092432701142793 0 0.001894876929373096 0.24743045501984201 0 0.027350481215018482 0.26092432701142793 0 0.01235577794179212 0.26160751525750708 0 0.0066431973405819862 0.26423936680728111 0 0.01332705073189009 0.26743114199411 0 0.001894876929373096 0.24743045501984201 0 0.01235577794179212 0.26160751525750708 0 0.0027594708259384838 0.25829047161104352 0 0.01235577794179212 0.26160751525750708 0 0.0027594708259384838 0.25829047161104352 0 0.0066431973405819862 0.26423936680728111 0 -0.00067809962666212902 0.26216505597133072 0 0.0027594708259384838 0.25829047161104352 0 0.0066431973405819862 0.26423936680728111 0 -0.00067809962666212902 0.26216505597133072 0 0.0066431973405819862 0.26423936680728111 0 0.010965700908337589 0.27322930467739909 0 -0.001267499687089951 0.2776013217203892 0 0.0075090435902615098 0.27971283806045072 0 0.010965700908337589 0.27322930467739909 0 -0.001267499687089951 0.2776013217203892 0 0.002380999114604244 0.28599596302517022 0 0.0075090435902615098 0.27971283806045072 0 0.0075090435902615098 0.27971283806045072 0 0.013901856479889301 0.2760911494623014 0 0.010965700908337589 0.27322930467739909 0 0.010965700908337589 0.27322930467739909 0 0.01332705073189009 0.26743114199411 0 0.022419763759722669 0.26962443384228668 0 0.0066431973405819862 0.26423936680728111 0 0.010965700908337589 0.27322930467739909 0 0.01332705073189009 0.26743114199411 0 0.036977033779240318 0.28312664447104818 0 0.010965700908337589 0.27322930467739909 0 0.022419763759722669 0.26962443384228668 0 0.01235577794179212 0.26160751525750708 0 0.01332705073189009 0.26743114199411 0 0.022419763759722669 0.26962443384228668 0 0.036977033779240318 0.28312664447104818 0 0.013901856479889301 0.2760911494623014 0 0.010965700908337589 0.27322930467739909 0 0.036977033779240318 0.28312664447104818 0 0.010965700908337589 0.27322930467739909 0 0.036977033779240318 0.28312664447104818 0 0.022419763759722669 0.26962443384228668 0 0.032397819765571212 0.27218151163944088 0 0.022419763759722669 0.26962443384228668 0 0.027350481215018482 0.26092432701142793 0 0.032397819765571212 0.27218151163944088 0 0.018629400856135309 0.24429501886194191 0 0.012944211518790589 0.24639919126045251 0 0.027350481215018482 0.26092432701142793 0 0.018629400856135309 0.24429501886194191 0 0.027350481215018482 0.26092432701142793 0 0.02692674034290404 0.25134916217479408 0 0.01235577794179212 0.26160751525750708 0 0.022419763759722669 0.26962443384228668 0 0.027350481215018482 0.26092432701142793 0 0.027350481215018482 0.26092432701142793 0 0.02692674034290404 0.25134916217479408 0 0.036501911092354018 0.25177276941539839 0 0.027350481215018482 0.26092432701142793 0 0.036501911092354018 0.25177276941539839 0 0.052806085500663583 0.27441819900301412 0 0.036501911092354018 0.25177276941539839 0 0.052806085500663583 0.27441819900301412 0 0.027350481215018482 0.26092432701142793 0 0.039536256484267153 0.27410031615862712 0 0.052806085500663583 0.27441819900301412 0 0.027350481215018482 0.26092432701142793 0 0.052806085500663583 0.27441819900301412 0 0.036977033779240318 0.28312664447104818 0 0.032397819765571212 0.27218151163944088 0 0.039536256484267153 0.27410031615862712 0 0.027350481215018482 0.26092432701142793 0 0.032397819765571212 0.27218151163944088 0 0.039536256484267153 0.27410031615862712 0 0.039536256484267153 0.27410031615862712 0 0.048149862160842181 0.27985089866820428 0 0.052806085500663583 0.27441819900301412 0 0.036977033779240318 0.28312664447104818 0 0.039536256484267153 0.27410031615862712 0 0.048149862160842181 0.27985089866820428 0 0.052806085500663583 0.27441819900301412 0 0.051790667069154861 0.2547103276228454 0 0.069466372585565969 0.27425949764399721 0 0.052806085500663583 0.27441819900301412 0 0.054778979573680928 0.27715841955607551 0 0.076123070751733898 0.28677840112891878 0 0.048149862160842181 0.27985089866820428 0 0.052806085500663583 0.27441819900301412 0 0.054778979573680928 0.27715841955607551 0 0.052806085500663583 0.27441819900301412 0 0.054778979573680928 0.27715841955607551 0 0.051790667069154861 0.2547103276228454 0 0.069466372585565969 0.27425949764399721 0 0.036501911092354018 0.25177276941539839 0 0.052806085500663583 0.27441819900301412 0 0.051790667069154861 0.2547103276228454 0 0.051790667069154861 0.2547103276228454 0 0.062472563593505302 0.26110660749064829 0 0.069466372585565969 0.27425949764399721 0 0.051790667069154861 0.2547103276228454 0 0.062472563593505302 0.26110660749064829 0 0.063392491700480919 0.2510828642249095 0 0.07090317009537217 0.25886987532900169 0 0.089645379702363526 0.25980927980688501 0 0.066829182329119829 0.26693814307945207 0 0.063392491700480919 0.2510828642249095 0 0.07090317009537217 0.25886987532900169 0 0.074261774750864804 0.25289133929391111 0 0.062472563593505302 0.26110660749064829 0 0.063392491700480919 0.2510828642249095 0 0.07090317009537217 0.25886987532900169 0 0.062472563593505302 0.26110660749064829 0 0.07090317009537217 0.25886987532900169 0 0.066829182329119829 0.26693814307945207 0 0.07090317009537217 0.25886987532900169 0 0.074261774750864804 0.25289133929391111 0 0.089645379702363526 0.25980927980688501 0 0.072073934872957782 0.23900016577853919 0 0.074261774750864804 0.25289133929391111 0 0.089645379702363526 0.25980927980688501 0 0.089645379702363526 0.25980927980688501 0 0.066829182329119829 0.26693814307945207 0 0.089645379702363526 0.25980927980688501 0 0.084738505220855201 0.27427167124983992 0 0.066829182329119829 0.26693814307945207 0 0.084738505220855201 0.27427167124983992 0 0.069466372585565969 0.27425949764399721 0 0.085077205623658711 0.29152493742801078 0 0.084738505220855201 0.27427167124983992 0 0.095910340366493346 0.28464594086445177 0 0.099818528257267281 0.27185690653089678 0 0.089645379702363526 0.25980927980688501 0 0.084738505220855201 0.27427167124983992 0 0.099818528257267281 0.27185690653089678 0 0.084738505220855201 0.27427167124983992 0 0.066829182329119829 0.26693814307945207 0 0.069466372585565969 0.27425949764399721 0 0.052806085500663583 0.27441819900301412 0 0.069466372585565969 0.27425949764399721 0 0.076123070751733898 0.28677840112891878 0 0.052806085500663583 0.27441819900301412 0 0.076123070751733898 0.28677840112891878 0 0.069466372585565969 0.27425949764399721 0 0.076123070751733898 0.28677840112891878 0 0.062472563593505302 0.26110660749064829 0 0.069466372585565969 0.27425949764399721 0 0.062472563593505302 0.26110660749064829 0 0.066829182329119829 0.26693814307945207 0 0.069466372585565969 0.27425949764399721 0 0.069466372585565969 0.27425949764399721 0 0.085077205623658711 0.29152493742801078 0 0.069466372585565969 0.27425949764399721 0 0.076123070751733898 0.28677840112891878 0 0.085077205623658711 0.29152493742801078 0 0.062988366650143207 0.29302398426469728 0 0.076123070751733898 0.28677840112891878 0 0.066452600317618793 0.30933520022964911 0 0.054778979573680928 0.27715841955607551 0 0.062988366650143207 0.29302398426469728 0 0.076123070751733898 0.28677840112891878 0 0.090103400857782137 0.31307047550514489 0 0.076123070751733898 0.28677840112891878 0 0.066452600317618793 0.30933520022964911 0 0.059204269303370749 0.30137448027593422 0 0.062988366650143207 0.29302398426469728 0 0.066452600317618793 0.30933520022964911 0 0.090103400857782137 0.31307047550514489 0 0.076123070751733898 0.28677840112891878 0 0.085077205623658711 0.29152493742801078 0 0.090103400857782137 0.31307047550514489 0 0.076123070751733898 0.28677840112891878 0 0.090103400857782137 0.31307047550514489 0 0.085077205623658711 0.29152493742801078 0 0.09732687347400408 0.30507295899279041 0 0.085077205623658711 0.29152493742801078 0 0.09732687347400408 0.30507295899279041 0 0.084738505220855201 0.27427167124983992 0 0.085077205623658711 0.29152493742801078 0 0.095910340366493346 0.28464594086445177 0 0.076123070751733898 0.28677840112891878 0 0.085077205623658711 0.29152493742801078 0 0.085077205623658711 0.29152493742801078 0 0.095910340366493346 0.28464594086445177 0 0.10018382130907411 0.29953286904093468 0 0.085077205623658711 0.29152493742801078 0 0.10018382130907411 0.29953286904093468 0 0.095910340366493346 0.28464594086445177 0 0.10809736708577181 0.28553666446189058 0 0.10018382130907411 0.29953286904093468 0 0.10809736708577181 0.28553666446189058 0 0.10018382130907411 0.29953286904093468 0 0.10959494141679089 0.29761357018739809 0 0.099947674014671917 0.31467323404701991 0 0.090103400857782137 0.31307047550514489 0 0.09732687347400408 0.30507295899279041 0 0.085077205623658711 0.29152493742801078 0 0.09732687347400408 0.30507295899279041 0 0.10018382130907411 0.29953286904093468 0 0.09732687347400408 0.30507295899279041 0 0.10018382130907411 0.29953286904093468 0 0.1055944182754792 0.3076919023112884 0 0.10018382130907411 0.29953286904093468 0 0.11529043699448981 0.30754080065385803 0 0.10959494141679089 0.29761357018739809 0 0.10018382130907411 0.29953286904093468 0 0.11529043699448981 0.30754080065385803 0 0.1095765413243488 0.31862098055757049 0 0.09732687347400408 0.30507295899279041 0 0.1055944182754792 0.3076919023112884 0 0.10018382130907411 0.29953286904093468 0 0.1055944182754792 0.3076919023112884 0 0.11529043699448981 0.30754080065385803 0 0.1095765413243488 0.31862098055757049 0 0.09732687347400408 0.30507295899279041 0 0.1095765413243488 0.31862098055757049 0 0.1055944182754792 0.3076919023112884 0 0.11529043699448981 0.30754080065385803 0 0.11529043699448981 0.30754080065385803 0 0.11637637905870279 0.30155283343175482 0 0.11810871752106521 0.30621928700195911 0 0.11529043699448981 0.30754080065385803 0 0.10959494141679089 0.29761357018739809 0 0.11637637905870279 0.30155283343175482 0 0.10959494141679089 0.29761357018739809 0 0.11637637905870279 0.30155283343175482 0 0.1164892219926046 0.29243334627748818 0 0.11529043699448981 0.30754080065385803 0 0.11637637905870279 0.30155283343175482 0 0.11637637905870279 0.30155283343175482 0 0.1222906650571363 0.2985709440566281 0 0.1164892219926046 0.29243334627748818 0 0.1222906650571363 0.2985709440566281 0 0.1206025954822835 0.30378795350269022 0 0.1243783730770044 0.30485679470236721 0 0.11637637905870279 0.30155283343175482 0 0.1222906650571363 0.2985709440566281 0 0.1206025954822835 0.30378795350269022 0 0.11637637905870279 0.30155283343175482 0 0.1206025954822835 0.30378795350269022 0 0.11810871752106521 0.30621928700195911 0 0.1206025954822835 0.30378795350269022 0 0.11810871752106521 0.30621928700195911 0 0.1213521300308707 0.30775440284793348 0 0.11529043699448981 0.30754080065385803 0 0.11810871752106521 0.30621928700195911 0 0.11930841490252821 0.30912172642276631 0 0.11810871752106521 0.30621928700195911 0 0.1213521300308707 0.30775440284793348 0 0.11930841490252821 0.30912172642276631 0 0.1243783730770044 0.30485679470236721 0 0.1213521300308707 0.30775440284793348 0 0.1244342991148414 0.30898461385241399 0 0.1206025954822835 0.30378795350269022 0 0.1243783730770044 0.30485679470236721 0 0.1213521300308707 0.30775440284793348 0 0.1214195525311879 0.31440901896845502 0 0.1244342991148414 0.30898461385241399 0 0.12900107104525951 0.30968741412501871 0 0.1214195525311879 0.31440901896845502 0 0.1213521300308707 0.30775440284793348 0 0.1244342991148414 0.30898461385241399 0 0.1214195525311879 0.31440901896845502 0 0.11529043699448981 0.30754080065385803 0 0.11930841490252821 0.30912172642276631 0 0.1214195525311879 0.31440901896845502 0 0.1213521300308707 0.30775440284793348 0 0.11930841490252821 0.30912172642276631 0 0.10809736708577181 0.28553666446189058 0 0.1164892219926046 0.29243334627748818 0 0.1210835213650209 0.28058702695229848 0 0.10809736708577181 0.28553666446189058 0 0.10959494141679089 0.29761357018739809 0 0.1164892219926046 0.29243334627748818 0 0.1222906650571363 0.2985709440566281 0 0.1164892219926046 0.29243334627748818 0 0.12596292383497329 0.28976449579057961 0 0.1164892219926046 0.29243334627748818 0 0.1210835213650209 0.28058702695229848 0 0.12596292383497329 0.28976449579057961 0 0.10809736708577181 0.28553666446189058 0 0.1210835213650209 0.28058702695229848 0 0.1147979612748997 0.2707881575742877 0 0.1210835213650209 0.28058702695229848 0 0.1147979612748997 0.2707881575742877 0 0.12791172371537049 0.26609555254785411 0 0.1147979612748997 0.2707881575742877 0 0.116065923487036 0.25155424759680489 0 0.099818528257267281 0.27185690653089678 0 0.1147979612748997 0.2707881575742877 0 0.116065923487036 0.25155424759680489 0 0.12791172371537049 0.26609555254785411 0 0.089645379702363526 0.25980927980688501 0 0.116065923487036 0.25155424759680489 0 0.089645379702363526 0.25980927980688501 0 0.116065923487036 0.25155424759680489 0 0.099818528257267281 0.27185690653089678 0 0.089645379702363526 0.25980927980688501 0 0.099818528257267281 0.27185690653089678 0 0.095910340366493346 0.28464594086445177 0 0.10809736708577181 0.28553666446189058 0 0.099818528257267281 0.27185690653089678 0 0.10809736708577181 0.28553666446189058 0 0.1147979612748997 0.2707881575742877 0 0.099818528257267281 0.27185690653089678 0 0.14627836463393121 0.26809473379089088 0 0.14256315404166739 0.2804585798755338 0 0.1332419302865058 0.27890394506169119 0 0.14627836463393121 0.26809473379089088 0 0.14256315404166739 0.2804585798755338 0 0.15383705453569649 0.27951082009548711 0 0.14627836463393121 0.26809473379089088 0 0.15383705453569649 0.27951082009548711 0 0.1609818760820641 0.2708255403471686 0 0.14248646727170791 0.24329921538672239 0 0.14627836463393121 0.26809473379089088 0 0.1631161995596529 0.25657386530356069 0 0.14248646727170791 0.24329921538672239 0 0.116065923487036 0.25155424759680489 0 0.12791172371537049 0.26609555254785411 0 0.14248646727170791 0.24329921538672239 0 0.14627836463393121 0.26809473379089088 0 0.12791172371537049 0.26609555254785411 0 0.14627836463393121 0.26809473379089088 0 0.12791172371537049 0.26609555254785411 0 0.1332419302865058 0.27890394506169119 0 0.1210835213650209 0.28058702695229848 0 0.12791172371537049 0.26609555254785411 0 0.1332419302865058 0.27890394506169119 0 0.1332419302865058 0.27890394506169119 0 0.12596292383497329 0.28976449579057961 0 0.13463915166403909 0.29011289163129678 0 0.1210835213650209 0.28058702695229848 0 0.1332419302865058 0.27890394506169119 0 0.12596292383497329 0.28976449579057961 0 0.1222906650571363 0.2985709440566281 0 0.12596292383497329 0.28976449579057961 0 0.12923992476061211 0.29615108028493942 0 0.12596292383497329 0.28976449579057961 0 0.12923992476061211 0.29615108028493942 0 0.13463915166403909 0.29011289163129678 0 0.13463915166403909 0.29011289163129678 0 0.13544399911061031 0.29845687749894129 0 0.1416447250157222 0.29544082675589128 0 0.12923992476061211 0.29615108028493942 0 0.13463915166403909 0.29011289163129678 0 0.13544399911061031 0.29845687749894129 0 0.14256315404166739 0.2804585798755338 0 0.1332419302865058 0.27890394506169119 0 0.13463915166403909 0.29011289163129678 0 0.1243783730770044 0.30485679470236721 0 0.1244342991148414 0.30898461385241399 0 0.12900107104525951 0.30968741412501871 0 0.1243783730770044 0.30485679470236721 0 0.12900107104525951 0.30968741412501871 0 0.1290658347258283 0.30205966601357243 0 0.12900107104525951 0.30968741412501871 0 0.1290658347258283 0.30205966601357243 0 0.1340409753043473 0.30463488541353972 0 0.1222906650571363 0.2985709440566281 0 0.1243783730770044 0.30485679470236721 0 0.1290658347258283 0.30205966601357243 0 0.1222906650571363 0.2985709440566281 0 0.12923992476061211 0.29615108028493942 0 0.1290658347258283 0.30205966601357243 0 0.12923992476061211 0.29615108028493942 0 0.1290658347258283 0.30205966601357243 0 0.13544399911061031 0.29845687749894129 0 0.13544399911061031 0.29845687749894129 0 0.14170706289926879 0.30357921339911909 0 0.1416447250157222 0.29544082675589128 0 0.13544399911061031 0.29845687749894129 0 0.1340409753043473 0.30463488541353972 0 0.14170706289926879 0.30357921339911909 0 0.1290658347258283 0.30205966601357243 0 0.13544399911061031 0.29845687749894129 0 0.1340409753043473 0.30463488541353972 0 0.13598458437900529 0.30983158877234418 0 0.14130712994747449 0.31140798331507108 0 0.14170706289926879 0.30357921339911909 0 0.12900107104525951 0.30968741412501871 0 0.1340409753043473 0.30463488541353972 0 0.13598458437900529 0.30983158877234418 0 0.1340409753043473 0.30463488541353972 0 0.13598458437900529 0.30983158877234418 0 0.14170706289926879 0.30357921339911909 0 0.13598458437900529 0.30983158877234418 0 0.14130712994747449 0.31140798331507108 0 0.13528824775885559 0.3155805734405937 0 0.12900107104525951 0.30968741412501871 0 0.13598458437900529 0.30983158877234418 0 0.13528824775885559 0.3155805734405937 0 0.1483486037307668 0.31106151759990119 0 0.14130712994747449 0.31140798331507108 0 0.14170706289926879 0.30357921339911909 0 0.1483486037307668 0.31106151759990119 0 0.14170706289926879 0.30357921339911909 0 0.1513591925520972 0.30423422291399321 0 0.14170706289926879 0.30357921339911909 0 0.14924189349128261 0.29698436464102829 0 0.1513591925520972 0.30423422291399321 0 0.14170706289926879 0.30357921339911909 0 0.14924189349128261 0.29698436464102829 0 0.1416447250157222 0.29544082675589128 0 0.1513591925520972 0.30423422291399321 0 0.15847128754916129 0.30901971199088751 0 0.1567398971697517 0.30020769771567818 0 0.14924189349128261 0.29698436464102829 0 0.1513591925520972 0.30423422291399321 0 0.1567398971697517 0.30020769771567818 0 0.1483486037307668 0.31106151759990119 0 0.1513591925520972 0.30423422291399321 0 0.15847128754916129 0.30901971199088751 0 0.1483486037307668 0.31106151759990119 0 0.15847128754916129 0.30901971199088751 0 0.1531779528472626 0.31690967251270458 0 0.14256315404166739 0.2804585798755338 0 0.15383705453569649 0.27951082009548711 0 0.14728728951424691 0.28871625735014939 0 0.14256315404166739 0.2804585798755338 0 0.13463915166403909 0.29011289163129678 0 0.14728728951424691 0.28871625735014939 0 0.14924189349128261 0.29698436464102829 0 0.14728728951424691 0.28871625735014939 0 0.1416447250157222 0.29544082675589128 0 0.13463915166403909 0.29011289163129678 0 0.14728728951424691 0.28871625735014939 0 0.1416447250157222 0.29544082675589128 0 0.14924189349128261 0.29698436464102829 0 0.1576814993112734 0.29111844862325259 0 0.1567398971697517 0.30020769771567818 0 0.14924189349128261 0.29698436464102829 0 0.14728728951424691 0.28871625735014939 0 0.1576814993112734 0.29111844862325259 0 0.15383705453569649 0.27951082009548711 0 0.14728728951424691 0.28871625735014939 0 0.1576814993112734 0.29111844862325259 0 0.15383705453569649 0.27951082009548711 0 0.1576814993112734 0.29111844862325259 0 0.16532030222413041 0.28061774918364429 0 0.1576814993112734 0.29111844862325259 0 0.1689979645595176 0.28949488405725932 0 0.16532030222413041 0.28061774918364429 0 0.1576814993112734 0.29111844862325259 0 0.1689979645595176 0.28949488405725932 0 0.16694561294494401 0.29968174040922901 0 0.1689979645595176 0.28949488405725932 0 0.16694561294494401 0.29968174040922901 0 0.17866142019044989 0.29199773726540068 0 0.1689979645595176 0.28949488405725932 0 0.17498255083596301 0.28300150235233201 0 0.16532030222413041 0.28061774918364429 0 0.1576814993112734 0.29111844862325259 0 0.1567398971697517 0.30020769771567818 0 0.16694561294494401 0.29968174040922901 0 0.15847128754916129 0.30901971199088751 0 0.1567398971697517 0.30020769771567818 0 0.16694561294494401 0.29968174040922901 0 0.16694561294494401 0.29968174040922901 0 0.17666858027807311 0.3015349886251833 0 0.1707678241303611 0.31259989648156872 0 0.15847128754916129 0.30901971199088751 0 0.16694561294494401 0.29968174040922901 0 0.1707678241303611 0.31259989648156872 0 0.17666858027807311 0.3015349886251833 0 0.18371952992762389 0.30785332357736089 0 0.1707678241303611 0.31259989648156872 0 0.16694561294494401 0.29968174040922901 0 0.17666858027807311 0.3015349886251833 0 0.17866142019044989 0.29199773726540068 0 0.17666858027807311 0.3015349886251833 0 0.18371952992762389 0.30785332357736089 0 0.1898902111984884 0.29891268329407239 0 0.18371952992762389 0.30785332357736089 0 0.1898902111984884 0.29891268329407239 0 0.17666858027807311 0.3015349886251833 0 0.17866142019044989 0.29199773726540068 0 0.1898902111984884 0.29891268329407239 0 0.17498255083596301 0.28300150235233201 0 0.17866142019044989 0.29199773726540068 0 0.1849298445554361 0.28099903695767547 0 0.1689979645595176 0.28949488405725932 0 0.17498255083596301 0.28300150235233201 0 0.17866142019044989 0.29199773726540068 0 0.17866142019044989 0.29199773726540068 0 0.18677859260729601 0.28760164196875848 0 0.1898902111984884 0.29891268329407239 0 0.17866142019044989 0.29199773726540068 0 0.18677859260729601 0.28760164196875848 0 0.1849298445554361 0.28099903695767547 0 0.1849298445554361 0.28099903695767547 0 0.17528279401001801 0.2714166079934146 0 0.19094745617081291 0.27038549871767581 0 0.17528279401001801 0.2714166079934146 0 0.18564289691528729 0.25868749876629671 0 0.19094745617081291 0.27038549871767581 0 0.17498255083596301 0.28300150235233201 0 0.1849298445554361 0.28099903695767547 0 0.17528279401001801 0.2714166079934146 0 0.17528279401001801 0.2714166079934146 0 0.16532030222413041 0.28061774918364429 0 0.1609818760820641 0.2708255403471686 0 0.17498255083596301 0.28300150235233201 0 0.17528279401001801 0.2714166079934146 0 0.16532030222413041 0.28061774918364429 0 0.17528279401001801 0.2714166079934146 0 0.1609818760820641 0.2708255403471686 0 0.1631161995596529 0.25657386530356069 0 0.15383705453569649 0.27951082009548711 0 0.16532030222413041 0.28061774918364429 0 0.1609818760820641 0.2708255403471686 0 0.14627836463393121 0.26809473379089088 0 0.1609818760820641 0.2708255403471686 0 0.1631161995596529 0.25657386530356069 0 0.16890701105638031 0.23504418317664161 0 0.1631161995596529 0.25657386530356069 0 0.18564289691528729 0.25868749876629671 0 0.17528279401001801 0.2714166079934146 0 0.1631161995596529 0.25657386530356069 0 0.18564289691528729 0.25868749876629671 0 0.1956251304139873 0.24830732682566101 0 0.18564289691528729 0.25868749876629671 0 0.20465537480646501 0.25892384109831479 0 0.18564289691528729 0.25868749876629671 0 0.19094745617081291 0.27038549871767581 0 0.20465537480646501 0.25892384109831479 0 0.2050239072751949 0.2492833193895482 0 0.1956251304139873 0.24830732682566101 0 0.20465537480646501 0.25892384109831479 0 0.19094745617081291 0.27038549871767581 0 0.20212350544635149 0.27452240688285762 0 0.1917381003592612 0.28136787577326228 0 0.1849298445554361 0.28099903695767547 0 0.19094745617081291 0.27038549871767581 0 0.1917381003592612 0.28136787577326228 0 0.19094745617081291 0.27038549871767581 0 0.20212350544635149 0.27452240688285762 0 0.20465537480646501 0.25892384109831479 0 0.21559138507808229 0.27635001083075639 0 0.2170338530129477 0.25958452376210089 0 0.2223889939606305 0.26849190584137572 0 0.20212350544635149 0.27452240688285762 0 0.2170338530129477 0.25958452376210089 0 0.20037669147028589 0.28371892366973078 0 0.2170338530129477 0.25958452376210089 0 0.20037669147028589 0.28371892366973078 0 0.21559138507808229 0.27635001083075639 0 0.2170338530129477 0.25958452376210089 0 0.20037669147028589 0.28371892366973078 0 0.20212350544635149 0.27452240688285762 0 0.20465537480646501 0.25892384109831479 0 0.21458810326103989 0.25029177234766842 0 0.20212350544635149 0.27452240688285762 0 0.2170338530129477 0.25958452376210089 0 0.21458810326103989 0.25029177234766842 0 0.20212350544635149 0.27452240688285762 0 0.21458810326103989 0.25029177234766842 0 0.2050239072751949 0.2492833193895482 0 0.20465537480646501 0.25892384109831479 0 0.21458810326103989 0.25029177234766842 0 0.20465537480646501 0.25892384109831479 0 0.21458810326103989 0.25029177234766842 0 0.23169913173193779 0.25404958449575432 0 0.22942687348362151 0.26728355318502178 0 0.24090080429007341 0.26281353644332878 0 0.23169913173193779 0.25404958449575432 0 0.2249153238939712 0.26221153605608138 0 0.22942687348362151 0.26728355318502178 0 0.2170338530129477 0.25958452376210089 0 0.2249153238939712 0.26221153605608138 0 0.2223889939606305 0.26849190584137572 0 0.2170338530129477 0.25958452376210089 0 0.23169913173193779 0.25404958449575432 0 0.2249153238939712 0.26221153605608138 0 0.2223889939606305 0.26849190584137572 0 0.2255322572178127 0.27738204478537232 0 0.22942687348362151 0.26728355318502178 0 0.2249153238939712 0.26221153605608138 0 0.2223889939606305 0.26849190584137572 0 0.22942687348362151 0.26728355318502178 0 0.21559138507808229 0.27635001083075639 0 0.2255322572178127 0.27738204478537232 0 0.21985426169801439 0.28935406669317137 0 0.21559138507808229 0.27635001083075639 0 0.2223889939606305 0.26849190584137572 0 0.2255322572178127 0.27738204478537232 0 0.2255322572178127 0.27738204478537232 0 0.23621117140834261 0.27732665952701641 0 0.23095623596381579 0.2876536505458 0 0.2255322572178127 0.27738204478537232 0 0.22942687348362151 0.26728355318502178 0 0.23621117140834261 0.27732665952701641 0 0.23621117140834261 0.27732665952701641 0 0.24818821145747599 0.27522177653690871 0 0.24090080429007341 0.26281353644332878 0 0.22942687348362151 0.26728355318502178 0 0.23621117140834261 0.27732665952701641 0 0.24090080429007341 0.26281353644332878 0 0.24818821145747599 0.27522177653690871 0 0.24090080429007341 0.26281353644332878 0 0.25530776412370298 0.26639583896058622 0 0.23995652529561701 0.25039133628829258 0 0.24090080429007341 0.26281353644332878 0 0.25404003316197471 0.25208422786308371 0 0.23169913173193779 0.25404958449575432 0 0.23995652529561701 0.25039133628829258 0 0.24090080429007341 0.26281353644332878 0 0.23765651747073049 0.31117848176507701 0 0.2454028482605469 0.29267792886045368 0 0.25114017462525878 0.31153615041935723 0 0.23765651747073049 0.31117848176507701 0 0.2454028482605469 0.29267792886045368 0 0.2283396740985745 0.30195705682751389 0 0.2454028482605469 0.29267792886045368 0 0.23095623596381579 0.2876536505458 0 0.2283396740985745 0.30195705682751389 0 0.23621117140834261 0.27732665952701641 0 0.24818821145747599 0.27522177653690871 0 0.2454028482605469 0.29267792886045368 0 0.23621117140834261 0.27732665952701641 0 0.2454028482605469 0.29267792886045368 0 0.23095623596381579 0.2876536505458 0 0.2255322572178127 0.27738204478537232 0 0.23095623596381579 0.2876536505458 0 0.21985426169801439 0.28935406669317137 0 0.23095623596381579 0.2876536505458 0 0.21985426169801439 0.28935406669317137 0 0.2283396740985745 0.30195705682751389 0 0.2283396740985745 0.30195705682751389 0 0.2184758680590754 0.31184724711422762 0 0.22801070301179061 0.32060690690137728 0 0.21985426169801439 0.28935406669317137 0 0.2283396740985745 0.30195705682751389 0 0.21670572119465931 0.30172893354768798 0 0.23765651747073049 0.31117848176507701 0 0.2283396740985745 0.30195705682751389 0 0.22801070301179061 0.32060690690137728 0 0.2283396740985745 0.30195705682751389 0 0.2184758680590754 0.31184724711422762 0 0.21670572119465931 0.30172893354768798 0 0.2184758680590754 0.31184724711422762 0 0.21670572119465931 0.30172893354768798 0 0.20632342479934371 0.30585855598863948 0 0.21670572119465931 0.30172893354768798 0 0.20632342479934371 0.30585855598863948 0 0.21141614329998781 0.29390938293380992 0 0.20632342479934371 0.30585855598863948 0 0.21141614329998781 0.29390938293380992 0 0.2042452804315445 0.29308429151921322 0 0.21559138507808229 0.27635001083075639 0 0.21985426169801439 0.28935406669317137 0 0.2104384150331686 0.28649738738125968 0 0.21985426169801439 0.28935406669317137 0 0.21141614329998781 0.29390938293380992 0 0.2104384150331686 0.28649738738125968 0 0.21985426169801439 0.28935406669317137 0 0.21670572119465931 0.30172893354768798 0 0.21141614329998781 0.29390938293380992 0 0.21141614329998781 0.29390938293380992 0 0.2042452804315445 0.29308429151921322 0 0.2104384150331686 0.28649738738125968 0 0.2042452804315445 0.29308429151921322 0 0.2104384150331686 0.28649738738125968 0 0.20037669147028589 0.28371892366973078 0 0.21559138507808229 0.27635001083075639 0 0.2104384150331686 0.28649738738125968 0 0.20037669147028589 0.28371892366973078 0 0.20212350544635149 0.27452240688285762 0 0.20037669147028589 0.28371892366973078 0 0.1898902111984884 0.29891268329407239 0 0.18677859260729601 0.28760164196875848 0 0.1917381003592612 0.28136787577326228 0 0.1898902111984884 0.29891268329407239 0 0.20037669147028589 0.28371892366973078 0 0.1976595376627992 0.29976589533378561 0 0.1898902111984884 0.29891268329407239 0 0.2042452804315445 0.29308429151921322 0 0.20037669147028589 0.28371892366973078 0 0.1976595376627992 0.29976589533378561 0 0.20212350544635149 0.27452240688285762 0 0.1898902111984884 0.29891268329407239 0 0.20212350544635149 0.27452240688285762 0 0.1917381003592612 0.28136787577326228 0 0.1898902111984884 0.29891268329407239 0 0.20037669147028589 0.28371892366973078 0 0.1898902111984884 0.29891268329407239 0 0.18677859260729601 0.28760164196875848 0 0.1849298445554361 0.28099903695767547 0 0.1917381003592612 0.28136787577326228 0 0.20632342479934371 0.30585855598863948 0 0.19412409721151189 0.30848045781950378 0 0.19635424873152091 0.31866253726922511 0 0.20632342479934371 0.30585855598863948 0 0.1976595376627992 0.29976589533378561 0 0.19412409721151189 0.30848045781950378 0 0.20632342479934371 0.30585855598863948 0 0.2042452804315445 0.29308429151921322 0 0.1976595376627992 0.29976589533378561 0 0.18371952992762389 0.30785332357736089 0 0.1976595376627992 0.29976589533378561 0 0.1898902111984884 0.29891268329407239 0 0.18371952992762389 0.30785332357736089 0 0.19412409721151189 0.30848045781950378 0 0.19635424873152091 0.31866253726922511 0 0.18371952992762389 0.30785332357736089 0 0.1976595376627992 0.29976589533378561 0 0.19412409721151189 0.30848045781950378 0 0.19635424873152091 0.31866253726922511 0 0.19329834396814641 0.33328399686629978 0 0.21150607161232149 0.3245036863190196 0 0.19635424873152091 0.31866253726922511 0 0.19329834396814641 0.33328399686629978 0 0.1818581672390053 0.32281790922797782 0 0.19329834396814641 0.33328399686629978 0 0.20841238186686439 0.34472105417207632 0 0.1876990638134575 0.35190483133425488 0 0.19329834396814641 0.33328399686629978 0 0.21150607161232149 0.3245036863190196 0 0.20841238186686439 0.34472105417207632 0 0.21150607161232149 0.3245036863190196 0 0.22736457019319431 0.33776348264759248 0 0.20841238186686439 0.34472105417207632 0 0.20632342479934371 0.30585855598863948 0 0.19635424873152091 0.31866253726922511 0 0.21150607161232149 0.3245036863190196 0 0.2184758680590754 0.31184724711422762 0 0.20632342479934371 0.30585855598863948 0 0.21150607161232149 0.3245036863190196 0 0.21150607161232149 0.3245036863190196 0 0.22801070301179061 0.32060690690137728 0 0.22736457019319431 0.33776348264759248 0 0.2184758680590754 0.31184724711422762 0 0.21150607161232149 0.3245036863190196 0 0.22801070301179061 0.32060690690137728 0 0.22801070301179061 0.32060690690137728 0 0.22736457019319431 0.33776348264759248 0 0.24490867605631639 0.32967072069511189 0 0.22736457019319431 0.33776348264759248 0 0.24490867605631639 0.32967072069511189 0 0.24521693247762111 0.35027114815259558 0 0.23765651747073049 0.31117848176507701 0 0.22801070301179061 0.32060690690137728 0 0.24490867605631639 0.32967072069511189 0 0.23765651747073049 0.31117848176507701 0 0.24490867605631639 0.32967072069511189 0 0.25114017462525878 0.31153615041935723 0 0.24305895760768401 0.36641304215893011 0 0.24521693247762111 0.35027114815259558 0 0.22613265613425179 0.35680737964537468 0 0.22736457019319431 0.33776348264759248 0 0.24521693247762111 0.35027114815259558 0 0.22613265613425179 0.35680737964537468 0 0.22736457019319431 0.33776348264759248 0 0.22613265613425179 0.35680737964537468 0 0.20841238186686439 0.34472105417207632 0 0.22613265613425179 0.35680737964537468 0 0.20200890290724041 0.36500873302905812 0 0.22860253219506471 0.37841014948266538 0 0.24305895760768401 0.36641304215893011 0 0.22613265613425179 0.35680737964537468 0 0.22860253219506471 0.37841014948266538 0 0.20200890290724041 0.36500873302905812 0 0.22860253219506471 0.37841014948266538 0 0.22613265613425179 0.35680737964537468 0 0.20841238186686439 0.34472105417207632 0 0.20200890290724041 0.36500873302905812 0 0.20841238186686439 0.34472105417207632 0 0.1876990638134575 0.35190483133425488 0 0.20200890290724041 0.36500873302905812 0 0.1876990638134575 0.35190483133425488 0 0.20200890290724041 0.36500873302905812 0 0.17637045729064621 0.37495278481954358 0 0.1876990638134575 0.35190483133425488 0 0.17637045729064621 0.37495278481954358 0 0.16909864488713719 0.35514267549568418 0 0.15975417249048229 0.36968310563447321 0 0.16909864488713719 0.35514267549568418 0 0.14990537096685039 0.36070173528474042 0 0.17637045729064621 0.37495278481954358 0 0.15975417249048229 0.36968310563447321 0 0.16909864488713719 0.35514267549568418 0 0.16909864488713719 0.35514267549568418 0 0.1770056519607103 0.33831974362286749 0 0.1619384281755652 0.34052596047808847 0 0.16909864488713719 0.35514267549568418 0 0.14990537096685039 0.36070173528474042 0 0.15416632756111201 0.34898696826244741 0 0.16909864488713719 0.35514267549568418 0 0.1619384281755652 0.34052596047808847 0 0.15416632756111201 0.34898696826244741 0 0.1876990638134575 0.35190483133425488 0 0.16909864488713719 0.35514267549568418 0 0.1770056519607103 0.33831974362286749 0 0.19329834396814641 0.33328399686629978 0 0.1770056519607103 0.33831974362286749 0 0.1818581672390053 0.32281790922797782 0 0.19329834396814641 0.33328399686629978 0 0.1876990638134575 0.35190483133425488 0 0.1770056519607103 0.33831974362286749 0 0.1770056519607103 0.33831974362286749 0 0.1818581672390053 0.32281790922797782 0 0.1657389141743941 0.32607447656151611 0 0.1818581672390053 0.32281790922797782 0 0.1707678241303611 0.31259989648156872 0 0.1657389141743941 0.32607447656151611 0 0.18371952992762389 0.30785332357736089 0 0.19635424873152091 0.31866253726922511 0 0.1818581672390053 0.32281790922797782 0 0.18371952992762389 0.30785332357736089 0 0.1818581672390053 0.32281790922797782 0 0.1707678241303611 0.31259989648156872 0 0.1707678241303611 0.31259989648156872 0 0.1657389141743941 0.32607447656151611 0 0.16084478468494731 0.31759224325908281 0 0.1657389141743941 0.32607447656151611 0 0.15632698434060879 0.32309477146443721 0 0.16084478468494731 0.31759224325908281 0 0.1657389141743941 0.32607447656151611 0 0.15632698434060879 0.32309477146443721 0 0.1534459738215358 0.33116830427909388 0 0.15847128754916129 0.30901971199088751 0 0.1707678241303611 0.31259989648156872 0 0.16084478468494731 0.31759224325908281 0 0.15847128754916129 0.30901971199088751 0 0.16084478468494731 0.31759224325908281 0 0.1531779528472626 0.31690967251270458 0 0.15632698434060879 0.32309477146443721 0 0.16084478468494731 0.31759224325908281 0 0.1531779528472626 0.31690967251270458 0 0.1770056519607103 0.33831974362286749 0 0.1657389141743941 0.32607447656151611 0 0.1619384281755652 0.34052596047808847 0 0.1657389141743941 0.32607447656151611 0 0.1619384281755652 0.34052596047808847 0 0.1534459738215358 0.33116830427909388 0 0.1619384281755652 0.34052596047808847 0 0.14537830609435001 0.34101383565047871 0 0.15416632756111201 0.34898696826244741 0 0.1619384281755652 0.34052596047808847 0 0.1534459738215358 0.33116830427909388 0 0.14537830609435001 0.34101383565047871 0 0.1534459738215358 0.33116830427909388 0 0.1427633336259623 0.33140140495610498 0 0.14842729617490411 0.32372916070978858 0 0.1534459738215358 0.33116830427909388 0 0.1427633336259623 0.33140140495610498 0 0.14537830609435001 0.34101383565047871 0 0.1427633336259623 0.33140140495610498 0 0.14537830609435001 0.34101383565047871 0 0.13654253772275141 0.33890423694427602 0 0.1483486037307668 0.31106151759990119 0 0.1531779528472626 0.31690967251270458 0 0.14487070829517959 0.31682928085866202 0 0.1531779528472626 0.31690967251270458 0 0.14842729617490411 0.32372916070978858 0 0.14487070829517959 0.31682928085866202 0 0.15632698434060879 0.32309477146443721 0 0.1534459738215358 0.33116830427909388 0 0.14842729617490411 0.32372916070978858 0 0.15632698434060879 0.32309477146443721 0 0.1531779528472626 0.31690967251270458 0 0.14842729617490411 0.32372916070978858 0 0.1427633336259623 0.33140140495610498 0 0.14842729617490411 0.32372916070978858 0 0.1402378637359267 0.32270884290342983 0 0.14842729617490411 0.32372916070978858 0 0.14487070829517959 0.31682928085866202 0 0.1402378637359267 0.32270884290342983 0 0.1483486037307668 0.31106151759990119 0 0.14130712994747449 0.31140798331507108 0 0.14487070829517959 0.31682928085866202 0 0.14130712994747449 0.31140798331507108 0 0.14487070829517959 0.31682928085866202 0 0.13528824775885559 0.3155805734405937 0 0.14487070829517959 0.31682928085866202 0 0.13528824775885559 0.3155805734405937 0 0.1402378637359267 0.32270884290342983 0 0.13528824775885559 0.3155805734405937 0 0.1330765722643745 0.32249408610517011 0 0.1402378637359267 0.32270884290342983 0 0.1330765722643745 0.32249408610517011 0 0.1402378637359267 0.32270884290342983 0 0.13309473665224339 0.33072661256584468 0 0.12375204985912221 0.32702725796552912 0 0.1330765722643745 0.32249408610517011 0 0.13309473665224339 0.33072661256584468 0 0.12375204985912221 0.32702725796552912 0 0.1330765722643745 0.32249408610517011 0 0.12817088130983889 0.317450689473041 0 0.13528824775885559 0.3155805734405937 0 0.1330765722643745 0.32249408610517011 0 0.12817088130983889 0.317450689473041 0 0.1214195525311879 0.31440901896845502 0 0.12900107104525951 0.30968741412501871 0 0.12817088130983889 0.317450689473041 0 0.12900107104525951 0.30968741412501871 0 0.13528824775885559 0.3155805734405937 0 0.12817088130983889 0.317450689473041 0 0.14537830609435001 0.34101383565047871 0 0.13654253772275141 0.33890423694427602 0 0.13685475473781181 0.34959577292381833 0 0.13654253772275141 0.33890423694427602 0 0.1260676383484185 0.3399282146226113 0 0.13685475473781181 0.34959577292381833 0 0.1427633336259623 0.33140140495610498 0 0.13654253772275141 0.33890423694427602 0 0.13309473665224339 0.33072661256584468 0 0.1427633336259623 0.33140140495610498 0 0.1402378637359267 0.32270884290342983 0 0.13309473665224339 0.33072661256584468 0 0.12375204985912221 0.32702725796552912 0 0.13309473665224339 0.33072661256584468 0 0.1260676383484185 0.3399282146226113 0 0.13654253772275141 0.33890423694427602 0 0.13309473665224339 0.33072661256584468 0 0.1260676383484185 0.3399282146226113 0 0.1232256624926347 0.35239419723674059 0 0.13685475473781181 0.34959577292381833 0 0.13271547193899449 0.36524458735671972 0 0.1232256624926347 0.35239419723674059 0 0.1260676383484185 0.3399282146226113 0 0.13685475473781181 0.34959577292381833 0 0.13685475473781181 0.34959577292381833 0 0.13271547193899449 0.36524458735671972 0 0.14990537096685039 0.36070173528474042 0 0.13271547193899449 0.36524458735671972 0 0.14727668153694909 0.37350977329143831 0 0.1384203385310763 0.3853027474406937 0 0.13271547193899449 0.36524458735671972 0 0.14727668153694909 0.37350977329143831 0 0.14990537096685039 0.36070173528474042 0 0.15975417249048229 0.36968310563447321 0 0.14727668153694909 0.37350977329143831 0 0.14990537096685039 0.36070173528474042 0 0.14537830609435001 0.34101383565047871 0 0.13685475473781181 0.34959577292381833 0 0.15416632756111201 0.34898696826244741 0 0.13685475473781181 0.34959577292381833 0 0.14990537096685039 0.36070173528474042 0 0.15416632756111201 0.34898696826244741 0 0.15196678808574959 0.39634912392256672 0 0.1402717845598023 0.40641241395674649 0 0.16129649351817349 0.40676751558544272 0 0.15196678808574959 0.39634912392256672 0 0.1384203385310763 0.3853027474406937 0 0.1402717845598023 0.40641241395674649 0 0.15196678808574959 0.39634912392256672 0 0.15611970777082879 0.38410855928095938 0 0.1384203385310763 0.3853027474406937 0 0.14727668153694909 0.37350977329143831 0 0.15611970777082879 0.38410855928095938 0 0.1384203385310763 0.3853027474406937 0 0.15975417249048229 0.36968310563447321 0 0.14727668153694909 0.37350977329143831 0 0.15611970777082879 0.38410855928095938 0 0.1231373165426977 0.3806134049577457 0 0.13271547193899449 0.36524458735671972 0 0.1384203385310763 0.3853027474406937 0 0.1231373165426977 0.3806134049577457 0 0.1384203385310763 0.3853027474406937 0 0.1271742827044339 0.39597619803598749 0 0.1384203385310763 0.3853027474406937 0 0.1271742827044339 0.39597619803598749 0 0.1402717845598023 0.40641241395674649 0 0.1162621503634904 0.41872732341568758 0 0.1271742827044339 0.39597619803598749 0 0.1402717845598023 0.40641241395674649 0 0.1162621503634904 0.41872732341568758 0 0.1402717845598023 0.40641241395674649 0 0.14380353536204241 0.43078456768362461 0 0.1162621503634904 0.41872732341568758 0 0.14380353536204241 0.43078456768362461 0 0.1205619018159948 0.44674810255646558 0 0.1162621503634904 0.41872732341568758 0 0.13914808732176639 0.43525501877606959 0 0.1162621503634904 0.41872732341568758 0 0.13914808732176639 0.43525501877606959 0 0.14380353536204241 0.43078456768362461 0 0.1402717845598023 0.40641241395674649 0 0.16129649351817349 0.40676751558544272 0 0.1583102357697074 0.42239552662274649 0 0.1402717845598023 0.40641241395674649 0 0.14380353536204241 0.43078456768362461 0 0.1583102357697074 0.42239552662274649 0 0.16129649351817349 0.40676751558544272 0 0.17483444504792359 0.42517132393635743 0 0.1767108048052333 0.40648620419478521 0 0.16129649351817349 0.40676751558544272 0 0.1583102357697074 0.42239552662274649 0 0.17483444504792359 0.42517132393635743 0 0.1583102357697074 0.42239552662274649 0 0.17483444504792359 0.42517132393635743 0 0.1713449203605947 0.44284181195156158 0 0.14380353536204241 0.43078456768362461 0 0.1713449203605947 0.44284181195156158 0 0.14380353536204241 0.43078456768362461 0 0.1583102357697074 0.42239552662274649 0 0.1713449203605947 0.44284181195156158 0 0.17483444504792359 0.42517132393635743 0 0.18216746451451801 0.43740730714955978 0 0.1713449203605947 0.44284181195156158 0 0.17483444504792359 0.42517132393635743 0 0.1713449203605947 0.44284181195156158 0 0.17483444504792359 0.42517132393635743 0 0.1894098998784805 0.41329321868770491 0 0.19020123220431809 0.42989189963497759 0 0.17483444504792359 0.42517132393635743 0 0.18216746451451801 0.43740730714955978 0 0.19020123220431809 0.42989189963497759 0 0.17483444504792359 0.42517132393635743 0 0.1767108048052333 0.40648620419478521 0 0.1894098998784805 0.41329321868770491 0 0.1767108048052333 0.40648620419478521 0 0.16971698500113649 0.39319336099264368 0 0.18829620058045249 0.39400560177177729 0 0.1767108048052333 0.40648620419478521 0 0.18829620058045249 0.39400560177177729 0 0.1894098998784805 0.41329321868770491 0 0.15196678808574959 0.39634912392256672 0 0.15611970777082879 0.38410855928095938 0 0.16971698500113649 0.39319336099264368 0 0.15196678808574959 0.39634912392256672 0 0.16129649351817349 0.40676751558544272 0 0.16971698500113649 0.39319336099264368 0 0.16129649351817349 0.40676751558544272 0 0.1767108048052333 0.40648620419478521 0 0.16971698500113649 0.39319336099264368 0 0.17637045729064621 0.37495278481954358 0 0.15975417249048229 0.36968310563447321 0 0.15611970777082879 0.38410855928095938 0 0.17637045729064621 0.37495278481954358 0 0.15611970777082879 0.38410855928095938 0 0.16971698500113649 0.39319336099264368 0 0.17637045729064621 0.37495278481954358 0 0.16971698500113649 0.39319336099264368 0 0.18829620058045249 0.39400560177177729 0 0.20200890290724041 0.36500873302905812 0 0.18829620058045249 0.39400560177177729 0 0.21022739730807871 0.38998636848418261 0 0.20200890290724041 0.36500873302905812 0 0.17637045729064621 0.37495278481954358 0 0.18829620058045249 0.39400560177177729 0 0.18829620058045249 0.39400560177177729 0 0.21022739730807871 0.38998636848418261 0 0.20498907662426999 0.40636669370009521 0 0.18829620058045249 0.39400560177177729 0 0.20498907662426999 0.40636669370009521 0 0.1894098998784805 0.41329321868770491 0 0.21022739730807871 0.38998636848418261 0 0.225418264115859 0.4045632601918206 0 0.20498907662426999 0.40636669370009521 0 0.20200890290724041 0.36500873302905812 0 0.21022739730807871 0.38998636848418261 0 0.22860253219506471 0.37841014948266538 0 0.21022739730807871 0.38998636848418261 0 0.22860253219506471 0.37841014948266538 0 0.225418264115859 0.4045632601918206 0 0.225418264115859 0.4045632601918206 0 0.2490748840761759 0.41447913741323361 0 0.25519616148288887 0.39181156593627298 0 0.22860253219506471 0.37841014948266538 0 0.225418264115859 0.4045632601918206 0 0.25519616148288887 0.39181156593627298 0 0.22860253219506471 0.37841014948266538 0 0.25519616148288887 0.39181156593627298 0 0.24305895760768401 0.36641304215893011 0 0.22860253219506471 0.37841014948266538 0 0.25519616148288887 0.39181156593627298 0 0.2490748840761759 0.41447913741323361 0 0.23040520055063371 0.42472223384156732 0 0.24517769652138269 0.43868647355565088 0 0.225418264115859 0.4045632601918206 0 0.2490748840761759 0.41447913741323361 0 0.23040520055063371 0.42472223384156732 0 0.225418264115859 0.4045632601918206 0 0.23040520055063371 0.42472223384156732 0 0.20794960100346549 0.42683021087399747 0 0.23040520055063371 0.42472223384156732 0 0.20794960100346549 0.42683021087399747 0 0.2229924843016429 0.43948176305630821 0 0.23040520055063371 0.42472223384156732 0 0.2229924843016429 0.43948176305630821 0 0.24517769652138269 0.43868647355565088 0 0.225418264115859 0.4045632601918206 0 0.20794960100346549 0.42683021087399747 0 0.20498907662426999 0.40636669370009521 0 0.20794960100346549 0.42683021087399747 0 0.20498907662426999 0.40636669370009521 0 0.1894098998784805 0.41329321868770491 0 0.20794960100346549 0.42683021087399747 0 0.19020123220431809 0.42989189963497759 0 0.19426067079655579 0.44330707928475449 0 0.20794960100346549 0.42683021087399747 0 0.1894098998784805 0.41329321868770491 0 0.19020123220431809 0.42989189963497759 0 0.18216746451451801 0.43740730714955978 0 0.19020123220431809 0.42989189963497759 0 0.19426067079655579 0.44330707928475449 0 0.19426067079655579 0.44330707928475449 0 0.1940681668251448 0.45640187690020761 0 0.18254949088188149 0.4477470207382499 0 0.19426067079655579 0.44330707928475449 0 0.1940681668251448 0.45640187690020761 0 0.20814429074563079 0.44944136850783811 0 0.1940681668251448 0.45640187690020761 0 0.20814429074563079 0.44944136850783811 0 0.2039949308663013 0.472197178379127 0 0.1940681668251448 0.45640187690020761 0 0.2039949308663013 0.472197178379127 0 0.18608081776579821 0.46867989557539208 0 0.1940681668251448 0.45640187690020761 0 0.18608081776579821 0.46867989557539208 0 0.18254949088188149 0.4477470207382499 0 0.20814429074563079 0.44944136850783811 0 0.22852149564367849 0.45772005811557609 0 0.2039949308663013 0.472197178379127 0 0.20794960100346549 0.42683021087399747 0 0.19426067079655579 0.44330707928475449 0 0.20814429074563079 0.44944136850783811 0 0.20794960100346549 0.42683021087399747 0 0.20814429074563079 0.44944136850783811 0 0.2229924843016429 0.43948176305630821 0 0.2229924843016429 0.43948176305630821 0 0.22852149564367849 0.45772005811557609 0 0.24517769652138269 0.43868647355565088 0 0.20814429074563079 0.44944136850783811 0 0.2229924843016429 0.43948176305630821 0 0.22852149564367849 0.45772005811557609 0 0.22852149564367849 0.45772005811557609 0 0.2480713074063006 0.45455858161591112 0 0.2508124586903176 0.47172026355836871 0 0.22852149564367849 0.45772005811557609 0 0.2480713074063006 0.45455858161591112 0 0.24517769652138269 0.43868647355565088 0 0.24658834009167641 0.5 0 0.2268462464291012 0.47913099520174052 0 0.2508124586903176 0.47172026355836871 0 0.22852149564367849 0.45772005811557609 0 0.2268462464291012 0.47913099520174052 0 0.2508124586903176 0.47172026355836871 0 0.22852149564367849 0.45772005811557609 0 0.2268462464291012 0.47913099520174052 0 0.2039949308663013 0.472197178379127 0 0.24658834009167641 0.5 0 0.2268462464291012 0.47913099520174052 0 0.21774471386125249 0.5 0 0.2039949308663013 0.472197178379127 0 0.18890108763082861 0.5 0 0.18608081776579821 0.46867989557539208 0 0.21774471386125249 0.5 0 0.2039949308663013 0.472197178379127 0 0.18890108763082861 0.5 0 0.2268462464291012 0.47913099520174052 0 0.21774471386125249 0.5 0 0.2039949308663013 0.472197178379127 0 0.18890108763082861 0.5 0 0.16570119088049859 0.47142090597577962 0 0.18608081776579821 0.46867989557539208 0 0.18890108763082861 0.5 0 0.1600574614004048 0.499999999999998 0 0.16570119088049859 0.47142090597577962 0 0.1600574614004048 0.499999999999998 0 0.16570119088049859 0.47142090597577962 0 0.1600574614004048 0.499999999999998 0 0.16570119088049859 0.47142090597577962 0 0.1473140710794911 0.47841155746419622 0 0.16570119088049859 0.47142090597577962 0 0.18608081776579821 0.46867989557539208 0 0.18254949088188149 0.4477470207382499 0 0.16570119088049859 0.47142090597577962 0 0.18254949088188149 0.4477470207382499 0 0.1713449203605947 0.44284181195156158 0 0.18216746451451801 0.43740730714955978 0 0.19426067079655579 0.44330707928475449 0 0.18254949088188149 0.4477470207382499 0 0.18254949088188149 0.4477470207382499 0 0.1713449203605947 0.44284181195156158 0 0.18216746451451801 0.43740730714955978 0 0.18254949088188149 0.4477470207382499 0 0.1713449203605947 0.44284181195156158 0 0.16570119088049859 0.47142090597577962 0 0.1713449203605947 0.44284181195156158 0 0.16570119088049859 0.47142090597577962 0 0.1713449203605947 0.44284181195156158 0 0.15076126992746861 0.45128164001408699 0 0.16570119088049859 0.47142090597577962 0 0.14979107830043681 0.4659705410046826 0 0.15076126992746861 0.45128164001408699 0 0.14979107830043681 0.4659705410046826 0 0.15076126992746861 0.45128164001408699 0 0.13538778131428869 0.46276806056466779 0 0.13914808732176639 0.43525501877606959 0 0.14380353536204241 0.43078456768362461 0 0.15076126992746861 0.45128164001408699 0 0.14380353536204241 0.43078456768362461 0 0.1713449203605947 0.44284181195156158 0 0.15076126992746861 0.45128164001408699 0 0.13914808732176639 0.43525501877606959 0 0.15076126992746861 0.45128164001408699 0 0.13538778131428869 0.46276806056466779 0 0.13914808732176639 0.43525501877606959 0 0.13538778131428869 0.46276806056466779 0 0.1205619018159948 0.44674810255646558 0 0.13914808732176639 0.43525501877606959 0 0.13538778131428869 0.46276806056466779 0 0.1248616532684987 0.47476888169724352 0 0.1205619018159948 0.44674810255646558 0 0.13538778131428869 0.46276806056466779 0 0.13538778131428869 0.46276806056466779 0 0.13162747530681079 0.49028110235326611 0 0.1248616532684987 0.47476888169724352 0 0.13538778131428869 0.46276806056466779 0 0.13162747530681079 0.49028110235326611 0 0.13538778131428869 0.46276806056466779 0 0.13162747530681079 0.49028110235326611 0 0.1473140710794911 0.47841155746419622 0 0.1248616532684987 0.47476888169724352 0 0.13162747530681079 0.49028110235326611 0 0.1248616532684987 0.47476888169724352 0 0.1287333349596296 0.50000000000000233 0 0.1248616532684987 0.47476888169724352 0 0.13162747530681079 0.49028110235326611 0 0.1287333349596296 0.50000000000000233 0 0.13162747530681079 0.49028110235326611 0 0.1302991587401483 0.50000000000000044 0 0.13162747530681079 0.49028110235326611 0 0.1302991587401483 0.50000000000000044 0 0.13586647714571501 0.50000000000000044 0 0.13162747530681079 0.49028110235326611 0 0.1287333349596296 0.50000000000000233 0 0.1302991587401483 0.50000000000000044 0 0.13162747530681079 0.49028110235326611 0 0.13586647714571501 0.50000000000000044 0 0.14406777576738011 0.49099847585001533 0 0.13162747530681079 0.49028110235326611 0 0.13586647714571501 0.50000000000000044 0 0.1600574614004048 0.499999999999998 0 0.13586647714571501 0.50000000000000044 0 0.14406777576738011 0.49099847585001533 0 0.1600574614004048 0.499999999999998 0 0.14406777576738011 0.49099847585001533 0 0.1473140710794911 0.47841155746419622 0 0.13162747530681079 0.49028110235326611 0 0.14406777576738011 0.49099847585001533 0 0.1473140710794911 0.47841155746419622 0 0.16570119088049859 0.47142090597577962 0 0.14979107830043681 0.4659705410046826 0 0.1473140710794911 0.47841155746419622 0 0.14979107830043681 0.4659705410046826 0 0.13538778131428869 0.46276806056466779 0 0.1473140710794911 0.47841155746419622 0 0.3484716028812469 0.46927922019571022 0 0.3639431844790027 0.47792576209206161 0 0.36215729707138089 0.45952194433731441 0 0.3484716028812469 0.46927922019571022 0 0.34825454286986979 0.4866410253547736 0 0.3639431844790027 0.47792576209206161 0 0.34825454286986979 0.4866410253547736 0 0.36196284501337178 0.5 0 0.3639431844790027 0.47792576209206161 0 0.34825454286986979 0.4866410253547736 0 0.36196284501337178 0.5 0 0.33311921878294798 0.5 0 0.36196284501337178 0.5 0 0.3639431844790027 0.47792576209206161 0 0.38120033573297152 0.48442634992442057 0 0.3639431844790027 0.47792576209206161 0 0.37844435483634198 0.4675903904274426 0 0.38120033573297152 0.48442634992442057 0 0.3639431844790027 0.47792576209206161 0 0.36215729707138089 0.45952194433731441 0 0.37844435483634198 0.4675903904274426 0 0.36215729707138089 0.45952194433731441 0 0.37809165231809289 0.44568724501072521 0 0.37844435483634198 0.4675903904274426 0 0.36215729707138089 0.45952194433731441 0 0.35494335133579169 0.44207750056399991 0 0.37809165231809289 0.44568724501072521 0 0.35494335133579169 0.44207750056399991 0 0.365542703577178 0.42914551292816783 0 0.37809165231809289 0.44568724501072521 0 0.35494335133579169 0.44207750056399991 0 0.33746945485668051 0.4332718215327816 0 0.35494335133579169 0.44207750056399991 0 0.33933393763431879 0.44574212964051668 0 0.33746945485668051 0.4332718215327816 0 0.36215729707138089 0.45952194433731441 0 0.35494335133579169 0.44207750056399991 0 0.34904963657780902 0.45457154773394731 0 0.35494335133579169 0.44207750056399991 0 0.34904963657780902 0.45457154773394731 0 0.33933393763431879 0.44574212964051668 0 0.3484716028812469 0.46927922019571022 0 0.36215729707138089 0.45952194433731441 0 0.34904963657780902 0.45457154773394731 0 0.3484716028812469 0.46927922019571022 0 0.34904963657780902 0.45457154773394731 0 0.33768006752307722 0.45817683321967928 0 0.33768006752307722 0.45817683321967928 0 0.32516604183334019 0.44948070643492349 0 0.3263791186886712 0.4718105620932988 0 0.3484716028812469 0.46927922019571022 0 0.33768006752307722 0.45817683321967928 0 0.3263791186886712 0.4718105620932988 0 0.33933393763431879 0.44574212964051668 0 0.32516604183334019 0.44948070643492349 0 0.33457771181584611 0.43369686048393857 0 0.32516604183334019 0.44948070643492349 0 0.33457771181584611 0.43369686048393857 0 0.33933393763431879 0.44574212964051668 0 0.33457771181584611 0.43369686048393857 0 0.33746945485668051 0.4332718215327816 0 0.34904963657780902 0.45457154773394731 0 0.33768006752307722 0.45817683321967928 0 0.33933393763431879 0.44574212964051668 0 0.33768006752307722 0.45817683321967928 0 0.33933393763431879 0.44574212964051668 0 0.32516604183334019 0.44948070643492349 0 0.32516604183334019 0.44948070643492349 0 0.30610823095482448 0.43788140873538328 0 0.33457771181584611 0.43369686048393857 0 0.32516604183334019 0.44948070643492349 0 0.30909376894118562 0.45443190325323968 0 0.30610823095482448 0.43788140873538328 0 0.32516604183334019 0.44948070643492349 0 0.3263791186886712 0.4718105620932988 0 0.30909376894118562 0.45443190325323968 0 0.3263791186886712 0.4718105620932988 0 0.30059931196992168 0.47005809262963882 0 0.31153103284441203 0.48323920778459489 0 0.3484716028812469 0.46927922019571022 0 0.34825454286986979 0.4866410253547736 0 0.3263791186886712 0.4718105620932988 0 0.34825454286986979 0.4866410253547736 0 0.3263791186886712 0.4718105620932988 0 0.33311921878294798 0.5 0 0.3263791186886712 0.4718105620932988 0 0.33311921878294798 0.5 0 0.31153103284441203 0.48323920778459489 0 0.33311921878294798 0.5 0 0.30427559255252412 0.5 0 0.31153103284441203 0.48323920778459489 0 0.30427559255252412 0.5 0 0.31153103284441203 0.48323920778459489 0 0.29110307967174748 0.48580921065493432 0 0.30059931196992168 0.47005809262963882 0 0.31153103284441203 0.48323920778459489 0 0.29110307967174748 0.48580921065493432 0 0.30059931196992168 0.47005809262963882 0 0.29110307967174748 0.48580921065493432 0 0.27585954767988607 0.47408041721782612 0 0.30427559255252412 0.5 0 0.29110307967174748 0.48580921065493432 0 0.27543196632210021 0.5 0 0.27543196632210021 0.5 0 0.27585954767988607 0.47408041721782612 0 0.26198527678341299 0.48673919500437729 0 0.29110307967174748 0.48580921065493432 0 0.27543196632210021 0.5 0 0.27585954767988607 0.47408041721782612 0 0.27585954767988607 0.47408041721782612 0 0.2508124586903176 0.47172026355836871 0 0.26198527678341299 0.48673919500437729 0 0.24658834009167641 0.5 0 0.2508124586903176 0.47172026355836871 0 0.26198527678341299 0.48673919500437729 0 0.24658834009167641 0.5 0 0.27543196632210021 0.5 0 0.26198527678341299 0.48673919500437729 0 0.2480713074063006 0.45455858161591112 0 0.24517769652138269 0.43868647355565088 0 0.26777357876982372 0.45010753123404867 0 0.24517769652138269 0.43868647355565088 0 0.26777357876982372 0.45010753123404867 0 0.26600993858745892 0.42808938636359573 0 0.2480713074063006 0.45455858161591112 0 0.2508124586903176 0.47172026355836871 0 0.26777357876982372 0.45010753123404867 0 0.27585954767988607 0.47408041721782612 0 0.2508124586903176 0.47172026355836871 0 0.26777357876982372 0.45010753123404867 0 0.27585954767988607 0.47408041721782612 0 0.26777357876982372 0.45010753123404867 0 0.28975077836376328 0.45156795454144122 0 0.26777357876982372 0.45010753123404867 0 0.28975077836376328 0.45156795454144122 0 0.28607917402868899 0.43188291486824332 0 0.28975077836376328 0.45156795454144122 0 0.30610823095482448 0.43788140873538328 0 0.28607917402868899 0.43188291486824332 0 0.30059931196992168 0.47005809262963882 0 0.27585954767988607 0.47408041721782612 0 0.28975077836376328 0.45156795454144122 0 0.3263791186886712 0.4718105620932988 0 0.30059931196992168 0.47005809262963882 0 0.30909376894118562 0.45443190325323968 0 0.30059931196992168 0.47005809262963882 0 0.28975077836376328 0.45156795454144122 0 0.30909376894118562 0.45443190325323968 0 0.28975077836376328 0.45156795454144122 0 0.30909376894118562 0.45443190325323968 0 0.30610823095482448 0.43788140873538328 0 0.30610823095482448 0.43788140873538328 0 0.30869255759955722 0.41877018355733042 0 0.28607917402868899 0.43188291486824332 0 0.3075810200549029 0.4073564129674252 0 0.30869255759955722 0.41877018355733042 0 0.30232024370737348 0.40459188745546998 0 0.31142364564813352 0.41093370315849659 0 0.3075810200549029 0.4073564129674252 0 0.31015955469665918 0.40201373970895371 0 0.31142364564813352 0.41093370315849659 0 0.3075810200549029 0.4073564129674252 0 0.30869255759955722 0.41877018355733042 0 0.30869255759955722 0.41877018355733042 0 0.29605666041485018 0.40551048050067168 0 0.30232024370737348 0.40459188745546998 0 0.30869255759955722 0.41877018355733042 0 0.2819443595412231 0.40529087474680159 0 0.30869255759955722 0.41877018355733042 0 0.2819443595412231 0.40529087474680159 0 0.29605666041485018 0.40551048050067168 0 0.30869255759955722 0.41877018355733042 0 0.28607917402868899 0.43188291486824332 0 0.2819443595412231 0.40529087474680159 0 0.2490748840761759 0.41447913741323361 0 0.26600993858745892 0.42808938636359573 0 0.2819443595412231 0.40529087474680159 0 0.26777357876982372 0.45010753123404867 0 0.28607917402868899 0.43188291486824332 0 0.26600993858745892 0.42808938636359573 0 0.28607917402868899 0.43188291486824332 0 0.26600993858745892 0.42808938636359573 0 0.2819443595412231 0.40529087474680159 0 0.2490748840761759 0.41447913741323361 0 0.24517769652138269 0.43868647355565088 0 0.26600993858745892 0.42808938636359573 0 0.2490748840761759 0.41447913741323361 0 0.25519616148288887 0.39181156593627298 0 0.2819443595412231 0.40529087474680159 0 0.25519616148288887 0.39181156593627298 0 0.2618259464583832 0.36726095095448358 0 0.25519616148288887 0.39181156593627298 0 0.27405714121884811 0.38409687161834088 0 0.2618259464583832 0.36726095095448358 0 0.24305895760768401 0.36641304215893011 0 0.25519616148288887 0.39181156593627298 0 0.2618259464583832 0.36726095095448358 0 0.2490748840761759 0.41447913741323361 0 0.25519616148288887 0.39181156593627298 0 0.27405714121884811 0.38409687161834088 0 0.2819443595412231 0.40529087474680159 0 0.28762179706039948 0.39125587461843808 0 0.25519616148288887 0.39181156593627298 0 0.2819443595412231 0.40529087474680159 0 0.25519616148288887 0.39181156593627298 0 0.27405714121884811 0.38409687161834088 0 0.2819443595412231 0.40529087474680159 0 0.27405714121884811 0.38409687161834088 0 0.28403056220722062 0.37531448917755911 0 0.2737626695690904 0.37327007608818358 0 0.27405714121884811 0.38409687161834088 0 0.28403056220722062 0.37531448917755911 0 0.28762179706039948 0.39125587461843808 0 0.29405085274881382 0.37834813740539031 0 0.28762179706039948 0.39125587461843808 0 0.30049862001061489 0.39881078008944609 0 0.28403056220722062 0.37531448917755911 0 0.29405085274881382 0.37834813740539031 0 0.28762179706039948 0.39125587461843808 0 0.2819443595412231 0.40529087474680159 0 0.28762179706039948 0.39125587461843808 0 0.29316512877403511 0.40022580951085568 0 0.28762179706039948 0.39125587461843808 0 0.29316512877403511 0.40022580951085568 0 0.30049862001061489 0.39881078008944609 0 0.2819443595412231 0.40529087474680159 0 0.29316512877403511 0.40022580951085568 0 0.29605666041485018 0.40551048050067168 0 0.29316512877403511 0.40022580951085568 0 0.29605666041485018 0.40551048050067168 0 0.30042223720462058 0.4004666581126537 0 0.29605666041485018 0.40551048050067168 0 0.30232024370737348 0.40459188745546998 0 0.30042223720462058 0.4004666581126537 0 0.29316512877403511 0.40022580951085568 0 0.30042223720462058 0.4004666581126537 0 0.30049862001061489 0.39881078008944609 0 0.30042223720462058 0.4004666581126537 0 0.30049862001061489 0.39881078008944609 0 0.30232024370737348 0.40459188745546998 0 0.30049862001061489 0.39881078008944609 0 0.30232024370737348 0.40459188745546998 0 0.30049862001061489 0.39881078008944609 0 0.30430913302558388 0.40020258685778032 0 0.30232024370737348 0.40459188745546998 0 0.30042223720462058 0.4004666581126537 0 0.30049862001061489 0.39881078008944609 0 0.30049862001061489 0.39881078008944609 0 0.30098622665836988 0.38824011406760628 0 0.30049862001061489 0.39881078008944609 0 0.30430913302558388 0.40020258685778032 0 0.30098622665836988 0.38824011406760628 0 0.30098622665836988 0.38824011406760628 0 0.30110064445947421 0.38575968774854158 0 0.31262554991773928 0.39787599139405988 0 0.31015955469665918 0.40201373970895371 0 0.30098622665836988 0.38824011406760628 0 0.30110064445947421 0.38575968774854158 0 0.31262554991773928 0.39787599139405988 0 0.30430913302558388 0.40020258685778032 0 0.31015955469665918 0.40201373970895371 0 0.30098622665836988 0.38824011406760628 0 0.31015955469665918 0.40201373970895371 0 0.30098622665836988 0.38824011406760628 0 0.31262554991773928 0.39787599139405988 0 0.3075810200549029 0.4073564129674252 0 0.30232024370737348 0.40459188745546998 0 0.30430913302558388 0.40020258685778032 0 0.3075810200549029 0.4073564129674252 0 0.30430913302558388 0.40020258685778032 0 0.31015955469665918 0.40201373970895371 0 0.29405085274881382 0.37834813740539031 0 0.30049862001061489 0.39881078008944609 0 0.29405085274881382 0.37834813740539031 0 0.30049862001061489 0.39881078008944609 0 0.30098622665836988 0.38824011406760628 0 0.30110064445947421 0.38575968774854158 0 0.30177514978199971 0.3711373061071076 0 0.30110064445947421 0.38575968774854158 0 0.3104817065657739 0.3858680532317833 0 0.30177514978199971 0.3711373061071076 0 0.29405085274881382 0.37834813740539031 0 0.30110064445947421 0.38575968774854158 0 0.30177514978199971 0.3711373061071076 0 0.29405085274881382 0.37834813740539031 0 0.30110064445947421 0.38575968774854158 0 0.29405085274881382 0.37834813740539031 0 0.30098622665836988 0.38824011406760628 0 0.30110064445947421 0.38575968774854158 0 0.29405085274881382 0.37834813740539031 0 0.30098622665836988 0.38824011406760628 0 0.30098622665836988 0.38824011406760628 0 0.30110064445947421 0.38575968774854158 0 0.30110064445947421 0.38575968774854158 0 0.3104817065657739 0.3858680532317833 0 0.31262554991773928 0.39787599139405988 0 0.3104817065657739 0.3858680532317833 0 0.30177514978199971 0.3711373061071076 0 0.3104817065657739 0.3858680532317833 0 0.31717345926189522 0.3709258031848055 0 0.30177514978199971 0.3711373061071076 0 0.3104817065657739 0.3858680532317833 0 0.3376156911696272 0.37620073599141618 0 0.3104817065657739 0.3858680532317833 0 0.3376156911696272 0.37620073599141618 0 0.31717345926189522 0.3709258031848055 0 0.3104817065657739 0.3858680532317833 0 0.3376156911696272 0.37620073599141618 0 0.3351802944883514 0.39738750443412002 0 0.3376156911696272 0.37620073599141618 0 0.3351802944883514 0.39738750443412002 0 0.34879159400795012 0.38769315231290841 0 0.3351802944883514 0.39738750443412002 0 0.33658962428999861 0.41133204962483783 0 0.34988972217452752 0.40801784569160632 0 0.3351802944883514 0.39738750443412002 0 0.32415045537600512 0.40999229503957763 0 0.33658962428999861 0.41133204962483783 0 0.3351802944883514 0.39738750443412002 0 0.31909953512109351 0.40044867980609039 0 0.32415045537600512 0.40999229503957763 0 0.3104817065657739 0.3858680532317833 0 0.3351802944883514 0.39738750443412002 0 0.31909953512109351 0.40044867980609039 0 0.3104817065657739 0.3858680532317833 0 0.31909953512109351 0.40044867980609039 0 0.3104817065657739 0.3858680532317833 0 0.31262554991773928 0.39787599139405988 0 0.31909953512109351 0.40044867980609039 0 0.31262554991773928 0.39787599139405988 0 0.32415045537600512 0.40999229503957763 0 0.31015955469665918 0.40201373970895371 0 0.31262554991773928 0.39787599139405988 0 0.32415045537600512 0.40999229503957763 0 0.31262554991773928 0.39787599139405988 0 0.31909953512109351 0.40044867980609039 0 0.32415045537600512 0.40999229503957763 0 0.31015955469665918 0.40201373970895371 0 0.31933288273494848 0.41578736535030097 0 0.32415045537600512 0.40999229503957763 0 0.31142364564813352 0.41093370315849659 0 0.31015955469665918 0.40201373970895371 0 0.31933288273494848 0.41578736535030097 0 0.30869255759955722 0.41877018355733042 0 0.31933288273494848 0.41578736535030097 0 0.32906281765607392 0.42006619542527468 0 0.31015955469665918 0.40201373970895371 0 0.31933288273494848 0.41578736535030097 0 0.31142364564813352 0.41093370315849659 0 0.30869255759955722 0.41877018355733042 0 0.31933288273494848 0.41578736535030097 0 0.31933288273494848 0.41578736535030097 0 0.32415045537600512 0.40999229503957763 0 0.32906281765607392 0.42006619542527468 0 0.30869255759955722 0.41877018355733042 0 0.33457771181584611 0.43369686048393857 0 0.33544075565789128 0.43224949236785898 0 0.30869255759955722 0.41877018355733042 0 0.33544075565789128 0.43224949236785898 0 0.30610823095482448 0.43788140873538328 0 0.30869255759955722 0.41877018355733042 0 0.33457771181584611 0.43369686048393857 0 0.30869255759955722 0.41877018355733042 0 0.33544075565789128 0.43224949236785898 0 0.32906281765607392 0.42006619542527468 0 0.30610823095482448 0.43788140873538328 0 0.33457771181584611 0.43369686048393857 0 0.33457771181584611 0.43369686048393857 0 0.33544075565789128 0.43224949236785898 0 0.33746945485668051 0.4332718215327816 0 0.33457771181584611 0.43369686048393857 0 0.33544075565789128 0.43224949236785898 0 0.33544075565789128 0.43224949236785898 0 0.33746945485668051 0.4332718215327816 0 0.35001853239939229 0.42365555934674631 0 0.33544075565789128 0.43224949236785898 0 0.33746945485668051 0.4332718215327816 0 0.33457771181584611 0.43369686048393857 0 0.33746945485668051 0.4332718215327816 0 0.33544075565789128 0.43224949236785898 0 0.33658962428999861 0.41133204962483783 0 0.34988972217452752 0.40801784569160632 0 0.33544075565789128 0.43224949236785898 0 0.32906281765607392 0.42006619542527468 0 0.33658962428999861 0.41133204962483783 0 0.33544075565789128 0.43224949236785898 0 0.34988972217452752 0.40801784569160632 0 0.32415045537600512 0.40999229503957763 0 0.32906281765607392 0.42006619542527468 0 0.33658962428999861 0.41133204962483783 0 0.33544075565789128 0.43224949236785898 0 0.34988972217452752 0.40801784569160632 0 0.35001853239939229 0.42365555934674631 0 0.34988972217452752 0.40801784569160632 0 0.36165970526353591 0.41519797525725338 0 0.36412400085156282 0.39702719229323191 0 0.34988972217452752 0.40801784569160632 0 0.35001853239939229 0.42365555934674631 0 0.36165970526353591 0.41519797525725338 0 0.35494335133579169 0.44207750056399991 0 0.33746945485668051 0.4332718215327816 0 0.365542703577178 0.42914551292816783 0 0.33746945485668051 0.4332718215327816 0 0.35001853239939229 0.42365555934674631 0 0.365542703577178 0.42914551292816783 0 0.33746945485668051 0.4332718215327816 0 0.365542703577178 0.42914551292816783 0 0.35001853239939229 0.42365555934674631 0 0.365542703577178 0.42914551292816783 0 0.36165970526353591 0.41519797525725338 0 0.365542703577178 0.42914551292816783 0 0.36165970526353591 0.41519797525725338 0 0.37744029411777058 0.41252948965876268 0 0.36165970526353591 0.41519797525725338 0 0.36412400085156282 0.39702719229323191 0 0.37744029411777058 0.41252948965876268 0 0.36412400085156282 0.39702719229323191 0 0.38026367080056678 0.39066664182047522 0 0.37744029411777058 0.41252948965876268 0 0.34988972217452752 0.40801784569160632 0 0.36412400085156282 0.39702719229323191 0 0.36433868869116592 0.38378619901535488 0 0.36433868869116592 0.38378619901535488 0 0.3773824667175657 0.37546563606013739 0 0.38026367080056678 0.39066664182047522 0 0.36433868869116592 0.38378619901535488 0 0.36474967577348072 0.36653341875104961 0 0.3773824667175657 0.37546563606013739 0 0.36412400085156282 0.39702719229323191 0 0.36433868869116592 0.38378619901535488 0 0.38026367080056678 0.39066664182047522 0 0.36433868869116592 0.38378619901535488 0 0.36474967577348072 0.36653341875104961 0 0.36412400085156282 0.39702719229323191 0 0.36433868869116592 0.38378619901535488 0 0.3376156911696272 0.37620073599141618 0 0.34879159400795012 0.38769315231290841 0 0.36474967577348072 0.36653341875104961 0 0.36433868869116592 0.38378619901535488 0 0.34879159400795012 0.38769315231290841 0 0.36474967577348072 0.36653341875104961 0 0.3351802944883514 0.39738750443412002 0 0.34988972217452752 0.40801784569160632 0 0.34879159400795012 0.38769315231290841 0 0.34988972217452752 0.40801784569160632 0 0.36433868869116592 0.38378619901535488 0 0.34988972217452752 0.40801784569160632 0 0.36433868869116592 0.38378619901535488 0 0.34879159400795012 0.38769315231290841 0 0.34699100967064078 0.35539672769273539 0 0.36474967577348072 0.36653341875104961 0 0.36518945593320651 0.34509967395937191 0 0.34699100967064078 0.35539672769273539 0 0.36518945593320651 0.34509967395937191 0 0.348137396692076 0.34077307725183559 0 0.3376156911696272 0.37620073599141618 0 0.34699100967064078 0.35539672769273539 0 0.36474967577348072 0.36653341875104961 0 0.3376156911696272 0.37620073599141618 0 0.36474967577348072 0.36653341875104961 0 0.36474967577348072 0.36653341875104961 0 0.36518945593320651 0.34509967395937191 0 0.36474967577348072 0.36653341875104961 0 0.36518945593320651 0.34509967395937191 0 0.3855881021147175 0.35910908792858098 0 0.36518945593320651 0.34509967395937191 0 0.36562923609293069 0.32366592916769399 0 0.36518945593320651 0.34509967395937191 0 0.36562923609293069 0.32366592916769399 0 0.348137396692076 0.34077307725183559 0 0.36518945593320651 0.34509967395937191 0 0.36562923609293069 0.32366592916769399 0 0.38128435600444488 0.32837669887387311 0 0.36562923609293069 0.32366592916769399 0 0.36606901625265492 0.30223218437601618 0 0.38242981621443428 0.31397380775534678 0 0.36562923609293069 0.32366592916769399 0 0.36606901625265492 0.30223218437601618 0 0.36562923609293069 0.32366592916769399 0 0.34238706329751362 0.32476320095938682 0 0.35183379698966949 0.31056891257481539 0 0.36562923609293069 0.32366592916769399 0 0.348137396692076 0.34077307725183559 0 0.34238706329751362 0.32476320095938682 0 0.348137396692076 0.34077307725183559 0 0.33072504187423118 0.34237289876026822 0 0.34238706329751362 0.32476320095938682 0 0.33072504187423118 0.34237289876026822 0 0.34238706329751362 0.32476320095938682 0 0.32122702449841589 0.32177081607522939 0 0.34238706329751362 0.32476320095938682 0 0.33644502425256478 0.30910566618648461 0 0.35183379698966949 0.31056891257481539 0 0.34238706329751362 0.32476320095938682 0 0.32122702449841589 0.32177081607522939 0 0.33644502425256478 0.30910566618648461 0 0.32122702449841589 0.32177081607522939 0 0.31445651652981632 0.33878768779705848 0 0.30372390616191358 0.32889084998335888 0 0.33072504187423118 0.34237289876026822 0 0.32122702449841589 0.32177081607522939 0 0.31445651652981632 0.33878768779705848 0 0.33072504187423118 0.34237289876026822 0 0.31445651652981632 0.33878768779705848 0 0.31594857135045817 0.35062531106266931 0 0.33072504187423118 0.34237289876026822 0 0.31594857135045817 0.35062531106266931 0 0.32442852787466708 0.36030442639367111 0 0.31594857135045817 0.35062531106266931 0 0.32442852787466708 0.36030442639367111 0 0.31156622091740832 0.36111849420004938 0 0.34699100967064078 0.35539672769273539 0 0.348137396692076 0.34077307725183559 0 0.33072504187423118 0.34237289876026822 0 0.34699100967064078 0.35539672769273539 0 0.33072504187423118 0.34237289876026822 0 0.32442852787466708 0.36030442639367111 0 0.3376156911696272 0.37620073599141618 0 0.34699100967064078 0.35539672769273539 0 0.32442852787466708 0.36030442639367111 0 0.3376156911696272 0.37620073599141618 0 0.32442852787466708 0.36030442639367111 0 0.31717345926189522 0.3709258031848055 0 0.32442852787466708 0.36030442639367111 0 0.31717345926189522 0.3709258031848055 0 0.31156622091740832 0.36111849420004938 0 0.30177514978199971 0.3711373061071076 0 0.30274952797195698 0.35001407804523332 0 0.31717345926189522 0.3709258031848055 0 0.31156622091740832 0.36111849420004938 0 0.30177514978199971 0.3711373061071076 0 0.31156622091740832 0.36111849420004938 0 0.30177514978199971 0.3711373061071076 0 0.30274952797195698 0.35001407804523332 0 0.30177514978199971 0.3711373061071076 0 0.30274952797195698 0.35001407804523332 0 0.29106955940472562 0.3530243656434488 0 0.31445651652981632 0.33878768779705848 0 0.31594857135045817 0.35062531106266931 0 0.30274952797195698 0.35001407804523332 0 0.31594857135045817 0.35062531106266931 0 0.31156622091740832 0.36111849420004938 0 0.30274952797195698 0.35001407804523332 0 0.29106955940472562 0.3530243656434488 0 0.28705150305193838 0.35613499197806497 0 0.28036396902745148 0.33491142517978989 0 0.28705150305193838 0.35613499197806497 0 0.28036396902745148 0.33491142517978989 0 0.28705150305193838 0.35613499197806497 0 0.27644360280618341 0.34191623842927221 0 0.28036396902745148 0.33491142517978989 0 0.29106955940472562 0.3530243656434488 0 0.28036396902745148 0.33491142517978989 0 0.30274952797195698 0.35001407804523332 0 0.29106955940472562 0.3530243656434488 0 0.29374099595638509 0.3392252011883215 0 0.28705150305193838 0.35613499197806497 0 0.28458867991473008 0.36361942358965982 0 0.27543832275303448 0.34988028840297991 0 0.29405085274881382 0.37834813740539031 0 0.28705150305193838 0.35613499197806497 0 0.28458867991473008 0.36361942358965982 0 0.29405085274881382 0.37834813740539031 0 0.28705150305193838 0.35613499197806497 0 0.30177514978199971 0.3711373061071076 0 0.29106955940472562 0.3530243656434488 0 0.29405085274881382 0.37834813740539031 0 0.30177514978199971 0.3711373061071076 0 0.28705150305193838 0.35613499197806497 0 0.30177514978199971 0.3711373061071076 0 0.29106955940472562 0.3530243656434488 0 0.28705150305193838 0.35613499197806497 0 0.29405085274881382 0.37834813740539031 0 0.28458867991473008 0.36361942358965982 0 0.28403056220722062 0.37531448917755911 0 0.2815017213106239 0.3651550498314205 0 0.27898286169525299 0.37041503512408969 0 0.29405085274881382 0.37834813740539031 0 0.2815017213106239 0.3651550498314205 0 0.28403056220722062 0.37531448917755911 0 0.29405085274881382 0.37834813740539031 0 0.2815017213106239 0.3651550498314205 0 0.29405085274881382 0.37834813740539031 0 0.28458867991473008 0.36361942358965982 0 0.2815017213106239 0.3651550498314205 0 0.28403056220722062 0.37531448917755911 0 0.27898286169525299 0.37041503512408969 0 0.2737626695690904 0.37327007608818358 0 0.27663649369407689 0.36792052539919551 0 0.2737626695690904 0.37327007608818358 0 0.27125000512352843 0.36234153133647429 0 0.27405714121884811 0.38409687161834088 0 0.2737626695690904 0.37327007608818358 0 0.2618259464583832 0.36726095095448358 0 0.2815017213106239 0.3651550498314205 0 0.27898286169525299 0.37041503512408969 0 0.27663649369407689 0.36792052539919551 0 0.27898286169525299 0.37041503512408969 0 0.27663649369407689 0.36792052539919551 0 0.2737626695690904 0.37327007608818358 0 0.2737626695690904 0.37327007608818358 0 0.27125000512352843 0.36234153133647429 0 0.2618259464583832 0.36726095095448358 0 0.27125000512352843 0.36234153133647429 0 0.26895258987243392 0.3519619622574508 0 0.2618259464583832 0.36726095095448358 0 0.2815017213106239 0.3651550498314205 0 0.27125000512352843 0.36234153133647429 0 0.26895258987243392 0.3519619622574508 0 0.2815017213106239 0.3651550498314205 0 0.27663649369407689 0.36792052539919551 0 0.27125000512352843 0.36234153133647429 0 0.28458867991473008 0.36361942358965982 0 0.2815017213106239 0.3651550498314205 0 0.27543832275303448 0.34988028840297991 0 0.2815017213106239 0.3651550498314205 0 0.26895258987243392 0.3519619622574508 0 0.28458867991473008 0.36361942358965982 0 0.27543832275303448 0.34988028840297991 0 0.26895258987243392 0.3519619622574508 0 0.2618259464583832 0.36726095095448358 0 0.2684557314338783 0.34271033597269462 0 0.2815017213106239 0.3651550498314205 0 0.27543832275303448 0.34988028840297991 0 0.26895258987243392 0.3519619622574508 0 0.28705150305193838 0.35613499197806497 0 0.27543832275303448 0.34988028840297991 0 0.27644360280618341 0.34191623842927221 0 0.27543832275303448 0.34988028840297991 0 0.2684557314338783 0.34271033597269462 0 0.27644360280618341 0.34191623842927221 0 0.27543832275303448 0.34988028840297991 0 0.26895258987243392 0.3519619622574508 0 0.2684557314338783 0.34271033597269462 0 0.2618259464583832 0.36726095095448358 0 0.2684557314338783 0.34271033597269462 0 0.24521693247762111 0.35027114815259558 0 0.2618259464583832 0.36726095095448358 0 0.2684557314338783 0.34271033597269462 0 0.24305895760768401 0.36641304215893011 0 0.24521693247762111 0.35027114815259558 0 0.2618259464583832 0.36726095095448358 0 0.24490867605631639 0.32967072069511189 0 0.26050839607327853 0.32387463406168998 0 0.25114017462525878 0.31153615041935723 0 0.26050839607327853 0.32387463406168998 0 0.25114017462525878 0.31153615041935723 0 0.26342424027676908 0.31148804944983333 0 0.24490867605631639 0.32967072069511189 0 0.26050839607327853 0.32387463406168998 0 0.2684557314338783 0.34271033597269462 0 0.24490867605631639 0.32967072069511189 0 0.24521693247762111 0.35027114815259558 0 0.2684557314338783 0.34271033597269462 0 0.26050839607327853 0.32387463406168998 0 0.2684557314338783 0.34271033597269462 0 0.27508551640937329 0.31815972099090539 0 0.2684557314338783 0.34271033597269462 0 0.27508551640937329 0.31815972099090539 0 0.2684557314338783 0.34271033597269462 0 0.27787730485363338 0.33070420273373929 0 0.27508551640937329 0.31815972099090539 0 0.2684557314338783 0.34271033597269462 0 0.27644360280618341 0.34191623842927221 0 0.27787730485363338 0.33070420273373929 0 0.27644360280618341 0.34191623842927221 0 0.28036396902745148 0.33491142517978989 0 0.27787730485363338 0.33070420273373929 0 0.28036396902745148 0.33491142517978989 0 0.27787730485363338 0.33070420273373929 0 0.28036396902745148 0.33491142517978989 0 0.27787730485363338 0.33070420273373929 0 0.27508551640937329 0.31815972099090539 0 0.28036396902745148 0.33491142517978989 0 0.27508551640937329 0.31815972099090539 0 0.26050839607327853 0.32387463406168998 0 0.27508551640937329 0.31815972099090539 0 0.26342424027676908 0.31148804944983333 0 0.27584787744150779 0.31533663815394608 0 0.27508551640937329 0.31815972099090539 0 0.2839587577339367 0.31315639516335231 0 0.27584787744150779 0.31533663815394608 0 0.27508551640937329 0.31815972099090539 0 0.28036396902745148 0.33491142517978989 0 0.27508551640937329 0.31815972099090539 0 0.28884331716543121 0.32432796479040632 0 0.27508551640937329 0.31815972099090539 0 0.2839587577339367 0.31315639516335231 0 0.28884331716543121 0.32432796479040632 0 0.2839587577339367 0.31315639516335231 0 0.28884331716543121 0.32432796479040632 0 0.29436859405188742 0.31561290386725788 0 0.28884331716543121 0.32432796479040632 0 0.29436859405188742 0.31561290386725788 0 0.30372390616191358 0.32889084998335888 0 0.29106955940472562 0.3530243656434488 0 0.28036396902745148 0.33491142517978989 0 0.29374099595638509 0.3392252011883215 0 0.28036396902745148 0.33491142517978989 0 0.28884331716543121 0.32432796479040632 0 0.29374099595638509 0.3392252011883215 0 0.28884331716543121 0.32432796479040632 0 0.29374099595638509 0.3392252011883215 0 0.30372390616191358 0.32889084998335888 0 0.30274952797195698 0.35001407804523332 0 0.29374099595638509 0.3392252011883215 0 0.30372390616191358 0.32889084998335888 0 0.31445651652981632 0.33878768779705848 0 0.30274952797195698 0.35001407804523332 0 0.30372390616191358 0.32889084998335888 0 0.30274952797195698 0.35001407804523332 0 0.30372390616191358 0.32889084998335888 0 0.29436859405188742 0.31561290386725788 0 0.30372390616191358 0.32889084998335888 0 0.30469828435187041 0.30776762192148471 0 0.32122702449841589 0.32177081607522939 0 0.30372390616191358 0.32889084998335888 0 0.30469828435187041 0.30776762192148471 0 0.30372390616191358 0.32889084998335888 0 0.30469828435187041 0.30776762192148471 0 0.30469828435187041 0.30776762192148471 0 0.29887142377560671 0.29447355700322281 0 0.31975384086217118 0.29390073052843008 0 0.30469828435187041 0.30776762192148471 0 0.29887142377560671 0.29447355700322281 0 0.29061870484628499 0.30392168747768772 0 0.29887142377560671 0.29447355700322281 0 0.29803417524575498 0.27809430922643119 0 0.31975384086217118 0.29390073052843008 0 0.29887142377560671 0.29447355700322281 0 0.28125211357195179 0.28868343586208051 0 0.29803417524575498 0.27809430922643119 0 0.29887142377560671 0.29447355700322281 0 0.28125211357195179 0.28868343586208051 0 0.29061870484628499 0.30392168747768772 0 0.29436859405188742 0.31561290386725788 0 0.30469828435187041 0.30776762192148471 0 0.29061870484628499 0.30392168747768772 0 0.2839587577339367 0.31315639516335231 0 0.29436859405188742 0.31561290386725788 0 0.29061870484628499 0.30392168747768772 0 0.28125211357195179 0.28868343586208051 0 0.29061870484628499 0.30392168747768772 0 0.27979091010679558 0.3031930520058399 0 0.2839587577339367 0.31315639516335231 0 0.29061870484628499 0.30392168747768772 0 0.27979091010679558 0.3031930520058399 0 0.27584787744150779 0.31533663815394608 0 0.2839587577339367 0.31315639516335231 0 0.27979091010679558 0.3031930520058399 0 0.27584787744150779 0.31533663815394608 0 0.27979091010679558 0.3031930520058399 0 0.26696287399916629 0.2923816923273807 0 0.27508551640937329 0.31815972099090539 0 0.26696287399916629 0.2923816923273807 0 0.27508551640937329 0.31815972099090539 0 0.26696287399916629 0.2923816923273807 0 0.26342424027676908 0.31148804944983333 0 0.27584787744150779 0.31533663815394608 0 0.27508551640937329 0.31815972099090539 0 0.26696287399916629 0.2923816923273807 0 0.28125211357195179 0.28868343586208051 0 0.26696287399916629 0.2923816923273807 0 0.26185531842249993 0.2787869231154117 0 0.28125211357195179 0.28868343586208051 0 0.27979091010679558 0.3031930520058399 0 0.26696287399916629 0.2923816923273807 0 0.2454028482605469 0.29267792886045368 0 0.26696287399916629 0.2923816923273807 0 0.26185531842249993 0.2787869231154117 0 0.24818821145747599 0.27522177653690871 0 0.2454028482605469 0.29267792886045368 0 0.26185531842249993 0.2787869231154117 0 0.26696287399916629 0.2923816923273807 0 0.25114017462525878 0.31153615041935723 0 0.26342424027676908 0.31148804944983333 0 0.2454028482605469 0.29267792886045368 0 0.26696287399916629 0.2923816923273807 0 0.25114017462525878 0.31153615041935723 0 0.25404003316197471 0.25208422786308371 0 0.25530776412370298 0.26639583896058622 0 0.27103688063193948 0.26427270241964718 0 0.24090080429007341 0.26281353644332878 0 0.25404003316197471 0.25208422786308371 0 0.25530776412370298 0.26639583896058622 0 0.25530776412370298 0.26639583896058622 0 0.26185531842249993 0.2787869231154117 0 0.27103688063193948 0.26427270241964718 0 0.24818821145747599 0.27522177653690871 0 0.25530776412370298 0.26639583896058622 0 0.26185531842249993 0.2787869231154117 0 0.28125211357195179 0.28868343586208051 0 0.26185531842249993 0.2787869231154117 0 0.27103688063193948 0.26427270241964718 0 0.25404003316197471 0.25208422786308371 0 0.27103688063193948 0.26427270241964718 0 0.27355486584907379 0.24364475180805101 0 0.27103688063193948 0.26427270241964718 0 0.29692855903906679 0.25537037528416417 0 0.27355486584907379 0.24364475180805101 0 0.27103688063193948 0.26427270241964718 0 0.29803417524575498 0.27809430922643119 0 0.29692855903906679 0.25537037528416417 0 0.28125211357195179 0.28868343586208051 0 0.27103688063193948 0.26427270241964718 0 0.29803417524575498 0.27809430922643119 0 0.29803417524575498 0.27809430922643119 0 0.29692855903906679 0.25537037528416417 0 0.32239972953691409 0.26902358330948362 0 0.29692855903906679 0.25537037528416417 0 0.32239972953691409 0.26902358330948362 0 0.32448256229391081 0.244023600812113 0 0.34859232732963041 0.2656914204712259 0 0.32448256229391081 0.244023600812113 0 0.35052125483258301 0.2434514759103418 0 0.32239972953691409 0.26902358330948362 0 0.34859232732963041 0.2656914204712259 0 0.32448256229391081 0.244023600812113 0 0.32239972953691409 0.26902358330948362 0 0.34580587121379802 0.29027056413174801 0 0.34859232732963041 0.2656914204712259 0 0.32239972953691409 0.26902358330948362 0 0.34859232732963041 0.2656914204712259 0 0.29803417524575498 0.27809430922643119 0 0.32239972953691409 0.26902358330948362 0 0.31975384086217118 0.29390073052843008 0 0.32122702449841589 0.32177081607522939 0 0.30469828435187041 0.30776762192148471 0 0.31975384086217118 0.29390073052843008 0 0.32122702449841589 0.32177081607522939 0 0.31975384086217118 0.29390073052843008 0 0.33644502425256478 0.30910566618648461 0 0.31975384086217118 0.29390073052843008 0 0.33644502425256478 0.30910566618648461 0 0.34580587121379802 0.29027056413174801 0 0.32239972953691409 0.26902358330948362 0 0.31975384086217118 0.29390073052843008 0 0.34580587121379802 0.29027056413174801 0 0.34580587121379802 0.29027056413174801 0 0.35183379698966949 0.31056891257481539 0 0.36606901625265492 0.30223218437601618 0 0.33644502425256478 0.30910566618648461 0 0.34580587121379802 0.29027056413174801 0 0.35183379698966949 0.31056891257481539 0 0.36562923609293069 0.32366592916769399 0 0.35183379698966949 0.31056891257481539 0 0.36606901625265492 0.30223218437601618 0 0.36606901625265492 0.30223218437601618 0 0.37288852905391068 0.28307277276217568 0 0.38313639778678782 0.29894980138166888 0 0.34580587121379802 0.29027056413174801 0 0.36606901625265492 0.30223218437601618 0 0.37288852905391068 0.28307277276217568 0 0.37288852905391068 0.28307277276217568 0 0.37478492512234668 0.26235925763296819 0 0.34859232732963041 0.2656914204712259 0 0.37478492512234668 0.26235925763296819 0 0.34859232732963041 0.2656914204712259 0 0.37478492512234668 0.26235925763296819 0 0.34859232732963041 0.2656914204712259 0 0.35052125483258301 0.2434514759103418 0 0.34580587121379802 0.29027056413174801 0 0.37288852905391068 0.28307277276217568 0 0.34859232732963041 0.2656914204712259 0 0.40237095019481112 0.27711100542787093 0 0.40097752291506289 0.25902709479471048 0 0.38795285511664351 0.27501277358291848 0 0.40237095019481112 0.27711100542787093 0 0.38795285511664351 0.27501277358291848 0 0.39245341439736259 0.28869000139839213 0 0.37478492512234668 0.26235925763296819 0 0.40097752291506289 0.25902709479471048 0 0.37478492512234668 0.26235925763296819 0 0.40097752291506289 0.25902709479471048 0 0.38795285511664351 0.27501277358291848 0 0.37478492512234668 0.26235925763296819 0 0.40097752291506289 0.25902709479471048 0 0.39333580902427501 0.24081282939082621 0 0.37288852905391068 0.28307277276217568 0 0.37478492512234668 0.26235925763296819 0 0.38795285511664351 0.27501277358291848 0 0.37288852905391068 0.28307277276217568 0 0.38795285511664351 0.27501277358291848 0 0.39245341439736259 0.28869000139839213 0 0.37288852905391068 0.28307277276217568 0 0.38313639778678782 0.29894980138166888 0 0.39245341439736259 0.28869000139839213 0 0.38313639778678782 0.29894980138166888 0 0.40184121301557668 0.30678024061641418 0 0.38242981621443428 0.31397380775534678 0 0.36606901625265492 0.30223218437601618 0 0.38313639778678782 0.29894980138166888 0 0.38242981621443428 0.31397380775534678 0 0.38313639778678782 0.29894980138166888 0 0.40184121301557668 0.30678024061641418 0 0.39245341439736259 0.28869000139839213 0 0.40184121301557668 0.30678024061641418 0 0.39245341439736259 0.28869000139839213 0 0.4080647950624654 0.29173952990842672 0 0.40237095019481112 0.27711100542787093 0 0.39245341439736259 0.28869000139839213 0 0.4080647950624654 0.29173952990842672 0 0.4080647950624654 0.29173952990842672 0 0.42111158276914429 0.29961990628964941 0 0.41801819212357011 0.2740782959756311 0 0.42111158276914429 0.29961990628964941 0 0.41801819212357011 0.2740782959756311 0 0.42111158276914429 0.29961990628964941 0 0.41431845905081632 0.31211616404088999 0 0.42420497341471841 0.32516151660366771 0 0.40184121301557668 0.30678024061641418 0 0.41169384258873692 0.3030193229363472 0 0.41431845905081632 0.31211616404088999 0 0.4080647950624654 0.29173952990842672 0 0.41169384258873692 0.3030193229363472 0 0.42111158276914429 0.29961990628964941 0 0.40184121301557668 0.30678024061641418 0 0.4080647950624654 0.29173952990842672 0 0.41169384258873692 0.3030193229363472 0 0.41169384258873692 0.3030193229363472 0 0.42111158276914429 0.29961990628964941 0 0.41431845905081632 0.31211616404088999 0 0.42111158276914429 0.29961990628964941 0 0.42420497341471841 0.32516151660366771 0 0.42111158276914429 0.29961990628964941 0 0.42968026012840121 0.30115694743242971 0 0.43130474666914309 0.31304161877190062 0 0.42968026012840121 0.30115694743242971 0 0.44258646999382029 0.30990113159980692 0 0.42968026012840121 0.30115694743242971 0 0.44258646999382029 0.30990113159980692 0 0.43130474666914309 0.31304161877190062 0 0.42111158276914429 0.29961990628964941 0 0.42800801910193731 0.28582653817902792 0 0.41801819212357011 0.2740782959756311 0 0.42968026012840121 0.30115694743242971 0 0.42800801910193731 0.28582653817902792 0 0.44797459424715858 0.28113195035900113 0 0.42111158276914429 0.29961990628964941 0 0.42968026012840121 0.30115694743242971 0 0.42800801910193731 0.28582653817902792 0 0.4349067289361882 0.26981889711766149 0 0.41801819212357011 0.2740782959756311 0 0.42717012070777932 0.25569493195645271 0 0.42800801910193731 0.28582653817902792 0 0.4349067289361882 0.26981889711766149 0 0.44797459424715858 0.28113195035900113 0 0.42800801910193731 0.28582653817902792 0 0.4349067289361882 0.26981889711766149 0 0.41801819212357011 0.2740782959756311 0 0.40237095019481112 0.27711100542787093 0 0.4080647950624654 0.29173952990842672 0 0.41801819212357011 0.2740782959756311 0 0.40237095019481112 0.27711100542787093 0 0.40097752291506289 0.25902709479471048 0 0.41801819212357011 0.2740782959756311 0 0.40097752291506289 0.25902709479471048 0 0.42717012070777932 0.25569493195645271 0 0.40097752291506289 0.25902709479471048 0 0.41801819212357011 0.2740782959756311 0 0.42717012070777932 0.25569493195645271 0 0.40097752291506289 0.25902709479471048 0 0.42717012070777932 0.25569493195645271 0 0.41286841049430861 0.24788583003777651 0 0.42717012070777932 0.25569493195645271 0 0.45336271850049548 0.25236276911819511 0 0.42717012070777932 0.25569493195645271 0 0.45336271850049548 0.25236276911819511 0 0.44134696414428898 0.24814556957704689 0 0.4349067289361882 0.26981889711766149 0 0.42717012070777932 0.25569493195645271 0 0.45336271850049548 0.25236276911819511 0 0.44797459424715858 0.28113195035900113 0 0.45336271850049548 0.25236276911819511 0 0.4349067289361882 0.26981889711766149 0 0.44797459424715858 0.28113195035900113 0 0.45336271850049548 0.25236276911819511 0 0.44797459424715858 0.28113195035900113 0 0.46860043072286323 0.26090172283992602 0 0.47518926652314969 0.27560515809727743 0 0.44797459424715858 0.28113195035900113 0 0.45336271850049548 0.25236276911819511 0 0.46860043072286323 0.26090172283992602 0 0.45336271850049548 0.25236276911819511 0 0.46860043072286323 0.26090172283992602 0 0.48180965237011408 0.2487438147612096 0 0.45336271850049548 0.25236276911819511 0 0.48180965237011408 0.2487438147612096 0 0.46860043072286323 0.26090172283992602 0 0.48241006781490819 0.26268970127635521 0 0.48180965237011408 0.2487438147612096 0 0.46860043072286323 0.26090172283992602 0 0.48241006781490819 0.26268970127635521 0 0.47518926652314969 0.27560515809727743 0 0.48241006781490819 0.26268970127635521 0 0.47518926652314969 0.27560515809727743 0 0.48864569132575902 0.27555399191102209 0 0.48864569132575902 0.27555399191102209 0 0.5 0.25788891558126559 0 0.5 0.28784398070901179 0 0.48241006781490819 0.26268970127635521 0 0.5 0.25788891558126559 0 0.48180965237011408 0.2487438147612096 0 0.48241006781490819 0.26268970127635521 0 0.48864569132575902 0.27555399191102209 0 0.5 0.25788891558126559 0 0.49687855588093471 0.30562269631142192 0 0.5 0.28784398070901179 0 0.5 0.31779904583675789 0 0.48491490847636098 0.30901068293115042 0 0.49687855588093471 0.30562269631142192 0 0.48562912229073679 0.29374220389120048 0 0.48491490847636098 0.30901068293115042 0 0.49687855588093471 0.30562269631142192 0 0.48893996521802741 0.32077530068026477 0 0.48864569132575902 0.27555399191102209 0 0.5 0.28784398070901179 0 0.48562912229073679 0.29374220389120048 0 0.49687855588093471 0.30562269631142192 0 0.5 0.28784398070901179 0 0.48562912229073679 0.29374220389120048 0 0.47518926652314969 0.27560515809727743 0 0.48864569132575902 0.27555399191102209 0 0.48562912229073679 0.29374220389120048 0 0.47518926652314969 0.27560515809727743 0 0.48562912229073679 0.29374220389120048 0 0.46816558308298489 0.29083511245767268 0 0.48562912229073679 0.29374220389120048 0 0.47222103054853309 0.30536857664361422 0 0.46816558308298489 0.29083511245767268 0 0.48491490847636098 0.30901068293115042 0 0.48562912229073679 0.29374220389120048 0 0.47222103054853309 0.30536857664361422 0 0.48491490847636098 0.30901068293115042 0 0.47222103054853309 0.30536857664361422 0 0.47648252662976798 0.31886183994020412 0 0.47222103054853309 0.30536857664361422 0 0.45866337291811637 0.30169365927876157 0 0.46179392227446953 0.32291451832445861 0 0.45866337291811637 0.30169365927876157 0 0.44258646999382029 0.30990113159980692 0 0.46179392227446953 0.32291451832445861 0 0.47222103054853309 0.30536857664361422 0 0.45866337291811637 0.30169365927876157 0 0.46816558308298489 0.29083511245767268 0 0.44797459424715858 0.28113195035900113 0 0.45866337291811637 0.30169365927876157 0 0.46816558308298489 0.29083511245767268 0 0.44797459424715858 0.28113195035900113 0 0.47518926652314969 0.27560515809727743 0 0.46816558308298489 0.29083511245767268 0 0.44797459424715858 0.28113195035900113 0 0.44258646999382029 0.30990113159980692 0 0.42968026012840121 0.30115694743242971 0 0.44797459424715858 0.28113195035900113 0 0.44258646999382029 0.30990113159980692 0 0.44797459424715858 0.28113195035900113 0 0.45866337291811637 0.30169365927876157 0 0.44258646999382029 0.30990113159980692 0 0.44258646999382029 0.30990113159980692 0 0.46179392227446953 0.32291451832445861 0 0.44258646999382029 0.30990113159980692 0 0.43894044703962998 0.32936859193394902 0 0.46179392227446953 0.32291451832445861 0 0.44258646999382029 0.30990113159980692 0 0.43894044703962998 0.32936859193394902 0 0.44258646999382029 0.30990113159980692 0 0.43894044703962998 0.32936859193394902 0 0.43130474666914309 0.31304161877190062 0 0.43894044703962998 0.32936859193394902 0 0.45181909328986353 0.33594590439129729 0 0.43529442408543872 0.34883605226809089 0 0.43894044703962998 0.32936859193394902 0 0.45181909328986353 0.33594590439129729 0 0.46179392227446953 0.32291451832445861 0 0.45181909328986353 0.33594590439129729 0 0.46495921083649527 0.33796731498031379 0 0.45493863887308472 0.34850758154427958 0 0.45181909328986353 0.33594590439129729 0 0.46495921083649527 0.33796731498031379 0 0.46179392227446953 0.32291451832445861 0 0.47648252662976798 0.31886183994020412 0 0.48100137455512032 0.33592790504910791 0 0.48893996521802741 0.32077530068026477 0 0.46179392227446953 0.32291451832445861 0 0.47648252662976798 0.31886183994020412 0 0.48100137455512032 0.33592790504910791 0 0.47222103054853309 0.30536857664361422 0 0.46179392227446953 0.32291451832445861 0 0.47648252662976798 0.31886183994020412 0 0.48491490847636098 0.30901068293115042 0 0.47648252662976798 0.31886183994020412 0 0.48893996521802741 0.32077530068026477 0 0.46179392227446953 0.32291451832445861 0 0.48100137455512032 0.33592790504910791 0 0.46495921083649527 0.33796731498031379 0 0.48100137455512032 0.33592790504910791 0 0.47458285366073072 0.34817911082046721 0 0.46495921083649527 0.33796731498031379 0 0.46179392227446953 0.32291451832445861 0 0.48100137455512032 0.33592790504910791 0 0.48100137455512032 0.33592790504910791 0 0.47458285366073072 0.34817911082046721 0 0.48100137455512032 0.33592790504910791 0 0.48893996521802741 0.32077530068026477 0 0.48100137455512032 0.33592790504910791 0 0.4984937498586452 0.34777929695842291 0 0.5 0.31779904583675789 0 0.48893996521802741 0.32077530068026477 0 0.4984937498586452 0.34777929695842291 0 0.5 0.31779904583675789 0 0.4984937498586452 0.34777929695842291 0 0.50000000000000433 0.34775411096450393 0 0.48100137455512032 0.33592790504910791 0 0.48893996521802741 0.32077530068026477 0 0.4984937498586452 0.34777929695842291 0 0.49687855588093471 0.30562269631142192 0 0.48893996521802741 0.32077530068026477 0 0.49687855588093471 0.30562269631142192 0 0.5 0.31779904583675789 0 0.48893996521802741 0.32077530068026477 0 0.5 0.37175840028027313 0 0.48688174284785979 0.35971936811564431 0 0.50000000000000433 0.34775411096450393 0 0.5 0.37175840028027313 0 0.48688174284785979 0.35971936811564431 0 0.48177296974371542 0.3780796821533936 0 0.48100137455512032 0.33592790504910791 0 0.4984937498586452 0.34777929695842291 0 0.47458285366073072 0.34817911082046721 0 0.48688174284785979 0.35971936811564431 0 0.4984937498586452 0.34777929695842291 0 0.47458285366073072 0.34817911082046721 0 0.48688174284785979 0.35971936811564431 0 0.4984937498586452 0.34777929695842291 0 0.50000000000000433 0.34775411096450393 0 0.4984937498586452 0.34777929695842291 0 0.47458285366073072 0.34817911082046721 0 0.4984937498586452 0.34777929695842291 0 0.50000000000000433 0.34775411096450393 0 0.48688174284785979 0.35971936811564431 0 0.47458285366073072 0.34817911082046721 0 0.46644088382406917 0.36371991056145853 0 0.47458285366073072 0.34817911082046721 0 0.46644088382406917 0.36371991056145853 0 0.46644088382406917 0.36371991056145853 0 0.45829891398740957 0.37926071030245079 0 0.48177296974371542 0.3780796821533936 0 0.48688174284785979 0.35971936811564431 0 0.46644088382406917 0.36371991056145853 0 0.48177296974371542 0.3780796821533936 0 0.46644088382406917 0.36371991056145853 0 0.45829891398740957 0.37926071030245079 0 0.46644088382406917 0.36371991056145853 0 0.45450488254489102 0.36219879314378839 0 0.45829891398740957 0.37926071030245079 0 0.46495921083649527 0.33796731498031379 0 0.47458285366073072 0.34817911082046721 0 0.45493863887308472 0.34850758154427958 0 0.47458285366073072 0.34817911082046721 0 0.45493863887308472 0.34850758154427958 0 0.47458285366073072 0.34817911082046721 0 0.46644088382406917 0.36371991056145853 0 0.45493863887308472 0.34850758154427958 0 0.46644088382406917 0.36371991056145853 0 0.45450488254489102 0.36219879314378839 0 0.45493863887308472 0.34850758154427958 0 0.45181909328986353 0.33594590439129729 0 0.45493863887308472 0.34850758154427958 0 0.43529442408543872 0.34883605226809089 0 0.45493863887308472 0.34850758154427958 0 0.44448268479035308 0.35511800724889642 0 0.43529442408543872 0.34883605226809089 0 0.45493863887308472 0.34850758154427958 0 0.43529442408543872 0.34883605226809089 0 0.45450488254489102 0.36219879314378839 0 0.45493863887308472 0.34850758154427958 0 0.44448268479035308 0.35511800724889642 0 0.44448268479035308 0.35511800724889642 0 0.44279863902385319 0.36498191861006751 0 0.43487683942449812 0.35106569067825599 0 0.44448268479035308 0.35511800724889642 0 0.43529442408543872 0.34883605226809089 0 0.43487683942449812 0.35106569067825599 0 0.45450488254489102 0.36219879314378839 0 0.44279863902385319 0.36498191861006751 0 0.45829891398740957 0.37926071030245079 0 0.44279863902385319 0.36498191861006751 0 0.45829891398740957 0.37926071030245079 0 0.45450488254489102 0.36219879314378839 0 0.44448268479035308 0.35511800724889642 0 0.44279863902385319 0.36498191861006751 0 0.42892444364691579 0.3641293946929936 0 0.42225433889660879 0.37545697575276449 0 0.43605286711449009 0.38080977408974359 0 0.44279863902385319 0.36498191861006751 0 0.42892444364691579 0.3641293946929936 0 0.43605286711449009 0.38080977408974359 0 0.44279863902385319 0.36498191861006751 0 0.42892444364691579 0.3641293946929936 0 0.42729836406029548 0.35070312691768563 0 0.42892444364691579 0.3641293946929936 0 0.41660844069210962 0.35988002802349189 0 0.42225433889660879 0.37545697575276449 0 0.41660844069210962 0.35988002802349189 0 0.40918213701441342 0.3736144609854074 0 0.42225433889660879 0.37545697575276449 0 0.41660844069210962 0.35988002802349189 0 0.40918213701441342 0.3736144609854074 0 0.40205795884979889 0.36380219258680641 0 0.40642652845595439 0.35168475710611302 0 0.41593005466970517 0.35003896004439389 0 0.41338688547046137 0.33788792813028518 0 0.41660844069210962 0.35988002802349189 0 0.40642652845595439 0.35168475710611302 0 0.40205795884979889 0.36380219258680641 0 0.41660844069210962 0.35988002802349189 0 0.40642652845595439 0.35168475710611302 0 0.41593005466970517 0.35003896004439389 0 0.41660844069210962 0.35988002802349189 0 0.41593005466970517 0.35003896004439389 0 0.42729836406029548 0.35070312691768563 0 0.42729836406029548 0.35070312691768563 0 0.41338688547046137 0.33788792813028518 0 0.41593005466970517 0.35003896004439389 0 0.42729836406029548 0.35070312691768563 0 0.41338688547046137 0.33788792813028518 0 0.42892444364691579 0.3641293946929936 0 0.41660844069210962 0.35988002802349189 0 0.42729836406029548 0.35070312691768563 0 0.42892444364691579 0.3641293946929936 0 0.42729836406029548 0.35070312691768563 0 0.44279863902385319 0.36498191861006751 0 0.42729836406029548 0.35070312691768563 0 0.43487683942449812 0.35106569067825599 0 0.44279863902385319 0.36498191861006751 0 0.42729836406029548 0.35070312691768563 0 0.43109136567724748 0.3489063315667284 0 0.43529442408543872 0.34883605226809089 0 0.42729836406029548 0.35070312691768563 0 0.43109136567724748 0.3489063315667284 0 0.43487683942449812 0.35106569067825599 0 0.43109136567724748 0.3489063315667284 0 0.43529442408543872 0.34883605226809089 0 0.43487683942449812 0.35106569067825599 0 0.43529442408543872 0.34883605226809089 0 0.43487683942449812 0.35106569067825599 0 0.42729836406029548 0.35070312691768563 0 0.42420497341471841 0.32516151660366771 0 0.43894044703962998 0.32936859193394902 0 0.43529442408543872 0.34883605226809089 0 0.43894044703962998 0.32936859193394902 0 0.43109136567724748 0.3489063315667284 0 0.43529442408543872 0.34883605226809089 0 0.42729836406029548 0.35070312691768563 0 0.43109136567724748 0.3489063315667284 0 0.42420497341471841 0.32516151660366771 0 0.43894044703962998 0.32936859193394902 0 0.43109136567724748 0.3489063315667284 0 0.42420497341471841 0.32516151660366771 0 0.43894044703962998 0.32936859193394902 0 0.43130474666914309 0.31304161877190062 0 0.42420497341471841 0.32516151660366771 0 0.42111158276914429 0.29961990628964941 0 0.43130474666914309 0.31304161877190062 0 0.42420497341471841 0.32516151660366771 0 0.40184121301557668 0.30678024061641418 0 0.41431845905081632 0.31211616404088999 0 0.41140534993910638 0.32360132811636988 0 0.41431845905081632 0.31211616404088999 0 0.42420497341471841 0.32516151660366771 0 0.41140534993910638 0.32360132811636988 0 0.42729836406029548 0.35070312691768563 0 0.42420497341471841 0.32516151660366771 0 0.41338688547046137 0.33788792813028518 0 0.42420497341471841 0.32516151660366771 0 0.41140534993910638 0.32360132811636988 0 0.41338688547046137 0.33788792813028518 0 0.41140534993910638 0.32360132811636988 0 0.41338688547046137 0.33788792813028518 0 0.39947540688062583 0.32507272934288628 0 0.41338688547046137 0.33788792813028518 0 0.39947540688062583 0.32507272934288628 0 0.40642652845595439 0.35168475710611302 0 0.41338688547046137 0.33788792813028518 0 0.39105145014164849 0.3414869239971704 0 0.41338688547046137 0.33788792813028518 0 0.39105145014164849 0.3414869239971704 0 0.39947540688062583 0.32507272934288628 0 0.40184121301557668 0.30678024061641418 0 0.41140534993910638 0.32360132811636988 0 0.39947540688062583 0.32507272934288628 0 0.40184121301557668 0.30678024061641418 0 0.39947540688062583 0.32507272934288628 0 0.38242981621443428 0.31397380775534678 0 0.36562923609293069 0.32366592916769399 0 0.38242981621443428 0.31397380775534678 0 0.38128435600444488 0.32837669887387311 0 0.39947540688062583 0.32507272934288628 0 0.38242981621443428 0.31397380775534678 0 0.38128435600444488 0.32837669887387311 0 0.39105145014164849 0.3414869239971704 0 0.39947540688062583 0.32507272934288628 0 0.38128435600444488 0.32837669887387311 0 0.36518945593320651 0.34509967395937191 0 0.39105145014164849 0.3414869239971704 0 0.38128435600444488 0.32837669887387311 0 0.36518945593320651 0.34509967395937191 0 0.39105145014164849 0.3414869239971704 0 0.3855881021147175 0.35910908792858098 0 0.36474967577348072 0.36653341875104961 0 0.3855881021147175 0.35910908792858098 0 0.3855881021147175 0.35910908792858098 0 0.39248458597179969 0.37472262889043839 0 0.3773824667175657 0.37546563606013739 0 0.36474967577348072 0.36653341875104961 0 0.3855881021147175 0.35910908792858098 0 0.3773824667175657 0.37546563606013739 0 0.40918213701441342 0.3736144609854074 0 0.39248458597179969 0.37472262889043839 0 0.40205795884979889 0.36380219258680641 0 0.3855881021147175 0.35910908792858098 0 0.39248458597179969 0.37472262889043839 0 0.40205795884979889 0.36380219258680641 0 0.40642652845595439 0.35168475710611302 0 0.39105145014164849 0.3414869239971704 0 0.3855881021147175 0.35910908792858098 0 0.40642652845595439 0.35168475710611302 0 0.3855881021147175 0.35910908792858098 0 0.40642652845595439 0.35168475710611302 0 0.3855881021147175 0.35910908792858098 0 0.40205795884979889 0.36380219258680641 0 0.39221066862400811 0.40518894945558848 0 0.39940032860097008 0.38986983405391068 0 0.41033309730305728 0.40785957742124029 0 0.40918213701441342 0.3736144609854074 0 0.39248458597179969 0.37472262889043839 0 0.39940032860097008 0.38986983405391068 0 0.39248458597179969 0.37472262889043839 0 0.39940032860097008 0.38986983405391068 0 0.38026367080056678 0.39066664182047522 0 0.39248458597179969 0.37472262889043839 0 0.3773824667175657 0.37546563606013739 0 0.38026367080056678 0.39066664182047522 0 0.39221066862400811 0.40518894945558848 0 0.39940032860097008 0.38986983405391068 0 0.38026367080056678 0.39066664182047522 0 0.39221066862400811 0.40518894945558848 0 0.38026367080056678 0.39066664182047522 0 0.37744029411777058 0.41252948965876268 0 0.39221066862400811 0.40518894945558848 0 0.37744029411777058 0.41252948965876268 0 0.39361595229767549 0.42501920432355378 0 0.365542703577178 0.42914551292816783 0 0.39361595229767549 0.42501920432355378 0 0.37809165231809289 0.44568724501072521 0 0.365542703577178 0.42914551292816783 0 0.37744029411777058 0.41252948965876268 0 0.39361595229767549 0.42501920432355378 0 0.365542703577178 0.42914551292816783 0 0.39361595229767549 0.42501920432355378 0 0.39361595229767549 0.42501920432355378 0 0.41035062152962531 0.4256058815429955 0 0.40092741287151468 0.44093224530230651 0 0.39361595229767549 0.42501920432355378 0 0.40092741287151468 0.44093224530230651 0 0.37809165231809289 0.44568724501072521 0 0.39361595229767549 0.42501920432355378 0 0.41033309730305728 0.40785957742124029 0 0.41035062152962531 0.4256058815429955 0 0.39221066862400811 0.40518894945558848 0 0.39361595229767549 0.42501920432355378 0 0.41033309730305728 0.40785957742124029 0 0.41033309730305728 0.40785957742124029 0 0.41035062152962531 0.4256058815429955 0 0.42646345733135449 0.42088686527347441 0 0.41035062152962531 0.4256058815429955 0 0.4216403136361262 0.43569606407888728 0 0.42646345733135449 0.42088686527347441 0 0.41035062152962531 0.4256058815429955 0 0.4216403136361262 0.43569606407888728 0 0.40092741287151468 0.44093224530230651 0 0.43504649219903713 0.43385430946487219 0 0.42646345733135449 0.42088686527347441 0 0.44292677264660579 0.42392515796168401 0 0.4216403136361262 0.43569606407888728 0 0.43504649219903713 0.43385430946487219 0 0.42646345733135449 0.42088686527347441 0 0.4216403136361262 0.43569606407888728 0 0.43504649219903713 0.43385430946487219 0 0.4309855774719657 0.44262377444488737 0 0.41033309730305728 0.40785957742124029 0 0.42646345733135449 0.42088686527347441 0 0.43473852811684172 0.40482082561786309 0 0.42646345733135449 0.42088686527347441 0 0.43473852811684172 0.40482082561786309 0 0.44292677264660579 0.42392515796168401 0 0.43473852811684172 0.40482082561786309 0 0.42003555557297712 0.38799376876492359 0 0.43605286711449009 0.38080977408974359 0 0.41033309730305728 0.40785957742124029 0 0.43473852811684172 0.40482082561786309 0 0.42003555557297712 0.38799376876492359 0 0.39940032860097008 0.38986983405391068 0 0.41033309730305728 0.40785957742124029 0 0.42003555557297712 0.38799376876492359 0 0.40918213701441342 0.3736144609854074 0 0.39940032860097008 0.38986983405391068 0 0.42003555557297712 0.38799376876492359 0 0.40918213701441342 0.3736144609854074 0 0.42003555557297712 0.38799376876492359 0 0.42225433889660879 0.37545697575276449 0 0.42003555557297712 0.38799376876492359 0 0.42225433889660879 0.37545697575276449 0 0.43605286711449009 0.38080977408974359 0 0.44279863902385319 0.36498191861006751 0 0.43605286711449009 0.38080977408974359 0 0.45829891398740957 0.37926071030245079 0 0.43605286711449009 0.38080977408974359 0 0.44916269767969552 0.39669925538146661 0 0.45829891398740957 0.37926071030245079 0 0.43473852811684172 0.40482082561786309 0 0.43605286711449009 0.38080977408974359 0 0.44916269767969552 0.39669925538146661 0 0.43473852811684172 0.40482082561786309 0 0.44916269767969552 0.39669925538146661 0 0.45819524916971172 0.41557138043250991 0 0.44916269767969552 0.39669925538146661 0 0.47914945699370431 0.3984681476517854 0 0.45819524916971172 0.41557138043250991 0 0.44916269767969552 0.39669925538146661 0 0.45829891398740957 0.37926071030245079 0 0.47914945699370431 0.3984681476517854 0 0.45829891398740957 0.37926071030245079 0 0.47914945699370431 0.3984681476517854 0 0.44916269767969552 0.39669925538146661 0 0.45829891398740957 0.37926071030245079 0 0.45829891398740957 0.37926071030245079 0 0.48177296974371542 0.3780796821533936 0 0.47914945699370431 0.3984681476517854 0 0.47914945699370431 0.3984681476517854 0 0.5 0.39471699264069632 0 0.49999999999999928 0.41767558500111929 0 0.48177296974371542 0.3780796821533936 0 0.47914945699370431 0.3984681476517854 0 0.5 0.39471699264069632 0 0.5 0.37175840028027313 0 0.48177296974371542 0.3780796821533936 0 0.5 0.39471699264069632 0 0.48950419912568011 0.43203648207583117 0 0.49999999999999928 0.41767558500111929 0 0.47941257652712138 0.42859526255965119 0 0.48950419912568011 0.43203648207583117 0 0.49999999999999928 0.41767558500111929 0 0.50000000000000022 0.44212157098762489 0 0.49999999999999928 0.41767558500111929 0 0.47638758820359789 0.4177788365799131 0 0.47941257652712138 0.42859526255965119 0 0.47914945699370431 0.3984681476517854 0 0.49999999999999928 0.41767558500111929 0 0.47638758820359789 0.4177788365799131 0 0.47914945699370431 0.3984681476517854 0 0.49999999999999928 0.41767558500111929 0 0.47914945699370431 0.3984681476517854 0 0.47638758820359789 0.4177788365799131 0 0.45819524916971172 0.41557138043250991 0 0.47638758820359789 0.4177788365799131 0 0.46959145424244531 0.42892785421681912 0 0.47941257652712138 0.42859526255965119 0 0.48950419912568011 0.43203648207583117 0 0.47941257652712138 0.42859526255965119 0 0.47860421997559988 0.43975350975492877 0 0.46959145424244531 0.42892785421681912 0 0.47941257652712138 0.42859526255965119 0 0.47860421997559988 0.43975350975492877 0 0.46959145424244531 0.42892785421681912 0 0.45720843995119947 0.43738544852223271 0 0.45819524916971172 0.41557138043250991 0 0.46959145424244531 0.42892785421681912 0 0.45720843995119947 0.43738544852223271 0 0.47860421997559988 0.43975350975492877 0 0.47638758820359789 0.4177788365799131 0 0.46959145424244531 0.42892785421681912 0 0.45819524916971172 0.41557138043250991 0 0.43473852811684172 0.40482082561786309 0 0.45819524916971172 0.41557138043250991 0 0.44292677264660579 0.42392515796168401 0 0.45720843995119947 0.43738544852223271 0 0.45819524916971172 0.41557138043250991 0 0.44292677264660579 0.42392515796168401 0 0.45720843995119947 0.43738544852223271 0 0.44292677264660579 0.42392515796168401 0 0.44501475256406542 0.43710487641451851 0 0.43504649219903713 0.43385430946487219 0 0.44292677264660579 0.42392515796168401 0 0.44501475256406542 0.43710487641451851 0 0.44501475256406542 0.43710487641451851 0 0.44086930591740259 0.443703986550611 0 0.44426520485267701 0.44828521544284999 0 0.43504649219903713 0.43385430946487219 0 0.44501475256406542 0.43710487641451851 0 0.44086930591740259 0.443703986550611 0 0.44576605402647751 0.45131382091928901 0 0.43097115028835131 0.45382894378787952 0 0.4371491165808723 0.44919465112914592 0 0.44086930591740259 0.443703986550611 0 0.44106718496795649 0.44783878756079798 0 0.4371491165808723 0.44919465112914592 0 0.44106718496795649 0.44783878756079798 0 0.44576605402647751 0.45131382091928901 0 0.4371491165808723 0.44919465112914592 0 0.44086930591740259 0.443703986550611 0 0.44426520485267701 0.44828521544284999 0 0.44106718496795649 0.44783878756079798 0 0.44426520485267701 0.44828521544284999 0 0.44576605402647751 0.45131382091928901 0 0.44086930591740259 0.443703986550611 0 0.44106718496795649 0.44783878756079798 0 0.44426520485267701 0.44828521544284999 0 0.45720843995119947 0.43738544852223271 0 0.44501475256406542 0.43710487641451851 0 0.44426520485267701 0.44828521544284999 0 0.44576605402647751 0.45131382091928901 0 0.44334270512280699 0.46695283516179431 0 0.45751300038554987 0.46615712058798953 0 0.44426520485267701 0.44828521544284999 0 0.45751300038554987 0.46615712058798953 0 0.44576605402647751 0.45131382091928901 0 0.44334270512280699 0.46695283516179431 0 0.42744619309891668 0.4675425472795256 0 0.44426520485267701 0.44828521544284999 0 0.44576605402647751 0.45131382091928901 0 0.45751300038554987 0.46615712058798953 0 0.44426520485267701 0.44828521544284999 0 0.45751300038554987 0.46615712058798953 0 0.47213260242633898 0.44992772785007767 0 0.44426520485267701 0.44828521544284999 0 0.47213260242633898 0.44992772785007767 0 0.45720843995119947 0.43738544852223271 0 0.47860421997559988 0.43975350975492877 0 0.45720843995119947 0.43738544852223271 0 0.44426520485267701 0.44828521544284999 0 0.47213260242633898 0.44992772785007767 0 0.47213260242633898 0.44992772785007767 0 0.47860421997559988 0.43975350975492877 0 0.50000000000000067 0.45157024025730719 0 0.45720843995119947 0.43738544852223271 0 0.47213260242633898 0.44992772785007767 0 0.47860421997559988 0.43975350975492877 0 0.47213260242633898 0.44992772785007767 0 0.48064266697128027 0.4673483066551633 0 0.50000000000000067 0.45157024025730719 0 0.45751300038554987 0.46615712058798953 0 0.47213260242633898 0.44992772785007767 0 0.48064266697128027 0.4673483066551633 0 0.48064266697128027 0.4673483066551633 0 0.5 0.46843982966384828 0 0.50000000000000067 0.45157024025730719 0 0.47860421997559988 0.43975350975492877 0 0.50000000000000022 0.44212157098762489 0 0.47860421997559988 0.43975350975492877 0 0.50000000000000067 0.45157024025730719 0 0.50000000000000022 0.44212157098762489 0 0.47213260242633898 0.44992772785007767 0 0.50000000000000067 0.45157024025730719 0 0.48950419912568011 0.43203648207583117 0 0.47860421997559988 0.43975350975492877 0 0.50000000000000022 0.44212157098762489 0 0.48834007405180069 0.49233461120087918 0 0.50000000000000222 0.48530941907038949 0 0.47076079591842229 0.48402902573312923 0 0.48834007405180069 0.49233461120087918 0 0.5 0.5 0 0.48259950028877657 0.49999999999999922 0 0.50000000000000222 0.48530941907038949 0 0.47076079591842229 0.48402902573312923 0 0.48834007405180069 0.49233461120087918 0 0.5 0.5 0 0.50000000000000222 0.48530941907038949 0 0.50000000000000222 0.48530941907038949 0 0.48785086572242647 0.47628164528063233 0 0.47076079591842229 0.48402902573312923 0 0.48064266697128027 0.4673483066551633 0 0.5 0.46843982966384828 0 0.48785086572242647 0.47628164528063233 0 0.5 0.46843982966384828 0 0.50000000000000222 0.48530941907038949 0 0.48785086572242647 0.47628164528063233 0 0.45751300038554987 0.46615712058798953 0 0.48064266697128027 0.4673483066551633 0 0.47076079591842229 0.48402902573312923 0 0.48064266697128027 0.4673483066551633 0 0.48785086572242647 0.47628164528063233 0 0.47076079591842229 0.48402902573312923 0 0.47076079591842229 0.48402902573312923 0 0.48259950028877657 0.49999999999999922 0 0.45965124302753141 0.5 0 0.48834007405180069 0.49233461120087918 0 0.47076079591842229 0.48402902573312923 0 0.48259950028877657 0.49999999999999922 0 0.47076079591842229 0.48402902573312923 0 0.48259950028877657 0.49999999999999922 0 0.47076079591842229 0.48402902573312923 0 0.45965124302753141 0.5 0 0.44264557298028417 0.48279785186037327 0 0.45751300038554987 0.46615712058798953 0 0.47076079591842229 0.48402902573312923 0 0.47076079591842229 0.48402902573312923 0 0.44264557298028417 0.48279785186037327 0 0.45751300038554987 0.46615712058798953 0 0.47076079591842229 0.48402902573312923 0 0.44264557298028417 0.48279785186037327 0 0.44334270512280699 0.46695283516179431 0 0.44264557298028417 0.48279785186037327 0 0.42744619309891668 0.4675425472795256 0 0.44334270512280699 0.46695283516179431 0 0.45751300038554987 0.46615712058798953 0 0.44264557298028417 0.48279785186037327 0 0.45965124302753141 0.5 0 0.44264557298028417 0.48279785186037327 0 0.43670298576628619 0.5 0 0.44264557298028417 0.48279785186037327 0 0.42814010978677508 0.48883471415535268 0 0.41453035004214622 0.48156667798761449 0 0.43670298576628619 0.5 0 0.42814010978677508 0.48883471415535268 0 0.41868153035838401 0.49097432677342312 0 0.44264557298028417 0.48279785186037327 0 0.43670298576628619 0.5 0 0.42814010978677508 0.48883471415535268 0 0.43670298576628619 0.5 0 0.41375472850504103 0.5 0 0.41868153035838401 0.49097432677342312 0 0.41375472850504103 0.5 0 0.41868153035838401 0.49097432677342312 0 0.40912633217135602 0.48377127363976219 0 0.42814010978677508 0.48883471415535268 0 0.41868153035838401 0.49097432677342312 0 0.41453035004214622 0.48156667798761449 0 0.41868153035838401 0.49097432677342312 0 0.40912633217135602 0.48377127363976219 0 0.41453035004214622 0.48156667798761449 0 0.40882198151684829 0.470458307354371 0 0.40912633217135602 0.48377127363976219 0 0.42744619309891668 0.4675425472795256 0 0.40912633217135602 0.48377127363976219 0 0.42744619309891668 0.4675425472795256 0 0.40912633217135602 0.48377127363976219 0 0.41453035004214622 0.48156667798761449 0 0.42744619309891668 0.4675425472795256 0 0.40882198151684829 0.470458307354371 0 0.40912633217135602 0.48377127363976219 0 0.40257181831080802 0.47789339995616598 0 0.44264557298028417 0.48279785186037327 0 0.41453035004214622 0.48156667798761449 0 0.44264557298028417 0.48279785186037327 0 0.41453035004214622 0.48156667798761449 0 0.42744619309891668 0.4675425472795256 0 0.44576605402647751 0.45131382091928901 0 0.42744619309891668 0.4675425472795256 0 0.44576605402647751 0.45131382091928901 0 0.43097115028835131 0.45382894378787952 0 0.42744619309891668 0.4675425472795256 0 0.43097115028835131 0.45382894378787952 0 0.42744619309891668 0.4675425472795256 0 0.41709851720120961 0.46055572465752248 0 0.44086930591740259 0.443703986550611 0 0.4309855774719657 0.44262377444488737 0 0.4371491165808723 0.44919465112914592 0 0.43504649219903713 0.43385430946487219 0 0.44086930591740259 0.443703986550611 0 0.4309855774719657 0.44262377444488737 0 0.43097115028835131 0.45382894378787952 0 0.4309855774719657 0.44262377444488737 0 0.4371491165808723 0.44919465112914592 0 0.43097115028835131 0.45382894378787952 0 0.4309855774719657 0.44262377444488737 0 0.41665312800777271 0.44940921386284588 0 0.4216403136361262 0.43569606407888728 0 0.4309855774719657 0.44262377444488737 0 0.41665312800777271 0.44940921386284588 0 0.41665312800777271 0.44940921386284588 0 0.4029362549212489 0.45832899449672349 0 0.40092741287151468 0.44093224530230651 0 0.4216403136361262 0.43569606407888728 0 0.41665312800777271 0.44940921386284588 0 0.40092741287151468 0.44093224530230651 0 0.40882198151684829 0.470458307354371 0 0.42744619309891668 0.4675425472795256 0 0.41709851720120961 0.46055572465752248 0 0.43097115028835131 0.45382894378787952 0 0.41665312800777271 0.44940921386284588 0 0.41709851720120961 0.46055572465752248 0 0.41665312800777271 0.44940921386284588 0 0.41709851720120961 0.46055572465752248 0 0.4029362549212489 0.45832899449672349 0 0.40882198151684829 0.470458307354371 0 0.41709851720120961 0.46055572465752248 0 0.4029362549212489 0.45832899449672349 0 0.40882198151684829 0.470458307354371 0 0.4029362549212489 0.45832899449672349 0 0.3944208343110962 0.47305259584339332 0 0.4029362549212489 0.45832899449672349 0 0.38943508825963058 0.45629052964312111 0 0.3944208343110962 0.47305259584339332 0 0.4029362549212489 0.45832899449672349 0 0.40092741287151468 0.44093224530230651 0 0.38943508825963058 0.45629052964312111 0 0.40092741287151468 0.44093224530230651 0 0.37809165231809289 0.44568724501072521 0 0.38943508825963058 0.45629052964312111 0 0.37809165231809289 0.44568724501072521 0 0.38943508825963058 0.45629052964312111 0 0.37844435483634198 0.4675903904274426 0 0.38943508825963058 0.45629052964312111 0 0.37844435483634198 0.4675903904274426 0 0.3944208343110962 0.47305259584339332 0 0.37844435483634198 0.4675903904274426 0 0.38120033573297152 0.48442634992442057 0 0.3944208343110962 0.47305259584339332 0 0.38120033573297152 0.48442634992442057 0 0.3944208343110962 0.47305259584339332 0 0.39562515835400552 0.48382872387274839 0 0.36196284501337178 0.5 0 0.38120033573297152 0.48442634992442057 0 0.39080647124379558 0.49999999999999922 0 0.38120033573297152 0.48442634992442057 0 0.39080647124379558 0.49999999999999922 0 0.39562515835400552 0.48382872387274839 0 0.40912633217135602 0.48377127363976219 0 0.39080647124379558 0.49999999999999922 0 0.40912633217135602 0.48377127363976219 0 0.39080647124379558 0.49999999999999922 0 0.39562515835400552 0.48382872387274839 0 0.41375472850504103 0.5 0 0.40912633217135602 0.48377127363976219 0 0.39080647124379558 0.49999999999999922 0 0.40912633217135602 0.48377127363976219 0 0.40257181831080802 0.47789339995616598 0 0.39562515835400552 0.48382872387274839 0 0.40882198151684829 0.470458307354371 0 0.40257181831080802 0.47789339995616598 0 0.3944208343110962 0.47305259584339332 0 0.40257181831080802 0.47789339995616598 0 0.3944208343110962 0.47305259584339332 0 0.39562515835400552 0.48382872387274839 0 0.34137977846588119 0.091947059702449957 0 0.3184977734976509 0.082531855017860187 0 0.34137977846588119 0.091947059702449957 0 0.33853514524224232 0.092154422351098803 0 0.3184977734976509 0.082531855017860187 0 0.33853514524224232 0.092154422351098803 0 0.3184977734976509 0.082531855017860187 0 0.3305269393921435 0.093893314460775035 0 0.34137977846588119 0.091947059702449957 0 0.33488127772135701 0.070909675734900868 0 0.3184977734976509 0.082531855017860187 0 0.33488127772135701 0.070909675734900868 0 0.35624300874513559 0.071190975121652081 0 0.33828509493208109 0.051113002016081502 0 0.3184977734976509 0.082531855017860187 0 0.31750720709783492 0.060828210965220328 0 0.30506359630307739 0.067813250175554993 0 0.33488127772135701 0.070909675734900868 0 0.32846421329825382 0.059059627678852658 0 0.31750720709783492 0.060828210965220328 0 0.33488127772135701 0.070909675734900868 0 0.3184977734976509 0.082531855017860187 0 0.31750720709783492 0.060828210965220328 0 0.3184977734976509 0.082531855017860187 0 0.3254096333834442 0.096971455496547829 0 0.3305269393921435 0.093893314460775035 0 0.3184977734976509 0.082531855017860187 0 0.3254096333834442 0.096971455496547829 0 0.31111548734401751 0.094174984339189319 0 0.3254096333834442 0.096971455496547829 0 0.33219394353324039 0.1121017755840282 0 0.31111548734401751 0.094174984339189319 0 0.33219394353324039 0.1121017755840282 0 0.31111548734401751 0.094174984339189319 0 0.33219394353324039 0.1121017755840282 0 0.31151194808720201 0.1150643222194616 0 0.31111548734401751 0.094174984339189319 0 0.33219394353324039 0.1121017755840282 0 0.31151194808720201 0.1150643222194616 0 0.32387679174541939 0.1297141718462434 0 0.33219394353324039 0.1121017755840282 0 0.32387679174541939 0.1297141718462434 0 0.35327239972246333 0.1300285668288671 0 0.33219394353324039 0.1121017755840282 0 0.35327239972246333 0.1300285668288671 0 0.33219394353324039 0.1121017755840282 0 0.34279585490336462 0.1026082003979065 0 0.35159211237321392 0.11222190062690381 0 0.33853514524224232 0.092154422351098803 0 0.3305269393921435 0.093893314460775035 0 0.33650548478629722 0.09727411407467923 0 0.3254096333834442 0.096971455496547829 0 0.33351858274250701 0.1005678965871936 0 0.3305269393921435 0.093893314460775035 0 0.33351858274250701 0.1005678965871936 0 0.3305269393921435 0.093893314460775035 0 0.33650548478629722 0.09727411407467923 0 0.3254096333834442 0.096971455496547829 0 0.33219394353324039 0.1121017755840282 0 0.33351858274250701 0.1005678965871936 0 0.33219394353324039 0.1121017755840282 0 0.33351858274250701 0.1005678965871936 0 0.34279585490336462 0.1026082003979065 0 0.33351858274250701 0.1005678965871936 0 0.34279585490336462 0.1026082003979065 0 0.33650548478629722 0.09727411407467923 0 0.33853514524224232 0.092154422351098803 0 0.34279585490336462 0.1026082003979065 0 0.33650548478629722 0.09727411407467923 0 0.34279585490336462 0.1026082003979065 0 0.35159211237321392 0.11222190062690381 0 0.36426178343411147 0.1013622643870397 0 0.33853514524224232 0.092154422351098803 0 0.34279585490336462 0.1026082003979065 0 0.36426178343411147 0.1013622643870397 0 0.34137977846588119 0.091947059702449957 0 0.33853514524224232 0.092154422351098803 0 0.36426178343411147 0.1013622643870397 0 0.33853514524224232 0.092154422351098803 0 0.36426178343411147 0.1013622643870397 0 0.34137977846588119 0.091947059702449957 0 0.36426178343411147 0.1013622643870397 0 0.33219394353324039 0.1121017755840282 0 0.35159211237321392 0.11222190062690381 0 0.35327239972246333 0.1300285668288671 0 0.35159211237321392 0.11222190062690381 0 0.36649271172908648 0.1176987398754743 0 0.35327239972246333 0.1300285668288671 0 0.35159211237321392 0.11222190062690381 0 0.36649271172908648 0.1176987398754743 0 0.36426178343411147 0.1013622643870397 0 0.36649271172908648 0.1176987398754743 0 0.36938385952287339 0.13266757129752671 0 0.38138511069115272 0.12353481432135879 0 0.36649271172908648 0.1176987398754743 0 0.36426178343411147 0.1013622643870397 0 0.3795225325030368 0.1068242515199407 0 0.36426178343411147 0.1013622643870397 0 0.3795225325030368 0.1068242515199407 0 0.36426178343411147 0.1013622643870397 0 0.3742009225581896 0.091268948227223284 0 0.3795225325030368 0.1068242515199407 0 0.3742009225581896 0.091268948227223284 0 0.35754778501084228 0.087847667021068221 0 0.35624300874513559 0.071190975121652081 0 0.36426178343411147 0.1013622643870397 0 0.3742009225581896 0.091268948227223284 0 0.35754778501084228 0.087847667021068221 0 0.3742009225581896 0.091268948227223284 0 0.35624300874513559 0.071190975121652081 0 0.34137977846588119 0.091947059702449957 0 0.35754778501084228 0.087847667021068221 0 0.35624300874513559 0.071190975121652081 0 0.34137977846588119 0.091947059702449957 0 0.36426178343411147 0.1013622643870397 0 0.35754778501084228 0.087847667021068221 0 0.34137977846588119 0.091947059702449957 0 0.33488127772135701 0.070909675734900868 0 0.35624300874513559 0.071190975121652081 0 0.3742009225581896 0.091268948227223284 0 0.35624300874513559 0.071190975121652081 0 0.37575225644292037 0.071709270247263784 0 0.35624300874513559 0.071190975121652081 0 0.36737709041569239 0.056764699852256018 0 0.37575225644292037 0.071709270247263784 0 0.36737709041569239 0.056764699852256018 0 0.36443667806580698 0.054513224756226962 0 0.39058826119953283 0.057913447496371839 0 0.36443667806580698 0.054513224756226962 0 0.36984281421283938 0.03924660656396721 0 0.37608467898805159 0.048096788967416412 0 0.36984281421283938 0.03924660656396721 0 0.35576481933353549 0.041718099984820838 0 0.3798040161112804 0.028996110171619349 0 0.35576481933353549 0.041718099984820838 0 0.36136411866671431 0.026161729739540451 0 0.37786156531075732 0.02725125369877367 0 0.35576481933353549 0.041718099984820838 0 0.3798040161112804 0.028996110171619349 0 0.37786156531075732 0.02725125369877367 0 0.35576481933353549 0.041718099984820838 0 0.3798040161112804 0.028996110171619349 0 0.36984281421283938 0.03924660656396721 0 0.37726993283737248 0.041439113600633092 0 0.37608467898805159 0.048096788967416412 0 0.36984281421283938 0.03924660656396721 0 0.37675727284589372 0.036323400775862158 0 0.37726993283737248 0.041439113600633092 0 0.36443667806580698 0.054513224756226962 0 0.36984281421283938 0.03924660656396721 0 0.35576481933353549 0.041718099984820838 0 0.35576481933353549 0.041718099984820838 0 0.36136411866671431 0.026161729739540451 0 0.34099279295720591 0.031691385536231111 0 0.35576481933353549 0.041718099984820838 0 0.34539840685914608 0.044617690611648012 0 0.34099279295720591 0.031691385536231111 0 0.35624300874513559 0.071190975121652081 0 0.34416591963185211 0.055615952208139578 0 0.33828509493208109 0.051113002016081502 0 0.36443667806580698 0.054513224756226962 0 0.34416591963185211 0.055615952208139578 0 0.33828509493208109 0.051113002016081502 0 0.36737709041569239 0.056764699852256018 0 0.34416591963185211 0.055615952208139578 0 0.35624300874513559 0.071190975121652081 0 0.33828509493208109 0.051113002016081502 0 0.35624300874513559 0.071190975121652081 0 0.36737709041569239 0.056764699852256018 0 0.34416591963185211 0.055615952208139578 0 0.36443667806580698 0.054513224756226962 0 0.33828509493208109 0.051113002016081502 0 0.36443667806580698 0.054513224756226962 0 0.34539840685914608 0.044617690611648012 0 0.33828509493208109 0.051113002016081502 0 0.36443667806580698 0.054513224756226962 0 0.35576481933353549 0.041718099984820838 0 0.34539840685914608 0.044617690611648012 0 0.36737709041569239 0.056764699852256018 0 0.36443667806580698 0.054513224756226962 0 0.34416591963185211 0.055615952208139578 0 0.35686418876597309 0.010252504770385159 0 0.37537418671591988 0.012891754799621079 0 0.3700201466167648 -0.002195575246397889 0 0.35686418876597309 0.010252504770385159 0 0.37786156531075732 0.02725125369877367 0 0.36136411866671431 0.026161729739540451 0 0.35686418876597309 0.010252504770385159 0 0.37786156531075732 0.02725125369877367 0 0.35686418876597309 0.010252504770385159 0 0.37537418671591988 0.012891754799621079 0 0.37786156531075732 0.02725125369877367 0 0.36136411866671431 0.026161729739540451 0 0.35686418876597309 0.010252504770385159 0 0.34167945108238768 0.015605415956853899 0 0.36136411866671431 0.026161729739540451 0 0.34167945108238768 0.015605415956853899 0 0.34099279295720591 0.031691385536231111 0 0.35686418876597309 0.010252504770385159 0 0.34167945108238768 0.015605415956853899 0 0.33586681222118892 -0.0067462441580033658 0 0.35686418876597309 0.010252504770385159 0 0.33586681222118892 -0.0067462441580033658 0 0.34167945108238768 0.015605415956853899 0 0.32490055802469708 0.021190940670656921 0 0.33586681222118892 -0.0067462441580033658 0 0.34167945108238768 0.015605415956853899 0 0.32490055802469708 0.021190940670656921 0 0.34099279295720591 0.031691385536231111 0 0.32490055802469708 0.021190940670656921 0 0.34099279295720591 0.031691385536231111 0 0.32801258046435111 0.036170166979635328 0 0.32490055802469708 0.021190940670656921 0 0.31497710433926901 0.036033128519756527 0 0.30595588987094691 0.026092456194660541 0 0.32490055802469708 0.021190940670656921 0 0.31046320235639918 0.0067575729804437252 0 0.30595588987094691 0.026092456194660541 0 0.32490055802469708 0.021190940670656921 0 0.32801258046435111 0.036170166979635328 0 0.31497710433926901 0.036033128519756527 0 0.32490055802469708 0.021190940670656921 0 0.31046320235639918 0.0067575729804437252 0 0.33586681222118892 -0.0067462441580033658 0 0.33488127772135701 0.070909675734900868 0 0.32846421329825382 0.059059627678852658 0 0.33828509493208109 0.051113002016081502 0 0.33828509493208109 0.051113002016081502 0 0.33632782521092219 0.048924662700562782 0 0.31456469921871788 0.048028881697348168 0 0.34539840685914608 0.044617690611648012 0 0.33828509493208109 0.051113002016081502 0 0.33632782521092219 0.048924662700562782 0 0.33828509493208109 0.051113002016081502 0 0.33632782521092219 0.048924662700562782 0 0.34539840685914608 0.044617690611648012 0 0.33609782728063148 0.04111054955314445 0 0.34099279295720591 0.031691385536231111 0 0.34539840685914608 0.044617690611648012 0 0.33632782521092219 0.048924662700562782 0 0.33609782728063148 0.04111054955314445 0 0.33609782728063148 0.04111054955314445 0 0.34099279295720591 0.031691385536231111 0 0.32801258046435111 0.036170166979635328 0 0.33632782521092219 0.048924662700562782 0 0.33609782728063148 0.04111054955314445 0 0.33051084790212298 0.042529329228536181 0 0.33632782521092219 0.048924662700562782 0 0.33051084790212298 0.042529329228536181 0 0.32327528761916352 0.043108517346294839 0 0.33609782728063148 0.04111054955314445 0 0.33051084790212298 0.042529329228536181 0 0.32801258046435111 0.036170166979635328 0 0.33632782521092219 0.048924662700562782 0 0.32327528761916352 0.043108517346294839 0 0.31456469921871788 0.048028881697348168 0 0.33051084790212298 0.042529329228536181 0 0.32327528761916352 0.043108517346294839 0 0.32801258046435111 0.036170166979635328 0 0.32327528761916352 0.043108517346294839 0 0.32801258046435111 0.036170166979635328 0 0.31497710433926901 0.036033128519756527 0 0.32327528761916352 0.043108517346294839 0 0.31497710433926901 0.036033128519756527 0 0.31456469921871788 0.048028881697348168 0 0.33828509493208109 0.051113002016081502 0 0.31456469921871788 0.048028881697348168 0 0.32846421329825382 0.059059627678852658 0 0.33828509493208109 0.051113002016081502 0 0.31456469921871788 0.048028881697348168 0 0.32846421329825382 0.059059627678852658 0 0.31456469921871788 0.048028881697348168 0 0.31750720709783492 0.060828210965220328 0 0.31456469921871788 0.048028881697348168 0 0.31750720709783492 0.060828210965220328 0 0.30386903740065402 0.05697431224277244 0 0.31750720709783492 0.060828210965220328 0 0.30386903740065402 0.05697431224277244 0 0.30506359630307739 0.067813250175554993 0 0.31456469921871788 0.048028881697348168 0 0.30386903740065402 0.05697431224277244 0 0.29084430350535467 0.044944761378613682 0 0.30386903740065402 0.05697431224277244 0 0.29325963230024937 0.057606978803657879 0 0.29690158384745241 0.06457818982176422 0 0.31456469921871788 0.048028881697348168 0 0.30257644158749403 0.037675663858353942 0 0.29084430350535467 0.044944761378613682 0 0.31456469921871788 0.048028881697348168 0 0.29084430350535467 0.044944761378613682 0 0.30257644158749403 0.037675663858353942 0 0.28728110375769011 0.032980092644635972 0 0.30595588987094691 0.026092456194660541 0 0.31497710433926901 0.036033128519756527 0 0.31456469921871788 0.048028881697348168 0 0.30257644158749403 0.037675663858353942 0 0.31497710433926901 0.036033128519756527 0 0.30257644158749403 0.037675663858353942 0 0.30595588987094691 0.026092456194660541 0 0.28728110375769011 0.032980092644635972 0 0.28354425329012439 0.021068516806879451 0 0.27754771987688809 0.040797440569893019 0 0.30257644158749403 0.037675663858353942 0 0.29084430350535467 0.044944761378613682 0 0.28728110375769011 0.032980092644635972 0 0.28728110375769011 0.032980092644635972 0 0.2844924432277231 0.043204628682168907 0 0.27754771987688809 0.040797440569893019 0 0.29084430350535467 0.044944761378613682 0 0.28728110375769011 0.032980092644635972 0 0.2844924432277231 0.043204628682168907 0 0.2844924432277231 0.043204628682168907 0 0.28229664577095948 0.054096220135532967 0 0.27754771987688809 0.040797440569893019 0 0.29084430350535467 0.044944761378613682 0 0.2844924432277231 0.043204628682168907 0 0.28229664577095948 0.054096220135532967 0 0.29084430350535467 0.044944761378613682 0 0.28229664577095948 0.054096220135532967 0 0.29325963230024937 0.057606978803657879 0 0.28229664577095948 0.054096220135532967 0 0.28695696052130792 0.062426000594819037 0 0.29325963230024937 0.057606978803657879 0 0.28229664577095948 0.054096220135532967 0 0.28695696052130792 0.062426000594819037 0 0.27961998430175328 0.060695812266760227 0 0.28695696052130792 0.062426000594819037 0 0.29325963230024937 0.057606978803657879 0 0.29690158384745241 0.06457818982176422 0 0.30386903740065402 0.05697431224277244 0 0.29084430350535467 0.044944761378613682 0 0.29325963230024937 0.057606978803657879 0 0.31046320235639918 0.0067575729804437252 0 0.29633736445586178 0.016145334388179639 0 0.2895407867033607 0.0013395930438658619 0 0.31046320235639918 0.0067575729804437252 0 0.30595588987094691 0.026092456194660541 0 0.29633736445586178 0.016145334388179639 0 0.28728110375769011 0.032980092644635972 0 0.29633736445586178 0.016145334388179639 0 0.28354425329012439 0.021068516806879451 0 0.28728110375769011 0.032980092644635972 0 0.30595588987094691 0.026092456194660541 0 0.29633736445586178 0.016145334388179639 0 0.29633736445586178 0.016145334388179639 0 0.28354425329012439 0.021068516806879451 0 0.2895407867033607 0.0013395930438658619 0 0.28354425329012439 0.021068516806879451 0 0.2895407867033607 0.0013395930438658619 0 0.27605408581287011 0.0090157940159830471 0 0.28354425329012439 0.021068516806879451 0 0.2895407867033607 0.0013395930438658619 0 0.2895407867033607 0.0013395930438658619 0 0.27605408581287011 0.0090157940159830471 0 0.26778398551549509 -0.0036893303100333872 0 0.27605408581287011 0.0090157940159830471 0 0.26417056773795178 0.0090152440179189393 0 0.26778398551549509 -0.0036893303100333872 0 0.27605408581287011 0.0090157940159830471 0 0.26936383070045983 0.02007531215695801 0 0.26417056773795178 0.0090152440179189393 0 0.28354425329012439 0.021068516806879451 0 0.27754771987688809 0.040797440569893019 0 0.28354425329012439 0.021068516806879451 0 0.27605408581287011 0.0090157940159830471 0 0.26936383070045983 0.02007531215695801 0 0.28354425329012439 0.021068516806879451 0 0.26936383070045983 0.02007531215695801 0 0.27332262009486957 0.033728107725222278 0 0.26936383070045983 0.02007531215695801 0 0.26667678125960848 0.028969541142501901 0 0.27332262009486957 0.033728107725222278 0 0.26936383070045983 0.02007531215695801 0 0.26667678125960848 0.028969541142501901 0 0.25978705670837199 0.02772172808684556 0 0.26667678125960848 0.028969541142501901 0 0.25978705670837199 0.02772172808684556 0 0.26423361753473251 0.034353016600981737 0 0.24818833723327199 0.02644705719899533 0 0.25978705670837199 0.02772172808684556 0 0.25442723867738032 0.016379625870619269 0 0.24818833723327199 0.02644705719899533 0 0.25978705670837199 0.02772172808684556 0 0.25704478259505842 0.035809011079610743 0 0.26936383070045983 0.02007531215695801 0 0.25978705670837199 0.02772172808684556 0 0.25442723867738032 0.016379625870619269 0 0.26936383070045983 0.02007531215695801 0 0.25442723867738032 0.016379625870619269 0 0.26417056773795178 0.0090152440179189393 0 0.25442723867738032 0.016379625870619269 0 0.26417056773795178 0.0090152440179189393 0 0.25322369798355371 0.0032948183560677501 0 0.26417056773795178 0.0090152440179189393 0 0.25322369798355371 0.0032948183560677501 0 0.26778398551549509 -0.0036893303100333872 0 0.28229664577095948 0.054096220135532967 0 0.27155118646365262 0.060526364332906778 0 0.27754771987688809 0.040797440569893019 0 0.26803735397675288 0.057537922442449492 0 0.27155118646365262 0.060526364332906778 0 0.27754771987688809 0.040797440569893019 0 0.27155118646365262 0.060526364332906778 0 0.27754771987688809 0.040797440569893019 0 0.26803735397675288 0.057537922442449492 0 0.26717674565759131 0.061414912581717808 0 0.27155118646365262 0.060526364332906778 0 0.26803735397675288 0.057537922442449492 0 0.26717674565759131 0.061414912581717808 0 0.26717674565759131 0.061414912581717808 0 0.27082486665434358 0.062915996334918609 0 0.26717674565759131 0.061414912581717808 0 0.27155118646365262 0.060526364332906778 0 0.27082486665434358 0.062915996334918609 0 0.27155118646365262 0.060526364332906778 0 0.27082486665434358 0.062915996334918609 0 0.26803735397675288 0.057537922442449492 0 0.27155118646365262 0.060526364332906778 0 0.27155118646365262 0.060526364332906778 0 0.27961998430175328 0.060695812266760227 0 0.27767514445109232 0.065734664003783444 0 0.28229664577095948 0.054096220135532967 0 0.27155118646365262 0.060526364332906778 0 0.27961998430175328 0.060695812266760227 0 0.28354425329012439 0.021068516806879451 0 0.27754771987688809 0.040797440569893019 0 0.27332262009486957 0.033728107725222278 0 0.26803735397675288 0.057537922442449492 0 0.27754771987688809 0.040797440569893019 0 0.27332262009486957 0.033728107725222278 0 0.26803735397675288 0.057537922442449492 0 0.27332262009486957 0.033728107725222278 0 0.26337349528673171 0.044011131262296957 0 0.26803735397675288 0.057537922442449492 0 0.27332262009486957 0.033728107725222278 0 0.26667678125960848 0.028969541142501901 0 0.27332262009486957 0.033728107725222278 0 0.26423361753473251 0.034353016600981737 0 0.27332262009486957 0.033728107725222278 0 0.26337349528673171 0.044011131262296957 0 0.26423361753473251 0.034353016600981737 0 0.25978705670837199 0.02772172808684556 0 0.26423361753473251 0.034353016600981737 0 0.25704478259505842 0.035809011079610743 0 0.26337349528673171 0.044011131262296957 0 0.26423361753473251 0.034353016600981737 0 0.25704478259505842 0.035809011079610743 0 0.2492733855269578 0.041579555173777823 0 0.24818833723327199 0.02644705719899533 0 0.25704478259505842 0.035809011079610743 0 0.2492733855269578 0.041579555173777823 0 0.26337349528673171 0.044011131262296957 0 0.25704478259505842 0.035809011079610743 0 0.2492733855269578 0.041579555173777823 0 0.26803735397675288 0.057537922442449492 0 0.26337349528673171 0.044011131262296957 0 0.2492733855269578 0.041579555173777823 0 0.26803735397675288 0.057537922442449492 0 0.24629062771517271 0.052820950830226497 0 0.2492733855269578 0.041579555173777823 0 0.26803735397675288 0.057537922442449492 0 0.24874122334595 0.07170785510379532 0 0.24629062771517271 0.052820950830226497 0 0.26717674565759131 0.061414912581717808 0 0.24629062771517271 0.052820950830226497 0 0.26717674565759131 0.061414912581717808 0 0.24629062771517271 0.052820950830226497 0 0.26803735397675288 0.057537922442449492 0 0.26717674565759131 0.061414912581717808 0 0.24874122334595 0.07170785510379532 0 0.26717674565759131 0.061414912581717808 0 0.26207170159221099 0.084412837492877896 0 0.26717674565759131 0.061414912581717808 0 0.26207170159221099 0.084412837492877896 0 0.26717674565759131 0.061414912581717808 0 0.26459661937193729 0.083407271434054076 0 0.26207170159221099 0.084412837492877896 0 0.24736227196270541 0.090270970101712061 0 0.24874122334595 0.07170785510379532 0 0.26207170159221099 0.084412837492877896 0 0.24736227196270541 0.090270970101712061 0 0.26207170159221099 0.084412837492877896 0 0.24736227196270541 0.090270970101712061 0 0.26016144869860108 0.09301841504440217 0 0.25459763100830068 0.096141582858552177 0 0.24736227196270541 0.090270970101712061 0 0.26207170159221099 0.084412837492877896 0 0.26016144869860108 0.09301841504440217 0 0.24736227196270541 0.090270970101712061 0 0.25459763100830068 0.096141582858552177 0 0.26459661937193729 0.083407271434054076 0 0.26207170159221099 0.084412837492877896 0 0.26207170159221099 0.084412837492877896 0 0.26016144869860108 0.09301841504440217 0 0.26459661937193729 0.083407271434054076 0 0.2619867778419176 0.09199379318438361 0 0.26207170159221099 0.084412837492877896 0 0.2619867778419176 0.09199379318438361 0 0.26016144869860108 0.09301841504440217 0 0.26459661937193729 0.083407271434054076 0 0.26207170159221099 0.084412837492877896 0 0.2619867778419176 0.09199379318438361 0 0.2619867778419176 0.09199379318438361 0 0.26016144869860108 0.09301841504440217 0 0.26459661937193729 0.083407271434054076 0 0.28765643041333783 0.074223541376674432 0 0.26459661937193729 0.083407271434054076 0 0.27601190449835611 0.084120993139366301 0 0.28765643041333783 0.074223541376674432 0 0.2619867778419176 0.09199379318438361 0 0.27601190449835611 0.084120993139366301 0 0.27597760534302263 0.093816081557894046 0 0.2619867778419176 0.09199379318438361 0 0.27601190449835611 0.084120993139366301 0 0.26459661937193729 0.083407271434054076 0 0.2619867778419176 0.09199379318438361 0 0.27601190449835611 0.084120993139366301 0 0.27601190449835611 0.084120993139366301 0 0.28527214605629803 0.093542631019163408 0 0.27597760534302263 0.093816081557894046 0 0.26459661937193729 0.083407271434054076 0 0.27082486665434358 0.062915996334918609 0 0.26717674565759131 0.061414912581717808 0 0.26459661937193729 0.083407271434054076 0 0.27082486665434358 0.062915996334918609 0 0.26459661937193729 0.083407271434054076 0 0.27082486665434358 0.062915996334918609 0 0.27767514445109232 0.065734664003783444 0 0.26459661937193729 0.083407271434054076 0 0.27767514445109232 0.065734664003783444 0 0.28765643041333783 0.074223541376674432 0 0.27155118646365262 0.060526364332906778 0 0.27082486665434358 0.062915996334918609 0 0.27767514445109232 0.065734664003783444 0 0.27082486665434358 0.062915996334918609 0 0.27767514445109232 0.065734664003783444 0 0.27155118646365262 0.060526364332906778 0 0.27767514445109232 0.065734664003783444 0 0.27767514445109232 0.065734664003783444 0 0.28765643041333783 0.074223541376674432 0 0.27767514445109232 0.065734664003783444 0 0.29306802488508721 0.072068336257275281 0 0.28695696052130792 0.062426000594819037 0 0.27961998430175328 0.060695812266760227 0 0.27767514445109232 0.065734664003783444 0 0.28695696052130792 0.062426000594819037 0 0.27767514445109232 0.065734664003783444 0 0.29306802488508721 0.072068336257275281 0 0.28695696052130792 0.062426000594819037 0 0.29306802488508721 0.072068336257275281 0 0.29690158384745241 0.06457818982176422 0 0.29561576852942001 0.073116650333272012 0 0.29306802488508721 0.072068336257275281 0 0.29561576852942001 0.073116650333272012 0 0.29306802488508721 0.072068336257275281 0 0.29003703115479512 0.076248193094349867 0 0.29306802488508721 0.072068336257275281 0 0.28765643041333783 0.074223541376674432 0 0.29306802488508721 0.072068336257275281 0 0.29003703115479512 0.076248193094349867 0 0.28765643041333783 0.074223541376674432 0 0.29561576852942001 0.073116650333272012 0 0.29003703115479512 0.076248193094349867 0 0.27767514445109232 0.065734664003783444 0 0.29306802488508721 0.072068336257275281 0 0.28765643041333783 0.074223541376674432 0 0.29003703115479512 0.076248193094349867 0 0.28765643041333783 0.074223541376674432 0 0.27601190449835611 0.084120993139366301 0 0.29003703115479512 0.076248193094349867 0 0.27601190449835611 0.084120993139366301 0 0.29003703115479512 0.076248193094349867 0 0.28765643041333783 0.074223541376674432 0 0.27601190449835611 0.084120993139366301 0 0.29003703115479512 0.076248193094349867 0 0.28870857493654689 0.086239244916881869 0 0.27601190449835611 0.084120993139366301 0 0.28870857493654689 0.086239244916881869 0 0.28527214605629803 0.093542631019163408 0 0.28870857493654689 0.086239244916881869 0 0.28527214605629803 0.093542631019163408 0 0.29246213629446111 0.095768124011444758 0 0.28870857493654689 0.086239244916881869 0 0.29698271976236568 0.089899813846382556 0 0.29246213629446111 0.095768124011444758 0 0.29003703115479512 0.076248193094349867 0 0.28870857493654689 0.086239244916881869 0 0.29698271976236568 0.089899813846382556 0 0.29561576852942001 0.073116650333272012 0 0.29003703115479512 0.076248193094349867 0 0.31111548734401751 0.094174984339189319 0 0.29003703115479512 0.076248193094349867 0 0.31111548734401751 0.094174984339189319 0 0.29003703115479512 0.076248193094349867 0 0.29698271976236568 0.089899813846382556 0 0.31111548734401751 0.094174984339189319 0 0.3184977734976509 0.082531855017860187 0 0.29561576852942001 0.073116650333272012 0 0.31111548734401751 0.094174984339189319 0 0.3184977734976509 0.082531855017860187 0 0.29561576852942001 0.073116650333272012 0 0.3184977734976509 0.082531855017860187 0 0.29561576852942001 0.073116650333272012 0 0.30506359630307739 0.067813250175554993 0 0.31750720709783492 0.060828210965220328 0 0.30506359630307739 0.067813250175554993 0 0.29306802488508721 0.072068336257275281 0 0.30506359630307739 0.067813250175554993 0 0.29690158384745241 0.06457818982176422 0 0.30386903740065402 0.05697431224277244 0 0.30506359630307739 0.067813250175554993 0 0.29690158384745241 0.06457818982176422 0 0.29306802488508721 0.072068336257275281 0 0.30506359630307739 0.067813250175554993 0 0.29561576852942001 0.073116650333272012 0 0.30506359630307739 0.067813250175554993 0 0.29561576852942001 0.073116650333272012 0 0.29306802488508721 0.072068336257275281 0 0.30506359630307739 0.067813250175554993 0 0.31151194808720201 0.1150643222194616 0 0.30247500772594699 0.1071381656543656 0 0.29129275041579278 0.1172303442398579 0 0.31151194808720201 0.1150643222194616 0 0.29622008012258699 0.12991313160987961 0 0.32387679174541939 0.1297141718462434 0 0.31151194808720201 0.1150643222194616 0 0.29129275041579278 0.1172303442398579 0 0.29622008012258699 0.12991313160987961 0 0.31151194808720201 0.1150643222194616 0 0.31111548734401751 0.094174984339189319 0 0.30247500772594699 0.1071381656543656 0 0.31111548734401751 0.094174984339189319 0 0.30128354362195031 0.098124169066782854 0 0.30247500772594699 0.1071381656543656 0 0.29698271976236568 0.089899813846382556 0 0.30128354362195031 0.098124169066782854 0 0.29246213629446111 0.095768124011444758 0 0.29698271976236568 0.089899813846382556 0 0.31111548734401751 0.094174984339189319 0 0.30128354362195031 0.098124169066782854 0 0.30128354362195031 0.098124169066782854 0 0.30247500772594699 0.1071381656543656 0 0.29260899031297011 0.10538418601464609 0 0.29260899031297011 0.10538418601464609 0 0.29246213629446111 0.095768124011444758 0 0.28702757351663483 0.1001100210532227 0 0.30128354362195031 0.098124169066782854 0 0.29260899031297011 0.10538418601464609 0 0.29246213629446111 0.095768124011444758 0 0.28527214605629803 0.093542631019163408 0 0.29246213629446111 0.095768124011444758 0 0.28702757351663483 0.1001100210532227 0 0.28527214605629803 0.093542631019163408 0 0.28702757351663483 0.1001100210532227 0 0.28108272677848523 0.099874609951530163 0 0.29260899031297011 0.10538418601464609 0 0.28356239405763972 0.106033323917978 0 0.28664880997705461 0.11131452551203889 0 0.29260899031297011 0.10538418601464609 0 0.28702757351663483 0.1001100210532227 0 0.28356239405763972 0.106033323917978 0 0.28702757351663483 0.1001100210532227 0 0.28356239405763972 0.106033323917978 0 0.28108272677848523 0.099874609951530163 0 0.28356239405763972 0.106033323917978 0 0.2814598539497668 0.10990299155730229 0 0.28664880997705461 0.11131452551203889 0 0.27786688771157569 0.1150217509861922 0 0.29622008012258699 0.12991313160987961 0 0.28664880997705461 0.11131452551203889 0 0.29129275041579278 0.1172303442398579 0 0.27786688771157569 0.1150217509861922 0 0.27786688771157569 0.1150217509861922 0 0.27913813953766042 0.12972245958528131 0 0.29622008012258699 0.12991313160987961 0 0.29129275041579278 0.1172303442398579 0 0.27786688771157569 0.1150217509861922 0 0.29622008012258699 0.12991313160987961 0 0.2814598539497668 0.10990299155730229 0 0.28664880997705461 0.11131452551203889 0 0.27786688771157569 0.1150217509861922 0 0.30247500772594699 0.1071381656543656 0 0.29260899031297011 0.10538418601464609 0 0.29129275041579278 0.1172303442398579 0 0.29260899031297011 0.10538418601464609 0 0.28664880997705461 0.11131452551203889 0 0.29129275041579278 0.1172303442398579 0 0.27418517611644572 0.1163335826691398 0 0.26638390190257438 0.1102685147937751 0 0.25655208948606423 0.10927836717886751 0 0.27786688771157569 0.1150217509861922 0 0.27418517611644572 0.1163335826691398 0 0.27913813953766042 0.12972245958528131 0 0.27418517611644572 0.1163335826691398 0 0.27248198541775659 0.12784311929978001 0 0.27913813953766042 0.12972245958528131 0 0.2814598539497668 0.10990299155730229 0 0.27786688771157569 0.1150217509861922 0 0.27702128122739278 0.10689832557857171 0 0.27786688771157569 0.1150217509861922 0 0.27418517611644572 0.1163335826691398 0 0.26638390190257438 0.1102685147937751 0 0.27418517611644572 0.1163335826691398 0 0.26888095198589312 0.11979825388229511 0 0.26487973471170051 0.1148861259760711 0 0.27418517611644572 0.1163335826691398 0 0.26888095198589312 0.11979825388229511 0 0.27248198541775659 0.12784311929978001 0 0.26888095198589312 0.11979825388229511 0 0.26519442307348812 0.1188177922564181 0 0.26487973471170051 0.1148861259760711 0 0.26888095198589312 0.11979825388229511 0 0.26562400985315288 0.1251654340079911 0 0.27248198541775659 0.12784311929978001 0 0.26888095198589312 0.11979825388229511 0 0.26519442307348812 0.1188177922564181 0 0.26562400985315288 0.1251654340079911 0 0.27786688771157569 0.1150217509861922 0 0.26638390190257438 0.1102685147937751 0 0.25872482925013801 0.09949030162923457 0 0.27786688771157569 0.1150217509861922 0 0.25872482925013801 0.09949030162923457 0 0.27786688771157569 0.1150217509861922 0 0.27150352658480642 0.1040925172930806 0 0.25872482925013801 0.09949030162923457 0 0.28527214605629803 0.093542631019163408 0 0.27597760534302263 0.093816081557894046 0 0.28108272677848523 0.099874609951530163 0 0.27597760534302263 0.093816081557894046 0 0.28108272677848523 0.099874609951530163 0 0.27461357126647679 0.10027579108255071 0 0.27786688771157569 0.1150217509861922 0 0.27702128122739278 0.10689832557857171 0 0.27150352658480642 0.1040925172930806 0 0.27461357126647679 0.10027579108255071 0 0.27702128122739278 0.10689832557857171 0 0.27150352658480642 0.1040925172930806 0 0.28356239405763972 0.106033323917978 0 0.28108272677848523 0.099874609951530163 0 0.27702128122739278 0.10689832557857171 0 0.28108272677848523 0.099874609951530163 0 0.27461357126647679 0.10027579108255071 0 0.27702128122739278 0.10689832557857171 0 0.28356239405763972 0.106033323917978 0 0.2814598539497668 0.10990299155730229 0 0.27702128122739278 0.10689832557857171 0 0.2619867778419176 0.09199379318438361 0 0.27597760534302263 0.093816081557894046 0 0.26850219741802223 0.0981363484555835 0 0.27150352658480642 0.1040925172930806 0 0.26850219741802223 0.0981363484555835 0 0.25872482925013801 0.09949030162923457 0 0.27461357126647679 0.10027579108255071 0 0.27150352658480642 0.1040925172930806 0 0.26850219741802223 0.0981363484555835 0 0.27597760534302263 0.093816081557894046 0 0.27461357126647679 0.10027579108255071 0 0.26850219741802223 0.0981363484555835 0 0.2619867778419176 0.09199379318438361 0 0.26850219741802223 0.0981363484555835 0 0.25872482925013801 0.09949030162923457 0 0.2619867778419176 0.09199379318438361 0 0.26016144869860108 0.09301841504440217 0 0.25872482925013801 0.09949030162923457 0 0.2619867778419176 0.09199379318438361 0 0.25872482925013801 0.09949030162923457 0 0.26016144869860108 0.09301841504440217 0 0.25872482925013801 0.09949030162923457 0 0.26016144869860108 0.09301841504440217 0 0.25872482925013801 0.09949030162923457 0 0.25459763100830068 0.096141582858552177 0 0.26638390190257438 0.1102685147937751 0 0.25872482925013801 0.09949030162923457 0 0.26054083413963042 0.1068609537315081 0 0.26638390190257438 0.1102685147937751 0 0.26054083413963042 0.1068609537315081 0 0.25655208948606423 0.10927836717886751 0 0.25872482925013801 0.09949030162923457 0 0.258042440935632 0.10497087790269199 0 0.26054083413963042 0.1068609537315081 0 0.25872482925013801 0.09949030162923457 0 0.258042440935632 0.10497087790269199 0 0.258042440935632 0.10497087790269199 0 0.26054083413963042 0.1068609537315081 0 0.25655208948606423 0.10927836717886751 0 0.25872482925013801 0.09949030162923457 0 0.25655208948606423 0.10927836717886751 0 0.25872482925013801 0.09949030162923457 0 0.25655208948606423 0.10927836717886751 0 0.25459763100830068 0.096141582858552177 0 0.24174744587836799 0.1033548466348798 0 0.25655208948606423 0.10927836717886751 0 0.25459763100830068 0.096141582858552177 0 0.25872482925013801 0.09949030162923457 0 0.258042440935632 0.10497087790269199 0 0.25655208948606423 0.10927836717886751 0 0.25872482925013801 0.09949030162923457 0 0.25459763100830068 0.096141582858552177 0 0.26016144869860108 0.09301841504440217 0 0.25459763100830068 0.096141582858552177 0 0.27418517611644572 0.1163335826691398 0 0.25655208948606423 0.10927836717886751 0 0.26487973471170051 0.1148861259760711 0 0.27418517611644572 0.1163335826691398 0 0.25655208948606423 0.10927836717886751 0 0.2613903323121034 0.11972876860365821 0 0.25824300399834771 0.11754386918627879 0 0.25813574029091341 0.12532111527980791 0 0.2613903323121034 0.11972876860365821 0 0.25824300399834771 0.11754386918627879 0 0.26064106818342869 0.11649387083006101 0 0.2613903323121034 0.11972876860365821 0 0.26303182906276251 0.1167652494283456 0 0.26064106818342869 0.11649387083006101 0 0.2613903323121034 0.11972876860365821 0 0.25813574029091341 0.12532111527980791 0 0.26562400985315288 0.1251654340079911 0 0.2613903323121034 0.11972876860365821 0 0.26519442307348812 0.1188177922564181 0 0.26562400985315288 0.1251654340079911 0 0.2613903323121034 0.11972876860365821 0 0.26519442307348812 0.1188177922564181 0 0.26303182906276251 0.1167652494283456 0 0.26487973471170051 0.1148861259760711 0 0.2618287337373767 0.1148464313763837 0 0.2589676606418963 0.1122376160430168 0 0.25655208948606423 0.10927836717886751 0 0.26487973471170051 0.1148861259760711 0 0.2589676606418963 0.1122376160430168 0 0.26519442307348812 0.1188177922564181 0 0.26487973471170051 0.1148861259760711 0 0.26303182906276251 0.1167652494283456 0 0.26487973471170051 0.1148861259760711 0 0.2618287337373767 0.1148464313763837 0 0.26303182906276251 0.1167652494283456 0 0.2618287337373767 0.1148464313763837 0 0.26303182906276251 0.1167652494283456 0 0.26064106818342869 0.11649387083006101 0 0.2618287337373767 0.1148464313763837 0 0.26064106818342869 0.11649387083006101 0 0.26015078570541528 0.1146524558252945 0 0.2618287337373767 0.1148464313763837 0 0.2589676606418963 0.1122376160430168 0 0.26015078570541528 0.1146524558252945 0 0.2589676606418963 0.1122376160430168 0 0.26015078570541528 0.1146524558252945 0 0.25777400528710798 0.1147846643059361 0 0.25824300399834771 0.11754386918627879 0 0.26015078570541528 0.1146524558252945 0 0.25777400528710798 0.1147846643059361 0 0.25824300399834771 0.11754386918627879 0 0.26064106818342869 0.11649387083006101 0 0.26015078570541528 0.1146524558252945 0 0.24646482385440791 0.1109165710353929 0 0.25655208948606423 0.10927836717886751 0 0.255186127323073 0.11543194682551421 0 0.25824300399834771 0.11754386918627879 0 0.25777400528710798 0.1147846643059361 0 0.255186127323073 0.11543194682551421 0 0.2589676606418963 0.1122376160430168 0 0.25777400528710798 0.1147846643059361 0 0.255186127323073 0.11543194682551421 0 0.25655208948606423 0.10927836717886751 0 0.255186127323073 0.11543194682551421 0 0.25655208948606423 0.10927836717886751 0 0.2589676606418963 0.1122376160430168 0 0.255186127323073 0.11543194682551421 0 0.255186127323073 0.11543194682551421 0 0.25238596385504641 0.12804651946228041 0 0.24420216851797599 0.1292372680552665 0 0.255186127323073 0.11543194682551421 0 0.25238596385504641 0.12804651946228041 0 0.255186127323073 0.11543194682551421 0 0.25238596385504641 0.12804651946228041 0 0.25813574029091341 0.12532111527980791 0 0.25824300399834771 0.11754386918627879 0 0.255186127323073 0.11543194682551421 0 0.25813574029091341 0.12532111527980791 0 0.25238596385504641 0.12804651946228041 0 0.25813574029091341 0.12532111527980791 0 0.26818611498992623 0.1403022215883418 0 0.24420216851797599 0.1292372680552665 0 0.26818611498992623 0.1403022215883418 0 0.24301228879775941 0.13939302681245261 0 0.24420216851797599 0.1292372680552665 0 0.26818611498992623 0.1403022215883418 0 0.24420216851797599 0.1292372680552665 0 0.25238596385504641 0.12804651946228041 0 0.26818611498992623 0.1403022215883418 0 0.25813574029091341 0.12532111527980791 0 0.26562400985315288 0.1251654340079911 0 0.26818611498992623 0.1403022215883418 0 0.27248198541775659 0.12784311929978001 0 0.26818611498992623 0.1403022215883418 0 0.27913813953766042 0.12972245958528131 0 0.26562400985315288 0.1251654340079911 0 0.27248198541775659 0.12784311929978001 0 0.26818611498992623 0.1403022215883418 0 0.26818611498992623 0.1403022215883418 0 0.27913813953766042 0.12972245958528131 0 0.28414721419066807 0.1482284927670183 0 0.26818611498992623 0.1403022215883418 0 0.26583546295036609 0.16369396270660089 0 0.28414721419066807 0.1482284927670183 0 0.26818611498992623 0.1403022215883418 0 0.25486404381895789 0.1523024957907583 0 0.26583546295036609 0.16369396270660089 0 0.24301228879775941 0.13939302681245261 0 0.26818611498992623 0.1403022215883418 0 0.25486404381895789 0.1523024957907583 0 0.2424223085377801 0.16582077205563811 0 0.25486404381895789 0.1523024957907583 0 0.26583546295036609 0.16369396270660089 0 0.2424223085377801 0.16582077205563811 0 0.26032431562704572 0.18342712708893841 0 0.26583546295036609 0.16369396270660089 0 0.26032431562704572 0.18342712708893841 0 0.27712404590978218 0.18082877805207789 0 0.26583546295036609 0.16369396270660089 0 0.27712404590978218 0.18082877805207789 0 0.26583546295036609 0.16369396270660089 0 0.28977860037431658 0.16805367250728201 0 0.26583546295036609 0.16369396270660089 0 0.28977860037431658 0.16805367250728201 0 0.28414721419066807 0.1482284927670183 0 0.27712404590978218 0.18082877805207789 0 0.28977860037431658 0.16805367250728201 0 0.29478084704188562 0.18627619782702401 0 0.28977860037431658 0.16805367250728201 0 0.29478084704188562 0.18627619782702401 0 0.31259037162619269 0.16725562300018509 0 0.29478084704188562 0.18627619782702401 0 0.31732062797233113 0.1926592597090995 0 0.31259037162619269 0.16725562300018509 0 0.28977860037431658 0.16805367250728201 0 0.29946190776947251 0.15165108642358641 0 0.31259037162619269 0.16725562300018509 0 0.29946190776947251 0.15165108642358641 0 0.31457327253359829 0.14480451223356691 0 0.31259037162619269 0.16725562300018509 0 0.29946190776947251 0.15165108642358641 0 0.29622008012258699 0.12991313160987961 0 0.31457327253359829 0.14480451223356691 0 0.29622008012258699 0.12991313160987961 0 0.31457327253359829 0.14480451223356691 0 0.29622008012258699 0.12991313160987961 0 0.32387679174541939 0.1297141718462434 0 0.31457327253359829 0.14480451223356691 0 0.27913813953766042 0.12972245958528131 0 0.29622008012258699 0.12991313160987961 0 0.28414721419066807 0.1482284927670183 0 0.29946190776947251 0.15165108642358641 0 0.29622008012258699 0.12991313160987961 0 0.28414721419066807 0.1482284927670183 0 0.28977860037431658 0.16805367250728201 0 0.29946190776947251 0.15165108642358641 0 0.28414721419066807 0.1482284927670183 0 0.27355486584907379 0.24364475180805101 0 0.25452501640087027 0.2374112721999547 0 0.26408278890255732 0.22479217687295791 0 0.25404003316197471 0.25208422786308371 0 0.27355486584907379 0.24364475180805101 0 0.25452501640087027 0.2374112721999547 0 0.24523436150048811 0.24199469982198529 0 0.25404003316197471 0.25208422786308371 0 0.25452501640087027 0.2374112721999547 0 0.24868260911088891 0.2303107595792985 0 0.2471090749199483 0.2357199094212839 0 0.25452501640087027 0.2374112721999547 0 0.24868260911088891 0.2303107595792985 0 0.25452501640087027 0.2374112721999547 0 0.26408278890255732 0.22479217687295791 0 0.24868260911088891 0.2303107595792985 0 0.26408278890255732 0.22479217687295791 0 0.25357276657721323 0.21641202867955539 0 0.27355486584907379 0.24364475180805101 0 0.26408278890255732 0.22479217687295791 0 0.28109637724199782 0.22150209212538899 0 0.26408278890255732 0.22479217687295791 0 0.28109637724199782 0.22150209212538899 0 0.27306509823529962 0.19947215684549871 0 0.26408278890255732 0.22479217687295791 0 0.25357276657721323 0.21641202867955539 0 0.27306509823529962 0.19947215684549871 0 0.25357276657721323 0.21641202867955539 0 0.25471258750952741 0.20148162901819469 0 0.27306509823529962 0.19947215684549871 0 0.25357276657721323 0.21641202867955539 0 0.27306509823529962 0.19947215684549871 0 0.2418323282778008 0.1922485172988235 0 0.26032431562704572 0.18342712708893841 0 0.25471258750952741 0.20148162901819469 0 0.26032431562704572 0.18342712708893841 0 0.25471258750952741 0.20148162901819469 0 0.27306509823529962 0.19947215684549871 0 0.26032431562704572 0.18342712708893841 0 0.27712404590978218 0.18082877805207789 0 0.27306509823529962 0.19947215684549871 0 0.29478084704188562 0.18627619782702401 0 0.27306509823529962 0.19947215684549871 0 0.29788838547339219 0.20777731020547871 0 0.27712404590978218 0.18082877805207789 0 0.29478084704188562 0.18627619782702401 0 0.27306509823529962 0.19947215684549871 0 0.29478084704188562 0.18627619782702401 0 0.29788838547339219 0.20777731020547871 0 0.31732062797233113 0.1926592597090995 0 0.29788838547339219 0.20777731020547871 0 0.31916040529159301 0.2166328624030785 0 0.31732062797233113 0.1926592597090995 0 0.28109637724199782 0.22150209212538899 0 0.27306509823529962 0.19947215684549871 0 0.29788838547339219 0.20777731020547871 0 0.28109637724199782 0.22150209212538899 0 0.29788838547339219 0.20777731020547871 0 0.29668368374297521 0.23238313674276659 0 0.27355486584907379 0.24364475180805101 0 0.28109637724199782 0.22150209212538899 0 0.29668368374297521 0.23238313674276659 0 0.29788838547339219 0.20777731020547871 0 0.29668368374297521 0.23238313674276659 0 0.31916040529159301 0.2166328624030785 0 0.29692855903906679 0.25537037528416417 0 0.29668368374297521 0.23238313674276659 0 0.32448256229391081 0.244023600812113 0 0.29692855903906679 0.25537037528416417 0 0.27355486584907379 0.24364475180805101 0 0.29668368374297521 0.23238313674276659 0 0.32448256229391081 0.244023600812113 0 0.33724611662768478 0.226971671205 0 0.35052125483258301 0.2434514759103418 0 0.32448256229391081 0.244023600812113 0 0.33724611662768478 0.226971671205 0 0.31916040529159301 0.2166328624030785 0 0.29668368374297521 0.23238313674276659 0 0.32448256229391081 0.244023600812113 0 0.31916040529159301 0.2166328624030785 0 0.33724611662768478 0.226971671205 0 0.31916040529159301 0.2166328624030785 0 0.34036716376080012 0.20191553243135291 0 0.31916040529159301 0.2166328624030785 0 0.31732062797233113 0.1926592597090995 0 0.34036716376080012 0.20191553243135291 0 0.31732062797233113 0.1926592597090995 0 0.34036716376080012 0.20191553243135291 0 0.33327910971122948 0.1769249887409369 0 0.34036716376080012 0.20191553243135291 0 0.33327910971122948 0.1769249887409369 0 0.35363051640006049 0.1838751638919715 0 0.34036716376080012 0.20191553243135291 0 0.36940151407566268 0.20038014978660379 0 0.35363051640006049 0.1838751638919715 0 0.36940151407566268 0.20038014978660379 0 0.35418005050780299 0.2186338278764331 0 0.36970064025412291 0.2313836502337521 0 0.34036716376080012 0.20191553243135291 0 0.36940151407566268 0.20038014978660379 0 0.35418005050780299 0.2186338278764331 0 0.33724611662768478 0.226971671205 0 0.34036716376080012 0.20191553243135291 0 0.35418005050780299 0.2186338278764331 0 0.33724611662768478 0.226971671205 0 0.35418005050780299 0.2186338278764331 0 0.35052125483258301 0.2434514759103418 0 0.35418005050780299 0.2186338278764331 0 0.36970064025412291 0.2313836502337521 0 0.35052125483258301 0.2434514759103418 0 0.37478492512234668 0.26235925763296819 0 0.36970064025412291 0.2313836502337521 0 0.35052125483258301 0.2434514759103418 0 0.33497932682518311 0.1519205034936916 0 0.32387679174541939 0.1297141718462434 0 0.35327239972246333 0.1300285668288671 0 0.33497932682518311 0.1519205034936916 0 0.31457327253359829 0.14480451223356691 0 0.31259037162619269 0.16725562300018509 0 0.33497932682518311 0.1519205034936916 0 0.32387679174541939 0.1297141718462434 0 0.31457327253359829 0.14480451223356691 0 0.33497932682518311 0.1519205034936916 0 0.31259037162619269 0.16725562300018509 0 0.33327910971122948 0.1769249887409369 0 0.31732062797233113 0.1926592597090995 0 0.31259037162619269 0.16725562300018509 0 0.33327910971122948 0.1769249887409369 0 0.33497932682518311 0.1519205034936916 0 0.33327910971122948 0.1769249887409369 0 0.34907151432127381 0.16521020144779211 0 0.34907151432127381 0.16521020144779211 0 0.35363051640006049 0.1838751638919715 0 0.37277469716236061 0.17385369407461371 0 0.33327910971122948 0.1769249887409369 0 0.34907151432127381 0.16521020144779211 0 0.35363051640006049 0.1838751638919715 0 0.36940151407566268 0.20038014978660379 0 0.35363051640006049 0.1838751638919715 0 0.37277469716236061 0.17385369407461371 0 0.37277469716236061 0.17385369407461371 0 0.36285879787080821 0.15032831482926681 0 0.3843829660287168 0.1587008111838667 0 0.34907151432127381 0.16521020144779211 0 0.37277469716236061 0.17385369407461371 0 0.36285879787080821 0.15032831482926681 0 0.36285879787080821 0.15032831482926681 0 0.36938385952287339 0.13266757129752671 0 0.38232915319187621 0.14145147187989651 0 0.33497932682518311 0.1519205034936916 0 0.36285879787080821 0.15032831482926681 0 0.35327239972246333 0.1300285668288671 0 0.33497932682518311 0.1519205034936916 0 0.34907151432127381 0.16521020144779211 0 0.36285879787080821 0.15032831482926681 0 0.36649271172908648 0.1176987398754743 0 0.35327239972246333 0.1300285668288671 0 0.36938385952287339 0.13266757129752671 0 0.36285879787080821 0.15032831482926681 0 0.35327239972246333 0.1300285668288671 0 0.36938385952287339 0.13266757129752671 0 0.39421974672685411 0.13240309148155921 0 0.38232915319187621 0.14145147187989651 0 0.38138511069115272 0.12353481432135879 0 0.36938385952287339 0.13266757129752671 0 0.38232915319187621 0.14145147187989651 0 0.38138511069115272 0.12353481432135879 0 0.39421974672685411 0.13240309148155921 0 0.41199731756477831 0.13352747615702071 0 0.3942733283070321 0.11371104406223111 0 0.39421974672685411 0.13240309148155921 0 0.40120830104283178 0.15077536395034899 0 0.41199731756477831 0.13352747615702071 0 0.39421974672685411 0.13240309148155921 0 0.40120830104283178 0.15077536395034899 0 0.38232915319187621 0.14145147187989651 0 0.36285879787080821 0.15032831482926681 0 0.38232915319187621 0.14145147187989651 0 0.3843829660287168 0.1587008111838667 0 0.40120830104283178 0.15077536395034899 0 0.38232915319187621 0.14145147187989651 0 0.3843829660287168 0.1587008111838667 0 0.37277469716236061 0.17385369407461371 0 0.3843829660287168 0.1587008111838667 0 0.39936082591505218 0.176604797209717 0 0.37277469716236061 0.17385369407461371 0 0.39936082591505218 0.176604797209717 0 0.38992891259608609 0.19548318162929729 0 0.40120830104283178 0.15077536395034899 0 0.39936082591505218 0.176604797209717 0 0.41410660213767347 0.1652382216241598 0 0.40120830104283178 0.15077536395034899 0 0.3843829660287168 0.1587008111838667 0 0.39936082591505218 0.176604797209717 0 0.40120830104283178 0.15077536395034899 0 0.41410660213767347 0.1652382216241598 0 0.42972130682252457 0.1533439082518103 0 0.39936082591505218 0.176604797209717 0 0.41410660213767347 0.1652382216241598 0 0.42626679864566441 0.18172907206941921 0 0.42626679864566441 0.18172907206941921 0 0.42972130682252457 0.1533439082518103 0 0.45055708181009879 0.1690731760043504 0 0.41410660213767347 0.1652382216241598 0 0.42626679864566441 0.18172907206941921 0 0.42972130682252457 0.1533439082518103 0 0.42972130682252457 0.1533439082518103 0 0.43054248402473921 0.1250848439374013 0 0.44904083753606949 0.1441389705362057 0 0.42972130682252457 0.1533439082518103 0 0.43054248402473921 0.1250848439374013 0 0.41199731756477831 0.13352747615702071 0 0.43054248402473921 0.1250848439374013 0 0.41199731756477831 0.13352747615702071 0 0.41135066019799099 0.1182158826350982 0 0.40120830104283178 0.15077536395034899 0 0.42972130682252457 0.1533439082518103 0 0.41199731756477831 0.13352747615702071 0 0.42972130682252457 0.1533439082518103 0 0.41199731756477831 0.13352747615702071 0 0.40097752291506289 0.25902709479471048 0 0.39333580902427501 0.24081282939082621 0 0.41286841049430861 0.24788583003777651 0 0.37478492512234668 0.26235925763296819 0 0.36970064025412291 0.2313836502337521 0 0.39333580902427501 0.24081282939082621 0 0.36970064025412291 0.2313836502337521 0 0.39333580902427501 0.24081282939082621 0 0.39338333076520482 0.2163019563834182 0 0.39338333076520482 0.2163019563834182 0 0.41736514745474701 0.23222376298023259 0 0.39333580902427501 0.24081282939082621 0 0.39338333076520482 0.2163019563834182 0 0.41736514745474701 0.23222376298023259 0 0.39338333076520482 0.2163019563834182 0 0.38992891259608609 0.19548318162929729 0 0.41508715600771068 0.20488700545500521 0 0.36940151407566268 0.20038014978660379 0 0.39338333076520482 0.2163019563834182 0 0.36940151407566268 0.20038014978660379 0 0.39338333076520482 0.2163019563834182 0 0.38992891259608609 0.19548318162929729 0 0.36940151407566268 0.20038014978660379 0 0.36970064025412291 0.2313836502337521 0 0.39338333076520482 0.2163019563834182 0 0.36940151407566268 0.20038014978660379 0 0.37277469716236061 0.17385369407461371 0 0.38992891259608609 0.19548318162929729 0 0.39936082591505218 0.176604797209717 0 0.38992891259608609 0.19548318162929729 0 0.41508715600771068 0.20488700545500521 0 0.39936082591505218 0.176604797209717 0 0.42626679864566441 0.18172907206941921 0 0.41508715600771068 0.20488700545500521 0 0.42626679864566441 0.18172907206941921 0 0.44140000057487638 0.20455834627575151 0 0.44473765559285833 0.18692520255949671 0 0.42626679864566441 0.18172907206941921 0 0.41508715600771068 0.20488700545500521 0 0.44140000057487638 0.20455834627575151 0 0.41508715600771068 0.20488700545500521 0 0.43790507610234408 0.2273079216372012 0 0.44140000057487638 0.20455834627575151 0 0.39338333076520482 0.2163019563834182 0 0.41508715600771068 0.20488700545500521 0 0.41736514745474701 0.23222376298023259 0 0.41508715600771068 0.20488700545500521 0 0.41736514745474701 0.23222376298023259 0 0.43790507610234408 0.2273079216372012 0 0.42717012070777932 0.25569493195645271 0 0.41736514745474701 0.23222376298023259 0 0.44134696414428898 0.24814556957704689 0 0.41736514745474701 0.23222376298023259 0 0.44134696414428898 0.24814556957704689 0 0.41736514745474701 0.23222376298023259 0 0.44134696414428898 0.24814556957704689 0 0.43790507610234408 0.2273079216372012 0 0.39333580902427501 0.24081282939082621 0 0.41736514745474701 0.23222376298023259 0 0.41286841049430861 0.24788583003777651 0 0.42717012070777932 0.25569493195645271 0 0.41736514745474701 0.23222376298023259 0 0.41286841049430861 0.24788583003777651 0 0.45336271850049548 0.25236276911819511 0 0.45602225988021539 0.23816249748875179 0 0.48180965237011408 0.2487438147612096 0 0.45336271850049548 0.25236276911819511 0 0.45602225988021539 0.23816249748875179 0 0.44134696414428898 0.24814556957704689 0 0.44600400848591359 0.23698591979390529 0 0.43790507610234408 0.2273079216372012 0 0.45336271850049548 0.25236276911819511 0 0.44134696414428898 0.24814556957704689 0 0.44600400848591359 0.23698591979390529 0 0.45336271850049548 0.25236276911819511 0 0.45602225988021539 0.23816249748875179 0 0.44600400848591359 0.23698591979390529 0 0.45602225988021539 0.23816249748875179 0 0.44600400848591359 0.23698591979390529 0 0.45492939023952461 0.2194397610932603 0 0.44600400848591359 0.23698591979390529 0 0.43790507610234408 0.2273079216372012 0 0.45492939023952461 0.2194397610932603 0 0.45602225988021539 0.23816249748875179 0 0.45492939023952461 0.2194397610932603 0 0.47419086539053962 0.2296972043723752 0 0.45492939023952461 0.2194397610932603 0 0.46072674134079361 0.19234021588846559 0 0.47847088324409548 0.2092058758105422 0 0.45492939023952461 0.2194397610932603 0 0.44140000057487638 0.20455834627575151 0 0.46072674134079361 0.19234021588846559 0 0.43790507610234408 0.2273079216372012 0 0.45492939023952461 0.2194397610932603 0 0.44140000057487638 0.20455834627575151 0 0.44140000057487638 0.20455834627575151 0 0.46072674134079361 0.19234021588846559 0 0.44473765559285833 0.18692520255949671 0 0.46072674134079361 0.19234021588846559 0 0.4812983336831132 0.1885899983914231 0 0.47847088324409548 0.2092058758105422 0 0.4812983336831132 0.1885899983914231 0 0.5 0.19797878532577309 0 0.47847088324409548 0.2092058758105422 0 0.5 0.19797878532577309 0 0.47847088324409548 0.2092058758105422 0 0.5 0.22793385045351919 0 0.47847088324409548 0.2092058758105422 0 0.47419086539053962 0.2296972043723752 0 0.5 0.22793385045351919 0 0.45492939023952461 0.2194397610932603 0 0.47847088324409548 0.2092058758105422 0 0.47419086539053962 0.2296972043723752 0 0.5 0.25788891558126559 0 0.5 0.22793385045351919 0 0.48180965237011408 0.2487438147612096 0 0.47419086539053962 0.2296972043723752 0 0.5 0.22793385045351919 0 0.48180965237011408 0.2487438147612096 0 0.45602225988021539 0.23816249748875179 0 0.47419086539053962 0.2296972043723752 0 0.48180965237011408 0.2487438147612096 0 0.46287167922105149 0.15545842773829099 0 0.44904083753606949 0.1441389705362057 0 0.45055708181009879 0.1690731760043504 0 0.46287167922105149 0.15545842773829099 0 0.46355845200513762 0.13850516077978961 0 0.47909635670674228 0.14767892477560191 0 0.46287167922105149 0.15545842773829099 0 0.46355845200513762 0.13850516077978961 0 0.44904083753606949 0.1441389705362057 0 0.46355845200513762 0.13850516077978961 0 0.47795750643906171 0.12649365297180731 0 0.4559740449914913 0.1245921335342187 0 0.46355845200513762 0.13850516077978961 0 0.44904083753606949 0.1441389705362057 0 0.4559740449914913 0.1245921335342187 0 0.43054248402473921 0.1250848439374013 0 0.44904083753606949 0.1441389705362057 0 0.4559740449914913 0.1245921335342187 0 0.42972130682252457 0.1533439082518103 0 0.44904083753606949 0.1441389705362057 0 0.45055708181009879 0.1690731760043504 0 0.42626679864566441 0.18172907206941921 0 0.45055708181009879 0.1690731760043504 0 0.44473765559285833 0.18692520255949671 0 0.46072674134079361 0.19234021588846559 0 0.45055708181009879 0.1690731760043504 0 0.44473765559285833 0.18692520255949671 0 0.46072674134079361 0.19234021588846559 0 0.45055708181009879 0.1690731760043504 0 0.4752785409050499 0.1685484481011886 0 0.46287167922105149 0.15545842773829099 0 0.45055708181009879 0.1690731760043504 0 0.4752785409050499 0.1685484481011886 0 0.45055708181009879 0.1690731760043504 0 0.4752785409050499 0.1685484481011886 0 0.46287167922105149 0.15545842773829099 0 0.4752785409050499 0.1685484481011886 0 0.47909635670674228 0.14767892477560191 0 0.46072674134079361 0.19234021588846559 0 0.4812983336831132 0.1885899983914231 0 0.4752785409050499 0.1685484481011886 0 0.4812983336831132 0.1885899983914231 0 0.4752785409050499 0.1685484481011886 0 0.50000000000000111 0.1680237201980268 0 0.4812983336831132 0.1885899983914231 0 0.5 0.19797878532577309 0 0.50000000000000111 0.1680237201980268 0 0.4752785409050499 0.1685484481011886 0 0.50000000000000111 0.1680237201980268 0 0.4752785409050499 0.1685484481011886 0 0.50000000000000111 0.1680237201980268 0 0.47909635670674228 0.14767892477560191 0 0.50000000000000111 0.1680237201980268 0 0.5 0.14405257421324749 0 0.47909635670674228 0.14767892477560191 0 0.46355845200513762 0.13850516077978961 0 0.47909635670674228 0.14767892477560191 0 0.47795750643906171 0.12649365297180731 0 0.5 0.14405257421324749 0 0.47795750643906171 0.12649365297180731 0 0.5 0.12008142822846821 0 0.5 0.14405257421324749 0 0.47909635670674228 0.14767892477560191 0 0.47795750643906171 0.12649365297180731 0 0.47795750643906171 0.12649365297180731 0 0.5 0.12008142822846821 0 0.48437617198066579 0.1083096126220475 0 0.48437617198066579 0.1083096126220475 0 0.5 0.096110282243688894 0 0.4787628640296252 0.09057766153942011 0 0.5 0.12008142822846821 0 0.48437617198066579 0.1083096126220475 0 0.5 0.096110282243688894 0 0.48437617198066579 0.1083096126220475 0 0.4787628640296252 0.09057766153942011 0 0.46516048943464161 0.10828503812685281 0 0.47795750643906171 0.12649365297180731 0 0.48437617198066579 0.1083096126220475 0 0.46516048943464161 0.10828503812685281 0 0.49999999999999389 0.072139136258909636 0 0.47264706529987838 0.068582714068275596 0 0.5 0.096110282243688894 0 0.49999999999999389 0.072139136258909636 0 0.4787628640296252 0.09057766153942011 0 0.49999999999999389 0.072139136258909636 0 0.4787628640296252 0.09057766153942011 0 0.47264706529987838 0.068582714068275596 0 0.47264706529987838 0.068582714068275596 0 0.44529413059976319 0.065026291877640793 0 0.47264706529987838 0.068582714068275596 0 0.45009241250792742 0.089848104882156193 0 0.44529413059976319 0.065026291877640793 0 0.4787628640296252 0.09057766153942011 0 0.47264706529987838 0.068582714068275596 0 0.45009241250792742 0.089848104882156193 0 0.45009241250792742 0.089848104882156193 0 0.44529413059976319 0.065026291877640793 0 0.42710943965072512 0.080764761008918995 0 0.4559740449914913 0.1245921335342187 0 0.46516048943464161 0.10828503812685281 0 0.44660059903698529 0.1095612823054605 0 0.47795750643906171 0.12649365297180731 0 0.4559740449914913 0.1245921335342187 0 0.46516048943464161 0.10828503812685281 0 0.45009241250792742 0.089848104882156193 0 0.46516048943464161 0.10828503812685281 0 0.44660059903698529 0.1095612823054605 0 0.4787628640296252 0.09057766153942011 0 0.45009241250792742 0.089848104882156193 0 0.46516048943464161 0.10828503812685281 0 0.45009241250792742 0.089848104882156193 0 0.44660059903698529 0.1095612823054605 0 0.42999027194599682 0.1018780191517587 0 0.43054248402473921 0.1250848439374013 0 0.4559740449914913 0.1245921335342187 0 0.44660059903698529 0.1095612823054605 0 0.43054248402473921 0.1250848439374013 0 0.44660059903698529 0.1095612823054605 0 0.42999027194599682 0.1018780191517587 0 0.43054248402473921 0.1250848439374013 0 0.41661501870526302 0.10782610780512 0 0.42999027194599682 0.1018780191517587 0 0.43054248402473921 0.1250848439374013 0 0.41135066019799099 0.1182158826350982 0 0.41661501870526302 0.10782610780512 0 0.43054248402473921 0.1250848439374013 0 0.41135066019799099 0.1182158826350982 0 0.41135066019799099 0.1182158826350982 0 0.41661501870526302 0.10782610780512 0 0.40605193543095291 0.1101899923625959 0 0.41199731756477831 0.13352747615702071 0 0.40856435551682457 0.1195913393650266 0 0.41135066019799099 0.1182158826350982 0 0.41661501870526302 0.10782610780512 0 0.42999027194599682 0.1018780191517587 0 0.41050144950628809 0.092342992232264526 0 0.41661501870526302 0.10782610780512 0 0.41050144950628809 0.092342992232264526 0 0.40408322644931421 0.10337105767737099 0 0.41661501870526302 0.10782610780512 0 0.40605193543095291 0.1101899923625959 0 0.40408322644931421 0.10337105767737099 0 0.45009241250792742 0.089848104882156193 0 0.42999027194599682 0.1018780191517587 0 0.42710943965072512 0.080764761008918995 0 0.42999027194599682 0.1018780191517587 0 0.42710943965072512 0.080764761008918995 0 0.41050144950628809 0.092342992232264526 0 0.44529413059976319 0.065026291877640793 0 0.42710943965072512 0.080764761008918995 0 0.41794119589964812 0.061469869687005997 0 0.44529413059976319 0.065026291877640793 0 0.41794119589964812 0.061469869687005997 0 0.42710943965072512 0.080764761008918995 0 0.40780427562880051 0.074340584248736047 0 0.41794119589964812 0.061469869687005997 0 0.42710943965072512 0.080764761008918995 0 0.40780427562880051 0.074340584248736047 0 0.41050144950628809 0.092342992232264526 0 0.41050144950628809 0.092342992232264526 0 0.39288103188780799 0.079211850819119467 0 0.39173805803946632 0.094638931286680023 0 0.40780427562880051 0.074340584248736047 0 0.41050144950628809 0.092342992232264526 0 0.39288103188780799 0.079211850819119467 0 0.40780427562880051 0.074340584248736047 0 0.39058826119953283 0.057913447496371839 0 0.41794119589964812 0.061469869687005997 0 0.40780427562880051 0.074340584248736047 0 0.39288103188780799 0.079211850819119467 0 0.39058826119953283 0.057913447496371839 0 0.39288103188780799 0.079211850819119467 0 0.37575225644292037 0.071709270247263784 0 0.39058826119953283 0.057913447496371839 0 0.3742009225581896 0.091268948227223284 0 0.39288103188780799 0.079211850819119467 0 0.39173805803946632 0.094638931286680023 0 0.3742009225581896 0.091268948227223284 0 0.39288103188780799 0.079211850819119467 0 0.37575225644292037 0.071709270247263784 0 0.3742009225581896 0.091268948227223284 0 0.39215883637124299 0.11134692133279479 0 0.39173805803946632 0.094638931286680023 0 0.3742009225581896 0.091268948227223284 0 0.39215883637124299 0.11134692133279479 0 0.3742009225581896 0.091268948227223284 0 0.3795225325030368 0.1068242515199407 0 0.39215883637124299 0.11134692133279479 0 0.3795225325030368 0.1068242515199407 0 0.39215883637124299 0.11134692133279479 0 0.3795225325030368 0.1068242515199407 0 0.38138511069115272 0.12353481432135879 0 0.3942733283070321 0.11371104406223111 0 0.36649271172908648 0.1176987398754743 0 0.3795225325030368 0.1068242515199407 0 0.38138511069115272 0.12353481432135879 0 0.39421974672685411 0.13240309148155921 0 0.38138511069115272 0.12353481432135879 0 0.3942733283070321 0.11371104406223111 0 0.3795225325030368 0.1068242515199407 0 0.3942733283070321 0.11371104406223111 0 0.3795225325030368 0.1068242515199407 0 0.39215883637124299 0.11134692133279479 0 0.3942733283070321 0.11371104406223111 0 0.41135066019799099 0.1182158826350982 0 0.39215883637124299 0.11134692133279479 0 0.40605193543095291 0.1101899923625959 0 0.41135066019799099 0.1182158826350982 0 0.39215883637124299 0.11134692133279479 0 0.3942733283070321 0.11371104406223111 0 0.41135066019799099 0.1182158826350982 0 0.39215883637124299 0.11134692133279479 0 0.41199731756477831 0.13352747615702071 0 0.40856435551682457 0.1195913393650266 0 0.3942733283070321 0.11371104406223111 0 0.41199731756477831 0.13352747615702071 0 0.3942733283070321 0.11371104406223111 0 0.40856435551682457 0.1195913393650266 0 0.41135066019799099 0.1182158826350982 0 0.3942733283070321 0.11371104406223111 0 0.39215883637124299 0.11134692133279479 0 0.3942733283070321 0.11371104406223111 0 0.40856435551682457 0.1195913393650266 0 0.3942733283070321 0.11371104406223111 0 0.39215883637124299 0.11134692133279479 0 0.40408322644931421 0.10337105767737099 0 0.39173805803946632 0.094638931286680023 0 0.39215883637124299 0.11134692133279479 0 0.40605193543095291 0.1101899923625959 0 0.40408322644931421 0.10337105767737099 0 0.41050144950628809 0.092342992232264526 0 0.40408322644931421 0.10337105767737099 0 0.39173805803946632 0.094638931286680023 0 0.4038432128890253 0.016274120358417851 0 0.39452024459155199 0.029629145094844 0 0.3798040161112804 0.028996110171619349 0 0.4038432128890253 0.016274120358417851 0 0.39452024459155199 0.029629145094844 0 0.40714332068978548 0.032011032787191827 0 0.4038432128890253 0.016274120358417851 0 0.3798040161112804 0.028996110171619349 0 0.4038432128890253 0.016274120358417851 0 0.39390920682105918 0.0040204267233196643 0 0.38813729234829519 0.016219836643301819 0 0.4038432128890253 0.016274120358417851 0 0.39390920682105918 0.0040204267233196643 0 0.40369857438468087 -0.0060371637805465179 0 0.39390920682105918 0.0040204267233196643 0 0.38212023564171321 0.001094655884648786 0 0.38813729234829519 0.016219836643301819 0 0.38212023564171321 0.001094655884648786 0 0.37537418671591988 0.012891754799621079 0 0.3700201466167648 -0.002195575246397889 0 0.38212023564171321 0.001094655884648786 0 0.37537418671591988 0.012891754799621079 0 0.38813729234829519 0.016219836643301819 0 0.38029426512156322 0.021339738828328979 0 0.38813729234829519 0.016219836643301819 0 0.3798040161112804 0.028996110171619349 0 0.4038432128890253 0.016274120358417851 0 0.38813729234829519 0.016219836643301819 0 0.3798040161112804 0.028996110171619349 0 0.37537418671591988 0.012891754799621079 0 0.38029426512156322 0.021339738828328979 0 0.37786156531075732 0.02725125369877367 0 0.37537418671591988 0.012891754799621079 0 0.38029426512156322 0.021339738828328979 0 0.38813729234829519 0.016219836643301819 0 0.39452024459155199 0.029629145094844 0 0.3798040161112804 0.028996110171619349 0 0.384792923869274 0.033192425096464057 0 0.38029426512156322 0.021339738828328979 0 0.3798040161112804 0.028996110171619349 0 0.37786156531075732 0.02725125369877367 0 0.36984281421283938 0.03924660656396721 0 0.3798040161112804 0.028996110171619349 0 0.37675727284589372 0.036323400775862158 0 0.3798040161112804 0.028996110171619349 0 0.38012370578730592 0.033949837724153123 0 0.37675727284589372 0.036323400775862158 0 0.3798040161112804 0.028996110171619349 0 0.38012370578730592 0.033949837724153123 0 0.384792923869274 0.033192425096464057 0 0.38012370578730592 0.033949837724153123 0 0.38115894465086869 0.037510150111343843 0 0.384792923869274 0.033192425096464057 0 0.38012370578730592 0.033949837724153123 0 0.38115894465086869 0.037510150111343843 0 0.37675727284589372 0.036323400775862158 0 0.38115894465086869 0.037510150111343843 0 0.37675727284589372 0.036323400775862158 0 0.37726993283737248 0.041439113600633092 0 0.37726993283737248 0.041439113600633092 0 0.38325871491723518 0.0441773091346798 0 0.37608467898805159 0.048096788967416412 0 0.38115894465086869 0.037510150111343843 0 0.37726993283737248 0.041439113600633092 0 0.38325871491723518 0.0441773091346798 0 0.38115894465086869 0.037510150111343843 0 0.38325871491723518 0.0441773091346798 0 0.38884635116990662 0.036871995634108659 0 0.38325871491723518 0.0441773091346798 0 0.38884635116990662 0.036871995634108659 0 0.39118926401298038 0.043344116461786472 0 0.39452024459155199 0.029629145094844 0 0.38884635116990662 0.036871995634108659 0 0.384792923869274 0.033192425096464057 0 0.38115894465086869 0.037510150111343843 0 0.38884635116990662 0.036871995634108659 0 0.384792923869274 0.033192425096464057 0 0.36737709041569239 0.056764699852256018 0 0.39058826119953283 0.057913447496371839 0 0.36443667806580698 0.054513224756226962 0 0.37608467898805159 0.048096788967416412 0 0.39058826119953283 0.057913447496371839 0 0.36737709041569239 0.056764699852256018 0 0.37575225644292037 0.071709270247263784 0 0.39058826119953283 0.057913447496371839 0 0.36443667806580698 0.054513224756226962 0 0.39058826119953283 0.057913447496371839 0 0.38325871491723518 0.0441773091346798 0 0.37608467898805159 0.048096788967416412 0 0.39058826119953283 0.057913447496371839 0 0.38325871491723518 0.0441773091346798 0 0.39058826119953283 0.057913447496371839 0 0.39118926401298038 0.043344116461786472 0 0.39058826119953283 0.057913447496371839 0 0.39917917489280202 0.048669550515315511 0 0.40824027372044169 0.058787065978875973 0 0.39058826119953283 0.057913447496371839 0 0.40824027372044169 0.058787065978875973 0 0.39058826119953283 0.057913447496371839 0 0.41794119589964812 0.061469869687005997 0 0.40824027372044169 0.058787065978875973 0 0.39058826119953283 0.057913447496371839 0 0.41794119589964812 0.061469869687005997 0 0.39058826119953283 0.057913447496371839 0 0.39917917489280202 0.048669550515315511 0 0.39118926401298038 0.043344116461786472 0 0.39917917489280202 0.048669550515315511 0 0.40803146459590139 0.044566129264659721 0 0.40824027372044169 0.058787065978875973 0 0.39452024459155199 0.029629145094844 0 0.38884635116990662 0.036871995634108659 0 0.39784661093515339 0.038736993374884177 0 0.39917917489280202 0.048669550515315511 0 0.39784661093515339 0.038736993374884177 0 0.39118926401298038 0.043344116461786472 0 0.38884635116990662 0.036871995634108659 0 0.39784661093515339 0.038736993374884177 0 0.39118926401298038 0.043344116461786472 0 0.39917917489280202 0.048669550515315511 0 0.39784661093515339 0.038736993374884177 0 0.40803146459590139 0.044566129264659721 0 0.39452024459155199 0.029629145094844 0 0.39784661093515339 0.038736993374884177 0 0.40714332068978548 0.032011032787191827 0 0.39784661093515339 0.038736993374884177 0 0.40714332068978548 0.032011032787191827 0 0.40803146459590139 0.044566129264659721 0 0.40714332068978548 0.032011032787191827 0 0.40803146459590139 0.044566129264659721 0 0.41964440497126981 0.040250358009145122 0 0.40803146459590139 0.044566129264659721 0 0.41964440497126981 0.040250358009145122 0 0.41733432138732551 0.050785193364838402 0 0.40714332068978548 0.032011032787191827 0 0.41964440497126981 0.040250358009145122 0 0.41891932927970088 0.026081136014491389 0 0.40824027372044169 0.058787065978875973 0 0.41733432138732551 0.050785193364838402 0 0.42589228624135061 0.059660684461379461 0 0.40824027372044169 0.058787065978875973 0 0.42589228624135061 0.059660684461379461 0 0.41794119589964812 0.061469869687005997 0 0.40824027372044169 0.058787065978875973 0 0.42589228624135061 0.059660684461379461 0 0.40803146459590139 0.044566129264659721 0 0.40824027372044169 0.058787065978875973 0 0.41733432138732551 0.050785193364838402 0 0.41964440497126981 0.040250358009145122 0 0.41733432138732551 0.050785193364838402 0 0.42647272639553008 0.050672874727357403 0 0.44529413059976319 0.065026291877640793 0 0.42589228624135061 0.059660684461379461 0 0.43583307009461808 0.053135938561971199 0 0.44529413059976319 0.065026291877640793 0 0.41794119589964812 0.061469869687005997 0 0.42589228624135061 0.059660684461379461 0 0.42589228624135061 0.059660684461379461 0 0.42647272639553008 0.050672874727357403 0 0.43583307009461808 0.053135938561971199 0 0.41733432138732551 0.050785193364838402 0 0.42589228624135061 0.059660684461379461 0 0.42647272639553008 0.050672874727357403 0 0.42647272639553008 0.050672874727357403 0 0.43583307009461808 0.053135938561971199 0 0.4340740022190257 0.043822740937536728 0 0.41964440497126981 0.040250358009145122 0 0.42987588244635011 0.033334548906864728 0 0.41891932927970088 0.026081136014491389 0 0.41964440497126981 0.040250358009145122 0 0.4340740022190257 0.043822740937536728 0 0.42987588244635011 0.033334548906864728 0 0.41964440497126981 0.040250358009145122 0 0.42647272639553008 0.050672874727357403 0 0.4340740022190257 0.043822740937536728 0 0.4340740022190257 0.043822740937536728 0 0.42987588244635011 0.033334548906864728 0 0.44528176508543132 0.032905620831071007 0 0.42987588244635011 0.033334548906864728 0 0.43184963590009789 0.021236349906575389 0 0.44528176508543132 0.032905620831071007 0 0.43184963590009789 0.021236349906575389 0 0.42259879527057942 0.015927249454054739 0 0.43188165484739188 0.01287087804949661 0 0.43184963590009789 0.021236349906575389 0 0.42259879527057942 0.015927249454054739 0 0.41891932927970088 0.026081136014491389 0 0.42987588244635011 0.033334548906864728 0 0.43184963590009789 0.021236349906575389 0 0.41891932927970088 0.026081136014491389 0 0.4038432128890253 0.016274120358417851 0 0.42259879527057942 0.015927249454054739 0 0.41891932927970088 0.026081136014491389 0 0.4038432128890253 0.016274120358417851 0 0.40714332068978548 0.032011032787191827 0 0.41891932927970088 0.026081136014491389 0 0.4038432128890253 0.016274120358417851 0 0.41402040698134779 -0.0025911497673051101 0 0.40369857438468087 -0.0060371637805465179 0 0.4038432128890253 0.016274120358417851 0 0.42788240966677021 0.003552130545216341 0 0.4038432128890253 0.016274120358417851 0 0.42101935538117791 0.0050386314779034547 0 0.41402040698134779 -0.0025911497673051101 0 0.4038432128890253 0.016274120358417851 0 0.42259879527057942 0.015927249454054739 0 0.42788240966677021 0.003552130545216341 0 0.4038432128890253 0.016274120358417851 0 0.42101935538117791 0.0050386314779034547 0 0.42788240966677021 0.003552130545216341 0 0.42788240966677021 0.003552130545216341 0 0.43188165484739188 0.01287087804949661 0 0.44740740452026229 0.01137317045841814 0 0.42259879527057942 0.015927249454054739 0 0.42788240966677021 0.003552130545216341 0 0.43188165484739188 0.01287087804949661 0 0.43184963590009789 0.021236349906575389 0 0.43188165484739188 0.01287087804949661 0 0.44740740452026229 0.01137317045841814 0 0.42788240966677021 0.003552130545216341 0 0.44740740452026229 0.01137317045841814 0 0.45192160644451512 -0.0091698592679851504 0 0.43184963590009789 0.021236349906575389 0 0.44740740452026229 0.01137317045841814 0 0.44528176508543132 0.032905620831071007 0 0.44740740452026229 0.01137317045841814 0 0.44528176508543132 0.032905620831071007 0 0.46875558315454652 0.02621282055229885 0 0.44740740452026229 0.01137317045841814 0 0.4740075662235973 0.0028935560396234419 0 0.46875558315454652 0.02621282055229885 0 0.44740740452026229 0.01137317045841814 0 0.4740075662235973 0.0028935560396234419 0 0.45192160644451512 -0.0091698592679851504 0 0.44529413059976319 0.065026291877640793 0 0.44587589901867808 0.047550444472131762 0 0.4614262583005877 0.04791767975015173 0 0.44529413059976319 0.065026291877640793 0 0.43583307009461808 0.053135938561971199 0 0.44587589901867808 0.047550444472131762 0 0.43583307009461808 0.053135938561971199 0 0.4340740022190257 0.043822740937536728 0 0.44587589901867808 0.047550444472131762 0 0.44587589901867808 0.047550444472131762 0 0.44528176508543132 0.032905620831071007 0 0.4614262583005877 0.04791767975015173 0 0.4340740022190257 0.043822740937536728 0 0.44587589901867808 0.047550444472131762 0 0.44528176508543132 0.032905620831071007 0 0.44528176508543132 0.032905620831071007 0 0.4614262583005877 0.04791767975015173 0 0.46875558315454652 0.02621282055229885 0 0.47264706529987838 0.068582714068275596 0 0.44529413059976319 0.065026291877640793 0 0.4614262583005877 0.04791767975015173 0 0.47264706529987838 0.068582714068275596 0 0.4614262583005877 0.04791767975015173 0 0.48053199367993171 0.043851827509569327 0 0.4614262583005877 0.04791767975015173 0 0.48053199367993171 0.043851827509569327 0 0.46875558315454652 0.02621282055229885 0 0.48053199367993171 0.043851827509569327 0 0.5 0.04545089247058498 0 0.5 0.018762648682260189 0 0.49999999999999389 0.072139136258909636 0 0.47264706529987838 0.068582714068275596 0 0.48053199367993171 0.043851827509569327 0 0.49999999999999389 0.072139136258909636 0 0.48053199367993171 0.043851827509569327 0 0.5 0.04545089247058498 0 0.48053199367993171 0.043851827509569327 0 0.46875558315454652 0.02621282055229885 0 0.5 0.018762648682260189 0 0.4740075662235973 0.0028935560396234419 0 0.46875558315454652 0.02621282055229885 0 0.5 0.018762648682260189 0 0.4740075662235973 0.0028935560396234419 0 0.5 0.018762648682260189 0 0.5 -0.0079255951060647756 0 0.4740075662235973 0.0028935560396234419 0 0.5 -0.0079255951060647756 0 0.47596080322225992 -0.02189184908118659 0 0.47596080322225992 -0.02189184908118659 0 0.50000000000000377 -0.034613838894389633 0 0.5 -0.0079255951060647756 0 0.47596080322225992 -0.02189184908118659 0 0.50000000000000377 -0.034613838894389633 0 0.47596080322225992 -0.02189184908118659 0 0.50000000000000377 -0.034613838894389633 0 0.48339532061042467 -0.042675677639817791 0 0.50000000000000377 -0.034613838894389633 0 0.5 -0.052291970509826757 0 0.48339532061042467 -0.042675677639817791 0 0.5 -0.052291970509826757 0 0.48378938215607542 -0.060491629721736481 0 0.49999999999999678 -0.069970102125263903 0 0.5 -0.052291970509826757 0 0.48378938215607542 -0.060491629721736481 0 0.48339532061042467 -0.042675677639817791 0 0.48378938215607542 -0.060491629721736481 0 0.47035919737641452 -0.05083356829212015 0 0.48339532061042467 -0.042675677639817791 0 0.48378938215607542 -0.060491629721736481 0 0.47035919737641452 -0.05083356829212015 0 0.46263532094350251 -0.0655193079319734 0 0.47596080322225992 -0.02189184908118659 0 0.48339532061042467 -0.042675677639817791 0 0.46122373864745198 -0.034064038759572521 0 0.47035919737641452 -0.05083356829212015 0 0.48339532061042467 -0.042675677639817791 0 0.46122373864745198 -0.034064038759572521 0 0.46122373864745198 -0.034064038759572521 0 0.45641225836005789 -0.05051217933658872 0 0.44483042593949818 -0.041063070916932051 0 0.47035919737641452 -0.05083356829212015 0 0.46122373864745198 -0.034064038759572521 0 0.45641225836005789 -0.05051217933658872 0 0.45641225836005789 -0.05051217933658872 0 0.44526353314296241 -0.062107813217869068 0 0.46263532094350251 -0.0655193079319734 0 0.47035919737641452 -0.05083356829212015 0 0.45641225836005789 -0.05051217933658872 0 0.46263532094350251 -0.0655193079319734 0 0.45641225836005789 -0.05051217933658872 0 0.44526353314296241 -0.062107813217869068 0 0.44483042593949818 -0.041063070916932051 0 0.44526353314296241 -0.062107813217869068 0 0.44483042593949818 -0.041063070916932051 0 0.42768193525564641 -0.052738548234870043 0 0.46122373864745198 -0.034064038759572521 0 0.44483042593949818 -0.041063070916932051 0 0.44260817666721519 -0.025216613737701819 0 0.44483042593949818 -0.041063070916932051 0 0.44260817666721519 -0.025216613737701819 0 0.43454865465473302 -0.032105158367880783 0 0.46122373864745198 -0.034064038759572521 0 0.44260817666721519 -0.025216613737701819 0 0.45192160644451512 -0.0091698592679851504 0 0.42788240966677021 0.003552130545216341 0 0.45192160644451512 -0.0091698592679851504 0 0.44260817666721519 -0.025216613737701819 0 0.45192160644451512 -0.0091698592679851504 0 0.43543049063324413 -0.012350052332502739 0 0.42788240966677021 0.003552130545216341 0 0.45192160644451512 -0.0091698592679851504 0 0.43543049063324413 -0.012350052332502739 0 0.4740075662235973 0.0028935560396234419 0 0.47596080322225992 -0.02189184908118659 0 0.45192160644451512 -0.0091698592679851504 0 0.47596080322225992 -0.02189184908118659 0 0.45192160644451512 -0.0091698592679851504 0 0.47596080322225992 -0.02189184908118659 0 0.46122373864745198 -0.034064038759572521 0 0.45192160644451512 -0.0091698592679851504 0 0.47621403880257929 -0.099362679963144546 0 0.45825176112352212 -0.1171944005084963 0 0.47461064769812122 -0.12772964805397971 0 0.50000000000000433 -0.1143432737178363 0 0.47621403880257929 -0.099362679963144546 0 0.47461064769812122 -0.12772964805397971 0 0.50000000000000433 -0.1143432737178363 0 0.47461064769812122 -0.12772964805397971 0 0.49999999999998102 -0.1000967699598443 0 0.47621403880257929 -0.099362679963144546 0 0.49999999999998102 -0.1000967699598443 0 0.47621403880257929 -0.099362679963144546 0 0.48785951469139027 -0.086657123706384981 0 0.50000000000000433 -0.1143432737178363 0 0.49999999999998102 -0.1000967699598443 0 0.47621403880257929 -0.099362679963144546 0 0.47621403880257929 -0.099362679963144546 0 0.48785951469139027 -0.086657123706384981 0 0.47522401996300467 -0.077198942777287505 0 0.47621403880257929 -0.099362679963144546 0 0.47522401996300467 -0.077198942777287505 0 0.46460819440086443 -0.0896918568577834 0 0.49999999999998102 -0.1000967699598443 0 0.48785951469139027 -0.086657123706384981 0 0.49999999999999678 -0.069970102125263903 0 0.49999999999999678 -0.069970102125263903 0 0.47522401996300467 -0.077198942777287505 0 0.48785951469139027 -0.086657123706384981 0 0.49999999999999678 -0.069970102125263903 0 0.47522401996300467 -0.077198942777287505 0 0.48378938215607542 -0.060491629721736481 0 0.49999999999999678 -0.069970102125263903 0 0.47522401996300467 -0.077198942777287505 0 0.48378938215607542 -0.060491629721736481 0 0.47522401996300467 -0.077198942777287505 0 0.46263532094350251 -0.0655193079319734 0 0.47522401996300467 -0.077198942777287505 0 0.46263532094350251 -0.0655193079319734 0 0.4504480399260129 -0.084427783429311939 0 0.44526353314296241 -0.062107813217869068 0 0.46263532094350251 -0.0655193079319734 0 0.4504480399260129 -0.084427783429311939 0 0.44526353314296241 -0.062107813217869068 0 0.4504480399260129 -0.084427783429311939 0 0.43069868055782679 -0.078899440675300136 0 0.4504480399260129 -0.084427783429311939 0 0.45242807760517778 -0.098628589966444233 0 0.42864211640777627 -0.097894499969741214 0 0.4504480399260129 -0.084427783429311939 0 0.42567205988902129 -0.091656624081337568 0 0.47522401996300467 -0.077198942777287505 0 0.4504480399260129 -0.084427783429311939 0 0.47522401996300467 -0.077198942777287505 0 0.4504480399260129 -0.084427783429311939 0 0.46460819440086443 -0.0896918568577834 0 0.4504480399260129 -0.084427783429311939 0 0.46460819440086443 -0.0896918568577834 0 0.45242807760517778 -0.098628589966444233 0 0.47621403880257929 -0.099362679963144546 0 0.45242807760517778 -0.098628589966444233 0 0.45825176112352212 -0.1171944005084963 0 0.47621403880257929 -0.099362679963144546 0 0.45242807760517778 -0.098628589966444233 0 0.47621403880257929 -0.099362679963144546 0 0.46460819440086443 -0.0896918568577834 0 0.45242807760517778 -0.098628589966444233 0 0.45242807760517778 -0.098628589966444233 0 0.42864211640777627 -0.097894499969741214 0 0.45242807760517778 -0.098628589966444233 0 0.43893170590200609 -0.1195052611799315 0 0.42864211640777627 -0.097894499969741214 0 0.45242807760517778 -0.098628589966444233 0 0.43893170590200609 -0.1195052611799315 0 0.45825176112352212 -0.1171944005084963 0 0.42080162445294911 -0.1170697999396166 0 0.40604313277712428 -0.1171380761358455 0 0.41368108829086198 -0.13554811058748131 0 0.42080162445294911 -0.1170697999396166 0 0.40662173914453831 -0.097214899993173481 0 0.40604313277712428 -0.1171380761358455 0 0.43893170590200609 -0.1195052611799315 0 0.42080162445294911 -0.1170697999396166 0 0.430889964195386 -0.135117951771525 0 0.43893170590200609 -0.1195052611799315 0 0.42080162445294911 -0.1170697999396166 0 0.42864211640777627 -0.097894499969741214 0 0.43893170590200609 -0.1195052611799315 0 0.42864211640777627 -0.097894499969741214 0 0.42864211640777627 -0.097894499969741214 0 0.42567205988902129 -0.091656624081337568 0 0.42864211640777627 -0.097894499969741214 0 0.40662173914453831 -0.097214899993173481 0 0.42567205988902129 -0.091656624081337568 0 0.42080162445294911 -0.1170697999396166 0 0.42864211640777627 -0.097894499969741214 0 0.40662173914453831 -0.097214899993173481 0 0.42864211640777627 -0.097894499969741214 0 0.40662173914453831 -0.097214899993173481 0 0.40662173914453831 -0.097214899993173481 0 0.42567205988902129 -0.091656624081337568 0 0.40662173914453831 -0.097214899993173481 0 0.41829766411352998 -0.087706900461061957 0 0.42567205988902129 -0.091656624081337568 0 0.40662173914453831 -0.097214899993173481 0 0.41020628866808312 -0.08357079425946129 0 0.41829766411352998 -0.087706900461061957 0 0.41020628866808312 -0.08357079425946129 0 0.42012861486432151 -0.07981881462850364 0 0.41094109939792961 -0.074512111623280808 0 0.41020628866808312 -0.08357079425946129 0 0.41094109939792961 -0.074512111623280808 0 0.40556094342569721 -0.078918860306745137 0 0.41020628866808312 -0.08357079425946129 0 0.42012861486432151 -0.07981881462850364 0 0.41829766411352998 -0.087706900461061957 0 0.42012861486432151 -0.07981881462850364 0 0.41829766411352998 -0.087706900461061957 0 0.42254342745458301 -0.084546146485576762 0 0.41829766411352998 -0.087706900461061957 0 0.42461385466063262 -0.08943412331831832 0 0.42254342745458301 -0.084546146485576762 0 0.42567205988902129 -0.091656624081337568 0 0.42461385466063262 -0.08943412331831832 0 0.43069868055782679 -0.078899440675300136 0 0.4504480399260129 -0.084427783429311939 0 0.42567205988902129 -0.091656624081337568 0 0.43069868055782679 -0.078899440675300136 0 0.4504480399260129 -0.084427783429311939 0 0.42864211640777627 -0.097894499969741214 0 0.42567205988902129 -0.091656624081337568 0 0.42567205988902129 -0.091656624081337568 0 0.42461385466063262 -0.08943412331831832 0 0.41829766411352998 -0.087706900461061957 0 0.42567205988902129 -0.091656624081337568 0 0.42461385466063262 -0.08943412331831832 0 0.42012861486432151 -0.07981881462850364 0 0.43069868055782679 -0.078899440675300136 0 0.42254342745458301 -0.084546146485576762 0 0.42461385466063262 -0.08943412331831832 0 0.43069868055782679 -0.078899440675300136 0 0.42254342745458301 -0.084546146485576762 0 0.43069868055782679 -0.078899440675300136 0 0.42085386234523608 -0.065266903626460593 0 0.41911482919747139 -0.073234494934215744 0 0.43069868055782679 -0.078899440675300136 0 0.42085386234523608 -0.065266903626460593 0 0.42768193525564641 -0.052738548234870043 0 0.44526353314296241 -0.062107813217869068 0 0.43069868055782679 -0.078899440675300136 0 0.42768193525564641 -0.052738548234870043 0 0.43069868055782679 -0.078899440675300136 0 0.42768193525564641 -0.052738548234870043 0 0.42012861486432151 -0.07981881462850364 0 0.43069868055782679 -0.078899440675300136 0 0.41911482919747139 -0.073234494934215744 0 0.42085386234523608 -0.065266903626460593 0 0.41911482919747139 -0.073234494934215744 0 0.41247118756252621 -0.068972059658544485 0 0.41911482919747139 -0.073234494934215744 0 0.41094109939792961 -0.074512111623280808 0 0.41247118756252621 -0.068972059658544485 0 0.42012861486432151 -0.07981881462850364 0 0.41911482919747139 -0.073234494934215744 0 0.41094109939792961 -0.074512111623280808 0 0.41094109939792961 -0.074512111623280808 0 0.41247118756252621 -0.068972059658544485 0 0.40519344017519737 -0.069697512887539489 0 0.42085386234523608 -0.065266903626460593 0 0.41247118756252621 -0.068972059658544485 0 0.40625270669679608 -0.06214927522122575 0 0.41247118756252621 -0.068972059658544485 0 0.40519344017519737 -0.069697512887539489 0 0.40625270669679608 -0.06214927522122575 0 0.40519344017519737 -0.069697512887539489 0 0.3909339432522656 -0.07145852807871525 0 0.40625270669679608 -0.06214927522122575 0 0.41094109939792961 -0.074512111623280808 0 0.40094221169150912 -0.074554002884685597 0 0.40556094342569721 -0.078918860306745137 0 0.40519344017519737 -0.069697512887539489 0 0.40094221169150912 -0.074554002884685597 0 0.3909339432522656 -0.07145852807871525 0 0.41094109939792961 -0.074512111623280808 0 0.40519344017519737 -0.069697512887539489 0 0.40094221169150912 -0.074554002884685597 0 0.40094221169150912 -0.074554002884685597 0 0.3909339432522656 -0.07145852807871525 0 0.39616481607021642 -0.077435810443283751 0 0.3909339432522656 -0.07145852807871525 0 0.39616481607021642 -0.077435810443283751 0 0.39262893539182381 -0.080692178350181262 0 0.39181446083091098 -0.066763706552935329 0 0.38421934743036401 -0.068446750892908373 0 0.38398729378694407 -0.058429379279077209 0 0.38421934743036401 -0.068446750892908373 0 0.37813424473731178 -0.068262582352726586 0 0.38398729378694407 -0.058429379279077209 0 0.37813424473731178 -0.068262582352726586 0 0.38294139036628899 -0.080331335386894381 0 0.37353404377441052 -0.075370636612477671 0 0.38421934743036401 -0.068446750892908373 0 0.37813424473731178 -0.068262582352726586 0 0.38294139036628899 -0.080331335386894381 0 0.39181446083091098 -0.066763706552935329 0 0.38294139036628899 -0.080331335386894381 0 0.39181446083091098 -0.066763706552935329 0 0.38421934743036401 -0.068446750892908373 0 0.38294139036628899 -0.080331335386894381 0 0.3909339432522656 -0.07145852807871525 0 0.39181446083091098 -0.066763706552935329 0 0.38294139036628899 -0.080331335386894381 0 0.38598565568847482 -0.085166122563822014 0 0.39289996883908601 -0.089154852807517448 0 0.39262893539182381 -0.080692178350181262 0 0.3909339432522656 -0.07145852807871525 0 0.38598565568847482 -0.085166122563822014 0 0.39262893539182381 -0.080692178350181262 0 0.3909339432522656 -0.07145852807871525 0 0.37406831990166722 -0.093898964220853504 0 0.3909339432522656 -0.07145852807871525 0 0.38598565568847482 -0.085166122563822014 0 0.37406831990166722 -0.093898964220853504 0 0.3909339432522656 -0.07145852807871525 0 0.38294139036628899 -0.080331335386894381 0 0.37406831990166722 -0.093898964220853504 0 0.38294139036628899 -0.080331335386894381 0 0.37406831990166722 -0.093898964220853504 0 0.38598565568847482 -0.085166122563822014 0 0.38240509603332101 -0.092127683864182172 0 0.37406831990166722 -0.093898964220853504 0 0.38240509603332101 -0.092127683864182172 0 0.39289996883908601 -0.089154852807517448 0 0.38960421283109031 -0.096689699614190994 0 0.38598565568847482 -0.085166122563822014 0 0.38240509603332101 -0.092127683864182172 0 0.39289996883908601 -0.089154852807517448 0 0.39289996883908601 -0.089154852807517448 0 0.39262893539182381 -0.080692178350181262 0 0.40015417394526698 -0.083038532459552866 0 0.39616481607021642 -0.077435810443283751 0 0.39262893539182381 -0.080692178350181262 0 0.40015417394526698 -0.083038532459552866 0 0.40094221169150912 -0.074554002884685597 0 0.40556094342569721 -0.078918860306745137 0 0.40015417394526698 -0.083038532459552866 0 0.40094221169150912 -0.074554002884685597 0 0.39616481607021642 -0.077435810443283751 0 0.40015417394526698 -0.083038532459552866 0 0.41020628866808312 -0.08357079425946129 0 0.40556094342569721 -0.078918860306745137 0 0.40015417394526698 -0.083038532459552866 0 0.40662173914453831 -0.097214899993173481 0 0.39289996883908601 -0.089154852807517448 0 0.40015417394526698 -0.083038532459552866 0 0.40662173914453831 -0.097214899993173481 0 0.41020628866808312 -0.08357079425946129 0 0.40015417394526698 -0.083038532459552866 0 0.40662173914453831 -0.097214899993173481 0 0.3851668720105898 -0.10347474583943909 0 0.38960421283109031 -0.096689699614190994 0 0.40662173914453831 -0.097214899993173481 0 0.3851668720105898 -0.10347474583943909 0 0.40662173914453831 -0.097214899993173481 0 0.39289996883908601 -0.089154852807517448 0 0.38960421283109031 -0.096689699614190994 0 0.40662173914453831 -0.097214899993173481 0 0.38960421283109031 -0.096689699614190994 0 0.40662173914453831 -0.097214899993173481 0 0.3851668720105898 -0.10347474583943909 0 0.39374350655696688 -0.1137959578468639 0 0.38960421283109031 -0.096689699614190994 0 0.37237061700676077 -0.09615783082836224 0 0.3851668720105898 -0.10347474583943909 0 0.38960421283109031 -0.096689699614190994 0 0.37237061700676077 -0.09615783082836224 0 0.38240509603332101 -0.092127683864182172 0 0.38960421283109031 -0.096689699614190994 0 0.37237061700676077 -0.09615783082836224 0 0.38240509603332101 -0.092127683864182172 0 0.37406831990166722 -0.093898964220853504 0 0.37237061700676077 -0.09615783082836224 0 0.3785150876385216 -0.1195111518185689 0 0.39374350655696688 -0.1137959578468639 0 0.39237070121405998 -0.13164091544729051 0 0.3851668720105898 -0.10347474583943909 0 0.3785150876385216 -0.1195111518185689 0 0.36371200487664068 -0.10973459168570281 0 0.3851668720105898 -0.10347474583943909 0 0.3785150876385216 -0.1195111518185689 0 0.39374350655696688 -0.1137959578468639 0 0.40662173914453831 -0.097214899993173481 0 0.39374350655696688 -0.1137959578468639 0 0.40604313277712428 -0.1171380761358455 0 0.39374350655696688 -0.1137959578468639 0 0.40604313277712428 -0.1171380761358455 0 0.39237070121405998 -0.13164091544729051 0 0.41728163952739061 -0.019334187549187701 0 0.42284227266732188 -0.010769512158268201 0 0.42466518995346408 -0.026577655794440151 0 0.41728163952739061 -0.019334187549187701 0 0.41227128108974659 -0.029924501558089681 0 0.42466518995346408 -0.026577655794440151 0 0.41227128108974659 -0.029924501558089681 0 0.40863720631140932 -0.019892986955346081 0 0.40014031603924488 -0.033106741091830219 0 0.41728163952739061 -0.019334187549187701 0 0.41227128108974659 -0.029924501558089681 0 0.40863720631140932 -0.019892986955346081 0 0.41728163952739061 -0.019334187549187701 0 0.40863720631140932 -0.019892986955346081 0 0.41436166681859882 -0.01226683791037885 0 0.40863720631140932 -0.019892986955346081 0 0.41436166681859882 -0.01226683791037885 0 0.40369857438468087 -0.0060371637805465179 0 0.42101935538117791 0.0050386314779034547 0 0.41402040698134779 -0.0025911497673051101 0 0.42284227266732188 -0.010769512158268201 0 0.41402040698134779 -0.0025911497673051101 0 0.41436166681859882 -0.01226683791037885 0 0.40369857438468087 -0.0060371637805465179 0 0.41402040698134779 -0.0025911497673051101 0 0.41436166681859882 -0.01226683791037885 0 0.42284227266732188 -0.010769512158268201 0 0.41728163952739061 -0.019334187549187701 0 0.41436166681859882 -0.01226683791037885 0 0.42284227266732188 -0.010769512158268201 0 0.42284227266732188 -0.010769512158268201 0 0.43543049063324413 -0.012350052332502739 0 0.42769414368384923 -0.02254750278133769 0 0.42101935538117791 0.0050386314779034547 0 0.42284227266732188 -0.010769512158268201 0 0.42101935538117791 0.0050386314779034547 0 0.42788240966677021 0.003552130545216341 0 0.42284227266732188 -0.010769512158268201 0 0.42788240966677021 0.003552130545216341 0 0.42284227266732188 -0.010769512158268201 0 0.43543049063324413 -0.012350052332502739 0 0.42284227266732188 -0.010769512158268201 0 0.42466518995346408 -0.026577655794440151 0 0.42284227266732188 -0.010769512158268201 0 0.42769414368384923 -0.02254750278133769 0 0.42466518995346408 -0.026577655794440151 0 0.44260817666721519 -0.025216613737701819 0 0.43543049063324413 -0.012350052332502739 0 0.42769414368384923 -0.02254750278133769 0 0.42769414368384923 -0.02254750278133769 0 0.42466518995346408 -0.026577655794440151 0 0.43454865465473302 -0.032105158367880783 0 0.42769414368384923 -0.02254750278133769 0 0.42466518995346408 -0.026577655794440151 0 0.44260817666721519 -0.025216613737701819 0 0.42769414368384923 -0.02254750278133769 0 0.43454865465473302 -0.032105158367880783 0 0.42466518995346408 -0.026577655794440151 0 0.43454865465473302 -0.032105158367880783 0 0.42768193525564641 -0.052738548234870043 0 0.42466518995346408 -0.026577655794440151 0 0.42768193525564641 -0.052738548234870043 0 0.44483042593949818 -0.041063070916932051 0 0.43454865465473302 -0.032105158367880783 0 0.42768193525564641 -0.052738548234870043 0 0.42085386234523608 -0.065266903626460593 0 0.42768193525564641 -0.052738548234870043 0 0.40779956660286398 -0.049018091936576927 0 0.42085386234523608 -0.065266903626460593 0 0.40779956660286398 -0.049018091936576927 0 0.40625270669679608 -0.06214927522122575 0 0.42466518995346408 -0.026577655794440151 0 0.42768193525564641 -0.052738548234870043 0 0.40779956660286398 -0.049018091936576927 0 0.42466518995346408 -0.026577655794440151 0 0.40779956660286398 -0.049018091936576927 0 0.41227128108974659 -0.029924501558089681 0 0.42466518995346408 -0.026577655794440151 0 0.40779956660286398 -0.049018091936576927 0 0.41227128108974659 -0.029924501558089681 0 0.40779956660286398 -0.049018091936576927 0 0.40014031603924488 -0.033106741091830219 0 0.40779956660286398 -0.049018091936576927 0 0.40014031603924488 -0.033106741091830219 0 0.3912967176308087 -0.04756724484766426 0 0.40014031603924488 -0.033106741091830219 0 0.3912967176308087 -0.04756724484766426 0 0.38547037370043469 -0.032308846426106139 0 0.3909339432522656 -0.07145852807871525 0 0.40779956660286398 -0.049018091936576927 0 0.40625270669679608 -0.06214927522122575 0 0.3909339432522656 -0.07145852807871525 0 0.39181446083091098 -0.066763706552935329 0 0.40779956660286398 -0.049018091936576927 0 0.39181446083091098 -0.066763706552935329 0 0.40779956660286398 -0.049018091936576927 0 0.3912967176308087 -0.04756724484766426 0 0.3909339432522656 -0.07145852807871525 0 0.40779956660286398 -0.049018091936576927 0 0.3912967176308087 -0.04756724484766426 0 0.38398729378694407 -0.058429379279077209 0 0.37514153202862571 -0.045861082966856079 0 0.39181446083091098 -0.066763706552935329 0 0.3912967176308087 -0.04756724484766426 0 0.38398729378694407 -0.058429379279077209 0 0.38398729378694407 -0.058429379279077209 0 0.37514153202862571 -0.045861082966856079 0 0.37192531576168952 -0.05914395824800911 0 0.37813424473731178 -0.068262582352726586 0 0.38398729378694407 -0.058429379279077209 0 0.37192531576168952 -0.05914395824800911 0 0.3912967176308087 -0.04756724484766426 0 0.38547037370043469 -0.032308846426106139 0 0.37514153202862571 -0.045861082966856079 0 0.38547037370043469 -0.032308846426106139 0 0.37514153202862571 -0.045861082966856079 0 0.36877413775607049 -0.02995327657106206 0 0.38547037370043469 -0.032308846426106139 0 0.37927030083329177 -0.015743113788958679 0 0.36877413775607049 -0.02995327657106206 0 0.38547037370043469 -0.032308846426106139 0 0.37927030083329177 -0.015743113788958679 0 0.39536675090020662 -0.019928774827198261 0 0.40014031603924488 -0.033106741091830219 0 0.38547037370043469 -0.032308846426106139 0 0.39536675090020662 -0.019928774827198261 0 0.40863720631140932 -0.019892986955346081 0 0.40014031603924488 -0.033106741091830219 0 0.39536675090020662 -0.019928774827198261 0 0.40863720631140932 -0.019892986955346081 0 0.39536675090020662 -0.019928774827198261 0 0.40369857438468087 -0.0060371637805465179 0 0.39536675090020662 -0.019928774827198261 0 0.40369857438468087 -0.0060371637805465179 0 0.39174671884158141 -0.0074493154892236006 0 0.39390920682105918 0.0040204267233196643 0 0.40369857438468087 -0.0060371637805465179 0 0.39174671884158141 -0.0074493154892236006 0 0.38212023564171321 0.001094655884648786 0 0.37927030083329177 -0.015743113788958679 0 0.39174671884158141 -0.0074493154892236006 0 0.38212023564171321 0.001094655884648786 0 0.37927030083329177 -0.015743113788958679 0 0.3700201466167648 -0.002195575246397889 0 0.37927030083329177 -0.015743113788958679 0 0.39536675090020662 -0.019928774827198261 0 0.39174671884158141 -0.0074493154892236006 0 0.39390920682105918 0.0040204267233196643 0 0.38212023564171321 0.001094655884648786 0 0.39174671884158141 -0.0074493154892236006 0 0.35686418876597309 0.010252504770385159 0 0.3700201466167648 -0.002195575246397889 0 0.35727920934793722 -0.0129667368589869 0 0.37927030083329177 -0.015743113788958679 0 0.3700201466167648 -0.002195575246397889 0 0.35727920934793722 -0.0129667368589869 0 0.36877413775607049 -0.02995327657106206 0 0.35727920934793722 -0.0129667368589869 0 0.35227314840285812 -0.03152257084722427 0 0.37927030083329177 -0.015743113788958679 0 0.36877413775607049 -0.02995327657106206 0 0.35727920934793722 -0.0129667368589869 0 0.35727920934793722 -0.0129667368589869 0 0.33875503928457851 -0.02222753562310531 0 0.35227314840285812 -0.03152257084722427 0 0.35727920934793722 -0.0129667368589869 0 0.33586681222118892 -0.0067462441580033658 0 0.33875503928457851 -0.02222753562310531 0 0.35686418876597309 0.010252504770385159 0 0.35727920934793722 -0.0129667368589869 0 0.33586681222118892 -0.0067462441580033658 0 0.33586681222118892 -0.0067462441580033658 0 0.33875503928457851 -0.02222753562310531 0 0.31486943567640469 -0.023744993086391868 0 0.33875503928457851 -0.02222753562310531 0 0.31486943567640469 -0.023744993086391868 0 0.33348659077450338 -0.036157133164920148 0 0.33875503928457851 -0.02222753562310531 0 0.33348659077450338 -0.036157133164920148 0 0.35227314840285812 -0.03152257084722427 0 0.31046320235639918 0.0067575729804437252 0 0.33586681222118892 -0.0067462441580033658 0 0.3153830815233527 -0.0087530987426132929 0 0.33586681222118892 -0.0067462441580033658 0 0.31486943567640469 -0.023744993086391868 0 0.3153830815233527 -0.0087530987426132929 0 0.33586681222118892 -0.0067462441580033658 0 0.31486943567640469 -0.023744993086391868 0 0.32115491610998381 -0.052976688016941227 0 0.32092150739102382 -0.073097043805500014 0 0.30601744289912669 -0.055409131432484229 0 0.32115491610998381 -0.052976688016941227 0 0.31197137499350902 -0.041008225260955711 0 0.30601744289912669 -0.055409131432484229 0 0.31486943567640469 -0.023744993086391868 0 0.33348659077450338 -0.036157133164920148 0 0.31197137499350902 -0.041008225260955711 0 0.32115491610998381 -0.052976688016941227 0 0.33348659077450338 -0.036157133164920148 0 0.31197137499350902 -0.041008225260955711 0 0.33348659077450338 -0.036157133164920148 0 0.3363568723602065 -0.050864743298462772 0 0.35116628403686417 -0.048621598638038131 0 0.32115491610998381 -0.052976688016941227 0 0.33348659077450338 -0.036157133164920148 0 0.3363568723602065 -0.050864743298462772 0 0.32115491610998381 -0.052976688016941227 0 0.3363568723602065 -0.050864743298462772 0 0.33388625794764348 -0.064812423232177271 0 0.3363568723602065 -0.050864743298462772 0 0.34794047334546518 -0.063974584280765273 0 0.33388625794764348 -0.064812423232177271 0 0.3363568723602065 -0.050864743298462772 0 0.35116628403686417 -0.048621598638038131 0 0.34794047334546518 -0.063974584280765273 0 0.35116628403686417 -0.048621598638038131 0 0.35914505774559541 -0.060409417065886872 0 0.36392372675137458 -0.051574144679805103 0 0.35116628403686417 -0.048621598638038131 0 0.36240463436463582 -0.041692596330413237 0 0.36392372675137458 -0.051574144679805103 0 0.35116628403686417 -0.048621598638038131 0 0.35914505774559541 -0.060409417065886872 0 0.34794047334546518 -0.063974584280765273 0 0.35116628403686417 -0.048621598638038131 0 0.35227314840285812 -0.03152257084722427 0 0.36240463436463582 -0.041692596330413237 0 0.33348659077450338 -0.036157133164920148 0 0.35116628403686417 -0.048621598638038131 0 0.35227314840285812 -0.03152257084722427 0 0.37514153202862571 -0.045861082966856079 0 0.36877413775607049 -0.02995327657106206 0 0.36240463436463582 -0.041692596330413237 0 0.36877413775607049 -0.02995327657106206 0 0.35227314840285812 -0.03152257084722427 0 0.36240463436463582 -0.041692596330413237 0 0.37514153202862571 -0.045861082966856079 0 0.36240463436463582 -0.041692596330413237 0 0.36392372675137458 -0.051574144679805103 0 0.35914505774559541 -0.060409417065886872 0 0.36392372675137458 -0.051574144679805103 0 0.37192531576168952 -0.05914395824800911 0 0.37514153202862571 -0.045861082966856079 0 0.36392372675137458 -0.051574144679805103 0 0.37192531576168952 -0.05914395824800911 0 0.37813424473731178 -0.068262582352726586 0 0.37192531576168952 -0.05914395824800911 0 0.3680772617285144 -0.06977757947088653 0 0.35914505774559541 -0.060409417065886872 0 0.37192531576168952 -0.05914395824800911 0 0.3680772617285144 -0.06977757947088653 0 0.35914505774559541 -0.060409417065886872 0 0.3680772617285144 -0.06977757947088653 0 0.35837286676988928 -0.071968688592424085 0 0.3680772617285144 -0.06977757947088653 0 0.36498327826552668 -0.083111049239403226 0 0.35837286676988928 -0.071968688592424085 0 0.3680772617285144 -0.06977757947088653 0 0.37353404377441052 -0.075370636612477671 0 0.36498327826552668 -0.083111049239403226 0 0.37813424473731178 -0.068262582352726586 0 0.3680772617285144 -0.06977757947088653 0 0.37353404377441052 -0.075370636612477671 0 0.38294139036628899 -0.080331335386894381 0 0.37353404377441052 -0.075370636612477671 0 0.36498327826552668 -0.083111049239403226 0 0.36498327826552668 -0.083111049239403226 0 0.37237061700676077 -0.09615783082836224 0 0.34241852099989789 -0.095233439592861846 0 0.38294139036628899 -0.080331335386894381 0 0.36498327826552668 -0.083111049239403226 0 0.37406831990166722 -0.093898964220853504 0 0.36498327826552668 -0.083111049239403226 0 0.37406831990166722 -0.093898964220853504 0 0.37237061700676077 -0.09615783082836224 0 0.36498327826552668 -0.083111049239403226 0 0.3449175019875389 -0.076917716904771144 0 0.34241852099989789 -0.095233439592861846 0 0.36498327826552668 -0.083111049239403226 0 0.3449175019875389 -0.076917716904771144 0 0.35837286676988928 -0.071968688592424085 0 0.3449175019875389 -0.076917716904771144 0 0.34794047334546518 -0.063974584280765273 0 0.35837286676988928 -0.071968688592424085 0 0.35914505774559541 -0.060409417065886872 0 0.34794047334546518 -0.063974584280765273 0 0.35837286676988928 -0.071968688592424085 0 0.36371200487664068 -0.10973459168570281 0 0.35664352332635268 -0.13060513793896061 0 0.36779594019891898 -0.12729788290040461 0 0.3785150876385216 -0.1195111518185689 0 0.36371200487664068 -0.10973459168570281 0 0.36779594019891898 -0.12729788290040461 0 0.36371200487664068 -0.10973459168570281 0 0.37237061700676077 -0.09615783082836224 0 0.34241852099989789 -0.095233439592861846 0 0.3851668720105898 -0.10347474583943909 0 0.36371200487664068 -0.10973459168570281 0 0.37237061700676077 -0.09615783082836224 0 0.3851668720105898 -0.10347474583943909 0 0.36371200487664068 -0.10973459168570281 0 0.36371200487664068 -0.10973459168570281 0 0.37237061700676077 -0.09615783082836224 0 0.37406831990166722 -0.093898964220853504 0 0.37237061700676077 -0.09615783082836224 0 0.36371200487664068 -0.10973459168570281 0 0.34332012240242971 -0.1020930362129598 0 0.34241852099989789 -0.095233439592861846 0 0.36371200487664068 -0.10973459168570281 0 0.35002252173753962 -0.112446561286345 0 0.34332012240242971 -0.1020930362129598 0 0.37237061700676077 -0.09615783082836224 0 0.34241852099989789 -0.095233439592861846 0 0.35002252173753962 -0.112446561286345 0 0.34025414842832208 -0.11782241666052221 0 0.34332012240242971 -0.1020930362129598 0 0.36371200487664068 -0.10973459168570281 0 0.35355367174401742 -0.1211945845718113 0 0.34779048707731292 -0.1340798558009649 0 0.36371200487664068 -0.10973459168570281 0 0.35664352332635268 -0.13060513793896061 0 0.34779048707731292 -0.1340798558009649 0 0.36371200487664068 -0.10973459168570281 0 0.34779048707731292 -0.1340798558009649 0 0.36371200487664068 -0.10973459168570281 0 0.35002252173753962 -0.112446561286345 0 0.35355367174401742 -0.1211945845718113 0 0.36371200487664068 -0.10973459168570281 0 0.35355367174401742 -0.1211945845718113 0 0.35002252173753962 -0.112446561286345 0 0.35355367174401742 -0.1211945845718113 0 0.34025414842832208 -0.11782241666052221 0 0.35355367174401742 -0.1211945845718113 0 0.34025414842832208 -0.11782241666052221 0 0.34381162934489939 -0.12854128697128539 0 0.33094534805706732 -0.1177437606496905 0 0.31854024801571379 -0.1183964408803808 0 0.33718817445421712 -0.13355179710808501 0 0.34025414842832208 -0.11782241666052221 0 0.33378984816934337 -0.1086297847084315 0 0.34332012240242971 -0.1020930362129598 0 0.33094534805706732 -0.1177437606496905 0 0.34025414842832208 -0.11782241666052221 0 0.33718817445421712 -0.13355179710808501 0 0.34025414842832208 -0.11782241666052221 0 0.34332012240242971 -0.1020930362129598 0 0.33094534805706732 -0.1177437606496905 0 0.33378984816934337 -0.1086297847084315 0 0.32495432121773932 -0.110318363891034 0 0.33094534805706732 -0.1177437606496905 0 0.34025414842832208 -0.11782241666052221 0 0.33378984816934337 -0.1086297847084315 0 0.33378984816934337 -0.1086297847084315 0 0.32725903490077729 -0.10071499943534749 0 0.32495432121773932 -0.110318363891034 0 0.33378984816934337 -0.1086297847084315 0 0.33669688161811212 -0.1016678149874002 0 0.32725903490077729 -0.10071499943534749 0 0.33378984816934337 -0.1086297847084315 0 0.34332012240242971 -0.1020930362129598 0 0.33669688161811212 -0.1016678149874002 0 0.34332012240242971 -0.1020930362129598 0 0.33669688161811212 -0.1016678149874002 0 0.34241852099989789 -0.095233439592861846 0 0.33669688161811212 -0.1016678149874002 0 0.34241852099989789 -0.095233439592861846 0 0.32725903490077729 -0.10071499943534749 0 0.34241852099989789 -0.095233439592861846 0 0.31246642499303512 -0.0943090483573608 0 0.34241852099989789 -0.095233439592861846 0 0.32725903490077729 -0.10071499943534749 0 0.31246642499303512 -0.0943090483573608 0 0.32725903490077729 -0.10071499943534749 0 0.31716114910448651 -0.10565591717263 0 0.31246642499303512 -0.0943090483573608 0 0.32725903490077729 -0.10071499943534749 0 0.31716114910448651 -0.10565591717263 0 0.32495432121773932 -0.110318363891034 0 0.33094534805706732 -0.1177437606496905 0 0.32495432121773932 -0.110318363891034 0 0.31854024801571379 -0.1183964408803808 0 0.31716114910448651 -0.10565591717263 0 0.32495432121773932 -0.110318363891034 0 0.31854024801571379 -0.1183964408803808 0 0.31716114910448651 -0.10565591717263 0 0.31854024801571379 -0.1183964408803808 0 0.30531265091832138 -0.10738965970164049 0 0.3449175019875389 -0.076917716904771144 0 0.33388625794764348 -0.064812423232177271 0 0.32092150739102382 -0.073097043805500014 0 0.3449175019875389 -0.076917716904771144 0 0.34794047334546518 -0.063974584280765273 0 0.33388625794764348 -0.064812423232177271 0 0.3449175019875389 -0.076917716904771144 0 0.34241852099989789 -0.095233439592861846 0 0.32092150739102382 -0.073097043805500014 0 0.34241852099989789 -0.095233439592861846 0 0.32092150739102382 -0.073097043805500014 0 0.31246642499303512 -0.0943090483573608 0 0.32115491610998381 -0.052976688016941227 0 0.33388625794764348 -0.064812423232177271 0 0.32092150739102382 -0.073097043805500014 0 0.32092150739102382 -0.073097043805500014 0 0.28819319405889499 -0.06706419956831737 0 0.31246642499303512 -0.0943090483573608 0 0.32092150739102382 -0.073097043805500014 0 0.28819319405889499 -0.06706419956831737 0 0.30601744289912669 -0.055409131432484229 0 0.28251432898617262 -0.093384657121855619 0 0.28819319405889499 -0.06706419956831737 0 0.31246642499303512 -0.0943090483573608 0 0.28251432898617262 -0.093384657121855619 0 0.28819319405889499 -0.06706419956831737 0 0.28251432898617262 -0.093384657121855619 0 0.28819319405889499 -0.06706419956831737 0 0.2788070763813692 -0.075616481315712358 0 0.30531265091832138 -0.10738965970164049 0 0.29209333803684512 -0.1204183792118467 0 0.30316218715013699 -0.13585617877411299 0 0.31854024801571379 -0.1183964408803808 0 0.30531265091832138 -0.10738965970164049 0 0.30316218715013699 -0.13585617877411299 0 0.30531265091832138 -0.10738965970164049 0 0.30316218715013699 -0.13585617877411299 0 0.30531265091832138 -0.10738965970164049 0 0.31246642499303512 -0.0943090483573608 0 0.2913954051317153 -0.1063448066268642 0 0.28251432898617262 -0.093384657121855619 0 0.31246642499303512 -0.0943090483573608 0 0.31716114910448651 -0.10565591717263 0 0.30531265091832138 -0.10738965970164049 0 0.31246642499303512 -0.0943090483573608 0 0.28251432898617262 -0.093384657121855619 0 0.31246642499303512 -0.0943090483573608 0 0.2913954051317153 -0.1063448066268642 0 0.28251432898617262 -0.093384657121855619 0 0.2913954051317153 -0.1063448066268642 0 0.27794998204403759 -0.11453953550188679 0 0.30531265091832138 -0.10738965970164049 0 0.2913954051317153 -0.1063448066268642 0 0.29209333803684512 -0.1204183792118467 0 0.2913954051317153 -0.1063448066268642 0 0.29209333803684512 -0.1204183792118467 0 0.27794998204403759 -0.11453953550188679 0 0.27794998204403759 -0.11453953550188679 0 0.25915390151091949 -0.11811210275817149 0 0.27338563510190422 -0.1356944138819183 0 0.29209333803684512 -0.1204183792118467 0 0.27794998204403759 -0.11453953550188679 0 0.27338563510190422 -0.1356944138819183 0 0.28251432898617262 -0.093384657121855619 0 0.27794998204403759 -0.11453953550188679 0 0.25666672159796139 -0.092586939936295867 0 0.28251432898617262 -0.093384657121855619 0 0.27794998204403759 -0.11453953550188679 0 0.25915390151091949 -0.11811210275817149 0 0.25666672159796139 -0.092586939936295867 0 0.23839025179526999 -0.1151992729885977 0 0.27794998204403759 -0.11453953550188679 0 0.25915390151091949 -0.11811210275817149 0 0.25666672159796139 -0.092586939936295867 0 0.28819319405889499 -0.06706419956831737 0 0.27512965144911827 -0.070681904186227995 0 0.27783686619476677 -0.05372527893061739 0 0.26897876163713708 -0.070467118147906876 0 0.27512965144911827 -0.070681904186227995 0 0.27783686619476677 -0.05372527893061739 0 0.26897876163713708 -0.070467118147906876 0 0.26180167325791431 -0.066706815846455908 0 0.27783686619476677 -0.05372527893061739 0 0.27067132333055188 -0.076788874412469815 0 0.26897876163713708 -0.070467118147906876 0 0.26145119023330071 -0.079000043976386408 0 0.27067132333055188 -0.076788874412469815 0 0.26897876163713708 -0.070467118147906876 0 0.2788070763813692 -0.075616481315712358 0 0.26897876163713708 -0.070467118147906876 0 0.27512965144911827 -0.070681904186227995 0 0.28819319405889499 -0.06706419956831737 0 0.2788070763813692 -0.075616481315712358 0 0.27512965144911827 -0.070681904186227995 0 0.26897876163713708 -0.070467118147906876 0 0.2788070763813692 -0.075616481315712358 0 0.26897876163713708 -0.070467118147906876 0 0.2788070763813692 -0.075616481315712358 0 0.27512965144911827 -0.070681904186227995 0 0.28251432898617262 -0.093384657121855619 0 0.25666672159796139 -0.092586939936295867 0 0.28251432898617262 -0.093384657121855619 0 0.27051227275229911 -0.08315566172012806 0 0.25666672159796139 -0.092586939936295867 0 0.28251432898617262 -0.093384657121855619 0 0.2788070763813692 -0.075616481315712358 0 0.27051227275229911 -0.08315566172012806 0 0.27067132333055188 -0.076788874412469815 0 0.27051227275229911 -0.08315566172012806 0 0.26145119023330071 -0.079000043976386408 0 0.27067132333055188 -0.076788874412469815 0 0.2788070763813692 -0.075616481315712358 0 0.27051227275229911 -0.08315566172012806 0 0.26145119023330071 -0.079000043976386408 0 0.25666672159796139 -0.092586939936295867 0 0.24423239209720191 -0.080930297464084477 0 0.27051227275229911 -0.08315566172012806 0 0.26145119023330071 -0.079000043976386408 0 0.25666672159796139 -0.092586939936295867 0 0.26180167325791431 -0.066706815846455908 0 0.25764566998465072 -0.070071372177431313 0 0.24120587699226881 -0.055916030502087773 0 0.26145119023330071 -0.079000043976386408 0 0.25764566998465072 -0.070071372177431313 0 0.24423239209720191 -0.080930297464084477 0 0.25764566998465072 -0.070071372177431313 0 0.24423239209720191 -0.080930297464084477 0 0.26897876163713708 -0.070467118147906876 0 0.26145119023330071 -0.079000043976386408 0 0.25764566998465072 -0.070071372177431313 0 0.26897876163713708 -0.070467118147906876 0 0.26180167325791431 -0.066706815846455908 0 0.25764566998465072 -0.070071372177431313 0 0.26897876163713708 -0.070467118147906876 0 0.25764566998465072 -0.070071372177431313 0 0.26897876163713708 -0.070467118147906876 0 0.26180167325791431 -0.066706815846455908 0 0.26180167325791431 -0.066706815846455908 0 0.25764566998465072 -0.070071372177431313 0 0.26180167325791431 -0.066706815846455908 0 0.26029261894245981 -0.048826031507571623 0 0.24120587699226881 -0.055916030502087773 0 0.26180167325791431 -0.066706815846455908 0 0.24120587699226881 -0.055916030502087773 0 0.26180167325791431 -0.066706815846455908 0 0.26029261894245981 -0.048826031507571623 0 0.27783686619476677 -0.05372527893061739 0 0.26180167325791431 -0.066706815846455908 0 0.27783686619476677 -0.05372527893061739 0 0.26029261894245981 -0.048826031507571623 0 0.27783686619476677 -0.05372527893061739 0 0.27031708646619812 -0.033638605470610219 0 0.27783686619476677 -0.05372527893061739 0 0.27031708646619812 -0.033638605470610219 0 0.28437966209514692 -0.033534114227583768 0 0.26029261894245981 -0.048826031507571623 0 0.27031708646619812 -0.033638605470610219 0 0.25030159180115191 -0.034143426788088307 0 0.26029261894245981 -0.048826031507571623 0 0.25030159180115191 -0.034143426788088307 0 0.24120587699226881 -0.055916030502087773 0 0.25030159180115191 -0.034143426788088307 0 0.26299580833271302 -0.019789195105520681 0 0.2464198669495459 -0.012097030270161889 0 0.27031708646619812 -0.033638605470610219 0 0.25030159180115191 -0.034143426788088307 0 0.26299580833271302 -0.019789195105520681 0 0.25322369798355371 0.0032948183560677501 0 0.26778398551549509 -0.0036893303100333872 0 0.2464198669495459 -0.012097030270161889 0 0.26299580833271302 -0.019789195105520681 0 0.26778398551549509 -0.0036893303100333872 0 0.2464198669495459 -0.012097030270161889 0 0.26299580833271302 -0.019789195105520681 0 0.26778398551549509 -0.0036893303100333872 0 0.28231604015163769 -0.018351258625531171 0 0.2895407867033607 0.0013395930438658619 0 0.26778398551549509 -0.0036893303100333872 0 0.28231604015163769 -0.018351258625531171 0 0.27031708646619812 -0.033638605470610219 0 0.26299580833271302 -0.019789195105520681 0 0.28231604015163769 -0.018351258625531171 0 0.27031708646619812 -0.033638605470610219 0 0.28231604015163769 -0.018351258625531171 0 0.28437966209514692 -0.033534114227583768 0 0.28231604015163769 -0.018351258625531171 0 0.29600028882747859 -0.03087980289019443 0 0.28437966209514692 -0.033534114227583768 0 0.28231604015163769 -0.018351258625531171 0 0.29600028882747859 -0.03087980289019443 0 0.30132541624728598 -0.01217829343577128 0 0.2895407867033607 0.0013395930438658619 0 0.28231604015163769 -0.018351258625531171 0 0.30132541624728598 -0.01217829343577128 0 0.31046320235639918 0.0067575729804437252 0 0.2895407867033607 0.0013395930438658619 0 0.30132541624728598 -0.01217829343577128 0 0.31046320235639918 0.0067575729804437252 0 0.3153830815233527 -0.0087530987426132929 0 0.30132541624728598 -0.01217829343577128 0 0.31486943567640469 -0.023744993086391868 0 0.3153830815233527 -0.0087530987426132929 0 0.30132541624728598 -0.01217829343577128 0 0.31486943567640469 -0.023744993086391868 0 0.29600028882747859 -0.03087980289019443 0 0.30132541624728598 -0.01217829343577128 0 0.31486943567640469 -0.023744993086391868 0 0.31197137499350902 -0.041008225260955711 0 0.29387205913161968 -0.04074374201477949 0 0.31486943567640469 -0.023744993086391868 0 0.29600028882747859 -0.03087980289019443 0 0.29387205913161968 -0.04074374201477949 0 0.31486943567640469 -0.023744993086391868 0 0.29387205913161968 -0.04074374201477949 0 0.31197137499350902 -0.041008225260955711 0 0.30601744289912669 -0.055409131432484229 0 0.29387205913161968 -0.04074374201477949 0 0.28819319405889499 -0.06706419956831737 0 0.27783686619476677 -0.05372527893061739 0 0.29387205913161968 -0.04074374201477949 0 0.28819319405889499 -0.06706419956831737 0 0.29387205913161968 -0.04074374201477949 0 0.27783686619476677 -0.05372527893061739 0 0.29387205913161968 -0.04074374201477949 0 0.28819319405889499 -0.06706419956831737 0 0.30601744289912669 -0.055409131432484229 0 0.29387205913161968 -0.04074374201477949 0 0.27783686619476677 -0.05372527893061739 0 0.28437966209514692 -0.033534114227583768 0 0.29387205913161968 -0.04074374201477949 0 0.29600028882747859 -0.03087980289019443 0 0.28437966209514692 -0.033534114227583768 0 0.29387205913161968 -0.04074374201477949 0 0.29600028882747859 -0.03087980289019443 0 0.29387205913161968 -0.04074374201477949 0 0.28925369461552242 -0.21547475378801551 0 0.29798535605087828 -0.20438389051808681 0 0.27851755886665591 -0.20371457102860641 0 0.28925369461552242 -0.21547475378801551 0 0.28465086540799672 -0.2254021489655588 0 0.27851755886665591 -0.20371457102860641 0 0.28925369461552242 -0.21547475378801551 0 0.29798535605087828 -0.20438389051808681 0 0.29625974568445868 -0.22722646109941139 0 0.28994099481116897 -0.19128490440727269 0 0.29798535605087828 -0.20438389051808681 0 0.29971096641729777 -0.18154131993676231 0 0.28994099481116897 -0.19128490440727269 0 0.27851755886665591 -0.20371457102860641 0 0.28355009790984409 -0.17549983614563519 0 0.28994099481116897 -0.19128490440727269 0 0.29798535605087828 -0.20438389051808681 0 0.27851755886665591 -0.20371457102860641 0 0.30866677822314281 -0.19370433905286669 0 0.29798535605087828 -0.20438389051808681 0 0.29971096641729777 -0.18154131993676231 0 0.29798535605087828 -0.20438389051808681 0 0.29971096641729777 -0.18154131993676231 0 0.30866677822314281 -0.19370433905286669 0 0.30817512199612251 -0.208018461664154 0 0.29798535605087828 -0.20438389051808681 0 0.29798535605087828 -0.20438389051808681 0 0.29625974568445868 -0.22722646109941139 0 0.30367267472900389 -0.2178556058656746 0 0.31200739898088131 -0.22851072207886541 0 0.31883562653249692 -0.20986103607638071 0 0.29798535605087828 -0.20438389051808681 0 0.30367267472900389 -0.2178556058656746 0 0.29625974568445868 -0.22722646109941139 0 0.30817512199612251 -0.208018461664154 0 0.29798535605087828 -0.20438389051808681 0 0.30367267472900389 -0.2178556058656746 0 0.30817512199612251 -0.208018461664154 0 0.30367267472900389 -0.2178556058656746 0 0.31883562653249692 -0.20986103607638071 0 0.30367267472900389 -0.2178556058656746 0 0.31883562653249692 -0.20986103607638071 0 0.31200739898088131 -0.22851072207886541 0 0.30517917142926537 -0.24716040808135001 0 0.29625974568445868 -0.22722646109941139 0 0.30367267472900389 -0.2178556058656746 0 0.31200739898088131 -0.22851072207886541 0 0.29625974568445868 -0.22722646109941139 0 0.31200739898088131 -0.22851072207886541 0 0.30517917142926537 -0.24716040808135001 0 0.30517917142926537 -0.24716040808135001 0 0.28765229627979871 -0.24304032400626949 0 0.29625974568445868 -0.22722646109941139 0 0.28765229627979871 -0.24304032400626949 0 0.29625974568445868 -0.22722646109941139 0 0.28465086540799672 -0.2254021489655588 0 0.28765229627979871 -0.24304032400626949 0 0.28465086540799672 -0.2254021489655588 0 0.27348501982346762 -0.23192930591157759 0 0.28925369461552242 -0.21547475378801551 0 0.29625974568445868 -0.22722646109941139 0 0.28465086540799672 -0.2254021489655588 0 0.28465086540799672 -0.2254021489655588 0 0.27348501982346762 -0.23192930591157759 0 0.27851755886665591 -0.20371457102860641 0 0.27348501982346762 -0.23192930591157759 0 0.25787859859726192 -0.24372773219337371 0 0.26845248078028039 -0.26014404079454911 0 0.28765229627979871 -0.24304032400626949 0 0.27348501982346762 -0.23192930591157759 0 0.26845248078028039 -0.26014404079454911 0 0.27348501982346762 -0.23192930591157759 0 0.26845248078028039 -0.26014404079454911 0 0.27348501982346762 -0.23192930591157759 0 0.25787859859726192 -0.24372773219337371 0 0.2485278721491469 -0.22983386195931649 0 0.27348501982346762 -0.23192930591157759 0 0.25806059678156651 -0.21160485628964759 0 0.2485278721491469 -0.22983386195931649 0 0.27348501982346762 -0.23192930591157759 0 0.27851755886665591 -0.20371457102860641 0 0.27348501982346762 -0.23192930591157759 0 0.25806059678156651 -0.21160485628964759 0 0.27851755886665591 -0.20371457102860641 0 0.27851755886665591 -0.20371457102860641 0 0.26140201073716351 -0.19316186481753209 0 0.27335445324682811 -0.1824409541049711 0 0.25806059678156651 -0.21160485628964759 0 0.27851755886665591 -0.20371457102860641 0 0.26140201073716351 -0.19316186481753209 0 0.27851755886665591 -0.20371457102860641 0 0.28355009790984409 -0.17549983614563519 0 0.25806059678156651 -0.21160485628964759 0 0.26140201073716351 -0.19316186481753209 0 0.24624710011957149 -0.19756578472926509 0 0.26140201073716351 -0.19316186481753209 0 0.25030889548151403 -0.1837077448593728 0 0.24624710011957149 -0.19756578472926509 0 0.25969225384889538 -0.18295045636353721 0 0.2550208565069661 -0.17514012483034949 0 0.27335445324682811 -0.1824409541049711 0 0.26140201073716351 -0.19316186481753209 0 0.25030889548151403 -0.1837077448593728 0 0.25969225384889538 -0.18295045636353721 0 0.25030889548151403 -0.1837077448593728 0 0.25969225384889538 -0.18295045636353721 0 0.2550208565069661 -0.17514012483034949 0 0.2550208565069661 -0.17514012483034949 0 0.2530488896403309 -0.16079061319898569 0 0.27335445324682811 -0.1824409541049711 0 0.26140201073716351 -0.19316186481753209 0 0.25969225384889538 -0.18295045636353721 0 0.27335445324682811 -0.1824409541049711 0 0.2530488896403309 -0.16079061319898569 0 0.272260185211738 -0.168331689764908 0 0.26878477807763418 -0.16016356734556891 0 0.2530488896403309 -0.16079061319898569 0 0.26878477807763418 -0.16016356734556891 0 0.26293682869207591 -0.15391070786642169 0 0.2530488896403309 -0.16079061319898569 0 0.27335445324682811 -0.1824409541049711 0 0.272260185211738 -0.168331689764908 0 0.27899515764395177 -0.15443660918041571 0 0.28355009790984409 -0.17549983614563519 0 0.2530488896403309 -0.16079061319898569 0 0.272260185211738 -0.168331689764908 0 0.27335445324682811 -0.1824409541049711 0 0.272260185211738 -0.168331689764908 0 0.26878477807763418 -0.16016356734556891 0 0.27899515764395177 -0.15443660918041571 0 0.272260185211738 -0.168331689764908 0 0.27335445324682811 -0.1824409541049711 0 0.28355009790984409 -0.17549983614563519 0 0.27851755886665591 -0.20371457102860641 0 0.27335445324682811 -0.1824409541049711 0 0.28355009790984409 -0.17549983614563519 0 0.25915390151091949 -0.11811210275817149 0 0.25133622254172122 -0.13557462765415079 0 0.27338563510190422 -0.1356944138819183 0 0.25133622254172122 -0.13557462765415079 0 0.27338563510190422 -0.1356944138819183 0 0.25133622254172122 -0.13557462765415079 0 0.25208407187516418 -0.1419613505697605 0 0.27338563510190422 -0.1356944138819183 0 0.26557247671991108 -0.14774187414890411 0 0.25208407187516418 -0.1419613505697605 0 0.27142481771649529 -0.14478242884651979 0 0.25208407187516418 -0.1419613505697605 0 0.27142481771649529 -0.14478242884651979 0 0.2530488896403309 -0.16079061319898569 0 0.25208407187516418 -0.1419613505697605 0 0.26293682869207591 -0.15391070786642169 0 0.26557247671991108 -0.14774187414890411 0 0.25208407187516418 -0.1419613505697605 0 0.26293682869207591 -0.15391070786642169 0 0.27899515764395177 -0.15443660918041571 0 0.27142481771649529 -0.14478242884651979 0 0.28858263695303038 -0.1472851012626637 0 0.25208407187516418 -0.1419613505697605 0 0.27142481771649529 -0.14478242884651979 0 0.27338563510190422 -0.1356944138819183 0 0.27142481771649529 -0.14478242884651979 0 0.28858263695303038 -0.1472851012626637 0 0.27142481771649529 -0.14478242884651979 0 0.27338563510190422 -0.1356944138819183 0 0.28952553314766588 -0.14199879033185039 0 0.26878477807763418 -0.16016356734556891 0 0.27009527632936597 -0.15279308215900331 0 0.27899515764395177 -0.15443660918041571 0 0.26557247671991108 -0.14774187414890411 0 0.27009527632936597 -0.15279308215900331 0 0.27142481771649529 -0.14478242884651979 0 0.26878477807763418 -0.16016356734556891 0 0.26293682869207591 -0.15391070786642169 0 0.27009527632936597 -0.15279308215900331 0 0.26557247671991108 -0.14774187414890411 0 0.26293682869207591 -0.15391070786642169 0 0.27009527632936597 -0.15279308215900331 0 0.27009527632936597 -0.15279308215900331 0 0.27899515764395177 -0.15443660918041571 0 0.27142481771649529 -0.14478242884651979 0 0.27794998204403759 -0.11453953550188679 0 0.27338563510190422 -0.1356944138819183 0 0.27142481771649529 -0.14478242884651979 0 0.27338563510190422 -0.1356944138819183 0 0.27338563510190422 -0.1356944138819183 0 0.30316218715013699 -0.13585617877411299 0 0.29209333803684512 -0.1204183792118467 0 0.27338563510190422 -0.1356944138819183 0 0.30316218715013699 -0.13585617877411299 0 0.27338563510190422 -0.1356944138819183 0 0.28952553314766588 -0.14199879033185039 0 0.30316218715013699 -0.13585617877411299 0 0.27142481771649529 -0.14478242884651979 0 0.28952553314766588 -0.14199879033185039 0 0.28858263695303038 -0.1472851012626637 0 0.28858263695303038 -0.1472851012626637 0 0.30013596324633868 -0.14897029159077979 0 0.28952553314766588 -0.14199879033185039 0 0.28858263695303038 -0.1472851012626637 0 0.30013596324633868 -0.14897029159077979 0 0.28952553314766588 -0.14199879033185039 0 0.28858263695303038 -0.1472851012626637 0 0.28858263695303038 -0.1472851012626637 0 0.30013596324633868 -0.14897029159077979 0 0.29372711844303928 -0.1600295372122347 0 0.30316218715013699 -0.13585617877411299 0 0.30143657678371732 -0.15869874935543771 0 0.30013596324633868 -0.14897029159077979 0 0.30316218715013699 -0.13585617877411299 0 0.30143657678371732 -0.15869874935543771 0 0.30316218715013699 -0.13585617877411299 0 0.30143657678371732 -0.15869874935543771 0 0.31253980123811259 -0.14771969478669131 0 0.30013596324633868 -0.14897029159077979 0 0.29372711844303928 -0.1600295372122347 0 0.30143657678371732 -0.15869874935543771 0 0.30143657678371732 -0.15869874935543771 0 0.31557079919726838 -0.1590044961535387 0 0.31253980123811259 -0.14771969478669131 0 0.28952553314766588 -0.14199879033185039 0 0.30013596324633868 -0.14897029159077979 0 0.30316218715013699 -0.13585617877411299 0 0.30316218715013699 -0.13585617877411299 0 0.31993283661344418 -0.13594728745244961 0 0.31253980123811259 -0.14771969478669131 0 0.30316218715013699 -0.13585617877411299 0 0.31993283661344418 -0.13594728745244961 0 0.28994099481116897 -0.19128490440727269 0 0.28355009790984409 -0.17549983614563519 0 0.29971096641729777 -0.18154131993676231 0 0.28355009790984409 -0.17549983614563519 0 0.29493031732226571 -0.16969370770665679 0 0.29971096641729777 -0.18154131993676231 0 0.27899515764395177 -0.15443660918041571 0 0.28858263695303038 -0.1472851012626637 0 0.28355009790984409 -0.17549983614563519 0 0.28858263695303038 -0.1472851012626637 0 0.28355009790984409 -0.17549983614563519 0 0.28858263695303038 -0.1472851012626637 0 0.28355009790984409 -0.17549983614563519 0 0.29372711844303928 -0.1600295372122347 0 0.29372711844303928 -0.1600295372122347 0 0.29493031732226571 -0.16969370770665679 0 0.30143657678371732 -0.15869874935543771 0 0.28355009790984409 -0.17549983614563519 0 0.29372711844303928 -0.1600295372122347 0 0.29493031732226571 -0.16969370770665679 0 0.30143657678371732 -0.15869874935543771 0 0.29971096641729777 -0.18154131993676231 0 0.30143657678371732 -0.15869874935543771 0 0.30809610970482848 -0.16795036279156811 0 0.29971096641729777 -0.18154131993676231 0 0.29493031732226571 -0.16969370770665679 0 0.30143657678371732 -0.15869874935543771 0 0.29971096641729777 -0.18154131993676231 0 0.30143657678371732 -0.15869874935543771 0 0.30809610970482848 -0.16795036279156811 0 0.31557079919726838 -0.1590044961535387 0 0.29971096641729777 -0.18154131993676231 0 0.31498869866721663 -0.1848028620899877 0 0.3156660964210305 -0.17255688572053399 0 0.30809610970482848 -0.16795036279156811 0 0.29971096641729777 -0.18154131993676231 0 0.3156660964210305 -0.17255688572053399 0 0.30866677822314281 -0.19370433905286669 0 0.29971096641729777 -0.18154131993676231 0 0.31498869866721663 -0.1848028620899877 0 0.32729102930978993 -0.18432716657830939 0 0.3156660964210305 -0.17255688572053399 0 0.33199725769327038 -0.160182781354547 0 0.31498869866721663 -0.1848028620899877 0 0.32729102930978993 -0.18432716657830939 0 0.3156660964210305 -0.17255688572053399 0 0.3156660964210305 -0.17255688572053399 0 0.31557079919726838 -0.1590044961535387 0 0.33199725769327038 -0.160182781354547 0 0.30809610970482848 -0.16795036279156811 0 0.3156660964210305 -0.17255688572053399 0 0.31557079919726838 -0.1590044961535387 0 0.32729102930978993 -0.18432716657830939 0 0.34572674800851178 -0.17666980330527179 0 0.34152908302092871 -0.19789605564194099 0 0.32729102930978993 -0.18432716657830939 0 0.33199725769327038 -0.160182781354547 0 0.34572674800851178 -0.17666980330527179 0 0.32729102930978993 -0.18432716657830939 0 0.33199725769327038 -0.160182781354547 0 0.31854024801571379 -0.1183964408803808 0 0.30316218715013699 -0.13585617877411299 0 0.31993283661344418 -0.13594728745244961 0 0.31993283661344418 -0.13594728745244961 0 0.32334883616376942 -0.1477785311756023 0 0.33670348607675138 -0.13603839613078461 0 0.31854024801571379 -0.1183964408803808 0 0.31993283661344418 -0.13594728745244961 0 0.33718817445421712 -0.13355179710808501 0 0.31854024801571379 -0.1183964408803808 0 0.33718817445421712 -0.13355179710808501 0 0.31557079919726838 -0.1590044961535387 0 0.33199725769327038 -0.160182781354547 0 0.32334883616376942 -0.1477785311756023 0 0.31993283661344418 -0.13594728745244961 0 0.32334883616376942 -0.1477785311756023 0 0.31253980123811259 -0.14771969478669131 0 0.31557079919726838 -0.1590044961535387 0 0.32334883616376942 -0.1477785311756023 0 0.31253980123811259 -0.14771969478669131 0 0.33199725769327038 -0.160182781354547 0 0.34027166502062639 -0.13605778071504529 0 0.33670348607675138 -0.13603839613078461 0 0.33199725769327038 -0.160182781354547 0 0.32334883616376942 -0.1477785311756023 0 0.33670348607675138 -0.13603839613078461 0 0.33199725769327038 -0.160182781354547 0 0.33670348607675138 -0.13603839613078461 0 0.31993283661344418 -0.13594728745244961 0 0.33670348607675138 -0.13603839613078461 0 0.31993283661344418 -0.13594728745244961 0 0.33670348607675138 -0.13603839613078461 0 0.33718817445421712 -0.13355179710808501 0 0.34025414842832208 -0.11782241666052221 0 0.33718817445421712 -0.13355179710808501 0 0.34381162934489939 -0.12854128697128539 0 0.34025414842832208 -0.11782241666052221 0 0.33718817445421712 -0.13355179710808501 0 0.34027166502062639 -0.13605778071504529 0 0.33670348607675138 -0.13603839613078461 0 0.33718817445421712 -0.13355179710808501 0 0.34027166502062639 -0.13605778071504529 0 0.33718817445421712 -0.13355179710808501 0 0.34027166502062639 -0.13605778071504529 0 0.33670348607675138 -0.13603839613078461 0 0.33670348607675138 -0.13603839613078461 0 0.33718817445421712 -0.13355179710808501 0 0.34027166502062639 -0.13605778071504529 0 0.33718817445421712 -0.13355179710808501 0 0.34381162934489939 -0.12854128697128539 0 0.33199725769327038 -0.160182781354547 0 0.34027166502062639 -0.13605778071504529 0 0.36359383050920879 -0.15501193774405861 0 0.35355367174401742 -0.1211945845718113 0 0.34381162934489939 -0.12854128697128539 0 0.34779048707731292 -0.1340798558009649 0 0.34027166502062639 -0.13605778071504529 0 0.34884821061351562 -0.13610437388577321 0 0.35664352332635268 -0.13060513793896061 0 0.34779048707731292 -0.1340798558009649 0 0.34884821061351562 -0.13610437388577321 0 0.34027166502062639 -0.13605778071504529 0 0.34779048707731292 -0.1340798558009649 0 0.34884821061351562 -0.13610437388577321 0 0.34027166502062639 -0.13605778071504529 0 0.34381162934489939 -0.12854128697128539 0 0.34779048707731292 -0.1340798558009649 0 0.35664352332635268 -0.13060513793896061 0 0.34884821061351562 -0.13610437388577321 0 0.36374720336072303 -0.13810563056468389 0 0.34884821061351562 -0.13610437388577321 0 0.36359383050920879 -0.15501193774405861 0 0.36374720336072303 -0.13810563056468389 0 0.34027166502062639 -0.13605778071504529 0 0.36359383050920879 -0.15501193774405861 0 0.34027166502062639 -0.13605778071504529 0 0.34884821061351562 -0.13610437388577321 0 0.36359383050920879 -0.15501193774405861 0 0.36359383050920879 -0.15501193774405861 0 0.36374720336072303 -0.13810563056468389 0 0.37656812491251679 -0.13846106794218549 0 0.3785150876385216 -0.1195111518185689 0 0.36779594019891898 -0.12729788290040461 0 0.37656812491251679 -0.13846106794218549 0 0.36374720336072303 -0.13810563056468389 0 0.36779594019891898 -0.12729788290040461 0 0.37656812491251679 -0.13846106794218549 0 0.35664352332635268 -0.13060513793896061 0 0.36374720336072303 -0.13810563056468389 0 0.36779594019891898 -0.12729788290040461 0 0.33199725769327038 -0.160182781354547 0 0.36359383050920879 -0.15501193774405861 0 0.34572674800851178 -0.17666980330527179 0 0.34572674800851178 -0.17666980330527179 0 0.36422253950936112 -0.1859310752075029 0 0.34152908302092871 -0.19789605564194099 0 0.36359383050920879 -0.15501193774405861 0 0.34572674800851178 -0.17666980330527179 0 0.36422253950936112 -0.1859310752075029 0 0.36359383050920879 -0.15501193774405861 0 0.36422253950936112 -0.1859310752075029 0 0.38691599599779503 -0.1739660947730671 0 0.36422253950936112 -0.1859310752075029 0 0.37220629557919183 -0.19612338441269381 0 0.37910290544765168 -0.18685571494790659 0 0.36422253950936112 -0.1859310752075029 0 0.37220629557919183 -0.19612338441269381 0 0.35685044422528578 -0.20027094664828951 0 0.37220629557919183 -0.19612338441269381 0 0.3556522221671049 -0.2162457527497984 0 0.35685044422528578 -0.20027094664828951 0 0.37220629557919183 -0.19612338441269381 0 0.3556522221671049 -0.2162457527497984 0 0.37273333868611941 -0.2093978965492076 0 0.3556522221671049 -0.2162457527497984 0 0.3731990688381891 -0.2228302363117915 0 0.37220629557919183 -0.19612338441269381 0 0.37273333868611941 -0.2093978965492076 0 0.3556522221671049 -0.2162457527497984 0 0.34913249600123192 -0.20719712371303781 0 0.34152908302092871 -0.19789605564194099 0 0.34144894007629428 -0.2139395960038605 0 0.3556522221671049 -0.2162457527497984 0 0.34913249600123192 -0.20719712371303781 0 0.35685044422528578 -0.20027094664828951 0 0.3556522221671049 -0.2162457527497984 0 0.34913249600123192 -0.20719712371303781 0 0.34144894007629428 -0.2139395960038605 0 0.36422253950936112 -0.1859310752075029 0 0.35685044422528578 -0.20027094664828951 0 0.34152908302092871 -0.19789605564194099 0 0.36422253950936112 -0.1859310752075029 0 0.34152908302092871 -0.19789605564194099 0 0.34913249600123192 -0.20719712371303781 0 0.35685044422528578 -0.20027094664828951 0 0.34152908302092871 -0.19789605564194099 0 0.32729102930978993 -0.18432716657830939 0 0.34152908302092871 -0.19789605564194099 0 0.32289957828838461 -0.19876131457419149 0 0.34152908302092871 -0.19789605564194099 0 0.31883562653249692 -0.20986103607638071 0 0.34152908302092871 -0.19789605564194099 0 0.34144894007629428 -0.2139395960038605 0 0.31883562653249692 -0.20986103607638071 0 0.34144894007629428 -0.2139395960038605 0 0.31883562653249692 -0.20986103607638071 0 0.32331405575278033 -0.23055000204260581 0 0.31883562653249692 -0.20986103607638071 0 0.32289957828838461 -0.19876131457419149 0 0.30817512199612251 -0.208018461664154 0 0.31883562653249692 -0.20986103607638071 0 0.32289957828838461 -0.19876131457419149 0 0.30866677822314281 -0.19370433905286669 0 0.30817512199612251 -0.208018461664154 0 0.32289957828838461 -0.19876131457419149 0 0.34152908302092871 -0.19789605564194099 0 0.31883562653249692 -0.20986103607638071 0 0.32289957828838461 -0.19876131457419149 0 0.30866677822314281 -0.19370433905286669 0 0.31498869866721663 -0.1848028620899877 0 0.32289957828838461 -0.19876131457419149 0 0.31498869866721663 -0.1848028620899877 0 0.32729102930978993 -0.18432716657830939 0 0.32289957828838461 -0.19876131457419149 0 0.30517917142926537 -0.24716040808135001 0 0.32331405575278033 -0.23055000204260581 0 0.30517917142926537 -0.24716040808135001 0 0.32331405575278033 -0.23055000204260581 0 0.322544075342931 -0.25649048942400782 0 0.31200739898088131 -0.22851072207886541 0 0.30517917142926537 -0.24716040808135001 0 0.32331405575278033 -0.23055000204260581 0 0.31200739898088131 -0.22851072207886541 0 0.31883562653249692 -0.20986103607638071 0 0.31200739898088131 -0.22851072207886541 0 0.31883562653249692 -0.20986103607638071 0 0.32331405575278033 -0.23055000204260581 0 0.34144894007629428 -0.2139395960038605 0 0.32331405575278033 -0.23055000204260581 0 0.34144894007629428 -0.2139395960038605 0 0.32331405575278033 -0.23055000204260581 0 0.33909814875501798 -0.23636812108690311 0 0.33909814875501798 -0.23636812108690311 0 0.322544075342931 -0.25649048942400782 0 0.32331405575278033 -0.23055000204260581 0 0.33909814875501798 -0.23636812108690311 0 0.322544075342931 -0.25649048942400782 0 0.33909814875501798 -0.23636812108690311 0 0.35007299243335749 -0.24785688602667111 0 0.33700232267718733 -0.25494009872172468 0 0.33909814875501798 -0.23636812108690311 0 0.322544075342931 -0.25649048942400782 0 0.33700232267718733 -0.25494009872172468 0 0.33909814875501798 -0.23636812108690311 0 0.35007299243335749 -0.24785688602667111 0 0.35471840821638012 -0.232162972911199 0 0.35007299243335749 -0.24785688602667111 0 0.35471840821638012 -0.232162972911199 0 0.36225179838031341 -0.2439392928582107 0 0.35007299243335749 -0.24785688602667111 0 0.36225179838031341 -0.2439392928582107 0 0.36124693131331159 -0.25807728632712912 0 0.3556522221671049 -0.2162457527497984 0 0.33909814875501798 -0.23636812108690311 0 0.3556522221671049 -0.2162457527497984 0 0.33909814875501798 -0.23636812108690311 0 0.35471840821638012 -0.232162972911199 0 0.3556522221671049 -0.2162457527497984 0 0.34144894007629428 -0.2139395960038605 0 0.33909814875501798 -0.23636812108690311 0 0.35471840821638012 -0.232162972911199 0 0.3731990688381891 -0.2228302363117915 0 0.36225179838031341 -0.2439392928582107 0 0.3556522221671049 -0.2162457527497984 0 0.35471840821638012 -0.232162972911199 0 0.3731990688381891 -0.2228302363117915 0 0.3731990688381891 -0.2228302363117915 0 0.36225179838031341 -0.2439392928582107 0 0.3731990688381891 -0.2228302363117915 0 0.36225179838031341 -0.2439392928582107 0 0.38186963046980549 -0.2367879359972051 0 0.36225179838031341 -0.2439392928582107 0 0.38186963046980549 -0.2367879359972051 0 0.37510228513818711 -0.25237727586059511 0 0.38186963046980549 -0.2367879359972051 0 0.39206528024080278 -0.24921397013056479 0 0.37510228513818711 -0.25237727586059511 0 0.39206528024080278 -0.24921397013056479 0 0.40137725565661481 -0.22692044649349019 0 0.4148006158986044 -0.24103970595398019 0 0.39206528024080278 -0.24921397013056479 0 0.4148006158986044 -0.24103970595398019 0 0.40884184876520419 -0.25890250189124958 0 0.38186963046980549 -0.2367879359972051 0 0.39206528024080278 -0.24921397013056479 0 0.40137725565661481 -0.22692044649349019 0 0.40137725565661481 -0.22692044649349019 0 0.39915185452682361 -0.21610044156742811 0 0.41396763236883027 -0.21470461273584779 0 0.40137725565661481 -0.22692044649349019 0 0.38700545273377529 -0.2233412248148075 0 0.39915185452682361 -0.21610044156742811 0 0.38186963046980549 -0.2367879359972051 0 0.40137725565661481 -0.22692044649349019 0 0.38700545273377529 -0.2233412248148075 0 0.3731990688381891 -0.2228302363117915 0 0.38186963046980549 -0.2367879359972051 0 0.38700545273377529 -0.2233412248148075 0 0.3731990688381891 -0.2228302363117915 0 0.38414633929606479 -0.2017211797653724 0 0.37273333868611941 -0.2093978965492076 0 0.3731990688381891 -0.2228302363117915 0 0.38414633929606479 -0.2017211797653724 0 0.3731990688381891 -0.2228302363117915 0 0.38675328488958288 -0.2095276895359276 0 0.38414633929606479 -0.2017211797653724 0 0.3731990688381891 -0.2228302363117915 0 0.38700545273377529 -0.2233412248148075 0 0.38675328488958288 -0.2095276895359276 0 0.38675328488958288 -0.2095276895359276 0 0.38414633929606479 -0.2017211797653724 0 0.39287005569986072 -0.20314648074516001 0 0.38414633929606479 -0.2017211797653724 0 0.38373621375160438 -0.1885238144486111 0 0.39509360975394031 -0.18061212321895309 0 0.38414633929606479 -0.2017211797653724 0 0.39509360975394031 -0.18061212321895309 0 0.37999921147615667 -0.19503406661491049 0 0.38373621375160438 -0.1885238144486111 0 0.37910290544765168 -0.18685571494790659 0 0.37999921147615667 -0.19503406661491049 0 0.38414633929606479 -0.2017211797653724 0 0.38373621375160438 -0.1885238144486111 0 0.37220629557919183 -0.19612338441269381 0 0.37999921147615667 -0.19503406661491049 0 0.37910290544765168 -0.18685571494790659 0 0.37220629557919183 -0.19612338441269381 0 0.37273333868611941 -0.2093978965492076 0 0.38414633929606479 -0.2017211797653724 0 0.37220629557919183 -0.19612338441269381 0 0.37999921147615667 -0.19503406661491049 0 0.38414633929606479 -0.2017211797653724 0 0.38414633929606479 -0.2017211797653724 0 0.39694758591794982 -0.18886739411602391 0 0.39509360975394031 -0.18061212321895309 0 0.39694758591794982 -0.18886739411602391 0 0.3969424320709618 -0.1972324897541754 0 0.40101572763622523 -0.19231380306325679 0 0.38414633929606479 -0.2017211797653724 0 0.39694758591794982 -0.18886739411602391 0 0.3969424320709618 -0.1972324897541754 0 0.38414633929606479 -0.2017211797653724 0 0.3969424320709618 -0.1972324897541754 0 0.39287005569986072 -0.20314648074516001 0 0.3969424320709618 -0.1972324897541754 0 0.400612395600416 -0.20053006859666331 0 0.39287005569986072 -0.20314648074516001 0 0.3969424320709618 -0.1972324897541754 0 0.4059814476455269 -0.19573306963025069 0 0.400612395600416 -0.20053006859666331 0 0.4059814476455269 -0.19573306963025069 0 0.400612395600416 -0.20053006859666331 0 0.40665564698531481 -0.2060082342570673 0 0.3969424320709618 -0.1972324897541754 0 0.4059814476455269 -0.19573306963025069 0 0.40101572763622523 -0.19231380306325679 0 0.4059814476455269 -0.19573306963025069 0 0.40101572763622523 -0.19231380306325679 0 0.40419144491046238 -0.1874222587525772 0 0.39694758591794982 -0.18886739411602391 0 0.40101572763622523 -0.19231380306325679 0 0.40419144491046238 -0.1874222587525772 0 0.38675328488958288 -0.2095276895359276 0 0.40665564698531481 -0.2060082342570673 0 0.38675328488958288 -0.2095276895359276 0 0.39915185452682361 -0.21610044156742811 0 0.40665564698531481 -0.2060082342570673 0 0.38675328488958288 -0.2095276895359276 0 0.39287005569986072 -0.20314648074516001 0 0.40665564698531481 -0.2060082342570673 0 0.38700545273377529 -0.2233412248148075 0 0.38675328488958288 -0.2095276895359276 0 0.39915185452682361 -0.21610044156742811 0 0.400612395600416 -0.20053006859666331 0 0.39287005569986072 -0.20314648074516001 0 0.40665564698531481 -0.2060082342570673 0 0.41396763236883027 -0.21470461273584779 0 0.40665564698531481 -0.2060082342570673 0 0.42655800908104652 -0.20248877897820619 0 0.40665564698531481 -0.2060082342570673 0 0.42655800908104652 -0.20248877897820619 0 0.39915185452682361 -0.21610044156742811 0 0.41396763236883027 -0.21470461273584779 0 0.40665564698531481 -0.2060082342570673 0 0.41396763236883027 -0.21470461273584779 0 0.42655800908104652 -0.20248877897820619 0 0.40665564698531481 -0.2060082342570673 0 0.41640017291144837 -0.19588579121564459 0 0.42655800908104652 -0.20248877897820619 0 0.4059814476455269 -0.19573306963025069 0 0.41640017291144837 -0.19588579121564459 0 0.41453364601533049 -0.1862870086825022 0 0.4059814476455269 -0.19573306963025069 0 0.40419144491046238 -0.1874222587525772 0 0.41453364601533049 -0.1862870086825022 0 0.4059814476455269 -0.19573306963025069 0 0.40665564698531481 -0.2060082342570673 0 0.41640017291144837 -0.19588579121564459 0 0.41640017291144837 -0.19588579121564459 0 0.42581299264578848 -0.18832250896932939 0 0.41453364601533049 -0.1862870086825022 0 0.42655800908104652 -0.20248877897820619 0 0.444302871767289 -0.18527179670816579 0 0.42581299264578848 -0.18832250896932939 0 0.42655800908104652 -0.20248877897820619 0 0.444302871767289 -0.18527179670816579 0 0.41640017291144837 -0.19588579121564459 0 0.42581299264578848 -0.18832250896932939 0 0.42655800908104652 -0.20248877897820619 0 0.42655800908104652 -0.20248877897820619 0 0.43237997939727391 -0.21969514264188619 0 0.44995934289594253 -0.19835057932979169 0 0.41396763236883027 -0.21470461273584779 0 0.42655800908104652 -0.20248877897820619 0 0.43237997939727391 -0.21969514264188619 0 0.43237997939727391 -0.21969514264188619 0 0.43199948472716282 -0.23703470349933331 0 0.4148006158986044 -0.24103970595398019 0 0.43237997939727391 -0.21969514264188619 0 0.4148006158986044 -0.24103970595398019 0 0.43199948472716282 -0.23703470349933331 0 0.4148006158986044 -0.24103970595398019 0 0.42892204251950339 -0.2594807324876427 0 0.43199948472716282 -0.23703470349933331 0 0.44338493428344739 -0.24574379201886831 0 0.42892204251950339 -0.2594807324876427 0 0.43237997939727391 -0.21969514264188619 0 0.4148006158986044 -0.24103970595398019 0 0.41563137083033092 -0.22558997695630109 0 0.41396763236883027 -0.21470461273584779 0 0.43237997939727391 -0.21969514264188619 0 0.41563137083033092 -0.22558997695630109 0 0.40137725565661481 -0.22692044649349019 0 0.4148006158986044 -0.24103970595398019 0 0.41563137083033092 -0.22558997695630109 0 0.40137725565661481 -0.22692044649349019 0 0.41396763236883027 -0.21470461273584779 0 0.40137725565661481 -0.22692044649349019 0 0.41396763236883027 -0.21470461273584779 0 0.41563137083033092 -0.22558997695630109 0 0.39237070121405998 -0.13164091544729051 0 0.39988799210863701 -0.14408364481314989 0 0.41368108829086198 -0.13554811058748131 0 0.40604313277712428 -0.1171380761358455 0 0.39237070121405998 -0.13164091544729051 0 0.41368108829086198 -0.13554811058748131 0 0.39237070121405998 -0.13164091544729051 0 0.37656812491251679 -0.13846106794218549 0 0.38605620033535121 -0.1499684147877679 0 0.3785150876385216 -0.1195111518185689 0 0.39237070121405998 -0.13164091544729051 0 0.37656812491251679 -0.13846106794218549 0 0.36359383050920879 -0.15501193774405861 0 0.37656812491251679 -0.13846106794218549 0 0.38605620033535121 -0.1499684147877679 0 0.39237070121405998 -0.13164091544729051 0 0.38605620033535121 -0.1499684147877679 0 0.39988799210863701 -0.14408364481314989 0 0.38605620033535121 -0.1499684147877679 0 0.39988799210863701 -0.14408364481314989 0 0.39700055726989097 -0.15664682800685811 0 0.39988799210863701 -0.14408364481314989 0 0.39700055726989097 -0.15664682800685811 0 0.40766935758353628 -0.1563629578155839 0 0.40291487034120532 -0.16553079014728059 0 0.39700055726989097 -0.15664682800685811 0 0.38691599599779503 -0.1739660947730671 0 0.40291487034120532 -0.16553079014728059 0 0.38691599599779503 -0.1739660947730671 0 0.40291487034120532 -0.16553079014728059 0 0.39700055726989097 -0.15664682800685811 0 0.40766935758353628 -0.1563629578155839 0 0.40291487034120532 -0.16553079014728059 0 0.40766935758353628 -0.1563629578155839 0 0.38605620033535121 -0.1499684147877679 0 0.39700055726989097 -0.15664682800685811 0 0.38691599599779503 -0.1739660947730671 0 0.36359383050920879 -0.15501193774405861 0 0.38691599599779503 -0.1739660947730671 0 0.36359383050920879 -0.15501193774405861 0 0.38605620033535121 -0.1499684147877679 0 0.38691599599779503 -0.1739660947730671 0 0.36422253950936112 -0.1859310752075029 0 0.38691599599779503 -0.1739660947730671 0 0.37910290544765168 -0.18685571494790659 0 0.36422253950936112 -0.1859310752075029 0 0.38691599599779503 -0.1739660947730671 0 0.38691599599779503 -0.1739660947730671 0 0.38753717637180268 -0.18155585423065651 0 0.39509360975394031 -0.18061212321895309 0 0.38373621375160438 -0.1885238144486111 0 0.38753717637180268 -0.18155585423065651 0 0.39509360975394031 -0.18061212321895309 0 0.38691599599779503 -0.1739660947730671 0 0.37910290544765168 -0.18685571494790659 0 0.38753717637180268 -0.18155585423065651 0 0.38373621375160438 -0.1885238144486111 0 0.37910290544765168 -0.18685571494790659 0 0.38753717637180268 -0.18155585423065651 0 0.40291487034120532 -0.16553079014728059 0 0.38691599599779503 -0.1739660947730671 0 0.39509360975394031 -0.18061212321895309 0 0.39694758591794982 -0.18886739411602391 0 0.39665445354372708 -0.18451779314135289 0 0.39509360975394031 -0.18061212321895309 0 0.39694758591794982 -0.18886739411602391 0 0.39665445354372708 -0.18451779314135289 0 0.40021252966215071 -0.18382207331845951 0 0.39665445354372708 -0.18451779314135289 0 0.39509360975394031 -0.18061212321895309 0 0.40021252966215071 -0.18382207331845951 0 0.38691599599779503 -0.1739660947730671 0 0.39509360975394031 -0.18061212321895309 0 0.40291487034120532 -0.16553079014728059 0 0.39509360975394031 -0.18061212321895309 0 0.40549068313545528 -0.17742909809594989 0 0.40291487034120532 -0.16553079014728059 0 0.39509360975394031 -0.18061212321895309 0 0.40549068313545528 -0.17742909809594989 0 0.40419144491046238 -0.1874222587525772 0 0.40021252966215071 -0.18382207331845951 0 0.39509360975394031 -0.18061212321895309 0 0.40549068313545528 -0.17742909809594989 0 0.40021252966215071 -0.18382207331845951 0 0.39694758591794982 -0.18886739411602391 0 0.40419144491046238 -0.1874222587525772 0 0.40021252966215071 -0.18382207331845951 0 0.42581299264578848 -0.18832250896932939 0 0.41453364601533049 -0.1862870086825022 0 0.42235201908535791 -0.17050045814039369 0 0.40549068313545528 -0.17742909809594989 0 0.41453364601533049 -0.1862870086825022 0 0.42235201908535791 -0.17050045814039369 0 0.40549068313545528 -0.17742909809594989 0 0.40419144491046238 -0.1874222587525772 0 0.41453364601533049 -0.1862870086825022 0 0.42235201908535791 -0.17050045814039369 0 0.44127751826325029 -0.16493106072254701 0 0.444302871767289 -0.18527179670816579 0 0.42581299264578848 -0.18832250896932939 0 0.42235201908535791 -0.17050045814039369 0 0.444302871767289 -0.18527179670816579 0 0.42235201908535791 -0.17050045814039369 0 0.42606808286872072 -0.1533234062687002 0 0.44127751826325029 -0.16493106072254701 0 0.40291487034120532 -0.16553079014728059 0 0.40766935758353628 -0.1563629578155839 0 0.42606808286872072 -0.1533234062687002 0 0.40291487034120532 -0.16553079014728059 0 0.42606808286872072 -0.1533234062687002 0 0.40291487034120532 -0.16553079014728059 0 0.42235201908535791 -0.17050045814039369 0 0.42606808286872072 -0.1533234062687002 0 0.40291487034120532 -0.16553079014728059 0 0.40549068313545528 -0.17742909809594989 0 0.42235201908535791 -0.17050045814039369 0 0.41182663021293903 -0.1473295298712288 0 0.42606808286872072 -0.1533234062687002 0 0.41368108829086198 -0.13554811058748131 0 0.40766935758353628 -0.1563629578155839 0 0.41182663021293903 -0.1473295298712288 0 0.42606808286872072 -0.1533234062687002 0 0.39988799210863701 -0.14408364481314989 0 0.40766935758353628 -0.1563629578155839 0 0.41182663021293903 -0.1473295298712288 0 0.39988799210863701 -0.14408364481314989 0 0.41182663021293903 -0.1473295298712288 0 0.41368108829086198 -0.13554811058748131 0 0.42606808286872072 -0.1533234062687002 0 0.430889964195386 -0.135117951771525 0 0.44922129539623712 -0.14111602239012119 0 0.42606808286872072 -0.1533234062687002 0 0.430889964195386 -0.135117951771525 0 0.41368108829086198 -0.13554811058748131 0 0.42080162445294911 -0.1170697999396166 0 0.430889964195386 -0.135117951771525 0 0.41368108829086198 -0.13554811058748131 0 0.45825176112352212 -0.1171944005084963 0 0.44922129539623712 -0.14111602239012119 0 0.47461064769812122 -0.12772964805397971 0 0.44922129539623712 -0.14111602239012119 0 0.47461064769812122 -0.12772964805397971 0 0.44922129539623712 -0.14111602239012119 0 0.47041229806123103 -0.14236165737458781 0 0.47461064769812122 -0.12772964805397971 0 0.43893170590200609 -0.1195052611799315 0 0.430889964195386 -0.135117951771525 0 0.44922129539623712 -0.14111602239012119 0 0.43893170590200609 -0.1195052611799315 0 0.45825176112352212 -0.1171944005084963 0 0.44922129539623712 -0.14111602239012119 0 0.43893170590200609 -0.1195052611799315 0 0.44922129539623712 -0.14111602239012119 0 0.42606808286872072 -0.1533234062687002 0 0.44922129539623712 -0.14111602239012119 0 0.44127751826325029 -0.16493106072254701 0 0.42606808286872072 -0.1533234062687002 0 0.44922129539623712 -0.14111602239012119 0 0.44922129539623712 -0.14111602239012119 0 0.46204773445353348 -0.16805481443812731 0 0.44922129539623712 -0.14111602239012119 0 0.46204773445353348 -0.16805481443812731 0 0.47041229806123103 -0.14236165737458781 0 0.44922129539623712 -0.14111602239012119 0 0.46204773445353348 -0.16805481443812731 0 0.44127751826325029 -0.16493106072254701 0 0.46204773445353348 -0.16805481443812731 0 0.44127751826325029 -0.16493106072254701 0 0.444302871767289 -0.18527179670816579 0 0.46204773445353348 -0.16805481443812731 0 0.444302871767289 -0.18527179670816579 0 0.46675991992270621 -0.1779516052682695 0 0.47013600328087812 -0.185042241033678 0 0.44995934289594253 -0.19835057932979169 0 0.444302871767289 -0.18527179670816579 0 0.46675991992270621 -0.1779516052682695 0 0.44995934289594253 -0.19835057932979169 0 0.46204773445353348 -0.16805481443812731 0 0.444302871767289 -0.18527179670816579 0 0.46675991992270621 -0.1779516052682695 0 0.46204773445353348 -0.16805481443812731 0 0.46675991992270621 -0.1779516052682695 0 0.46675991992270621 -0.1779516052682695 0 0.47013600328087812 -0.185042241033678 0 0.46675991992270621 -0.1779516052682695 0 0.48388214138120561 -0.17390417728894431 0 0.47927416581767118 -0.18397687174081401 0 0.46675991992270621 -0.1779516052682695 0 0.47013600328087812 -0.185042241033678 0 0.47927416581767118 -0.18397687174081401 0 0.48388214138120561 -0.17390417728894431 0 0.47927416581767118 -0.18397687174081401 0 0.48987334582395858 -0.18140433091368091 0 0.48987334582395858 -0.18140433091368091 0 0.5 -0.16492372169971509 0 0.5 -0.19225537639104809 0 0.48388214138120561 -0.17390417728894431 0 0.48987334582395858 -0.18140433091368091 0 0.5 -0.16492372169971509 0 0.47927416581767118 -0.18397687174081401 0 0.48987334582395858 -0.18140433091368091 0 0.48552241192915191 -0.19206174635411891 0 0.48388214138120561 -0.17390417728894431 0 0.5 -0.16492372169971509 0 0.48337995996135552 -0.1577718361383266 0 0.46675991992270621 -0.1779516052682695 0 0.48388214138120561 -0.17390417728894431 0 0.48337995996135552 -0.1577718361383266 0 0.46204773445353348 -0.16805481443812731 0 0.46675991992270621 -0.1779516052682695 0 0.48337995996135552 -0.1577718361383266 0 0.46204773445353348 -0.16805481443812731 0 0.48337995996135552 -0.1577718361383266 0 0.47713463147989749 -0.15341672773068571 0 0.46675991992270621 -0.1779516052682695 0 0.48337995996135552 -0.1577718361383266 0 0.46204773445353348 -0.16805481443812731 0 0.47713463147989749 -0.15341672773068571 0 0.46204773445353348 -0.16805481443812731 0 0.47041229806123103 -0.14236165737458781 0 0.47713463147989749 -0.15341672773068571 0 0.48337995996135552 -0.1577718361383266 0 0.47713463147989749 -0.15341672773068571 0 0.48456351921585428 -0.1397192317593817 0 0.47041229806123103 -0.14236165737458781 0 0.47713463147989749 -0.15341672773068571 0 0.48456351921585428 -0.1397192317593817 0 0.48337995996135552 -0.1577718361383266 0 0.50000000000000311 -0.1375920670083822 0 0.48456351921585428 -0.1397192317593817 0 0.5 -0.16492372169971509 0 0.48337995996135552 -0.1577718361383266 0 0.50000000000000311 -0.1375920670083822 0 0.48337995996135552 -0.1577718361383266 0 0.50000000000000311 -0.1375920670083822 0 0.50000000000000433 -0.1143432737178363 0 0.50000000000000311 -0.1375920670083822 0 0.48456351921585428 -0.1397192317593817 0 0.50000000000000433 -0.1143432737178363 0 0.48456351921585428 -0.1397192317593817 0 0.47461064769812122 -0.12772964805397971 0 0.47041229806123103 -0.14236165737458781 0 0.48456351921585428 -0.1397192317593817 0 0.47461064769812122 -0.12772964805397971 0 0.46695018322910392 -0.22473955239466681 0 0.44975785303280541 -0.2255898949688982 0 0.46528918090086291 -0.2095084705765255 0 0.46695018322910392 -0.22473955239466681 0 0.46086119099944728 -0.24298014516654151 0 0.44975785303280541 -0.2255898949688982 0 0.46086119099944728 -0.24298014516654151 0 0.44338493428344739 -0.24574379201886831 0 0.44975785303280541 -0.2255898949688982 0 0.43199948472716282 -0.23703470349933331 0 0.44338493428344739 -0.24574379201886831 0 0.44975785303280541 -0.2255898949688982 0 0.46086119099944728 -0.24298014516654151 0 0.44338493428344739 -0.24574379201886831 0 0.45165913482636821 -0.26068325523694041 0 0.43237997939727391 -0.21969514264188619 0 0.43199948472716282 -0.23703470349933331 0 0.44975785303280541 -0.2255898949688982 0 0.43237997939727391 -0.21969514264188619 0 0.44975785303280541 -0.2255898949688982 0 0.44995934289594253 -0.19835057932979169 0 0.43237997939727391 -0.21969514264188619 0 0.44995934289594253 -0.19835057932979169 0 0.42655800908104652 -0.20248877897820619 0 0.444302871767289 -0.18527179670816579 0 0.44995934289594253 -0.19835057932979169 0 0.42655800908104652 -0.20248877897820619 0 0.44995934289594253 -0.19835057932979169 0 0.46675991992270621 -0.1779516052682695 0 0.44995934289594253 -0.19835057932979169 0 0.44995934289594253 -0.19835057932979169 0 0.46774087741254722 -0.19520616284195491 0 0.47013600328087812 -0.185042241033678 0 0.44995934289594253 -0.19835057932979169 0 0.46774087741254722 -0.19520616284195491 0 0.44995934289594253 -0.19835057932979169 0 0.46774087741254722 -0.19520616284195491 0 0.46528918090086291 -0.2095084705765255 0 0.44975785303280541 -0.2255898949688982 0 0.44995934289594253 -0.19835057932979169 0 0.46528918090086291 -0.2095084705765255 0 0.46695018322910392 -0.22473955239466681 0 0.46528918090086291 -0.2095084705765255 0 0.48029579162163721 -0.21558854579597769 0 0.46528918090086291 -0.2095084705765255 0 0.47801733861628259 -0.20339364304417529 0 0.48029579162163721 -0.21558854579597769 0 0.47801733861628259 -0.20339364304417529 0 0.48029579162163721 -0.21558854579597769 0 0.48876710843341442 -0.20457726853354019 0 0.46774087741254722 -0.19520616284195491 0 0.47801733861628259 -0.20339364304417529 0 0.48552241192915191 -0.19206174635411891 0 0.47927416581767118 -0.18397687174081401 0 0.46774087741254722 -0.19520616284195491 0 0.48552241192915191 -0.19206174635411891 0 0.46774087741254722 -0.19520616284195491 0 0.48552241192915191 -0.19206174635411891 0 0.47013600328087812 -0.185042241033678 0 0.47927416581767118 -0.18397687174081401 0 0.46774087741254722 -0.19520616284195491 0 0.46774087741254722 -0.19520616284195491 0 0.46528918090086291 -0.2095084705765255 0 0.47801733861628259 -0.20339364304417529 0 0.47801733861628259 -0.20339364304417529 0 0.48552241192915191 -0.19206174635411891 0 0.48876710843341442 -0.20457726853354019 0 0.48987334582395858 -0.18140433091368091 0 0.48552241192915191 -0.19206174635411891 0 0.5 -0.19225537639104809 0 0.48552241192915191 -0.19206174635411891 0 0.5 -0.19225537639104809 0 0.48876710843341442 -0.20457726853354019 0 0.5 -0.19225537639104809 0 0.48876710843341442 -0.20457726853354019 0 0.5 -0.21958703108238101 0 0.48029579162163721 -0.21558854579597769 0 0.48876710843341442 -0.20457726853354019 0 0.5 -0.21958703108238101 0 0.5 -0.21958703108238101 0 0.48033598971293961 -0.23536730169414519 0 0.5 -0.24691868577371379 0 0.48029579162163721 -0.21558854579597769 0 0.5 -0.21958703108238101 0 0.48033598971293961 -0.23536730169414519 0 0.46695018322910392 -0.22473955239466681 0 0.46086119099944728 -0.24298014516654151 0 0.48033598971293961 -0.23536730169414519 0 0.46695018322910392 -0.22473955239466681 0 0.48029579162163721 -0.21558854579597769 0 0.48033598971293961 -0.23536730169414519 0 0.46086119099944728 -0.24298014516654151 0 0.48033598971293961 -0.23536730169414519 0 0.47450143065275591 -0.2599846894272051 0 0.48033598971293961 -0.23536730169414519 0 0.5 -0.24691868577371379 0 0.47450143065275591 -0.2599846894272051 0 0.5 -0.24691868577371379 0 0.50000000000000222 -0.27425034046504659 0 0.47450143065275591 -0.2599846894272051 0 0.50000000000000222 -0.27425034046504659 0 0.47605513413645029 -0.28008102786359129 0 0.47450143065275591 -0.2599846894272051 0 0.47605513413645029 -0.28008102786359129 0 0.47450143065275591 -0.2599846894272051 0 0.45931845050930209 -0.27772900618102819 0 0.46086119099944728 -0.24298014516654151 0 0.47450143065275591 -0.2599846894272051 0 0.45165913482636821 -0.26068325523694041 0 0.47450143065275591 -0.2599846894272051 0 0.45931845050930209 -0.27772900618102819 0 0.45165913482636821 -0.26068325523694041 0 0.45931845050930209 -0.27772900618102819 0 0.44355941821905998 -0.27577600561597132 0 0.45165913482636821 -0.26068325523694041 0 0.44338493428344739 -0.24574379201886831 0 0.45165913482636821 -0.26068325523694041 0 0.42892204251950339 -0.2594807324876427 0 0.44355941821905998 -0.27577600561597132 0 0.45165913482636821 -0.26068325523694041 0 0.42892204251950339 -0.2594807324876427 0 0.44743457629936911 -0.29125199491084608 0 0.45088585771739531 -0.31517042999936162 0 0.43686388954492023 -0.30206384222820981 0 0.45088585771739531 -0.31517042999936162 0 0.43602078127065758 -0.31524868357114688 0 0.43686388954492023 -0.30206384222820981 0 0.45931845050930209 -0.27772900618102819 0 0.44355941821905998 -0.27577600561597132 0 0.44743457629936911 -0.29125199491084608 0 0.44355941821905998 -0.27577600561597132 0 0.44743457629936911 -0.29125199491084608 0 0.42611848489587972 -0.28658767974219163 0 0.47605513413645029 -0.28008102786359129 0 0.45931845050930209 -0.27772900618102819 0 0.46516191830632447 -0.295844547827811 0 0.45931845050930209 -0.27772900618102819 0 0.44743457629936911 -0.29125199491084608 0 0.46516191830632447 -0.295844547827811 0 0.44743457629936911 -0.29125199491084608 0 0.46516191830632447 -0.295844547827811 0 0.45088585771739531 -0.31517042999936162 0 0.46516191830632447 -0.295844547827811 0 0.47218478901913252 -0.31616939882945228 0 0.45088585771739531 -0.31517042999936162 0 0.4860923945095682 -0.29520986964724988 0 0.47218478901913252 -0.31616939882945228 0 0.50000000000000222 -0.27425034046504659 0 0.4860923945095682 -0.29520986964724988 0 0.5 -0.307151228172029 0 0.46516191830632447 -0.295844547827811 0 0.4860923945095682 -0.29520986964724988 0 0.47218478901913252 -0.31616939882945228 0 0.47605513413645029 -0.28008102786359129 0 0.46516191830632447 -0.295844547827811 0 0.4860923945095682 -0.29520986964724988 0 0.50000000000000222 -0.27425034046504659 0 0.47605513413645029 -0.28008102786359129 0 0.4860923945095682 -0.29520986964724988 0 0.50000000000000222 -0.27425034046504659 0 0.4860923945095682 -0.29520986964724988 0 0.4860923945095682 -0.29520986964724988 0 0.5 -0.307151228172029 0 0.47218478901913252 -0.31616939882945228 0 0.5 -0.307151228172029 0 0.47500442815187882 -0.33618410333150461 0 0.5 -0.35237408365171952 0 0.5 -0.307151228172029 0 0.47500442815187882 -0.33618410333150461 0 0.47218478901913252 -0.31616939882945228 0 0.47500442815187882 -0.33618410333150461 0 0.5 -0.35237408365171952 0 0.46252966193221051 -0.36479181955861489 0 0.5 -0.35237408365171952 0 0.46252966193221051 -0.36479181955861489 0 0.4680243894331878 -0.39009447735167219 0 0.46252966193221051 -0.36479181955861489 0 0.44439653888602387 -0.37108278870097211 0 0.45518384933885458 -0.37953704158418422 0 0.46252966193221051 -0.36479181955861489 0 0.4490308344886651 -0.35295870566956811 0 0.45703493443123322 -0.33948916176555749 0 0.47500442815187882 -0.33618410333150461 0 0.46252966193221051 -0.36479181955861489 0 0.45703493443123322 -0.33948916176555749 0 0.46252966193221051 -0.36479181955861489 0 0.45703493443123322 -0.33948916176555749 0 0.4490308344886651 -0.35295870566956811 0 0.44439653888602387 -0.37108278870097211 0 0.43547581015886039 -0.35374612963373181 0 0.44432011104097457 -0.34600420025309703 0 0.4490308344886651 -0.35295870566956811 0 0.45042795048268808 -0.34263813410543531 0 0.4490308344886651 -0.35295870566956811 0 0.45703493443123322 -0.33948916176555749 0 0.45042795048268808 -0.34263813410543531 0 0.44432011104097457 -0.34600420025309703 0 0.4490308344886651 -0.35295870566956811 0 0.43547581015886039 -0.35374612963373181 0 0.44432011104097457 -0.34600420025309703 0 0.43877314986606192 -0.33818418946214152 0 0.43547581015886039 -0.35374612963373181 0 0.46252966193221051 -0.36479181955861489 0 0.4490308344886651 -0.35295870566956811 0 0.44439653888602387 -0.37108278870097211 0 0.47218478901913252 -0.31616939882945228 0 0.45845081404400378 -0.32484725803309861 0 0.45088585771739531 -0.31517042999936162 0 0.47218478901913252 -0.31616939882945228 0 0.45845081404400378 -0.32484725803309861 0 0.45827718352869679 -0.33712892801165451 0 0.47218478901913252 -0.31616939882945228 0 0.45827718352869679 -0.33712892801165451 0 0.45845081404400378 -0.32484725803309861 0 0.45465012105844921 -0.33200612518688721 0 0.44755831468875862 -0.32470483606049327 0 0.47500442815187882 -0.33618410333150461 0 0.45703493443123322 -0.33948916176555749 0 0.45827718352869679 -0.33712892801165451 0 0.47500442815187882 -0.33618410333150461 0 0.47218478901913252 -0.31616939882945228 0 0.45827718352869679 -0.33712892801165451 0 0.45703493443123322 -0.33948916176555749 0 0.4547926195999189 -0.33699511694280199 0 0.45042795048268808 -0.34263813410543531 0 0.45703493443123322 -0.33948916176555749 0 0.45827718352869679 -0.33712892801165451 0 0.4547926195999189 -0.33699511694280199 0 0.45845081404400378 -0.32484725803309861 0 0.45827718352869679 -0.33712892801165451 0 0.45465012105844921 -0.33200612518688721 0 0.4547926195999189 -0.33699511694280199 0 0.45465012105844921 -0.33200612518688721 0 0.45190540097192972 -0.33615439765103378 0 0.45827718352869679 -0.33712892801165451 0 0.4547926195999189 -0.33699511694280199 0 0.45465012105844921 -0.33200612518688721 0 0.45465012105844921 -0.33200612518688721 0 0.44749393872662357 -0.33307274595813069 0 0.44755831468875862 -0.32470483606049327 0 0.45465012105844921 -0.33200612518688721 0 0.44749393872662357 -0.33307274595813069 0 0.45190540097192972 -0.33615439765103378 0 0.4547926195999189 -0.33699511694280199 0 0.45042795048268808 -0.34263813410543531 0 0.45190540097192972 -0.33615439765103378 0 0.45042795048268808 -0.34263813410543531 0 0.45190540097192972 -0.33615439765103378 0 0.44691761172297523 -0.33872250108465612 0 0.44749393872662357 -0.33307274595813069 0 0.45190540097192972 -0.33615439765103378 0 0.44691761172297523 -0.33872250108465612 0 0.44432011104097457 -0.34600420025309703 0 0.45042795048268808 -0.34263813410543531 0 0.44691761172297523 -0.33872250108465612 0 0.44432011104097457 -0.34600420025309703 0 0.44691761172297523 -0.33872250108465612 0 0.43877314986606192 -0.33818418946214152 0 0.44749393872662357 -0.33307274595813069 0 0.44691761172297523 -0.33872250108465612 0 0.43877314986606192 -0.33818418946214152 0 0.44749393872662357 -0.33307274595813069 0 0.43877314986606192 -0.33818418946214152 0 0.43784837531542259 -0.32788377361433518 0 0.44749393872662357 -0.33307274595813069 0 0.43784837531542259 -0.32788377361433518 0 0.44755831468875862 -0.32470483606049327 0 0.43784837531542259 -0.32788377361433518 0 0.44755831468875862 -0.32470483606049327 0 0.43602078127065758 -0.31524868357114688 0 0.45845081404400378 -0.32484725803309861 0 0.44755831468875862 -0.32470483606049327 0 0.45088585771739531 -0.31517042999936162 0 0.44755831468875862 -0.32470483606049327 0 0.45088585771739531 -0.31517042999936162 0 0.43602078127065758 -0.31524868357114688 0 0.43784837531542259 -0.32788377361433518 0 0.42583518759170652 -0.33528639298719382 0 0.41775460495295358 -0.31793141321765611 0 0.43784837531542259 -0.32788377361433518 0 0.43602078127065758 -0.31524868357114688 0 0.41775460495295358 -0.31793141321765611 0 0.43877314986606192 -0.33818418946214152 0 0.43784837531542259 -0.32788377361433518 0 0.42583518759170652 -0.33528639298719382 0 0.43877314986606192 -0.33818418946214152 0 0.42583518759170652 -0.33528639298719382 0 0.43547581015886039 -0.35374612963373181 0 0.41250416259223432 -0.33960725990233392 0 0.41775460495295358 -0.31793141321765611 0 0.39805431729583179 -0.33510365622952631 0 0.41250416259223432 -0.33960725990233392 0 0.41775460495295358 -0.31793141321765611 0 0.42583518759170652 -0.33528639298719382 0 0.41250416259223432 -0.33960725990233392 0 0.41775460495295358 -0.31793141321765611 0 0.42583518759170652 -0.33528639298719382 0 0.41250416259223432 -0.33960725990233392 0 0.42034794007649889 -0.35298104146800569 0 0.43547581015886039 -0.35374612963373181 0 0.42034794007649889 -0.35298104146800569 0 0.42578668388574042 -0.37577956855813549 0 0.44439653888602387 -0.37108278870097211 0 0.43547581015886039 -0.35374612963373181 0 0.42578668388574042 -0.37577956855813549 0 0.42583518759170652 -0.33528639298719382 0 0.43547581015886039 -0.35374612963373181 0 0.42034794007649889 -0.35298104146800569 0 0.41250416259223432 -0.33960725990233392 0 0.42034794007649889 -0.35298104146800569 0 0.40725372023151529 -0.36128310658701179 0 0.41250416259223432 -0.33960725990233392 0 0.40725372023151529 -0.36128310658701179 0 0.40725372023151529 -0.36128310658701179 0 0.42578668388574042 -0.37577956855813549 0 0.40193856510946419 -0.3832261124550107 0 0.40725372023151529 -0.36128310658701179 0 0.42578668388574042 -0.37577956855813549 0 0.42034794007649889 -0.35298104146800569 0 0.40725372023151529 -0.36128310658701179 0 0.42578668388574042 -0.37577956855813549 0 0.40725372023151529 -0.36128310658701179 0 0.39425043507280438 -0.36432915978129837 0 0.40193856510946419 -0.3832261124550107 0 0.40725372023151529 -0.36128310658701179 0 0.40193856510946419 -0.3832261124550107 0 0.39425043507280438 -0.36432915978129837 0 0.38081427771294768 -0.36737052156009248 0 0.40193856510946419 -0.3832261124550107 0 0.40725372023151529 -0.36128310658701179 0 0.38699517723729038 -0.34543689852307891 0 0.39805431729583179 -0.33510365622952631 0 0.40725372023151529 -0.36128310658701179 0 0.39425043507280438 -0.36432915978129837 0 0.38699517723729038 -0.34543689852307891 0 0.40725372023151529 -0.36128310658701179 0 0.38699517723729038 -0.34543689852307891 0 0.41250416259223432 -0.33960725990233392 0 0.40725372023151529 -0.36128310658701179 0 0.39805431729583179 -0.33510365622952631 0 0.38699517723729038 -0.34543689852307891 0 0.38081427771294768 -0.36737052156009248 0 0.37640125955739012 -0.35149107478397351 0 0.38465179156333151 -0.34360390505586791 0 0.36805061276354478 -0.3427907498460791 0 0.39425043507280438 -0.36432915978129837 0 0.38699517723729038 -0.34543689852307891 0 0.38081427771294768 -0.36737052156009248 0 0.38699517723729038 -0.34543689852307891 0 0.37640125955739012 -0.35149107478397351 0 0.38081427771294768 -0.36737052156009248 0 0.38699517723729038 -0.34543689852307891 0 0.38465179156333151 -0.34360390505586791 0 0.38699517723729038 -0.34543689852307891 0 0.37640125955739012 -0.35149107478397351 0 0.38465179156333151 -0.34360390505586791 0 0.41775460495295358 -0.31793141321765611 0 0.39401776620237461 -0.32051644503610022 0 0.39805431729583179 -0.33510365622952631 0 0.38699517723729038 -0.34543689852307891 0 0.39401776620237461 -0.32051644503610022 0 0.39805431729583179 -0.33510365622952631 0 0.38699517723729038 -0.34543689852307891 0 0.39401776620237461 -0.32051644503610022 0 0.38465179156333151 -0.34360390505586791 0 0.37858644206980091 -0.32769985780377792 0 0.36805061276354478 -0.3427907498460791 0 0.38699517723729038 -0.34543689852307891 0 0.39401776620237461 -0.32051644503610022 0 0.38465179156333151 -0.34360390505586791 0 0.39401776620237461 -0.32051644503610022 0 0.38465179156333151 -0.34360390505586791 0 0.37858644206980091 -0.32769985780377792 0 0.39401776620237461 -0.32051644503610022 0 0.37858644206980091 -0.32769985780377792 0 0.37861767820969228 -0.30691821554646831 0 0.41775460495295358 -0.31793141321765611 0 0.39401776620237461 -0.32051644503610022 0 0.40104035516745928 -0.29559599154912142 0 0.39401776620237461 -0.32051644503610022 0 0.37861767820969228 -0.30691821554646831 0 0.40104035516745928 -0.29559599154912142 0 0.39401776620237461 -0.32051644503610022 0 0.40104035516745928 -0.29559599154912142 0 0.40104035516745928 -0.29559599154912142 0 0.38498320530945151 -0.287592927137584 0 0.39655653748852282 -0.27284147297554762 0 0.38498320530945151 -0.287592927137584 0 0.37764450162479901 -0.26965755496232408 0 0.36873774536035581 -0.28861226174546889 0 0.37861767820969228 -0.30691821554646831 0 0.40104035516745928 -0.29559599154912142 0 0.38498320530945151 -0.287592927137584 0 0.37861767820969228 -0.30691821554646831 0 0.38498320530945151 -0.287592927137584 0 0.36873774536035581 -0.28861226174546889 0 0.38498320530945151 -0.287592927137584 0 0.37764450162479901 -0.26965755496232408 0 0.39655653748852282 -0.27284147297554762 0 0.39206528024080278 -0.24921397013056479 0 0.37764450162479901 -0.26965755496232408 0 0.39655653748852282 -0.27284147297554762 0 0.39206528024080278 -0.24921397013056479 0 0.37764450162479901 -0.26965755496232408 0 0.37510228513818711 -0.25237727586059511 0 0.39206528024080278 -0.24921397013056479 0 0.39655653748852282 -0.27284147297554762 0 0.40884184876520419 -0.25890250189124958 0 0.40104035516745928 -0.29559599154912142 0 0.39655653748852282 -0.27284147297554762 0 0.4136044294752057 -0.2739163227279473 0 0.39655653748852282 -0.27284147297554762 0 0.4136044294752057 -0.2739163227279473 0 0.40884184876520419 -0.25890250189124958 0 0.4148006158986044 -0.24103970595398019 0 0.40884184876520419 -0.25890250189124958 0 0.42892204251950339 -0.2594807324876427 0 0.4136044294752057 -0.2739163227279473 0 0.40884184876520419 -0.25890250189124958 0 0.42892204251950339 -0.2594807324876427 0 0.4136044294752057 -0.2739163227279473 0 0.42892204251950339 -0.2594807324876427 0 0.42611848489587972 -0.28658767974219163 0 0.44355941821905998 -0.27577600561597132 0 0.42892204251950339 -0.2594807324876427 0 0.42611848489587972 -0.28658767974219163 0 0.44743457629936911 -0.29125199491084608 0 0.42611848489587972 -0.28658767974219163 0 0.43686388954492023 -0.30206384222820981 0 0.43602078127065758 -0.31524868357114688 0 0.41775460495295358 -0.31793141321765611 0 0.42179240152309172 -0.30222108271158582 0 0.42611848489587972 -0.28658767974219163 0 0.43686388954492023 -0.30206384222820981 0 0.42179240152309172 -0.30222108271158582 0 0.43602078127065758 -0.31524868357114688 0 0.43686388954492023 -0.30206384222820981 0 0.42179240152309172 -0.30222108271158582 0 0.41775460495295358 -0.31793141321765611 0 0.40104035516745928 -0.29559599154912142 0 0.42179240152309172 -0.30222108271158582 0 0.40104035516745928 -0.29559599154912142 0 0.4136044294752057 -0.2739163227279473 0 0.42611848489587972 -0.28658767974219163 0 0.40104035516745928 -0.29559599154912142 0 0.42611848489587972 -0.28658767974219163 0 0.42179240152309172 -0.30222108271158582 0 0.5 -0.5 0 0.478892924595126 -0.45923392689990328 0 0.5 -0.41454166856117469 0 0.5 -0.5 0 0.47943423265092072 -0.49342116463239621 0 0.40014079662082208 -0.5 0 0.43983937115661631 -0.46972557693384148 0 0.47943423265092072 -0.49342116463239621 0 0.40014079662082208 -0.5 0 0.43983937115661631 -0.46972557693384148 0 0.46715606132834708 -0.47012790102379598 0 0.47943423265092072 -0.49342116463239621 0 0.5 -0.5 0 0.47943423265092072 -0.49342116463239621 0 0.478892924595126 -0.45923392689990328 0 0.46715606132834708 -0.47012790102379598 0 0.47943423265092072 -0.49342116463239621 0 0.478892924595126 -0.45923392689990328 0 0.46715606132834708 -0.47012790102379598 0 0.47943423265092072 -0.49342116463239621 0 0.478892924595126 -0.45923392689990328 0 0.45487789000577361 -0.44683463741519602 0 0.47188936358571532 -0.4304781897668572 0 0.46715606132834708 -0.47012790102379598 0 0.45487789000577361 -0.44683463741519602 0 0.46715606132834708 -0.47012790102379598 0 0.478892924595126 -0.45923392689990328 0 0.45487789000577361 -0.44683463741519602 0 0.43983937115661631 -0.46972557693384148 0 0.46715606132834708 -0.47012790102379598 0 0.45487789000577361 -0.44683463741519602 0 0.43983937115661631 -0.46972557693384148 0 0.45487789000577361 -0.44683463741519602 0 0.43095981599733307 -0.44753658110846528 0 0.45487789000577361 -0.44683463741519602 0 0.43408281430989271 -0.43319973453275151 0 0.43095981599733307 -0.44753658110846528 0 0.45487789000577361 -0.44683463741519602 0 0.44259971868320003 -0.42354137380659601 0 0.45487789000577361 -0.44683463741519602 0 0.44259971868320003 -0.42354137380659601 0 0.43408281430989271 -0.43319973453275151 0 0.45487789000577361 -0.44683463741519602 0 0.44259971868320003 -0.42354137380659601 0 0.45959372781066021 -0.42263882295877442 0 0.44259971868320003 -0.42354137380659601 0 0.45186952978880229 -0.40983589673226128 0 0.45959372781066021 -0.42263882295877442 0 0.44259971868320003 -0.42354137380659601 0 0.45186952978880229 -0.40983589673226128 0 0.44161148704613862 -0.40579593671517361 0 0.44259971868320003 -0.42354137380659601 0 0.44161148704613862 -0.40579593671517361 0 0.43098246877755192 -0.41858878846052949 0 0.45186952978880229 -0.40983589673226128 0 0.45959372781066021 -0.42263882295877442 0 0.46285261119418991 -0.40477249250038388 0 0.45959372781066021 -0.42263882295877442 0 0.4735191169341651 -0.41539713514472942 0 0.46285261119418991 -0.40477249250038388 0 0.45959372781066021 -0.42263882295877442 0 0.47188936358571532 -0.4304781897668572 0 0.4735191169341651 -0.41539713514472942 0 0.45487789000577361 -0.44683463741519602 0 0.45959372781066021 -0.42263882295877442 0 0.47188936358571532 -0.4304781897668572 0 0.5 -0.41454166856117469 0 0.4735191169341651 -0.41539713514472942 0 0.4680243894331878 -0.39009447735167219 0 0.478892924595126 -0.45923392689990328 0 0.47188936358571532 -0.4304781897668572 0 0.5 -0.41454166856117469 0 0.47188936358571532 -0.4304781897668572 0 0.5 -0.41454166856117469 0 0.4735191169341651 -0.41539713514472942 0 0.5 -0.35237408365171952 0 0.5 -0.41454166856117469 0 0.4680243894331878 -0.39009447735167219 0 0.4735191169341651 -0.41539713514472942 0 0.4680243894331878 -0.39009447735167219 0 0.46252966193221051 -0.36479181955861489 0 0.45518384933885458 -0.37953704158418422 0 0.4680243894331878 -0.39009447735167219 0 0.45518384933885458 -0.37953704158418422 0 0.4680243894331878 -0.39009447735167219 0 0.44431964753996511 -0.39027603052925969 0 0.46252966193221051 -0.36479181955861489 0 0.4680243894331878 -0.39009447735167219 0 0.4735191169341651 -0.41539713514472942 0 0.4680243894331878 -0.39009447735167219 0 0.46285261119418991 -0.40477249250038388 0 0.4680243894331878 -0.39009447735167219 0 0.46285261119418991 -0.40477249250038388 0 0.44431964753996511 -0.39027603052925969 0 0.46285261119418991 -0.40477249250038388 0 0.44431964753996511 -0.39027603052925969 0 0.45186952978880229 -0.40983589673226128 0 0.44161148704613862 -0.40579593671517361 0 0.44431964753996511 -0.39027603052925969 0 0.45186952978880229 -0.40983589673226128 0 0.46285261119418991 -0.40477249250038388 0 0.44431964753996511 -0.39027603052925969 0 0.44439653888602387 -0.37108278870097211 0 0.44431964753996511 -0.39027603052925969 0 0.42578668388574042 -0.37577956855813549 0 0.44439653888602387 -0.37108278870097211 0 0.45518384933885458 -0.37953704158418422 0 0.44431964753996511 -0.39027603052925969 0 0.44431964753996511 -0.39027603052925969 0 0.42578668388574042 -0.37577956855813549 0 0.42627525148907153 -0.39512359141131242 0 0.44431964753996511 -0.39027603052925969 0 0.42578668388574042 -0.37577956855813549 0 0.44161148704613862 -0.40579593671517361 0 0.44431964753996511 -0.39027603052925969 0 0.42627525148907153 -0.39512359141131242 0 0.44161148704613862 -0.40579593671517361 0 0.42627525148907153 -0.39512359141131242 0 0.41380476734409732 -0.40903711363024231 0 0.41288573556315727 -0.39366710087554208 0 0.39662340998741341 -0.40516911832300972 0 0.41380476734409732 -0.40903711363024231 0 0.42627525148907153 -0.39512359141131242 0 0.41288573556315727 -0.39366710087554208 0 0.41380476734409732 -0.40903711363024231 0 0.42578668388574042 -0.37577956855813549 0 0.41288573556315727 -0.39366710087554208 0 0.40193856510946419 -0.3832261124550107 0 0.42578668388574042 -0.37577956855813549 0 0.42627525148907153 -0.39512359141131242 0 0.41288573556315727 -0.39366710087554208 0 0.38081427771294768 -0.36737052156009248 0 0.37463337818860382 -0.38930414459710588 0 0.3737028077843495 -0.38742295831448542 0 0.38081427771294768 -0.36737052156009248 0 0.38897026210220897 -0.39170162293651239 0 0.37463337818860382 -0.38930414459710588 0 0.38081427771294768 -0.36737052156009248 0 0.37463337818860382 -0.38930414459710588 0 0.38081427771294768 -0.36737052156009248 0 0.40193856510946419 -0.3832261124550107 0 0.38897026210220897 -0.39170162293651239 0 0.38599804764205609 -0.41227829054531151 0 0.37463337818860382 -0.38930414459710588 0 0.38897026210220897 -0.39170162293651239 0 0.39662340998741341 -0.40516911832300972 0 0.38599804764205609 -0.41227829054531151 0 0.38599804764205609 -0.41227829054531151 0 0.36755341006792419 -0.41442821452601158 0 0.37463337818860382 -0.38930414459710588 0 0.38897026210220897 -0.39170162293651239 0 0.38599804764205609 -0.41227829054531151 0 0.37463337818860382 -0.38930414459710588 0 0.40193856510946419 -0.3832261124550107 0 0.38897026210220897 -0.39170162293651239 0 0.39662340998741341 -0.40516911832300972 0 0.41288573556315727 -0.39366710087554208 0 0.40193856510946419 -0.3832261124550107 0 0.39662340998741341 -0.40516911832300972 0 0.40193856510946419 -0.3832261124550107 0 0.39662340998741341 -0.40516911832300972 0 0.38599804764205609 -0.41227829054531151 0 0.41380476734409732 -0.40903711363024231 0 0.39662340998741341 -0.40516911832300972 0 0.38599804764205609 -0.41227829054531151 0 0.41380476734409732 -0.40903711363024231 0 0.40147331832312588 -0.42054231308375889 0 0.38599804764205609 -0.41227829054531151 0 0.41380476734409732 -0.40903711363024231 0 0.38599804764205609 -0.41227829054531151 0 0.36755341006792419 -0.41442821452601158 0 0.38599804764205609 -0.41227829054531151 0 0.37837193070639508 -0.43074191130029282 0 0.36755341006792419 -0.41442821452601158 0 0.38599804764205609 -0.41227829054531151 0 0.37837193070639508 -0.43074191130029282 0 0.39716653888589531 -0.43485585418744782 0 0.37837193070639508 -0.43074191130029282 0 0.39716653888589531 -0.43485585418744782 0 0.38455236834147782 -0.44235831893697952 0 0.38599804764205609 -0.41227829054531151 0 0.39716653888589531 -0.43485585418744782 0 0.40147331832312588 -0.42054231308375889 0 0.38599804764205609 -0.41227829054531151 0 0.39716653888589531 -0.43485585418744782 0 0.40147331832312588 -0.42054231308375889 0 0.39716653888589531 -0.43485585418744782 0 0.40988830344794153 -0.42850982814637428 0 0.39716653888589531 -0.43485585418744782 0 0.40988830344794153 -0.42850982814637428 0 0.41424956646142452 -0.44145335337101582 0 0.40988830344794153 -0.42850982814637428 0 0.42255857874347952 -0.42798536962106742 0 0.41424956646142452 -0.44145335337101582 0 0.40147331832312588 -0.42054231308375889 0 0.40988830344794153 -0.42850982814637428 0 0.41380476734409732 -0.40903711363024231 0 0.40988830344794153 -0.42850982814637428 0 0.41380476734409732 -0.40903711363024231 0 0.42255857874347952 -0.42798536962106742 0 0.44161148704613862 -0.40579593671517361 0 0.41380476734409732 -0.40903711363024231 0 0.43098246877755192 -0.41858878846052949 0 0.44161148704613862 -0.40579593671517361 0 0.41380476734409732 -0.40903711363024231 0 0.41380476734409732 -0.40903711363024231 0 0.43098246877755192 -0.41858878846052949 0 0.42255857874347952 -0.42798536962106742 0 0.43408281430989271 -0.43319973453275151 0 0.42255857874347952 -0.42798536962106742 0 0.43095981599733307 -0.44753658110846528 0 0.44259971868320003 -0.42354137380659601 0 0.43098246877755192 -0.41858878846052949 0 0.43408281430989271 -0.43319973453275151 0 0.43098246877755192 -0.41858878846052949 0 0.43408281430989271 -0.43319973453275151 0 0.42255857874347952 -0.42798536962106742 0 0.42255857874347952 -0.42798536962106742 0 0.43095981599733307 -0.44753658110846528 0 0.41424956646142452 -0.44145335337101582 0 0.43983937115661631 -0.46972557693384148 0 0.42706067288056998 -0.45966910190407051 0 0.41707216494033877 -0.46659444091922031 0 0.43983937115661631 -0.46972557693384148 0 0.43095981599733307 -0.44753658110846528 0 0.42706067288056998 -0.45966910190407051 0 0.43095981599733307 -0.44753658110846528 0 0.42706067288056998 -0.45966910190407051 0 0.42037133942799187 -0.45481980865475502 0 0.42037133942799187 -0.45481980865475502 0 0.41707216494033877 -0.46659444091922031 0 0.40833503012973449 -0.45743341782958391 0 0.42706067288056998 -0.45966910190407051 0 0.42037133942799187 -0.45481980865475502 0 0.41707216494033877 -0.46659444091922031 0 0.41707216494033877 -0.46659444091922031 0 0.40833503012973449 -0.45743341782958391 0 0.39424227281986102 -0.46676003377889269 0 0.43095981599733307 -0.44753658110846528 0 0.42037133942799187 -0.45481980865475502 0 0.41424956646142452 -0.44145335337101582 0 0.42037133942799187 -0.45481980865475502 0 0.40833503012973449 -0.45743341782958391 0 0.41424956646142452 -0.44145335337101582 0 0.39716653888589531 -0.43485585418744782 0 0.40833503012973449 -0.45743341782958391 0 0.41424956646142452 -0.44145335337101582 0 0.39716653888589531 -0.43485585418744782 0 0.39345157537004599 -0.45057062730194619 0 0.38455236834147782 -0.44235831893697952 0 0.39716653888589531 -0.43485585418744782 0 0.40833503012973449 -0.45743341782958391 0 0.39345157537004599 -0.45057062730194619 0 0.39716653888589531 -0.43485585418744782 0 0.40833503012973449 -0.45743341782958391 0 0.39345157537004599 -0.45057062730194619 0 0.38455236834147782 -0.44235831893697952 0 0.38182359321740972 -0.45292134106576409 0 0.38455236834147782 -0.44235831893697952 0 0.38182359321740972 -0.45292134106576409 0 0.37194820352764257 -0.4427018608294464 0 0.37837193070639508 -0.43074191130029282 0 0.38455236834147782 -0.44235831893697952 0 0.37194820352764257 -0.4427018608294464 0 0.38182359321740972 -0.45292134106576409 0 0.39424227281986102 -0.46676003377889269 0 0.37141238069938332 -0.46692562663856529 0 0.39345157537004599 -0.45057062730194619 0 0.38182359321740972 -0.45292134106576409 0 0.39424227281986102 -0.46676003377889269 0 0.39424227281986102 -0.46676003377889269 0 0.37141238069938332 -0.46692562663856529 0 0.40833503012973449 -0.45743341782958391 0 0.39345157537004599 -0.45057062730194619 0 0.39424227281986102 -0.46676003377889269 0 0.41707216494033877 -0.46659444091922031 0 0.39424227281986102 -0.46676003377889269 0 0.41707216494033877 -0.46659444091922031 0 0.39424227281986102 -0.46676003377889269 0 0.40014079662082208 -0.5 0 0.39424227281986102 -0.46676003377889269 0 0.40014079662082208 -0.5 0 0.37141238069938332 -0.46692562663856529 0 0.43983937115661631 -0.46972557693384148 0 0.41707216494033877 -0.46659444091922031 0 0.40014079662082208 -0.5 0 0.40014079662082208 -0.5 0 0.32546065004022617 -0.5 0 0.3462765218470546 -0.48033279556006703 0 0.32546065004022617 -0.5 0 0.3462765218470546 -0.48033279556006703 0 0.30631021868456298 -0.48072311486568892 0 0.3462765218470546 -0.48033279556006703 0 0.32575259645842791 -0.46725681235791028 0 0.30631021868456298 -0.48072311486568892 0 0.3462765218470546 -0.48033279556006703 0 0.3485824885789055 -0.46709121949823779 0 0.32575259645842791 -0.46725681235791028 0 0.40014079662082208 -0.5 0 0.3462765218470546 -0.48033279556006703 0 0.37141238069938332 -0.46692562663856529 0 0.3462765218470546 -0.48033279556006703 0 0.3485824885789055 -0.46709121949823779 0 0.37141238069938332 -0.46692562663856529 0 0.3485824885789055 -0.46709121949823779 0 0.37141238069938332 -0.46692562663856529 0 0.35324569388809701 -0.44989359131069062 0 0.3485824885789055 -0.46709121949823779 0 0.35324569388809701 -0.44989359131069062 0 0.33806214337105372 -0.45777686618061397 0 0.38182359321740972 -0.45292134106576409 0 0.37141238069938332 -0.46692562663856529 0 0.35324569388809701 -0.44989359131069062 0 0.3485824885789055 -0.46709121949823779 0 0.37141238069938332 -0.46692562663856529 0 0.36060935802898147 -0.43906997082244181 0 0.37194820352764257 -0.4427018608294464 0 0.35324569388809701 -0.44989359131069062 0 0.38182359321740972 -0.45292134106576409 0 0.35324569388809701 -0.44989359131069062 0 0.37837193070639508 -0.43074191130029282 0 0.36060935802898147 -0.43906997082244181 0 0.37194820352764257 -0.4427018608294464 0 0.38182359321740972 -0.45292134106576409 0 0.37194820352764257 -0.4427018608294464 0 0.35324569388809701 -0.44989359131069062 0 0.36060935802898147 -0.43906997082244181 0 0.35324569388809701 -0.44989359131069062 0 0.34315104194743368 -0.43483422324315929 0 0.32466779455878442 -0.44686584155561709 0 0.32761501992215097 -0.43116249501185328 0 0.34315104194743368 -0.43483422324315929 0 0.35324569388809701 -0.44989359131069062 0 0.33806214337105372 -0.45777686618061397 0 0.32466779455878442 -0.44686584155561709 0 0.35324569388809701 -0.44989359131069062 0 0.32466779455878442 -0.44686584155561709 0 0.34315104194743368 -0.43483422324315929 0 0.35324569388809701 -0.44989359131069062 0 0.32466779455878442 -0.44686584155561709 0 0.3485824885789055 -0.46709121949823779 0 0.32575259645842791 -0.46725681235791028 0 0.3485824885789055 -0.46709121949823779 0 0.33806214337105372 -0.45777686618061397 0 0.32575259645842791 -0.46725681235791028 0 0.33806214337105372 -0.45777686618061397 0 0.32575259645842791 -0.46725681235791028 0 0.32466779455878442 -0.44686584155561709 0 0.32575259645842791 -0.46725681235791028 0 0.30904716904302271 -0.45792120175055678 0 0.30631021868456298 -0.48072311486568892 0 0.32575259645842791 -0.46725681235791028 0 0.32466779455878442 -0.44686584155561709 0 0.30904716904302271 -0.45792120175055678 0 0.32466779455878442 -0.44686584155561709 0 0.31800868577585262 -0.43516031519895321 0 0.30735360635596409 -0.43632211706289747 0 0.32466779455878442 -0.44686584155561709 0 0.32761501992215097 -0.43116249501185328 0 0.31800868577585262 -0.43516031519895321 0 0.32761501992215097 -0.43116249501185328 0 0.32339131420283213 -0.41656724990055422 0 0.31239832226651099 -0.42629080716544471 0 0.32761501992215097 -0.43116249501185328 0 0.31800868577585262 -0.43516031519895321 0 0.31239832226651099 -0.42629080716544471 0 0.31800868577585262 -0.43516031519895321 0 0.31239832226651099 -0.42629080716544471 0 0.30735360635596409 -0.43632211706289747 0 0.32339131420283213 -0.41656724990055422 0 0.31120060169272079 -0.4133373498197 0 0.31239832226651099 -0.42629080716544471 0 0.32339131420283213 -0.41656724990055422 0 0.319673984964159 -0.40346676889879052 0 0.31120060169272079 -0.4133373498197 0 0.319673984964159 -0.40346676889879052 0 0.30884060304287331 -0.40229515593698711 0 0.31120060169272079 -0.4133373498197 0 0.32339131420283213 -0.41656724990055422 0 0.33281994217864741 -0.40778505865636938 0 0.319673984964159 -0.40346676889879052 0 0.32761501992215097 -0.43116249501185328 0 0.32339131420283213 -0.41656724990055422 0 0.33796042338316851 -0.41787760036937549 0 0.32339131420283213 -0.41656724990055422 0 0.33281994217864741 -0.40778505865636938 0 0.33796042338316851 -0.41787760036937549 0 0.33281994217864741 -0.40778505865636938 0 0.33796042338316851 -0.41787760036937549 0 0.34601675315157321 -0.40486547886918423 0 0.32761501992215097 -0.43116249501185328 0 0.33796042338316851 -0.41787760036937549 0 0.34315104194743368 -0.43483422324315929 0 0.33796042338316851 -0.41787760036937549 0 0.34315104194743368 -0.43483422324315929 0 0.35231855835687692 -0.42655250224024699 0 0.36060935802898147 -0.43906997082244181 0 0.34315104194743368 -0.43483422324315929 0 0.35231855835687692 -0.42655250224024699 0 0.37837193070639508 -0.43074191130029282 0 0.36060935802898147 -0.43906997082244181 0 0.36755341006792419 -0.41442821452601158 0 0.36060935802898147 -0.43906997082244181 0 0.35231855835687692 -0.42655250224024699 0 0.36755341006792419 -0.41442821452601158 0 0.36060935802898147 -0.43906997082244181 0 0.36755341006792419 -0.41442821452601158 0 0.33796042338316851 -0.41787760036937549 0 0.35231855835687692 -0.42655250224024699 0 0.36755341006792419 -0.41442821452601158 0 0.33796042338316851 -0.41787760036937549 0 0.36755341006792419 -0.41442821452601158 0 0.34601675315157321 -0.40486547886918423 0 0.33796042338316851 -0.41787760036937549 0 0.36755341006792419 -0.41442821452601158 0 0.36755341006792419 -0.41442821452601158 0 0.34601675315157321 -0.40486547886918423 0 0.35566250251704978 -0.3975177511027051 0 0.34601675315157321 -0.40486547886918423 0 0.34667365318154342 -0.39629832909528578 0 0.35566250251704978 -0.3975177511027051 0 0.34667365318154342 -0.39629832909528578 0 0.34795812186604658 -0.38666189116531141 0 0.33705723519150399 -0.3961481952439429 0 0.34667365318154342 -0.39629832909528578 0 0.35566250251704978 -0.3975177511027051 0 0.34795812186604658 -0.38666189116531141 0 0.36755341006792419 -0.41442821452601158 0 0.35566250251704978 -0.3975177511027051 0 0.36706103815962848 -0.39187921332532882 0 0.36755341006792419 -0.41442821452601158 0 0.37463337818860382 -0.38930414459710588 0 0.36755341006792419 -0.41442821452601158 0 0.36706103815962848 -0.39187921332532882 0 0.37463337818860382 -0.38930414459710588 0 0.35566250251704978 -0.3975177511027051 0 0.36706103815962848 -0.39187921332532882 0 0.35924801608749379 -0.38543857686598643 0 0.38081427771294768 -0.36737052156009248 0 0.36848073339739068 -0.37517807712711049 0 0.3737028077843495 -0.38742295831448542 0 0.36848073339739068 -0.37517807712711049 0 0.3737028077843495 -0.38742295831448542 0 0.36599997940964812 -0.38379980358563692 0 0.36706103815962848 -0.39187921332532882 0 0.3737028077843495 -0.38742295831448542 0 0.36599997940964812 -0.38379980358563692 0 0.36706103815962848 -0.39187921332532882 0 0.37463337818860382 -0.38930414459710588 0 0.3737028077843495 -0.38742295831448542 0 0.37463337818860382 -0.38930414459710588 0 0.3737028077843495 -0.38742295831448542 0 0.36706103815962848 -0.39187921332532882 0 0.36599997940964812 -0.38379980358563692 0 0.35924801608749379 -0.38543857686598643 0 0.36599997940964812 -0.38379980358563692 0 0.36207090148421361 -0.37959838259465167 0 0.35924801608749379 -0.38543857686598643 0 0.36848073339739068 -0.37517807712711049 0 0.36599997940964812 -0.38379980358563692 0 0.36207090148421361 -0.37959838259465167 0 0.36848073339739068 -0.37517807712711049 0 0.36207090148421361 -0.37959838259465167 0 0.3554566368260581 -0.37480617727887811 0 0.36207090148421361 -0.37959838259465167 0 0.35924801608749379 -0.38543857686598643 0 0.3554566368260581 -0.37480617727887811 0 0.35924801608749379 -0.38543857686598643 0 0.34795812186604658 -0.38666189116531141 0 0.3554566368260581 -0.37480617727887811 0 0.35566250251704978 -0.3975177511027051 0 0.35924801608749379 -0.38543857686598643 0 0.34795812186604658 -0.38666189116531141 0 0.34795812186604658 -0.38666189116531141 0 0.34537995690420659 -0.3737828605913362 0 0.3554566368260581 -0.37480617727887811 0 0.34795812186604658 -0.38666189116531141 0 0.33323562740676532 -0.37769939737979058 0 0.34537995690420659 -0.3737828605913362 0 0.34795812186604658 -0.38666189116531141 0 0.33323562740676532 -0.37769939737979058 0 0.33705723519150399 -0.3961481952439429 0 0.33323562740676532 -0.37769939737979058 0 0.33705723519150399 -0.3961481952439429 0 0.319673984964159 -0.40346676889879052 0 0.33281994217864741 -0.40778505865636938 0 0.33705723519150399 -0.3961481952439429 0 0.319673984964159 -0.40346676889879052 0 0.33281994217864741 -0.40778505865636938 0 0.34601675315157321 -0.40486547886918423 0 0.33705723519150399 -0.3961481952439429 0 0.34601675315157321 -0.40486547886918423 0 0.34667365318154342 -0.39629832909528578 0 0.33705723519150399 -0.3961481952439429 0 0.33323562740676532 -0.37769939737979058 0 0.319673984964159 -0.40346676889879052 0 0.31422368515007948 -0.393427126581603 0 0.319673984964159 -0.40346676889879052 0 0.31422368515007948 -0.393427126581603 0 0.30884060304287331 -0.40229515593698711 0 0.33323562740676532 -0.37769939737979058 0 0.319673984964159 -0.40346676889879052 0 0.31422368515007948 -0.393427126581603 0 0.30591552541026101 -0.37751124227982003 0 0.32002671755222051 -0.36641101040373808 0 0.33323562740676532 -0.37769939737979058 0 0.31422368515007948 -0.393427126581603 0 0.32002671755222051 -0.36641101040373808 0 0.31422368515007948 -0.393427126581603 0 0.32002671755222051 -0.36641101040373808 0 0.30591552541026101 -0.37751124227982003 0 0.29934269892459558 -0.39453707190143028 0 0.28871394442674109 -0.38265385864092483 0 0.31422368515007948 -0.393427126581603 0 0.30591552541026101 -0.37751124227982003 0 0.29934269892459558 -0.39453707190143028 0 0.31422368515007948 -0.393427126581603 0 0.30884060304287331 -0.40229515593698711 0 0.29934269892459558 -0.39453707190143028 0 0.30884060304287331 -0.40229515593698711 0 0.29934269892459558 -0.39453707190143028 0 0.29896657827583012 -0.40866065312134409 0 0.28871394442674109 -0.38265385864092483 0 0.27786210523133942 -0.40981541802129928 0 0.29934269892459558 -0.39453707190143028 0 0.27786210523133942 -0.40981541802129928 0 0.29896657827583012 -0.40866065312134409 0 0.29934269892459558 -0.39453707190143028 0 0.28871394442674109 -0.38265385864092483 0 0.27786210523133942 -0.40981541802129928 0 0.28871394442674109 -0.38265385864092483 0 0.26416245427686541 -0.38049931320234009 0 0.26125098829365018 -0.39969694482297641 0 0.28871394442674109 -0.38265385864092483 0 0.26416245427686541 -0.38049931320234009 0 0.27571190406721402 -0.36345127203525351 0 0.26416245427686541 -0.38049931320234009 0 0.24971336314328341 -0.36520417674804972 0 0.24502858373403441 -0.39146921073642488 0 0.26416245427686541 -0.38049931320234009 0 0.26125098829365018 -0.39969694482297641 0 0.24502858373403441 -0.39146921073642488 0 0.28871394442674109 -0.38265385864092483 0 0.26125098829365018 -0.39969694482297641 0 0.27786210523133942 -0.40981541802129928 0 0.26125098829365018 -0.39969694482297641 0 0.25610826383841628 -0.42120346698794331 0 0.2333640889907381 -0.41241884790723538 0 0.26125098829365018 -0.39969694482297641 0 0.27786210523133942 -0.40981541802129928 0 0.25610826383841628 -0.42120346698794331 0 0.25610826383841628 -0.42120346698794331 0 0.26701026603593758 -0.43697697740167368 0 0.2518592606704963 -0.43815060111373921 0 0.27786210523133942 -0.40981541802129928 0 0.26701026603593758 -0.43697697740167368 0 0.28078102790119369 -0.4274552938509788 0 0.27786210523133942 -0.40981541802129928 0 0.26701026603593758 -0.43697697740167368 0 0.27786210523133942 -0.40981541802129928 0 0.25610826383841628 -0.42120346698794331 0 0.26701026603593758 -0.43697697740167368 0 0.26701026603593758 -0.43697697740167368 0 0.28078102790119369 -0.4274552938509788 0 0.27712236562531017 -0.4375193999175232 0 0.28078102790119369 -0.4274552938509788 0 0.28865243891263809 -0.43215364344327012 0 0.27712236562531017 -0.4375193999175232 0 0.28865243891263809 -0.43215364344327012 0 0.28959476197880307 -0.44168956347039928 0 0.27712236562531017 -0.4375193999175232 0 0.28865243891263809 -0.43215364344327012 0 0.29503220707493127 -0.43614369036708622 0 0.29829711678041942 -0.42866378264525379 0 0.28865243891263809 -0.43215364344327012 0 0.29503220707493127 -0.43614369036708622 0 0.28959476197880307 -0.44168956347039928 0 0.28865243891263809 -0.43215364344327012 0 0.29108715411517122 -0.42145013040837909 0 0.29829711678041942 -0.42866378264525379 0 0.28078102790119369 -0.4274552938509788 0 0.28865243891263809 -0.43215364344327012 0 0.29108715411517122 -0.42145013040837909 0 0.27786210523133942 -0.40981541802129928 0 0.28078102790119369 -0.4274552938509788 0 0.29108715411517122 -0.42145013040837909 0 0.27786210523133942 -0.40981541802129928 0 0.29108715411517122 -0.42145013040837909 0 0.29896657827583012 -0.40866065312134409 0 0.29108715411517122 -0.42145013040837909 0 0.30377653118007591 -0.4205559058691733 0 0.29896657827583012 -0.40866065312134409 0 0.30377653118007591 -0.4205559058691733 0 0.29896657827583012 -0.40866065312134409 0 0.31120060169272079 -0.4133373498197 0 0.30884060304287331 -0.40229515593698711 0 0.29896657827583012 -0.40866065312134409 0 0.31120060169272079 -0.4133373498197 0 0.30377653118007591 -0.4205559058691733 0 0.31120060169272079 -0.4133373498197 0 0.31239832226651099 -0.42629080716544471 0 0.30377653118007591 -0.4205559058691733 0 0.31239832226651099 -0.42629080716544471 0 0.29829711678041942 -0.42866378264525379 0 0.31239832226651099 -0.42629080716544471 0 0.30735360635596409 -0.43632211706289747 0 0.29829711678041942 -0.42866378264525379 0 0.29503220707493127 -0.43614369036708622 0 0.30735360635596409 -0.43632211706289747 0 0.29829711678041942 -0.42866378264525379 0 0.29108715411517122 -0.42145013040837909 0 0.30377653118007591 -0.4205559058691733 0 0.29829711678041942 -0.42866378264525379 0 0.32466779455878442 -0.44686584155561709 0 0.30904716904302271 -0.45792120175055678 0 0.29608989522947149 -0.44383809180054362 0 0.32466779455878442 -0.44686584155561709 0 0.29608989522947149 -0.44383809180054362 0 0.32466779455878442 -0.44686584155561709 0 0.30735360635596409 -0.43632211706289747 0 0.29608989522947149 -0.44383809180054362 0 0.30904716904302271 -0.45792120175055678 0 0.29860320416278402 -0.45529674645956592 0 0.29608989522947149 -0.44383809180054362 0 0.29503220707493127 -0.43614369036708622 0 0.30735360635596409 -0.43632211706289747 0 0.29608989522947149 -0.44383809180054362 0 0.30904716904302271 -0.45792120175055678 0 0.29721119201091789 -0.46522563712477349 0 0.30631021868456298 -0.48072311486568892 0 0.30904716904302271 -0.45792120175055678 0 0.29721119201091789 -0.46522563712477349 0 0.29860320416278402 -0.45529674645956592 0 0.28932919617959602 -0.45338424297023883 0 0.27756010650442758 -0.45518222858252849 0 0.28072062580449653 -0.47155582870540619 0 0.29721119201091789 -0.46522563712477349 0 0.28932919617959602 -0.45338424297023883 0 0.28072062580449653 -0.47155582870540619 0 0.29721119201091789 -0.46522563712477349 0 0.29860320416278402 -0.45529674645956592 0 0.28932919617959602 -0.45338424297023883 0 0.28932919617959602 -0.45338424297023883 0 0.28959476197880307 -0.44168956347039928 0 0.27756010650442758 -0.45518222858252849 0 0.29860320416278402 -0.45529674645956592 0 0.28932919617959602 -0.45338424297023883 0 0.29608989522947149 -0.44383809180054362 0 0.28932919617959602 -0.45338424297023883 0 0.29608989522947149 -0.44383809180054362 0 0.28959476197880307 -0.44168956347039928 0 0.29503220707493127 -0.43614369036708622 0 0.29608989522947149 -0.44383809180054362 0 0.28959476197880307 -0.44168956347039928 0 0.28959476197880307 -0.44168956347039928 0 0.26138620688844749 -0.44792543592233808 0 0.26701026603593758 -0.43697697740167368 0 0.27712236562531017 -0.4375193999175232 0 0.26138620688844749 -0.44792543592233808 0 0.28959476197880307 -0.44168956347039928 0 0.26138620688844749 -0.44792543592233808 0 0.27756010650442758 -0.45518222858252849 0 0.28959476197880307 -0.44168956347039928 0 0.27712236562531017 -0.4375193999175232 0 0.26138620688844749 -0.44792543592233808 0 0.26701026603593758 -0.43697697740167368 0 0.26138620688844749 -0.44792543592233808 0 0.2518592606704963 -0.43815060111373921 0 0.26138620688844749 -0.44792543592233808 0 0.26339579246569877 -0.46312143350125029 0 0.23317765179809191 -0.45416130837427687 0 0.26138620688844749 -0.44792543592233808 0 0.26339579246569877 -0.46312143350125029 0 0.27756010650442758 -0.45518222858252849 0 0.26339579246569877 -0.46312143350125029 0 0.27756010650442758 -0.45518222858252849 0 0.28072062580449653 -0.47155582870540619 0 0.28072062580449653 -0.47155582870540619 0 0.2532296876789632 -0.47497352743918242 0 0.27004646425256568 -0.5 0 0.26339579246569877 -0.46312143350125029 0 0.28072062580449653 -0.47155582870540619 0 0.2532296876789632 -0.47497352743918242 0 0.32546065004022617 -0.5 0 0.27004646425256568 -0.5 0 0.30631021868456298 -0.48072311486568892 0 0.28072062580449653 -0.47155582870540619 0 0.27004646425256568 -0.5 0 0.30631021868456298 -0.48072311486568892 0 0.29721119201091789 -0.46522563712477349 0 0.28072062580449653 -0.47155582870540619 0 0.30631021868456298 -0.48072311486568892 0 0.33743581475864359 -0.28536266187014298 0 0.3388307833371127 -0.27886836189579028 0 0.34706744656536048 -0.28007479224216619 0 0.33743581475864359 -0.28536266187014298 0 0.3388307833371127 -0.27886836189579028 0 0.33743581475864359 -0.28536266187014298 0 0.33163278235650262 -0.31237877804800812 0 0.33743581475864359 -0.28536266187014298 0 0.33163278235650262 -0.31237877804800812 0 0.34308905326158867 -0.30070827197480321 0 0.33743581475864359 -0.28536266187014298 0 0.33163278235650262 -0.31237877804800812 0 0.32364365619397351 -0.29600562892690968 0 0.33163278235650262 -0.31237877804800812 0 0.32364365619397351 -0.29600562892690968 0 0.30954970221622308 -0.30462347215273478 0 0.31296692944630888 -0.29314018565426941 0 0.32364365619397351 -0.29600562892690968 0 0.30954970221622308 -0.30462347215273478 0 0.31296692944630888 -0.29314018565426941 0 0.32364365619397351 -0.29600562892690968 0 0.31569414790308259 -0.28159305760617132 0 0.33743581475864359 -0.28536266187014298 0 0.32364365619397351 -0.29600562892690968 0 0.31569414790308259 -0.28159305760617132 0 0.33743581475864359 -0.28536266187014298 0 0.31569414790308259 -0.28159305760617132 0 0.33743581475864359 -0.28536266187014298 0 0.31569414790308259 -0.28159305760617132 0 0.32852563272885182 -0.27784073863383552 0 0.31569414790308259 -0.28159305760617132 0 0.31275786215232049 -0.27168837282467972 0 0.32066228436037369 -0.27402337931129878 0 0.31275786215232049 -0.27168837282467972 0 0.32001527731196461 -0.26686042829596718 0 0.31054181011664339 -0.26140137874582919 0 0.31275786215232049 -0.27168837282467972 0 0.32001527731196461 -0.26686042829596718 0 0.32066228436037369 -0.27402337931129878 0 0.32001527731196461 -0.26686042829596718 0 0.32631850170564902 -0.27213429919584042 0 0.32066228436037369 -0.27402337931129878 0 0.32001527731196461 -0.26686042829596718 0 0.32631850170564902 -0.27213429919584042 0 0.32861545200372733 -0.26431566092564712 0 0.32631850170564902 -0.27213429919584042 0 0.32066228436037369 -0.27402337931129878 0 0.32852563272885182 -0.27784073863383552 0 0.31569414790308259 -0.28159305760617132 0 0.32066228436037369 -0.27402337931129878 0 0.32852563272885182 -0.27784073863383552 0 0.30517917142926537 -0.24716040808135001 0 0.322544075342931 -0.25649048942400782 0 0.31054181011664339 -0.26140137874582919 0 0.32001527731196461 -0.26686042829596718 0 0.322544075342931 -0.25649048942400782 0 0.31054181011664339 -0.26140137874582919 0 0.32001527731196461 -0.26686042829596718 0 0.322544075342931 -0.25649048942400782 0 0.32861545200372733 -0.26431566092564712 0 0.322544075342931 -0.25649048942400782 0 0.32861545200372733 -0.26431566092564712 0 0.33700232267718733 -0.25494009872172468 0 0.32861545200372733 -0.26431566092564712 0 0.33700232267718733 -0.25494009872172468 0 0.3370936559567923 -0.26597622971595652 0 0.33700232267718733 -0.25494009872172468 0 0.3370936559567923 -0.26597622971595652 0 0.34612034525793539 -0.26165354425485998 0 0.32852563272885182 -0.27784073863383552 0 0.33374486488877292 -0.2728357791174113 0 0.3388307833371127 -0.27886836189579028 0 0.33743581475864359 -0.28536266187014298 0 0.32852563272885182 -0.27784073863383552 0 0.3388307833371127 -0.27886836189579028 0 0.32631850170564902 -0.27213429919584042 0 0.32852563272885182 -0.27784073863383552 0 0.33374486488877292 -0.2728357791174113 0 0.32631850170564902 -0.27213429919584042 0 0.32861545200372733 -0.26431566092564712 0 0.33374486488877292 -0.2728357791174113 0 0.32861545200372733 -0.26431566092564712 0 0.33374486488877292 -0.2728357791174113 0 0.3370936559567923 -0.26597622971595652 0 0.34349817463331772 -0.27223575233246988 0 0.3370936559567923 -0.26597622971595652 0 0.34612034525793539 -0.26165354425485998 0 0.33374486488877292 -0.2728357791174113 0 0.34349817463331772 -0.27223575233246988 0 0.3370936559567923 -0.26597622971595652 0 0.33374486488877292 -0.2728357791174113 0 0.34349817463331772 -0.27223575233246988 0 0.3388307833371127 -0.27886836189579028 0 0.34349817463331772 -0.27223575233246988 0 0.3388307833371127 -0.27886836189579028 0 0.34706744656536048 -0.28007479224216619 0 0.34349817463331772 -0.27223575233246988 0 0.34706744656536048 -0.28007479224216619 0 0.35711558672006172 -0.27354793744083078 0 0.34349817463331772 -0.27223575233246988 0 0.35711558672006172 -0.27354793744083078 0 0.34612034525793539 -0.26165354425485998 0 0.34706744656536048 -0.28007479224216619 0 0.35711558672006172 -0.27354793744083078 0 0.35357832102308678 -0.28816147489813743 0 0.35007299243335749 -0.24785688602667111 0 0.33700232267718733 -0.25494009872172468 0 0.34612034525793539 -0.26165354425485998 0 0.35711558672006172 -0.27354793744083078 0 0.34612034525793539 -0.26165354425485998 0 0.36124693131331159 -0.25807728632712912 0 0.35007299243335749 -0.24785688602667111 0 0.34612034525793539 -0.26165354425485998 0 0.36124693131331159 -0.25807728632712912 0 0.37764450162479901 -0.26965755496232408 0 0.37510228513818711 -0.25237727586059511 0 0.36124693131331159 -0.25807728632712912 0 0.36225179838031341 -0.2439392928582107 0 0.37510228513818711 -0.25237727586059511 0 0.36124693131331159 -0.25807728632712912 0 0.37764450162479901 -0.26965755496232408 0 0.35711558672006172 -0.27354793744083078 0 0.36124693131331159 -0.25807728632712912 0 0.37764450162479901 -0.26965755496232408 0 0.35711558672006172 -0.27354793744083078 0 0.36873774536035581 -0.28861226174546889 0 0.36873774536035581 -0.28861226174546889 0 0.35357832102308678 -0.28816147489813743 0 0.36087634202934032 -0.30211297570133377 0 0.35711558672006172 -0.27354793744083078 0 0.36873774536035581 -0.28861226174546889 0 0.35357832102308678 -0.28816147489813743 0 0.33743581475864359 -0.28536266187014298 0 0.35357832102308678 -0.28816147489813743 0 0.33743581475864359 -0.28536266187014298 0 0.34706744656536048 -0.28007479224216619 0 0.35357832102308678 -0.28816147489813743 0 0.33743581475864359 -0.28536266187014298 0 0.34308905326158867 -0.30070827197480321 0 0.35357832102308678 -0.28816147489813743 0 0.34308905326158867 -0.30070827197480321 0 0.36087634202934032 -0.30211297570133377 0 0.3603589122919777 -0.32616465434179109 0 0.34308905326158867 -0.30070827197480321 0 0.35357832102308678 -0.28816147489813743 0 0.36087634202934032 -0.30211297570133377 0 0.37861767820969228 -0.30691821554646831 0 0.36873774536035581 -0.28861226174546889 0 0.36087634202934032 -0.30211297570133377 0 0.37861767820969228 -0.30691821554646831 0 0.36087634202934032 -0.30211297570133377 0 0.3603589122919777 -0.32616465434179109 0 0.37858644206980091 -0.32769985780377792 0 0.37861767820969228 -0.30691821554646831 0 0.3603589122919777 -0.32616465434179109 0 0.37858644206980091 -0.32769985780377792 0 0.3603589122919777 -0.32616465434179109 0 0.36805061276354478 -0.3427907498460791 0 0.3603589122919777 -0.32616465434179109 0 0.34679726984937148 -0.35193202586079081 0 0.3603589122919777 -0.32616465434179109 0 0.34679726984937148 -0.35193202586079081 0 0.3423644242317993 -0.33453707324987059 0 0.3603589122919777 -0.32616465434179109 0 0.36805061276354478 -0.3427907498460791 0 0.34679726984937148 -0.35193202586079081 0 0.33163278235650262 -0.31237877804800812 0 0.34308905326158867 -0.30070827197480321 0 0.3603589122919777 -0.32616465434179109 0 0.33163278235650262 -0.31237877804800812 0 0.3603589122919777 -0.32616465434179109 0 0.3423644242317993 -0.33453707324987059 0 0.37640125955739012 -0.35149107478397351 0 0.38081427771294768 -0.36737052156009248 0 0.36600013168445039 -0.36059477107615401 0 0.36848073339739068 -0.37517807712711049 0 0.36600013168445039 -0.36059477107615401 0 0.3554566368260581 -0.37480617727887811 0 0.38081427771294768 -0.36737052156009248 0 0.36848073339739068 -0.37517807712711049 0 0.36600013168445039 -0.36059477107615401 0 0.36805061276354478 -0.3427907498460791 0 0.36600013168445039 -0.36059477107615401 0 0.34679726984937148 -0.35193202586079081 0 0.37640125955739012 -0.35149107478397351 0 0.36805061276354478 -0.3427907498460791 0 0.36600013168445039 -0.36059477107615401 0 0.36600013168445039 -0.36059477107615401 0 0.34679726984937148 -0.35193202586079081 0 0.3554566368260581 -0.37480617727887811 0 0.34679726984937148 -0.35193202586079081 0 0.34537995690420659 -0.3737828605913362 0 0.3554566368260581 -0.37480617727887811 0 0.33323562740676532 -0.37769939737979058 0 0.33171275220581908 -0.35441984147836231 0 0.32002671755222051 -0.36641101040373808 0 0.33323562740676532 -0.37769939737979058 0 0.34679726984937148 -0.35193202586079081 0 0.33323562740676532 -0.37769939737979058 0 0.34679726984937148 -0.35193202586079081 0 0.34537995690420659 -0.3737828605913362 0 0.33323562740676532 -0.37769939737979058 0 0.34679726984937148 -0.35193202586079081 0 0.33171275220581908 -0.35441984147836231 0 0.34679726984937148 -0.35193202586079081 0 0.33171275220581908 -0.35441984147836231 0 0.3423644242317993 -0.33453707324987059 0 0.33171275220581908 -0.35441984147836231 0 0.32002671755222051 -0.36641101040373808 0 0.32582974995436148 -0.33939489422587321 0 0.32002671755222051 -0.36641101040373808 0 0.32582974995436148 -0.33939489422587321 0 0.31500009593534162 -0.35119999692538878 0 0.32002671755222051 -0.36641101040373808 0 0.32582974995436148 -0.33939489422587321 0 0.33163278235650262 -0.31237877804800812 0 0.32582974995436148 -0.33939489422587321 0 0.33163278235650262 -0.31237877804800812 0 0.3423644242317993 -0.33453707324987059 0 0.32582974995436148 -0.33939489422587321 0 0.33171275220581908 -0.35441984147836231 0 0.3423644242317993 -0.33453707324987059 0 0.32582974995436148 -0.33939489422587321 0 0.31500009593534162 -0.35119999692538878 0 0.32582974995436148 -0.33939489422587321 0 0.31041762281754448 -0.32833073988017608 0 0.33163278235650262 -0.31237877804800812 0 0.32582974995436148 -0.33939489422587321 0 0.31041762281754448 -0.32833073988017608 0 0.33163278235650262 -0.31237877804800812 0 0.31041762281754448 -0.32833073988017608 0 0.30954970221622308 -0.30462347215273478 0 0.31041762281754448 -0.32833073988017608 0 0.29592063247569211 -0.31558436997640987 0 0.30954970221622308 -0.30462347215273478 0 0.31041762281754448 -0.32833073988017608 0 0.29132656616613523 -0.33188180257029998 0 0.29592063247569211 -0.31558436997640987 0 0.31041762281754448 -0.32833073988017608 0 0.29132656616613523 -0.33188180257029998 0 0.29956578362214281 -0.35549229926055048 0 0.31041762281754448 -0.32833073988017608 0 0.29956578362214281 -0.35549229926055048 0 0.29132656616613523 -0.33188180257029998 0 0.28219501787468609 -0.34702129220438421 0 0.27282035448602859 -0.33554085100614839 0 0.29132656616613523 -0.33188180257029998 0 0.29592063247569211 -0.31558436997640987 0 0.27986439667319313 -0.31630171845149863 0 0.29132656616613523 -0.33188180257029998 0 0.27986439667319313 -0.31630171845149863 0 0.27282035448602859 -0.33554085100614839 0 0.30591552541026101 -0.37751124227982003 0 0.28871394442674109 -0.38265385864092483 0 0.29956578362214281 -0.35549229926055048 0 0.30591552541026101 -0.37751124227982003 0 0.32002671755222051 -0.36641101040373808 0 0.29956578362214281 -0.35549229926055048 0 0.31500009593534162 -0.35119999692538878 0 0.32002671755222051 -0.36641101040373808 0 0.29956578362214281 -0.35549229926055048 0 0.31500009593534162 -0.35119999692538878 0 0.31041762281754448 -0.32833073988017608 0 0.29956578362214281 -0.35549229926055048 0 0.29956578362214281 -0.35549229926055048 0 0.28219501787468609 -0.34702129220438421 0 0.27571190406721402 -0.36345127203525351 0 0.29132656616613523 -0.33188180257029998 0 0.29956578362214281 -0.35549229926055048 0 0.28219501787468609 -0.34702129220438421 0 0.28871394442674109 -0.38265385864092483 0 0.29956578362214281 -0.35549229926055048 0 0.27571190406721402 -0.36345127203525351 0 0.28871394442674109 -0.38265385864092483 0 0.29956578362214281 -0.35549229926055048 0 0.28219501787468609 -0.34702129220438421 0 0.27571190406721402 -0.36345127203525351 0 0.2669677564247489 -0.35003134695070198 0 0.28219501787468609 -0.34702129220438421 0 0.2669677564247489 -0.35003134695070198 0 0.27282035448602859 -0.33554085100614839 0 0.2669677564247489 -0.35003134695070198 0 0.2543981425525324 -0.33893914275967452 0 0.24971336314328341 -0.36520417674804972 0 0.2543981425525324 -0.33893914275967452 0 0.24971336314328341 -0.36520417674804972 0 0.26416245427686541 -0.38049931320234009 0 0.27571190406721402 -0.36345127203525351 0 0.24971336314328341 -0.36520417674804972 0 0.27571190406721402 -0.36345127203525351 0 0.2669677564247489 -0.35003134695070198 0 0.24971336314328341 -0.36520417674804972 0 0.27986439667319313 -0.31630171845149863 0 0.27282035448602859 -0.33554085100614839 0 0.27986439667319313 -0.31630171845149863 0 0.27282035448602859 -0.33554085100614839 0 0.2590829219617814 -0.31267410877129931 0 0.2669677564247489 -0.35003134695070198 0 0.27282035448602859 -0.33554085100614839 0 0.2543981425525324 -0.33893914275967452 0 0.27282035448602859 -0.33554085100614839 0 0.2543981425525324 -0.33893914275967452 0 0.2590829219617814 -0.31267410877129931 0 0.2543981425525324 -0.33893914275967452 0 0.2590829219617814 -0.31267410877129931 0 0.24087195768162309 -0.32614810142562012 0 0.2543981425525324 -0.33893914275967452 0 0.2590829219617814 -0.31267410877129931 0 0.2590829219617814 -0.31267410877129931 0 0.26376770137103039 -0.2864090747829241 0 0.27385105082646688 -0.29718155094811333 0 0.2590829219617814 -0.31267410877129931 0 0.26376770137103039 -0.2864090747829241 0 0.24821325608307901 -0.29522124281265988 0 0.2590829219617814 -0.31267410877129931 0 0.26376770137103039 -0.2864090747829241 0 0.26376770137103039 -0.2864090747829241 0 0.24785603391849151 -0.27709942466880599 0 0.24821325608307901 -0.29522124281265988 0 0.26376770137103039 -0.2864090747829241 0 0.27275834958840189 -0.28372268528309152 0 0.2724225943816766 -0.27409056785933389 0 0.26376770137103039 -0.2864090747829241 0 0.27275834958840189 -0.28372268528309152 0 0.27385105082646688 -0.29718155094811333 0 0.28072449650403741 -0.28691913250301798 0 0.27385105082646688 -0.29718155094811333 0 0.2869084388603575 -0.29706258589684881 0 0.27275834958840189 -0.28372268528309152 0 0.28072449650403741 -0.28691913250301798 0 0.27385105082646688 -0.29718155094811333 0 0.27275834958840189 -0.28372268528309152 0 0.28072449650403741 -0.28691913250301798 0 0.27996448038040939 -0.28063895974691061 0 0.27986439667319313 -0.31630171845149863 0 0.2590829219617814 -0.31267410877129931 0 0.27385105082646688 -0.29718155094811333 0 0.27986439667319313 -0.31630171845149863 0 0.27385105082646688 -0.29718155094811333 0 0.2869084388603575 -0.29706258589684881 0 0.27986439667319313 -0.31630171845149863 0 0.2869084388603575 -0.29706258589684881 0 0.29592063247569211 -0.31558436997640987 0 0.27986439667319313 -0.31630171845149863 0 0.2869084388603575 -0.29706258589684881 0 0.2869084388603575 -0.29706258589684881 0 0.30298021147195658 -0.29033858393126172 0 0.29395248104752192 -0.27782345334219888 0 0.28072449650403741 -0.28691913250301798 0 0.2869084388603575 -0.29706258589684881 0 0.29395248104752192 -0.27782345334219888 0 0.2869084388603575 -0.29706258589684881 0 0.29395248104752192 -0.27782345334219888 0 0.28072449650403741 -0.28691913250301798 0 0.29395248104752192 -0.27782345334219888 0 0.27996448038040939 -0.28063895974691061 0 0.31569414790308259 -0.28159305760617132 0 0.30298021147195658 -0.29033858393126172 0 0.29395248104752192 -0.27782345334219888 0 0.31296692944630888 -0.29314018565426941 0 0.31569414790308259 -0.28159305760617132 0 0.30298021147195658 -0.29033858393126172 0 0.31296692944630888 -0.29314018565426941 0 0.30298021147195658 -0.29033858393126172 0 0.30954970221622308 -0.30462347215273478 0 0.2869084388603575 -0.29706258589684881 0 0.30298021147195658 -0.29033858393126172 0 0.30954970221622308 -0.30462347215273478 0 0.29592063247569211 -0.31558436997640987 0 0.2869084388603575 -0.29706258589684881 0 0.30954970221622308 -0.30462347215273478 0 0.30517917142926537 -0.24716040808135001 0 0.31054181011664339 -0.26140137874582919 0 0.2976408850071105 -0.26774945168120262 0 0.30517917142926537 -0.24716040808135001 0 0.2976408850071105 -0.26774945168120262 0 0.31275786215232049 -0.27168837282467972 0 0.2976408850071105 -0.26774945168120262 0 0.29395248104752192 -0.27782345334219888 0 0.31275786215232049 -0.27168837282467972 0 0.2976408850071105 -0.26774945168120262 0 0.31275786215232049 -0.27168837282467972 0 0.31054181011664339 -0.26140137874582919 0 0.2976408850071105 -0.26774945168120262 0 0.31569414790308259 -0.28159305760617132 0 0.29395248104752192 -0.27782345334219888 0 0.31569414790308259 -0.28159305760617132 0 0.31275786215232049 -0.27168837282467972 0 0.29395248104752192 -0.27782345334219888 0 0.2976408850071105 -0.26774945168120262 0 0.28600938745522969 -0.26471871668720698 0 0.2976408850071105 -0.26774945168120262 0 0.29395248104752192 -0.27782345334219888 0 0.29395248104752192 -0.27782345334219888 0 0.27996448038040939 -0.28063895974691061 0 0.2724225943816766 -0.27409056785933389 0 0.29395248104752192 -0.27782345334219888 0 0.28600938745522969 -0.26471871668720698 0 0.27658132089261911 -0.27335422882897692 0 0.2976408850071105 -0.26774945168120262 0 0.29395248104752192 -0.27782345334219888 0 0.28600938745522969 -0.26471871668720698 0 0.29395248104752192 -0.27782345334219888 0 0.2724225943816766 -0.27409056785933389 0 0.28600938745522969 -0.26471871668720698 0 0.27658132089261911 -0.27335422882897692 0 0.30517917142926537 -0.24716040808135001 0 0.28600938745522969 -0.26471871668720698 0 0.30517917142926537 -0.24716040808135001 0 0.2976408850071105 -0.26774945168120262 0 0.28600938745522969 -0.26471871668720698 0 0.30517917142926537 -0.24716040808135001 0 0.28765229627979871 -0.24304032400626949 0 0.28600938745522969 -0.26471871668720698 0 0.28600938745522969 -0.26471871668720698 0 0.26845248078028039 -0.26014404079454911 0 0.28765229627979871 -0.24304032400626949 0 0.28600938745522969 -0.26471871668720698 0 0.26845248078028039 -0.26014404079454911 0 0.26376770137103039 -0.2864090747829241 0 0.26845248078028039 -0.26014404079454911 0 0.2724225943816766 -0.27409056785933389 0 0.28600938745522969 -0.26471871668720698 0 0.26845248078028039 -0.26014404079454911 0 0.27658132089261911 -0.27335422882897692 0 0.26376770137103039 -0.2864090747829241 0 0.26845248078028039 -0.26014404079454911 0 0.29395248104752192 -0.27782345334219888 0 0.27658132089261911 -0.27335422882897692 0 0.2724225943816766 -0.27409056785933389 0 0.27275834958840189 -0.28372268528309152 0 0.27996448038040939 -0.28063895974691061 0 0.2724225943816766 -0.27409056785933389 0 0.26845248078028039 -0.26014404079454911 0 0.27658132089261911 -0.27335422882897692 0 0.2724225943816766 -0.27409056785933389 0 0.26376770137103039 -0.2864090747829241 0 0.26845248078028039 -0.26014404079454911 0 0.24785603391849151 -0.27709942466880599 0 0.26845248078028039 -0.26014404079454911 0 0.2410490216361528 -0.25300372010805161 0 0.26845248078028039 -0.26014404079454911 0 0.2410490216361528 -0.25300372010805161 0 0.24785603391849151 -0.27709942466880599 0 0.25787859859726192 -0.24372773219337371 0 0.26845248078028039 -0.26014404079454911 0 0.2410490216361528 -0.25300372010805161 0 0.2410490216361528 -0.25300372010805161 0 0.24785603391849151 -0.27709942466880599 0 0.23139485578507429 -0.27647983237136509 0 0.23139485578507429 -0.27647983237136509 0 0.2171028506536257 -0.26700629366950379 0 0.21674952071488601 -0.28686299221921707 0 0.2410490216361528 -0.25300372010805161 0 0.23139485578507429 -0.27647983237136509 0 0.2171028506536257 -0.26700629366950379 0 0.2410490216361528 -0.25300372010805161 0 0.2171028506536257 -0.26700629366950379 0 0.2136455624920251 -0.24586339942155419 0 0.2171028506536257 -0.26700629366950379 0 0.1960217485778272 -0.26205501631648559 0 0.2136455624920251 -0.24586339942155419 0 0.2171028506536257 -0.26700629366950379 0 0.2037572178097509 -0.27803645254629672 0 0.1960217485778272 -0.26205501631648559 0 0.2171028506536257 -0.26700629366950379 0 0.2037572178097509 -0.27803645254629672 0 0.21674952071488601 -0.28686299221921707 0 0.2037572178097509 -0.27803645254629672 0 0.1960217485778272 -0.26205501631648559 0 0.18672217274589489 -0.28463667424064248 0 0.1960217485778272 -0.26205501631648559 0 0.2136455624920251 -0.24586339942155419 0 0.1970165427207646 -0.2431475676051908 0 0.1960217485778272 -0.26205501631648559 0 0.1970165427207646 -0.2431475676051908 0 0.18013525364959199 -0.24590787480667409 0 0.19163287831415901 -0.30538761534618902 0 0.20219697373587131 -0.29192032270869461 0 0.2153952098199983 -0.30425933719731207 0 0.2037572178097509 -0.27803645254629672 0 0.20219697373587131 -0.29192032270869461 0 0.18672217274589489 -0.28463667424064248 0 0.19163287831415901 -0.30538761534618902 0 0.20219697373587131 -0.29192032270869461 0 0.18672217274589489 -0.28463667424064248 0 0.20219697373587131 -0.29192032270869461 0 0.21674952071488601 -0.28686299221921707 0 0.2153952098199983 -0.30425933719731207 0 0.2037572178097509 -0.27803645254629672 0 0.20219697373587131 -0.29192032270869461 0 0.21674952071488601 -0.28686299221921707 0 0.19163287831415901 -0.30538761534618902 0 0.2153952098199983 -0.30425933719731207 0 0.20381788977078771 -0.32236963909420019 0 0.2153952098199983 -0.30425933719731207 0 0.2333373149176502 -0.29099433783704243 0 0.2370223082464416 -0.30892926800322767 0 0.2153952098199983 -0.30425933719731207 0 0.2370223082464416 -0.30892926800322767 0 0.22300958304019269 -0.32335118517261402 0 0.21674952071488601 -0.28686299221921707 0 0.2153952098199983 -0.30425933719731207 0 0.2333373149176502 -0.29099433783704243 0 0.23139485578507429 -0.27647983237136509 0 0.21674952071488601 -0.28686299221921707 0 0.2333373149176502 -0.29099433783704243 0 0.24785603391849151 -0.27709942466880599 0 0.2333373149176502 -0.29099433783704243 0 0.24821325608307901 -0.29522124281265988 0 0.24785603391849151 -0.27709942466880599 0 0.23139485578507429 -0.27647983237136509 0 0.2333373149176502 -0.29099433783704243 0 0.2333373149176502 -0.29099433783704243 0 0.24821325608307901 -0.29522124281265988 0 0.2370223082464416 -0.30892926800322767 0 0.2590829219617814 -0.31267410877129931 0 0.24821325608307901 -0.29522124281265988 0 0.2370223082464416 -0.30892926800322767 0 0.2590829219617814 -0.31267410877129931 0 0.2370223082464416 -0.30892926800322767 0 0.24087195768162309 -0.32614810142562012 0 0.2543981425525324 -0.33893914275967452 0 0.24087195768162309 -0.32614810142562012 0 0.2308468326071676 -0.34684680242128502 0 0.24087195768162309 -0.32614810142562012 0 0.22300958304019269 -0.32335118517261402 0 0.2308468326071676 -0.34684680242128502 0 0.22300958304019269 -0.32335118517261402 0 0.2308468326071676 -0.34684680242128502 0 0.21275128108028149 -0.33749920242868869 0 0.2370223082464416 -0.30892926800322767 0 0.24087195768162309 -0.32614810142562012 0 0.22300958304019269 -0.32335118517261402 0 0.24971336314328341 -0.36520417674804972 0 0.2308468326071676 -0.34684680242128502 0 0.229200177642885 -0.36995291413531828 0 0.2543981425525324 -0.33893914275967452 0 0.24971336314328341 -0.36520417674804972 0 0.2308468326071676 -0.34684680242128502 0 0.229200177642885 -0.36995291413531828 0 0.20725651587090471 -0.36571099534901208 0 0.22031030243082139 -0.38906492162812378 0 0.2308468326071676 -0.34684680242128502 0 0.229200177642885 -0.36995291413531828 0 0.20725651587090471 -0.36571099534901208 0 0.2308468326071676 -0.34684680242128502 0 0.20725651587090471 -0.36571099534901208 0 0.21275128108028149 -0.33749920242868869 0 0.20725651587090471 -0.36571099534901208 0 0.21275128108028149 -0.33749920242868869 0 0.194202729310988 -0.34235706906990038 0 0.20725651587090471 -0.36571099534901208 0 0.194202729310988 -0.34235706906990038 0 0.180238718969634 -0.3612454971324468 0 0.20725651587090471 -0.36571099534901208 0 0.194202729310988 -0.34235706906990038 0 0.20725651587090471 -0.36571099534901208 0 0.19261827162763251 -0.374541644607297 0 0.180238718969634 -0.3612454971324468 0 0.22300958304019269 -0.32335118517261402 0 0.20381788977078771 -0.32236963909420019 0 0.21275128108028149 -0.33749920242868869 0 0.2153952098199983 -0.30425933719731207 0 0.22300958304019269 -0.32335118517261402 0 0.20381788977078771 -0.32236963909420019 0 0.20381788977078771 -0.32236963909420019 0 0.21275128108028149 -0.33749920242868869 0 0.194202729310988 -0.34235706906990038 0 0.20381788977078771 -0.32236963909420019 0 0.194202729310988 -0.34235706906990038 0 0.18384400034678741 -0.32250280289756078 0 0.19163287831415901 -0.30538761534618902 0 0.20381788977078771 -0.32236963909420019 0 0.18384400034678741 -0.32250280289756078 0 0.18384400034678741 -0.32250280289756078 0 0.17702055828029431 -0.33666004199980942 0 0.15719449589681389 -0.32866913917705798 0 0.194202729310988 -0.34235706906990038 0 0.18384400034678741 -0.32250280289756078 0 0.17702055828029431 -0.33666004199980942 0 0.15719449589681389 -0.32866913917705798 0 0.16581699513551909 -0.35306125248096398 0 0.17702055828029431 -0.33666004199980942 0 0.15719449589681389 -0.32866913917705798 0 0.16581699513551909 -0.35306125248096398 0 0.18384400034678741 -0.32250280289756078 0 0.15719449589681389 -0.32866913917705798 0 0.17186855286937899 -0.30453082832045192 0 0.180238718969634 -0.3612454971324468 0 0.1834568796589737 -0.38583095226508418 0 0.17443949437422429 -0.37745336578486988 0 0.180238718969634 -0.3612454971324468 0 0.16581699513551909 -0.35306125248096398 0 0.17443949437422429 -0.37745336578486988 0 0.180238718969634 -0.3612454971324468 0 0.1834568796589737 -0.38583095226508418 0 0.19261827162763251 -0.374541644607297 0 0.180238718969634 -0.3612454971324468 0 0.1834568796589737 -0.38583095226508418 0 0.17702055828029431 -0.33666004199980942 0 0.180238718969634 -0.3612454971324468 0 0.16581699513551909 -0.35306125248096398 0 0.17702055828029431 -0.33666004199980942 0 0.180238718969634 -0.3612454971324468 0 0.194202729310988 -0.34235706906990038 0 0.17702055828029431 -0.33666004199980942 0 0.180238718969634 -0.3612454971324468 0 0.16581699513551909 -0.35306125248096398 0 0.1602354860011011 -0.36875954027416918 0 0.14952990885070691 -0.36034775620209553 0 0.16581699513551909 -0.35306125248096398 0 0.17443949437422429 -0.37745336578486988 0 0.16581699513551909 -0.35306125248096398 0 0.1602354860011011 -0.36875954027416918 0 0.17443949437422429 -0.37745336578486988 0 0.1602354860011011 -0.36875954027416918 0 0.14673951295096799 -0.37363029079717242 0 0.14952990885070691 -0.36034775620209553 0 0.16581699513551909 -0.35306125248096398 0 0.14952990885070691 -0.36034775620209553 0 0.144826286403443 -0.34676284914488159 0 0.14952990885070691 -0.36034775620209553 0 0.144826286403443 -0.34676284914488159 0 0.12334710111447229 -0.36406834251145731 0 0.144826286403443 -0.34676284914488159 0 0.12334710111447229 -0.36406834251145731 0 0.144826286403443 -0.34676284914488159 0 0.12334710111447229 -0.36406834251145731 0 0.11573058637367541 -0.34380091622275832 0 0.13273239812562251 -0.3803535413873157 0 0.1208593498238435 -0.38006314209191833 0 0.12334710111447229 -0.36406834251145731 0 0.14673951295096799 -0.37363029079717242 0 0.14952990885070691 -0.36034775620209553 0 0.12334710111447229 -0.36406834251145731 0 0.14673951295096799 -0.37363029079717242 0 0.13273239812562251 -0.3803535413873157 0 0.12334710111447229 -0.36406834251145731 0 0.15719449589681389 -0.32866913917705798 0 0.13978194378111039 -0.33004063130878142 0 0.14857199665810869 -0.30427702587315197 0 0.15719449589681389 -0.32866913917705798 0 0.14857199665810869 -0.30427702587315197 0 0.15719449589681389 -0.32866913917705798 0 0.144826286403443 -0.34676284914488159 0 0.13978194378111039 -0.33004063130878142 0 0.15719449589681389 -0.32866913917705798 0 0.16581699513551909 -0.35306125248096398 0 0.144826286403443 -0.34676284914488159 0 0.13978194378111039 -0.33004063130878142 0 0.1249111379911398 -0.32186001205002218 0 0.11573058637367541 -0.34380091622275832 0 0.144826286403443 -0.34676284914488159 0 0.13978194378111039 -0.33004063130878142 0 0.11573058637367541 -0.34380091622275832 0 0.13978194378111039 -0.33004063130878142 0 0.14857199665810869 -0.30427702587315197 0 0.1249111379911398 -0.32186001205002218 0 0.14857199665810869 -0.30427702587315197 0 0.13584279120622419 -0.29064916595208462 0 0.1212075847983899 -0.30357596212866123 0 0.14857199665810869 -0.30427702587315197 0 0.1212075847983899 -0.30357596212866123 0 0.1249111379911398 -0.32186001205002218 0 0.14857199665810869 -0.30427702587315197 0 0.14941647374314521 -0.28066083506566319 0 0.1659314811884508 -0.28303851802095531 0 0.14857199665810869 -0.30427702587315197 0 0.13584279120622419 -0.29064916595208462 0 0.14941647374314521 -0.28066083506566319 0 0.13554841089854469 -0.28148943716570812 0 0.13584279120622419 -0.29064916595208462 0 0.14941647374314521 -0.28066083506566319 0 0.13554841089854469 -0.28148943716570812 0 0.13584279120622419 -0.29064916595208462 0 0.1176113560141319 -0.2851589593963586 0 0.1376178273856396 -0.2676878026278281 0 0.13932302263067731 -0.26948878824872591 0 0.1176113560141319 -0.2851589593963586 0 0.13554841089854469 -0.28148943716570812 0 0.13932302263067731 -0.26948878824872591 0 0.1176113560141319 -0.2851589593963586 0 0.13932302263067731 -0.26948878824872591 0 0.1176113560141319 -0.2851589593963586 0 0.1376178273856396 -0.2676878026278281 0 0.1200034520355143 -0.24749468667538321 0 0.1376178273856396 -0.2676878026278281 0 0.1200034520355143 -0.24749468667538321 0 0.1412434604122122 -0.24631040783256791 0 0.1376178273856396 -0.2676878026278281 0 0.16103468924722281 -0.25381861710109321 0 0.1412434604122122 -0.24631040783256791 0 0.1376178273856396 -0.2676878026278281 0 0.13932302263067731 -0.26948878824872591 0 0.16103468924722281 -0.25381861710109321 0 0.13932302263067731 -0.26948878824872591 0 0.16103468924722281 -0.25381861710109321 0 0.13932302263067731 -0.26948878824872591 0 0.14941647374314521 -0.28066083506566319 0 0.16103468924722281 -0.25381861710109321 0 0.13554841089854469 -0.28148943716570812 0 0.13932302263067731 -0.26948878824872591 0 0.14941647374314521 -0.28066083506566319 0 0.14941647374314521 -0.28066083506566319 0 0.16103468924722281 -0.25381861710109321 0 0.1659314811884508 -0.28303851802095531 0 0.16103468924722281 -0.25381861710109321 0 0.1779690690817976 -0.26589134009717008 0 0.1659314811884508 -0.28303851802095531 0 0.16103468924722281 -0.25381861710109321 0 0.1779690690817976 -0.26589134009717008 0 0.18013525364959199 -0.24590787480667409 0 0.1960217485778272 -0.26205501631648559 0 0.1779690690817976 -0.26589134009717008 0 0.18013525364959199 -0.24590787480667409 0 0.1960217485778272 -0.26205501631648559 0 0.1779690690817976 -0.26589134009717008 0 0.18672217274589489 -0.28463667424064248 0 0.1779690690817976 -0.26589134009717008 0 0.18672217274589489 -0.28463667424064248 0 0.1659314811884508 -0.28303851802095531 0 0.18672217274589489 -0.28463667424064248 0 0.17186855286937899 -0.30453082832045192 0 0.1659314811884508 -0.28303851802095531 0 0.19163287831415901 -0.30538761534618902 0 0.18384400034678741 -0.32250280289756078 0 0.17186855286937899 -0.30453082832045192 0 0.19163287831415901 -0.30538761534618902 0 0.18672217274589489 -0.28463667424064248 0 0.17186855286937899 -0.30453082832045192 0 0.14857199665810869 -0.30427702587315197 0 0.17186855286937899 -0.30453082832045192 0 0.1659314811884508 -0.28303851802095531 0 0.15719449589681389 -0.32866913917705798 0 0.14857199665810869 -0.30427702587315197 0 0.17186855286937899 -0.30453082832045192 0 0.27004646425256568 -0.5 0 0.19840125792562099 -0.499999999999995 0 0.2258071254777905 -0.47806137695806639 0 0.19840125792562099 -0.499999999999995 0 0.1955652389629654 -0.47833395417678298 0 0.19840125792562099 -0.499999999999995 0 0.1955652389629654 -0.47833395417678298 0 0.1857239970351309 -0.48926605560099218 0 0.1955652389629654 -0.47833395417678298 0 0.2258071254777905 -0.47806137695806639 0 0.20496909670773639 -0.46039718082621561 0 0.19840125792562099 -0.499999999999995 0 0.1955652389629654 -0.47833395417678298 0 0.2258071254777905 -0.47806137695806639 0 0.2532296876789632 -0.47497352743918242 0 0.27004646425256568 -0.5 0 0.2258071254777905 -0.47806137695806639 0 0.2532296876789632 -0.47497352743918242 0 0.2258071254777905 -0.47806137695806639 0 0.23317765179809191 -0.45416130837427687 0 0.2258071254777905 -0.47806137695806639 0 0.23317765179809191 -0.45416130837427687 0 0.20496909670773639 -0.46039718082621561 0 0.23317765179809191 -0.45416130837427687 0 0.20496909670773639 -0.46039718082621561 0 0.26339579246569877 -0.46312143350125029 0 0.2532296876789632 -0.47497352743918242 0 0.23317765179809191 -0.45416130837427687 0 0.26138620688844749 -0.44792543592233808 0 0.2518592606704963 -0.43815060111373921 0 0.23317765179809191 -0.45416130837427687 0 0.26138620688844749 -0.44792543592233808 0 0.23317765179809191 -0.45416130837427687 0 0.2518592606704963 -0.43815060111373921 0 0.23317765179809191 -0.45416130837427687 0 0.24161391479158839 -0.43048581688246368 0 0.23317765179809191 -0.45416130837427687 0 0.21274467024756119 -0.44537306322652892 0 0.22596778666418391 -0.43195218695593612 0 0.23317765179809191 -0.45416130837427687 0 0.22596778666418391 -0.43195218695593612 0 0.24161391479158839 -0.43048581688246368 0 0.20738663592967541 -0.43977689630152639 0 0.21274467024756119 -0.44537306322652892 0 0.21231789143938981 -0.43260924517595267 0 0.20738663592967541 -0.43977689630152639 0 0.20306963394956029 -0.44528763306514119 0 0.2014143480821905 -0.43583764373848299 0 0.20738663592967541 -0.43977689630152639 0 0.21274467024756119 -0.44537306322652892 0 0.20306963394956029 -0.44528763306514119 0 0.21274467024756119 -0.44537306322652892 0 0.20306963394956029 -0.44528763306514119 0 0.20202636709778779 -0.45196992376671852 0 0.21274467024756119 -0.44537306322652892 0 0.20496909670773639 -0.46039718082621561 0 0.20202636709778779 -0.45196992376671852 0 0.23317765179809191 -0.45416130837427687 0 0.21274467024756119 -0.44537306322652892 0 0.20496909670773639 -0.46039718082621561 0 0.1955652389629654 -0.47833395417678298 0 0.20496909670773639 -0.46039718082621561 0 0.1927292200003092 -0.45666790835357102 0 0.1955652389629654 -0.47833395417678298 0 0.1927292200003092 -0.45666790835357102 0 0.1955652389629654 -0.47833395417678298 0 0.19047701204926121 -0.46094242075341862 0 0.1927292200003092 -0.45666790835357102 0 0.20496909670773639 -0.46039718082621561 0 0.1927292200003092 -0.45666790835357102 0 0.20202636709778779 -0.45196992376671852 0 0.19047701204926121 -0.46094242075341862 0 0.1927292200003092 -0.45666790835357102 0 0.1876592352144193 -0.45673372923780892 0 0.1927292200003092 -0.45666790835357102 0 0.1876592352144193 -0.45673372923780892 0 0.18777566972406101 -0.44981142861604279 0 0.1927292200003092 -0.45666790835357102 0 0.19595067699787469 -0.4453334870477933 0 0.18989320103765239 -0.43500186253035911 0 0.1927292200003092 -0.45666790835357102 0 0.18989320103765239 -0.43500186253035911 0 0.1927292200003092 -0.45666790835357102 0 0.18777566972406101 -0.44981142861604279 0 0.18989320103765239 -0.43500186253035911 0 0.19521760998379711 -0.43854214036159178 0 0.19595067699787469 -0.4453334870477933 0 0.1916906899727929 -0.43609695451772118 0 0.19595067699787469 -0.4453334870477933 0 0.1916906899727929 -0.43609695451772118 0 0.18989320103765239 -0.43500186253035911 0 0.19521760998379711 -0.43854214036159178 0 0.19821003569121751 -0.44088076654097252 0 0.19595067699787469 -0.4453334870477933 0 0.19821003569121751 -0.44088076654097252 0 0.20306963394956029 -0.44528763306514119 0 0.19595067699787469 -0.4453334870477933 0 0.19821003569121751 -0.44088076654097252 0 0.20306963394956029 -0.44528763306514119 0 0.2014143480821905 -0.43583764373848299 0 0.19521760998379711 -0.43854214036159178 0 0.19821003569121751 -0.44088076654097252 0 0.19632921389935129 -0.43529695882979857 0 0.20306963394956029 -0.44528763306514119 0 0.20202636709778779 -0.45196992376671852 0 0.19595067699787469 -0.4453334870477933 0 0.1927292200003092 -0.45666790835357102 0 0.20202636709778779 -0.45196992376671852 0 0.19595067699787469 -0.4453334870477933 0 0.18989320103765239 -0.43500186253035911 0 0.193210065479164 -0.42351508711829272 0 0.18667504034831339 -0.41041640739772162 0 0.18989320103765239 -0.43500186253035911 0 0.18667504034831339 -0.41041640739772162 0 0.1973860855611401 -0.42692030526330021 0 0.193210065479164 -0.42351508711829272 0 0.19846083006015189 -0.42045811652912207 0 0.1973860855611401 -0.42692030526330021 0 0.19846083006015189 -0.42045811652912207 0 0.20326441538295181 -0.42746054266679712 0 0.1973860855611401 -0.42692030526330021 0 0.19826447490927249 -0.43151164360587502 0 0.20326441538295181 -0.42746054266679712 0 0.2014143480821905 -0.43583764373848299 0 0.19826447490927249 -0.43151164360587502 0 0.20326441538295181 -0.42746054266679712 0 0.19821003569121751 -0.44088076654097252 0 0.2014143480821905 -0.43583764373848299 0 0.19632921389935129 -0.43529695882979857 0 0.2014143480821905 -0.43583764373848299 0 0.19632921389935129 -0.43529695882979857 0 0.19826447490927249 -0.43151164360587502 0 0.19632921389935129 -0.43529695882979857 0 0.19826447490927249 -0.43151164360587502 0 0.1929283116207289 -0.43204276753099607 0 0.1973860855611401 -0.42692030526330021 0 0.19826447490927249 -0.43151164360587502 0 0.1929283116207289 -0.43204276753099607 0 0.1929283116207289 -0.43204276753099607 0 0.18989320103765239 -0.43500186253035911 0 0.193210065479164 -0.42351508711829272 0 0.19521760998379711 -0.43854214036159178 0 0.19632921389935129 -0.43529695882979857 0 0.19377820557052011 -0.43520734882518619 0 0.19521760998379711 -0.43854214036159178 0 0.19377820557052011 -0.43520734882518619 0 0.1916906899727929 -0.43609695451772118 0 0.19632921389935129 -0.43529695882979857 0 0.1929283116207289 -0.43204276753099607 0 0.19377820557052011 -0.43520734882518619 0 0.1929283116207289 -0.43204276753099607 0 0.19210490899723079 -0.4345610298626873 0 0.18989320103765239 -0.43500186253035911 0 0.19377820557052011 -0.43520734882518619 0 0.19210490899723079 -0.4345610298626873 0 0.1916906899727929 -0.43609695451772118 0 0.1929283116207289 -0.43204276753099607 0 0.19377820557052011 -0.43520734882518619 0 0.19210490899723079 -0.4345610298626873 0 0.1916906899727929 -0.43609695451772118 0 0.18989320103765239 -0.43500186253035911 0 0.19210490899723079 -0.4345610298626873 0 0.1916906899727929 -0.43609695451772118 0 0.18989320103765239 -0.43500186253035911 0 0.1973860855611401 -0.42692030526330021 0 0.1929283116207289 -0.43204276753099607 0 0.193210065479164 -0.42351508711829272 0 0.193210065479164 -0.42351508711829272 0 0.1939169242469973 -0.41625106345825691 0 0.18667504034831339 -0.41041640739772162 0 0.193210065479164 -0.42351508711829272 0 0.1939169242469973 -0.41625106345825691 0 0.19846083006015189 -0.42045811652912207 0 0.1968341740193896 -0.41150644481021997 0 0.19418069224578771 -0.40518464808912641 0 0.18667504034831339 -0.41041640739772162 0 0.1939169242469973 -0.41625106345825691 0 0.1968341740193896 -0.41150644481021997 0 0.18667504034831339 -0.41041640739772162 0 0.1968341740193896 -0.41150644481021997 0 0.20469814770209749 -0.41520386531910081 0 0.20485234226760879 -0.40188257102108682 0 0.19846083006015189 -0.42045811652912207 0 0.20469814770209749 -0.41520386531910081 0 0.20326441538295181 -0.42746054266679712 0 0.1939169242469973 -0.41625106345825691 0 0.1968341740193896 -0.41150644481021997 0 0.19846083006015189 -0.42045811652912207 0 0.1968341740193896 -0.41150644481021997 0 0.19846083006015189 -0.42045811652912207 0 0.20469814770209749 -0.41520386531910081 0 0.20469814770209749 -0.41520386531910081 0 0.21626227209603979 -0.41615869782113413 0 0.20326441538295181 -0.42746054266679712 0 0.20469814770209749 -0.41520386531910081 0 0.21626227209603979 -0.41615869782113413 0 0.20485234226760879 -0.40188257102108682 0 0.21626227209603979 -0.41615869782113413 0 0.20326441538295181 -0.42746054266679712 0 0.21231789143938981 -0.43260924517595267 0 0.21626227209603979 -0.41615869782113413 0 0.21231789143938981 -0.43260924517595267 0 0.22596778666418391 -0.43195218695593612 0 0.20738663592967541 -0.43977689630152639 0 0.2014143480821905 -0.43583764373848299 0 0.21231789143938981 -0.43260924517595267 0 0.2014143480821905 -0.43583764373848299 0 0.20326441538295181 -0.42746054266679712 0 0.21231789143938981 -0.43260924517595267 0 0.21274467024756119 -0.44537306322652892 0 0.21231789143938981 -0.43260924517595267 0 0.22596778666418391 -0.43195218695593612 0 0.22596778666418391 -0.43195218695593612 0 0.24161391479158839 -0.43048581688246368 0 0.2333640889907381 -0.41241884790723538 0 0.25610826383841628 -0.42120346698794331 0 0.2518592606704963 -0.43815060111373921 0 0.24161391479158839 -0.43048581688246368 0 0.25610826383841628 -0.42120346698794331 0 0.24161391479158839 -0.43048581688246368 0 0.2333640889907381 -0.41241884790723538 0 0.21626227209603979 -0.41615869782113413 0 0.22596778666418391 -0.43195218695593612 0 0.2333640889907381 -0.41241884790723538 0 0.2333640889907381 -0.41241884790723538 0 0.24502858373403441 -0.39146921073642488 0 0.22031030243082139 -0.38906492162812378 0 0.21626227209603979 -0.41615869782113413 0 0.2333640889907381 -0.41241884790723538 0 0.22031030243082139 -0.38906492162812378 0 0.2333640889907381 -0.41241884790723538 0 0.22031030243082139 -0.38906492162812378 0 0.26125098829365018 -0.39969694482297641 0 0.2333640889907381 -0.41241884790723538 0 0.24502858373403441 -0.39146921073642488 0 0.24971336314328341 -0.36520417674804972 0 0.24502858373403441 -0.39146921073642488 0 0.24971336314328341 -0.36520417674804972 0 0.229200177642885 -0.36995291413531828 0 0.24502858373403441 -0.39146921073642488 0 0.229200177642885 -0.36995291413531828 0 0.24502858373403441 -0.39146921073642488 0 0.22031030243082139 -0.38906492162812378 0 0.20725651587090471 -0.36571099534901208 0 0.22031030243082139 -0.38906492162812378 0 0.19952097201101759 -0.38537913368264481 0 0.20725651587090471 -0.36571099534901208 0 0.22031030243082139 -0.38906492162812378 0 0.21626227209603979 -0.41615869782113413 0 0.22031030243082139 -0.38906492162812378 0 0.20485234226760879 -0.40188257102108682 0 0.22031030243082139 -0.38906492162812378 0 0.20485234226760879 -0.40188257102108682 0 0.19952097201101759 -0.38537913368264481 0 0.20485234226760879 -0.40188257102108682 0 0.19159455078491761 -0.39726910731705511 0 0.19952097201101759 -0.38537913368264481 0 0.1968341740193896 -0.41150644481021997 0 0.20485234226760879 -0.40188257102108682 0 0.19418069224578771 -0.40518464808912641 0 0.20485234226760879 -0.40188257102108682 0 0.19418069224578771 -0.40518464808912641 0 0.19159455078491761 -0.39726910731705511 0 0.19418069224578771 -0.40518464808912641 0 0.19159455078491761 -0.39726910731705511 0 0.18667504034831339 -0.41041640739772162 0 0.20725651587090471 -0.36571099534901208 0 0.19261827162763251 -0.374541644607297 0 0.19952097201101759 -0.38537913368264481 0 0.19261827162763251 -0.374541644607297 0 0.19952097201101759 -0.38537913368264481 0 0.1834568796589737 -0.38583095226508418 0 0.19159455078491761 -0.39726910731705511 0 0.19952097201101759 -0.38537913368264481 0 0.1834568796589737 -0.38583095226508418 0 0.17443949437422429 -0.37745336578486988 0 0.18306199361292941 -0.40184547908877583 0 0.1834568796589737 -0.38583095226508418 0 0.17443949437422429 -0.37745336578486988 0 0.18306199361292941 -0.40184547908877583 0 0.17443949437422429 -0.37745336578486988 0 0.18306199361292941 -0.40184547908877583 0 0.1699565165384864 -0.39219147373696051 0 0.19159455078491761 -0.39726910731705511 0 0.1834568796589737 -0.38583095226508418 0 0.18667504034831339 -0.41041640739772162 0 0.1834568796589737 -0.38583095226508418 0 0.18667504034831339 -0.41041640739772162 0 0.1834568796589737 -0.38583095226508418 0 0.18306199361292941 -0.40184547908877583 0 0.18667504034831339 -0.41041640739772162 0 0.18306199361292941 -0.40184547908877583 0 0.1699565165384864 -0.39219147373696051 0 0.17103987791038719 -0.40450309618882169 0 0.18306199361292941 -0.40184547908877583 0 0.17103987791038719 -0.40450309618882169 0 0.1814131781600461 -0.40758752999736902 0 0.1699565165384864 -0.39219147373696051 0 0.17103987791038719 -0.40450309618882169 0 0.15993177942481909 -0.39557864441750712 0 0.17103987791038719 -0.40450309618882169 0 0.15993177942481909 -0.39557864441750712 0 0.14638679418839309 -0.40849626541203388 0 0.1699565165384864 -0.39219147373696051 0 0.15993177942481909 -0.39557864441750712 0 0.1595700277473481 -0.38298567724053401 0 0.17443949437422429 -0.37745336578486988 0 0.1699565165384864 -0.39219147373696051 0 0.1595700277473481 -0.38298567724053401 0 0.1602354860011011 -0.36875954027416918 0 0.17443949437422429 -0.37745336578486988 0 0.1595700277473481 -0.38298567724053401 0 0.1602354860011011 -0.36875954027416918 0 0.14673951295096799 -0.37363029079717242 0 0.1595700277473481 -0.38298567724053401 0 0.14673951295096799 -0.37363029079717242 0 0.1595700277473481 -0.38298567724053401 0 0.14586341328622179 -0.39002728499933198 0 0.14673951295096799 -0.37363029079717242 0 0.14586341328622179 -0.39002728499933198 0 0.13273239812562251 -0.3803535413873157 0 0.15993177942481909 -0.39557864441750712 0 0.1595700277473481 -0.38298567724053401 0 0.14586341328622179 -0.39002728499933198 0 0.14586341328622179 -0.39002728499933198 0 0.13273239812562251 -0.3803535413873157 0 0.12412735500694751 -0.39493505064503392 0 0.13273239812562251 -0.3803535413873157 0 0.12412735500694751 -0.39493505064503392 0 0.1208593498238435 -0.38006314209191833 0 0.14586341328622179 -0.39002728499933198 0 0.14638679418839309 -0.40849626541203388 0 0.12412735500694751 -0.39493505064503392 0 0.14638679418839309 -0.40849626541203388 0 0.1185943653130178 -0.41089393958744808 0 0.12412735500694751 -0.39493505064503392 0 0.14638679418839309 -0.40849626541203388 0 0.12412735500694751 -0.39493505064503392 0 0.15993177942481909 -0.39557864441750712 0 0.14586341328622179 -0.39002728499933198 0 0.14638679418839309 -0.40849626541203388 0 0.14638679418839309 -0.40849626541203388 0 0.12945713117598301 -0.42527718494859718 0 0.1185943653130178 -0.41089393958744808 0 0.12945713117598301 -0.42527718494859718 0 0.1521605439778134 -0.43517333823265708 0 0.13567485458578729 -0.448289196286278 0 0.14638679418839309 -0.40849626541203388 0 0.12945713117598301 -0.42527718494859718 0 0.1521605439778134 -0.43517333823265708 0 0.14638679418839309 -0.40849626541203388 0 0.1521605439778134 -0.43517333823265708 0 0.16864623336983819 -0.42205748017903449 0 0.1521605439778134 -0.43517333823265708 0 0.16864623336983819 -0.42205748017903449 0 0.1521605439778134 -0.43517333823265708 0 0.16864623336983819 -0.42205748017903449 0 0.16573483381671769 -0.43911683261624462 0 0.16864623336983819 -0.42205748017903449 0 0.17670256027174869 -0.43608133600128551 0 0.16573483381671769 -0.43911683261624462 0 0.17103987791038719 -0.40450309618882169 0 0.14638679418839309 -0.40849626541203388 0 0.16962733287145829 -0.41306172809692981 0 0.14638679418839309 -0.40849626541203388 0 0.16864623336983819 -0.42205748017903449 0 0.14638679418839309 -0.40849626541203388 0 0.16864623336983819 -0.42205748017903449 0 0.16962733287145829 -0.41306172809692981 0 0.16864623336983819 -0.42205748017903449 0 0.17965678171287719 -0.41329759239238029 0 0.18989320103765239 -0.43500186253035911 0 0.17965678171287719 -0.41329759239238029 0 0.18667504034831339 -0.41041640739772162 0 0.16864623336983819 -0.42205748017903449 0 0.16962733287145829 -0.41306172809692981 0 0.17965678171287719 -0.41329759239238029 0 0.17103987791038719 -0.40450309618882169 0 0.16962733287145829 -0.41306172809692981 0 0.17965678171287719 -0.41329759239238029 0 0.17103987791038719 -0.40450309618882169 0 0.17965678171287719 -0.41329759239238029 0 0.1814131781600461 -0.40758752999736902 0 0.18306199361292941 -0.40184547908877583 0 0.1814131781600461 -0.40758752999736902 0 0.18667504034831339 -0.41041640739772162 0 0.17965678171287719 -0.41329759239238029 0 0.1814131781600461 -0.40758752999736902 0 0.18667504034831339 -0.41041640739772162 0 0.18989320103765239 -0.43500186253035911 0 0.16864623336983819 -0.42205748017903449 0 0.18989320103765239 -0.43500186253035911 0 0.16864623336983819 -0.42205748017903449 0 0.17965678171287719 -0.41329759239238029 0 0.18989320103765239 -0.43500186253035911 0 0.16864623336983819 -0.42205748017903449 0 0.17670256027174869 -0.43608133600128551 0 0.18989320103765239 -0.43500186253035911 0 0.17670256027174869 -0.43608133600128551 0 0.18208037526260021 -0.440172852945236 0 0.17851738694434799 -0.45081987712854771 0 0.17618275988476059 -0.44374183802639611 0 0.18401323307134959 -0.44581129240036288 0 0.17851738694434799 -0.45081987712854771 0 0.1776998484129505 -0.456552179461992 0 0.17120073938054131 -0.45123220200337888 0 0.17851738694434799 -0.45081987712854771 0 0.17618275988476059 -0.44374183802639611 0 0.17120073938054131 -0.45123220200337888 0 0.17670256027174869 -0.43608133600128551 0 0.17618275988476059 -0.44374183802639611 0 0.16573483381671769 -0.43911683261624462 0 0.17670256027174869 -0.43608133600128551 0 0.17618275988476059 -0.44374183802639611 0 0.18208037526260021 -0.440172852945236 0 0.18989320103765239 -0.43500186253035911 0 0.18208037526260021 -0.440172852945236 0 0.18401323307134959 -0.44581129240036288 0 0.18777566972406101 -0.44981142861604279 0 0.18989320103765239 -0.43500186253035911 0 0.18401323307134959 -0.44581129240036288 0 0.17618275988476059 -0.44374183802639611 0 0.18208037526260021 -0.440172852945236 0 0.18401323307134959 -0.44581129240036288 0 0.18777566972406101 -0.44981142861604279 0 0.18401323307134959 -0.44581129240036288 0 0.18385690407389799 -0.45446609953290928 0 0.17851738694434799 -0.45081987712854771 0 0.18401323307134959 -0.44581129240036288 0 0.18385690407389799 -0.45446609953290928 0 0.19047701204926121 -0.46094242075341862 0 0.1876592352144193 -0.45673372923780892 0 0.1806900259799068 -0.46227126151247672 0 0.1876592352144193 -0.45673372923780892 0 0.18777566972406101 -0.44981142861604279 0 0.18385690407389799 -0.45446609953290928 0 0.19047701204926121 -0.46094242075341862 0 0.1806900259799068 -0.46227126151247672 0 0.17298031468751371 -0.48047121037671059 0 0.1876592352144193 -0.45673372923780892 0 0.18385690407389799 -0.45446609953290928 0 0.1806900259799068 -0.46227126151247672 0 0.18385690407389799 -0.45446609953290928 0 0.1806900259799068 -0.46227126151247672 0 0.1776998484129505 -0.456552179461992 0 0.17851738694434799 -0.45081987712854771 0 0.18385690407389799 -0.45446609953290928 0 0.1776998484129505 -0.456552179461992 0 0.1806900259799068 -0.46227126151247672 0 0.1776998484129505 -0.456552179461992 0 0.17146684144139809 -0.46446192971202138 0 0.1776998484129505 -0.456552179461992 0 0.17146684144139809 -0.46446192971202138 0 0.17120073938054131 -0.45123220200337888 0 0.17146684144139809 -0.46446192971202138 0 0.15759213853868431 -0.45113306297151079 0 0.14900727366634989 -0.46501884712825781 0 0.17146684144139809 -0.46446192971202138 0 0.15759213853868431 -0.45113306297151079 0 0.17120073938054131 -0.45123220200337888 0 0.1521605439778134 -0.43517333823265708 0 0.15759213853868431 -0.45113306297151079 0 0.16573483381671769 -0.43911683261624462 0 0.15759213853868431 -0.45113306297151079 0 0.17120073938054131 -0.45123220200337888 0 0.16573483381671769 -0.43911683261624462 0 0.17618275988476059 -0.44374183802639611 0 0.17120073938054131 -0.45123220200337888 0 0.16573483381671769 -0.43911683261624462 0 0.1521605439778134 -0.43517333823265708 0 0.15759213853868431 -0.45113306297151079 0 0.13567485458578729 -0.448289196286278 0 0.1521605439778134 -0.43517333823265708 0 0.13567485458578729 -0.448289196286278 0 0.13567485458578729 -0.448289196286278 0 0.1191891651937612 -0.46140505433989892 0 0.12203304576274319 -0.43975504748265359 0 0.12945713117598301 -0.42527718494859718 0 0.13567485458578729 -0.448289196286278 0 0.12203304576274319 -0.43975504748265359 0 0.13567485458578729 -0.448289196286278 0 0.1191891651937612 -0.46140505433989892 0 0.13567485458578729 -0.448289196286278 0 0.13480127744719991 -0.46410976413563299 0 0.1191891651937612 -0.46140505433989892 0 0.13567485458578729 -0.448289196286278 0 0.13480127744719991 -0.46410976413563299 0 0.14900727366634989 -0.46501884712825781 0 0.15759213853868431 -0.45113306297151079 0 0.13567485458578729 -0.448289196286278 0 0.14900727366634989 -0.46501884712825781 0 0.14900727366634989 -0.46501884712825781 0 0.15577652408963519 -0.48266000469618581 0 0.13873200589539489 -0.47945912496791759 0 0.13480127744719991 -0.46410976413563299 0 0.14900727366634989 -0.46501884712825781 0 0.13873200589539489 -0.47945912496791759 0 0.13480127744719991 -0.46410976413563299 0 0.13873200589539489 -0.47945912496791759 0 0.11801755443736479 -0.48060781756800708 0 0.13873200589539489 -0.47945912496791759 0 0.13581988522262109 -0.50000000000000244 0 0.11801755443736479 -0.48060781756800708 0 0.13581988522262109 -0.50000000000000244 0 0.11801755443736479 -0.48060781756800708 0 0.15577652408963519 -0.48266000469618581 0 0.13873200589539489 -0.47945912496791759 0 0.13581988522262109 -0.50000000000000244 0 0.15577652408963519 -0.48266000469618581 0 0.13581988522262109 -0.50000000000000244 0 0.15548361732576529 -0.50000000000000178 0 0.15577652408963519 -0.48266000469618581 0 0.15548361732576529 -0.50000000000000178 0 0.17298031468751371 -0.48047121037671059 0 0.15548361732576529 -0.50000000000000178 0 0.17298031468751371 -0.48047121037671059 0 0.1769424376256932 -0.5 0 0.15548361732576529 -0.50000000000000178 0 0.17298031468751371 -0.48047121037671059 0 0.17146684144139809 -0.46446192971202138 0 0.15577652408963519 -0.48266000469618581 0 0.17298031468751371 -0.48047121037671059 0 0.17146684144139809 -0.46446192971202138 0 0.14900727366634989 -0.46501884712825781 0 0.15577652408963519 -0.48266000469618581 0 0.19047701204926121 -0.46094242075341862 0 0.17298031468751371 -0.48047121037671059 0 0.1806900259799068 -0.46227126151247672 0 0.17146684144139809 -0.46446192971202138 0 0.17298031468751371 -0.48047121037671059 0 0.1955652389629654 -0.47833395417678298 0 0.19047701204926121 -0.46094242075341862 0 0.17298031468751371 -0.48047121037671059 0 0.1955652389629654 -0.47833395417678298 0 0.17298031468751371 -0.48047121037671059 0 0.1857239970351309 -0.48926605560099218 0 0.19840125792562099 -0.499999999999995 0 0.1857239970351309 -0.48926605560099218 0 0.1769424376256932 -0.5 0 0.17298031468751371 -0.48047121037671059 0 0.1857239970351309 -0.48926605560099218 0 0.1769424376256932 -0.5 0 0.074737975103940479 -0.48487994098964171 0 0.071046826552429457 -0.50000000000000733 0 0.059434139084113012 -0.47963991399004141 0 0.071046826552429457 -0.50000000000000733 0 0.059434139084113012 -0.47963991399004141 0 0.074737975103940479 -0.48487994098964171 0 0.05802097188470097 -0.46975988197928431 0 0.059434139084113012 -0.47963991399004141 0 0.074737975103940479 -0.48487994098964171 0 0.071955909258469009 -0.46877079283141743 0 0.05802097188470097 -0.46975988197928431 0 0.074737975103940479 -0.48487994098964171 0 0.071955909258469009 -0.46877079283141743 0 0.082737354296077953 -0.47427357099325013 0 0.074737975103940479 -0.48487994098964171 0 0.05802097188470097 -0.46975988197928431 0 0.074737975103940479 -0.48487994098964171 0 0.082737354296077953 -0.47427357099325013 0 0.094811061721812542 -0.48112121468145302 0 0.082737354296077953 -0.47427357099325013 0 0.094811061721812542 -0.48112121468145302 0 0.1002152236521098 -0.46121563513601083 0 0.074737975103940479 -0.48487994098964171 0 0.091454978323179614 -0.49999999999999939 0 0.094811061721812542 -0.48112121468145302 0 0.074737975103940479 -0.48487994098964171 0 0.091454978323179614 -0.49999999999999939 0 0.074737975103940479 -0.48487994098964171 0 0.071046826552429457 -0.50000000000000733 0 0.091454978323179614 -0.49999999999999939 0 0.1136374317729003 -0.5 0 0.11801755443736479 -0.48060781756800708 0 0.094811061721812542 -0.48112121468145302 0 0.091454978323179614 -0.49999999999999939 0 0.1136374317729003 -0.5 0 0.094811061721812542 -0.48112121468145302 0 0.13581988522262109 -0.50000000000000244 0 0.1136374317729003 -0.5 0 0.11801755443736479 -0.48060781756800708 0 0.11801755443736479 -0.48060781756800708 0 0.094811061721812542 -0.48112121468145302 0 0.1002152236521098 -0.46121563513601083 0 0.11801755443736479 -0.48060781756800708 0 0.1002152236521098 -0.46121563513601083 0 0.1002152236521098 -0.46121563513601083 0 0.1191891651937612 -0.46140505433989892 0 0.1082504500781146 -0.44478934181291102 0 0.11801755443736479 -0.48060781756800708 0 0.1002152236521098 -0.46121563513601083 0 0.1191891651937612 -0.46140505433989892 0 0.13480127744719991 -0.46410976413563299 0 0.11801755443736479 -0.48060781756800708 0 0.1191891651937612 -0.46140505433989892 0 0.1191891651937612 -0.46140505433989892 0 0.12203304576274319 -0.43975504748265359 0 0.1082504500781146 -0.44478934181291102 0 0.1002152236521098 -0.46121563513601083 0 0.1082504500781146 -0.44478934181291102 0 0.082412892866854714 -0.44182345270401441 0 0.1002152236521098 -0.46121563513601083 0 0.082412892866854714 -0.44182345270401441 0 0.082737354296077953 -0.47427357099325013 0 0.1002152236521098 -0.46121563513601083 0 0.07989865607697158 -0.46093656822545309 0 0.1002152236521098 -0.46121563513601083 0 0.082412892866854714 -0.44182345270401441 0 0.07989865607697158 -0.46093656822545309 0 0.071955909258469009 -0.46877079283141743 0 0.082737354296077953 -0.47427357099325013 0 0.07989865607697158 -0.46093656822545309 0 0.071955909258469009 -0.46877079283141743 0 0.07989865607697158 -0.46093656822545309 0 0.064942869781788204 -0.45298741250561531 0 0.071955909258469009 -0.46877079283141743 0 0.064942869781788204 -0.45298741250561531 0 0.05802097188470097 -0.46975988197928431 0 0.082412892866854714 -0.44182345270401441 0 0.07989865607697158 -0.46093656822545309 0 0.064942869781788204 -0.45298741250561531 0 0.082412892866854714 -0.44182345270401441 0 0.064942869781788204 -0.45298741250561531 0 0.064610562081599654 -0.42243127027201799 0 0.082412892866854714 -0.44182345270401441 0 0.064610562081599654 -0.42243127027201799 0 0.085410796704641828 -0.41553833344022301 0 0.082412892866854714 -0.44182345270401441 0 0.064610562081599654 -0.42243127027201799 0 0.064610562081599654 -0.42243127027201799 0 0.085410796704641828 -0.41553833344022301 0 0.071260751408415451 -0.40583032332525898 0 0.082412892866854714 -0.44182345270401441 0 0.085410796704641828 -0.41553833344022301 0 0.10565257718969159 -0.42402980380391259 0 0.1082504500781146 -0.44478934181291102 0 0.10565257718969159 -0.42402980380391259 0 0.1082504500781146 -0.44478934181291102 0 0.082412892866854714 -0.44182345270401441 0 0.10565257718969159 -0.42402980380391259 0 0.12203304576274319 -0.43975504748265359 0 0.1082504500781146 -0.44478934181291102 0 0.10565257718969159 -0.42402980380391259 0 0.12945713117598301 -0.42527718494859718 0 0.12203304576274319 -0.43975504748265359 0 0.10565257718969159 -0.42402980380391259 0 0.12945713117598301 -0.42527718494859718 0 0.10565257718969159 -0.42402980380391259 0 0.1185943653130178 -0.41089393958744808 0 0.10565257718969159 -0.42402980380391259 0 0.10305470430126849 -0.40327026579491432 0 0.10565257718969159 -0.42402980380391259 0 0.1185943653130178 -0.41089393958744808 0 0.10305470430126849 -0.40327026579491432 0 0.085410796704641828 -0.41553833344022301 0 0.10565257718969159 -0.42402980380391259 0 0.10305470430126849 -0.40327026579491432 0 0.10305470430126849 -0.40327026579491432 0 0.1092296532162271 -0.39195520602732847 0 0.1018679158255022 -0.38137383587803358 0 0.10305470430126849 -0.40327026579491432 0 0.1018679158255022 -0.38137383587803358 0 0.084827885114816814 -0.39510276155480978 0 0.10305470430126849 -0.40327026579491432 0 0.1018679158255022 -0.38137383587803358 0 0.1185943653130178 -0.41089393958744808 0 0.10305470430126849 -0.40327026579491432 0 0.1092296532162271 -0.39195520602732847 0 0.1185943653130178 -0.41089393958744808 0 0.1092296532162271 -0.39195520602732847 0 0.12412735500694751 -0.39493505064503392 0 0.12412735500694751 -0.39493505064503392 0 0.1208593498238435 -0.38006314209191833 0 0.1018679158255022 -0.38137383587803358 0 0.1092296532162271 -0.39195520602732847 0 0.12412735500694751 -0.39493505064503392 0 0.1018679158255022 -0.38137383587803358 0 0.12412735500694751 -0.39493505064503392 0 0.1018679158255022 -0.38137383587803358 0 0.1208593498238435 -0.38006314209191833 0 0.1018679158255022 -0.38137383587803358 0 0.12334710111447229 -0.36406834251145731 0 0.1018679158255022 -0.38137383587803358 0 0.1001863568717406 -0.38034937241650962 0 0.10879209213087419 -0.36797725762153549 0 0.1018679158255022 -0.38137383587803358 0 0.1001863568717406 -0.38034937241650962 0 0.092680417082859706 -0.38189565836938699 0 0.1018679158255022 -0.38137383587803358 0 0.1001863568717406 -0.38034937241650962 0 0.1001863568717406 -0.38034937241650962 0 0.092680417082859706 -0.38189565836938699 0 0.078941289569781151 -0.36740614783332631 0 0.1018679158255022 -0.38137383587803358 0 0.084827885114816814 -0.39510276155480978 0 0.1018679158255022 -0.38137383587803358 0 0.092680417082859706 -0.38189565836938699 0 0.084827885114816814 -0.39510276155480978 0 0.083667078469080447 -0.3817485906143725 0 0.076461538166658155 -0.38231907318138902 0 0.078941289569781151 -0.36740614783332631 0 0.092680417082859706 -0.38189565836938699 0 0.083667078469080447 -0.3817485906143725 0 0.078941289569781151 -0.36740614783332631 0 0.084827885114816814 -0.39510276155480978 0 0.073546264855348126 -0.39398280964304111 0 0.076461538166658155 -0.38231907318138902 0 0.083667078469080447 -0.3817485906143725 0 0.084827885114816814 -0.39510276155480978 0 0.076461538166658155 -0.38231907318138902 0 0.092680417082859706 -0.38189565836938699 0 0.083667078469080447 -0.3817485906143725 0 0.084827885114816814 -0.39510276155480978 0 0.085410796704641828 -0.41553833344022301 0 0.10305470430126849 -0.40327026579491432 0 0.084827885114816814 -0.39510276155480978 0 0.085410796704641828 -0.41553833344022301 0 0.084827885114816814 -0.39510276155480978 0 0.071260751408415451 -0.40583032332525898 0 0.084827885114816814 -0.39510276155480978 0 0.073546264855348126 -0.39398280964304111 0 0.071260751408415451 -0.40583032332525898 0 0.073546264855348126 -0.39398280964304111 0 0.071260751408415451 -0.40583032332525898 0 0.061634884731502082 -0.39267908051070671 0 0.076461538166658155 -0.38231907318138902 0 0.061634884731502082 -0.39267908051070671 0 0.076461538166658155 -0.38231907318138902 0 0.061634884731502082 -0.39267908051070671 0 0.061904282875925747 -0.37237526148823941 0 0.073546264855348126 -0.39398280964304111 0 0.076461538166658155 -0.38231907318138902 0 0.061634884731502082 -0.39267908051070671 0 0.051370350477500881 -0.3764161884637201 0 0.045801185216693012 -0.38580832539780119 0 0.043663507306638913 -0.36868104746756258 0 0.051370350477500881 -0.3764161884637201 0 0.061634884731502082 -0.39267908051070671 0 0.045801185216693012 -0.38580832539780119 0 0.051370350477500881 -0.3764161884637201 0 0.061634884731502082 -0.39267908051070671 0 0.061904282875925747 -0.37237526148823941 0 0.071260751408415451 -0.40583032332525898 0 0.061634884731502082 -0.39267908051070671 0 0.04680823129634433 -0.40303908784002201 0 0.061634884731502082 -0.39267908051070671 0 0.04680823129634433 -0.40303908784002201 0 0.045801185216693012 -0.38580832539780119 0 0.061634884731502082 -0.39267908051070671 0 0.04680823129634433 -0.40303908784002201 0 0.04680823129634433 -0.40303908784002201 0 0.02837172461734 -0.38295609391969199 0 0.04680823129634433 -0.40303908784002201 0 0.02837172461734 -0.38295609391969199 0 0.028215565298714249 -0.40094151263492078 0 0.045801185216693012 -0.38580832539780119 0 0.02837172461734 -0.38295609391969199 0 0.043663507306638913 -0.36868104746756258 0 0.04680823129634433 -0.40303908784002201 0 0.045801185216693012 -0.38580832539780119 0 0.02837172461734 -0.38295609391969199 0 0.02837172461734 -0.38295609391969199 0 0.0122991559467155 -0.37891225603134221 0 0.011208636448502229 -0.39508796301279092 0 -0.002178803782163227 -0.37161627006544062 0 0.0122991559467155 -0.37891225603134221 0 0.011208636448502229 -0.39508796301279092 0 -0.002178803782163227 -0.37161627006544062 0 0.011208636448502229 -0.39508796301279092 0 -0.002178803782163227 -0.37161627006544062 0 -0.0066930742226519926 -0.39143820132839208 0 0.011208636448502229 -0.39508796301279092 0 -0.001728596279610697 -0.40597762003102339 0 0.011208636448502229 -0.39508796301279092 0 0.0082246319185010179 -0.41465428951275207 0 -0.0066930742226519926 -0.39143820132839208 0 -0.001728596279610697 -0.40597762003102339 0 0.011208636448502229 -0.39508796301279092 0 0.011208636448502229 -0.39508796301279092 0 0.028215565298714249 -0.40094151263492078 0 0.024596076679173799 -0.41855965596013778 0 0.02837172461734 -0.38295609391969199 0 0.011208636448502229 -0.39508796301279092 0 0.028215565298714249 -0.40094151263492078 0 0.011208636448502229 -0.39508796301279092 0 0.024596076679173799 -0.41855965596013778 0 0.011208636448502229 -0.39508796301279092 0 0.024596076679173799 -0.41855965596013778 0 0.0082246319185010179 -0.41465428951275207 0 0.024596076679173799 -0.41855965596013778 0 0.0082246319185010179 -0.41465428951275207 0 0.01039378864355619 -0.42848339288335913 0 -0.009537301248459449 -0.42510302968362512 0 0.0082246319185010179 -0.41465428951275207 0 0.01039378864355619 -0.42848339288335913 0 0.024596076679173799 -0.41855965596013778 0 0.036208764147486278 -0.43891974197010591 0 0.024596076679173799 -0.41855965596013778 0 0.036208764147486278 -0.43891974197010591 0 0.020713539006084219 -0.44010250100644183 0 0.024596076679173799 -0.41855965596013778 0 0.01039378864355619 -0.42848339288335913 0 0.020713539006084219 -0.44010250100644183 0 0.024596076679173799 -0.41855965596013778 0 0.01039378864355619 -0.42848339288335913 0 0.024596076679173799 -0.41855965596013778 0 0.043950702345966319 -0.42295947833088071 0 0.036208764147486278 -0.43891974197010591 0 0.043950702345966319 -0.42295947833088071 0 0.051347790295756007 -0.43901682978775403 0 0.036208764147486278 -0.43891974197010591 0 0.04680823129634433 -0.40303908784002201 0 0.024596076679173799 -0.41855965596013778 0 0.04680823129634433 -0.40303908784002201 0 0.028215565298714249 -0.40094151263492078 0 0.024596076679173799 -0.41855965596013778 0 0.04680823129634433 -0.40303908784002201 0 0.024596076679173799 -0.41855965596013778 0 0.043950702345966319 -0.42295947833088071 0 0.064610562081599654 -0.42243127027201799 0 0.071260751408415451 -0.40583032332525898 0 0.04680823129634433 -0.40303908784002201 0 0.064610562081599654 -0.42243127027201799 0 0.04680823129634433 -0.40303908784002201 0 0.064610562081599654 -0.42243127027201799 0 0.04680823129634433 -0.40303908784002201 0 0.043950702345966319 -0.42295947833088071 0 0.064610562081599654 -0.42243127027201799 0 0.043950702345966319 -0.42295947833088071 0 0.051347790295756007 -0.43901682978775403 0 0.064942869781788204 -0.45298741250561531 0 0.064610562081599654 -0.42243127027201799 0 0.051347790295756007 -0.43901682978775403 0 0.064942869781788204 -0.45298741250561531 0 0.051347790295756007 -0.43901682978775403 0 0.047821451615799627 -0.45927982798007361 0 0.064942869781788204 -0.45298741250561531 0 0.047821451615799627 -0.45927982798007361 0 0.05802097188470097 -0.46975988197928431 0 0.047821451615799627 -0.45927982798007361 0 0.023714967739582489 -0.4565662814222432 0 0.032020960621095843 -0.47777188036233098 0 0.047821451615799627 -0.45927982798007361 0 0.036208764147486278 -0.43891974197010591 0 0.051347790295756007 -0.43901682978775403 0 0.047821451615799627 -0.45927982798007361 0 0.036208764147486278 -0.43891974197010591 0 0.047821451615799627 -0.45927982798007361 0 0.036208764147486278 -0.43891974197010591 0 0.023714967739582489 -0.4565662814222432 0 0.036208764147486278 -0.43891974197010591 0 0.020713539006084219 -0.44010250100644183 0 0.023714967739582489 -0.4565662814222432 0 -0.0013374034004768371 -0.44947558896604423 0 0.01039378864355619 -0.42848339288335913 0 0.020713539006084219 -0.44010250100644183 0 -0.0013374034004768371 -0.44947558896604423 0 0.020713539006084219 -0.44010250100644183 0 0.023714967739582489 -0.4565662814222432 0 -0.0013374034004768371 -0.44947558896604423 0 0.0068624944475057766 -0.47384814824846327 0 -0.0013374034004768371 -0.44947558896604423 0 0.023714967739582489 -0.4565662814222432 0 0.0068624944475057766 -0.47384814824846327 0 0.023714967739582489 -0.4565662814222432 0 0.0068624944475057766 -0.47384814824846327 0 0.032020960621095843 -0.47777188036233098 0 0.0068624944475057766 -0.47384814824846327 0 0.0150623922954884 -0.49822070753088238 0 0.032020960621095843 -0.47777188036233098 0 -0.015217900669161011 -0.5 0 0.0024053695883212941 -0.48891336768777249 0 0.013537008404702511 -0.5 0 0.0068624944475057766 -0.47384814824846327 0 0.0024053695883212941 -0.48891336768777249 0 0.0150623922954884 -0.49822070753088238 0 0.0068624944475057766 -0.47384814824846327 0 0.0150623922954884 -0.49822070753088238 0 0.0024053695883212941 -0.48891336768777249 0 0.0150623922954884 -0.49822070753088238 0 0.013537008404702511 -0.5 0 0.0150623922954884 -0.49822070753088238 0 0.013537008404702511 -0.5 0 0.042291917478565873 -0.5 0 0.0150623922954884 -0.49822070753088238 0 0.042291917478565873 -0.5 0 0.032020960621095843 -0.47777188036233098 0 0.042291917478565873 -0.5 0 0.032020960621095843 -0.47777188036233098 0 0.059434139084113012 -0.47963991399004141 0 0.047821451615799627 -0.45927982798007361 0 0.032020960621095843 -0.47777188036233098 0 0.059434139084113012 -0.47963991399004141 0 0.047821451615799627 -0.45927982798007361 0 0.05802097188470097 -0.46975988197928431 0 0.059434139084113012 -0.47963991399004141 0 0.047821451615799627 -0.45927982798007361 0 0.059434139084113012 -0.47963991399004141 0 0.071046826552429457 -0.50000000000000733 0 0.042291917478565873 -0.5 0 0.059434139084113012 -0.47963991399004141 0 0.078456545354339768 -0.28525100698693651 0 0.075192778843485145 -0.3004755496101415 0 0.095899689397586599 -0.3008291305439913 0 0.078456545354339768 -0.28525100698693651 0 0.095711127176573443 -0.2751242682777974 0 0.095899689397586599 -0.3008291305439913 0 0.075192778843485145 -0.3004755496101415 0 0.095899689397586599 -0.3008291305439913 0 0.074188022781041252 -0.31649930169162399 0 0.095899689397586599 -0.3008291305439913 0 0.074188022781041252 -0.31649930169162399 0 0.075192778843485145 -0.3004755496101415 0 0.074188022781041252 -0.31649930169162399 0 0.058270312985904418 -0.30816514798469019 0 0.075192778843485145 -0.3004755496101415 0 0.068995976747761104 -0.2945131319279734 0 0.058270312985904418 -0.30816514798469019 0 0.068995976747761104 -0.2945131319279734 0 0.064064269807315097 -0.28416082313012542 0 0.058270312985904418 -0.30816514798469019 0 0.078456545354339768 -0.28525100698693651 0 0.075192778843485145 -0.3004755496101415 0 0.068995976747761104 -0.2945131319279734 0 0.078456545354339768 -0.28525100698693651 0 0.068995976747761104 -0.2945131319279734 0 0.064064269807315097 -0.28416082313012542 0 0.064064269807315097 -0.28416082313012542 0 0.069858226628725775 -0.26015649827556059 0 0.078456545354339768 -0.28525100698693651 0 0.064064269807315097 -0.28416082313012542 0 0.069858226628725775 -0.26015649827556059 0 0.069858226628725775 -0.26015649827556059 0 0.095711127176573443 -0.2751242682777974 0 0.096521476943682558 -0.25181800011133371 0 0.078456545354339768 -0.28525100698693651 0 0.069858226628725775 -0.26015649827556059 0 0.095711127176573443 -0.2751242682777974 0 0.095711127176573443 -0.2751242682777974 0 0.114720785939063 -0.26575264298982931 0 0.1176113560141319 -0.2851589593963586 0 0.095711127176573443 -0.2751242682777974 0 0.096521476943682558 -0.25181800011133371 0 0.114720785939063 -0.26575264298982931 0 0.1376178273856396 -0.2676878026278281 0 0.114720785939063 -0.26575264298982931 0 0.1200034520355143 -0.24749468667538321 0 0.096521476943682558 -0.25181800011133371 0 0.114720785939063 -0.26575264298982931 0 0.1200034520355143 -0.24749468667538321 0 0.1376178273856396 -0.2676878026278281 0 0.114720785939063 -0.26575264298982931 0 0.1176113560141319 -0.2851589593963586 0 0.13584279120622419 -0.29064916595208462 0 0.1176113560141319 -0.2851589593963586 0 0.1212075847983899 -0.30357596212866123 0 0.1176113560141319 -0.2851589593963586 0 0.095899689397586599 -0.3008291305439913 0 0.1212075847983899 -0.30357596212866123 0 0.1176113560141319 -0.2851589593963586 0 0.095899689397586599 -0.3008291305439913 0 0.095711127176573443 -0.2751242682777974 0 0.1176113560141319 -0.2851589593963586 0 0.095899689397586599 -0.3008291305439913 0 0.095899689397586599 -0.3008291305439913 0 0.1212075847983899 -0.30357596212866123 0 0.1047724191350739 -0.31963875894108951 0 0.1212075847983899 -0.30357596212866123 0 0.1249111379911398 -0.32186001205002218 0 0.1047724191350739 -0.31963875894108951 0 0.1249111379911398 -0.32186001205002218 0 0.1047724191350739 -0.31963875894108951 0 0.11573058637367541 -0.34380091622275832 0 0.094619564876377599 -0.33586527524184762 0 0.1047724191350739 -0.31963875894108951 0 0.11573058637367541 -0.34380091622275832 0 0.094619564876377599 -0.33586527524184762 0 0.1047724191350739 -0.31963875894108951 0 0.086339338786571823 -0.32698567366184278 0 0.095899689397586599 -0.3008291305439913 0 0.1047724191350739 -0.31963875894108951 0 0.086339338786571823 -0.32698567366184278 0 0.1018679158255022 -0.38137383587803358 0 0.12334710111447229 -0.36406834251145731 0 0.1018679158255022 -0.38137383587803358 0 0.12334710111447229 -0.36406834251145731 0 0.10879209213087419 -0.36797725762153549 0 0.12334710111447229 -0.36406834251145731 0 0.11573058637367541 -0.34380091622275832 0 0.10879209213087419 -0.36797725762153549 0 0.11573058637367541 -0.34380091622275832 0 0.097402960874061584 -0.35810732382917831 0 0.10879209213087419 -0.36797725762153549 0 0.094619564876377599 -0.33586527524184762 0 0.11573058637367541 -0.34380091622275832 0 0.097402960874061584 -0.35810732382917831 0 0.094619564876377599 -0.33586527524184762 0 0.097402960874061584 -0.35810732382917831 0 0.1001863568717406 -0.38034937241650962 0 0.097402960874061584 -0.35810732382917831 0 0.1001863568717406 -0.38034937241650962 0 0.097402960874061584 -0.35810732382917831 0 0.10879209213087419 -0.36797725762153549 0 0.1001863568717406 -0.38034937241650962 0 0.097402960874061584 -0.35810732382917831 0 0.078941289569781151 -0.36740614783332631 0 0.1001863568717406 -0.38034937241650962 0 0.078941289569781151 -0.36740614783332631 0 0.094619564876377599 -0.33586527524184762 0 0.097402960874061584 -0.35810732382917831 0 0.084740357312199394 -0.34701535865000288 0 0.078941289569781151 -0.36740614783332631 0 0.084740357312199394 -0.34701535865000288 0 0.072564810466095128 -0.35396504242622201 0 0.097402960874061584 -0.35810732382917831 0 0.078941289569781151 -0.36740614783332631 0 0.084740357312199394 -0.34701535865000288 0 0.078941289569781151 -0.36740614783332631 0 0.072564810466095128 -0.35396504242622201 0 0.057696222267823373 -0.35446292325014028 0 0.084740357312199394 -0.34701535865000288 0 0.072564810466095128 -0.35396504242622201 0 0.073102422775426085 -0.33909783780230318 0 0.064643683218506637 -0.34920539315333932 0 0.072564810466095128 -0.35396504242622201 0 0.073102422775426085 -0.33909783780230318 0 0.064643683218506637 -0.34920539315333932 0 0.072564810466095128 -0.35396504242622201 0 0.057696222267823373 -0.35446292325014028 0 0.078941289569781151 -0.36740614783332631 0 0.057696222267823373 -0.35446292325014028 0 0.076461538166658155 -0.38231907318138902 0 0.078941289569781151 -0.36740614783332631 0 0.061904282875925747 -0.37237526148823941 0 0.078941289569781151 -0.36740614783332631 0 0.061904282875925747 -0.37237526148823941 0 0.057696222267823373 -0.35446292325014028 0 0.095899689397586599 -0.3008291305439913 0 0.086339338786571823 -0.32698567366184278 0 0.074188022781041252 -0.31649930169162399 0 0.094619564876377599 -0.33586527524184762 0 0.084740357312199394 -0.34701535865000288 0 0.086339338786571823 -0.32698567366184278 0 0.084740357312199394 -0.34701535865000288 0 0.086339338786571823 -0.32698567366184278 0 0.073102422775426085 -0.33909783780230318 0 0.073102422775426085 -0.33909783780230318 0 0.074188022781041252 -0.31649930169162399 0 0.052476356164494947 -0.33216947283925541 0 0.064643683218506637 -0.34920539315333932 0 0.073102422775426085 -0.33909783780230318 0 0.060945063747813971 -0.34285112352430303 0 0.074188022781041252 -0.31649930169162399 0 0.052476356164494947 -0.33216947283925541 0 0.086339338786571823 -0.32698567366184278 0 0.073102422775426085 -0.33909783780230318 0 0.074188022781041252 -0.31649930169162399 0 0.052476356164494947 -0.33216947283925541 0 0.058270312985904418 -0.30816514798469019 0 0.052476356164494947 -0.33216947283925541 0 0.044648526871603783 -0.31770081170742831 0 0.058270312985904418 -0.30816514798469019 0 0.074188022781041252 -0.31649930169162399 0 0.052476356164494947 -0.33216947283925541 0 0.058270312985904418 -0.30816514798469019 0 0.052476356164494947 -0.33216947283925541 0 0.047583047975914103 -0.35244241635483559 0 0.073102422775426085 -0.33909783780230318 0 0.060945063747813971 -0.34285112352430303 0 0.052476356164494947 -0.33216947283925541 0 0.060945063747813971 -0.34285112352430303 0 0.052476356164494947 -0.33216947283925541 0 0.054181307711507642 -0.34983992205818981 0 0.052476356164494947 -0.33216947283925541 0 0.04071506683574927 -0.34065806194451792 0 0.047583047975914103 -0.35244241635483559 0 0.052476356164494947 -0.33216947283925541 0 0.04071506683574927 -0.34065806194451792 0 0.044648526871603783 -0.31770081170742831 0 0.04071506683574927 -0.34065806194451792 0 0.03015636661650286 -0.3225410253719756 0 0.04071506683574927 -0.34065806194451792 0 0.03015636661650286 -0.3225410253719756 0 0.02636863849756152 -0.33688388254537838 0 0.052476356164494947 -0.33216947283925541 0 0.04071506683574927 -0.34065806194451792 0 0.04071506683574927 -0.34065806194451792 0 0.044648526871603783 -0.31770081170742831 0 0.03015636661650286 -0.3225410253719756 0 0.044648526871603783 -0.31770081170742831 0 0.03015636661650286 -0.3225410253719756 0 0.034491627806478041 -0.30853974567073322 0 0.061904282875925747 -0.37237526148823941 0 0.053259535722039633 -0.3641180164926533 0 0.057696222267823373 -0.35446292325014028 0 0.051370350477500881 -0.3764161884637201 0 0.053259535722039633 -0.3641180164926533 0 0.043663507306638913 -0.36868104746756258 0 0.051370350477500881 -0.3764161884637201 0 0.061904282875925747 -0.37237526148823941 0 0.053259535722039633 -0.3641180164926533 0 0.053259535722039633 -0.3641180164926533 0 0.048773826387857627 -0.3544856011778737 0 0.043663507306638913 -0.36868104746756258 0 0.052476356164494947 -0.33216947283925541 0 0.047583047975914103 -0.35244241635483559 0 0.054181307711507642 -0.34983992205818981 0 0.053259535722039633 -0.3641180164926533 0 0.053244657324237762 -0.3582642649149802 0 0.048773826387857627 -0.3544856011778737 0 0.053244657324237762 -0.3582642649149802 0 0.048773826387857627 -0.3544856011778737 0 0.054181307711507642 -0.34983992205818981 0 0.048773826387857627 -0.3544856011778737 0 0.047583047975914103 -0.35244241635483559 0 0.054181307711507642 -0.34983992205818981 0 0.048773826387857627 -0.3544856011778737 0 0.047583047975914103 -0.35244241635483559 0 0.053259535722039633 -0.3641180164926533 0 0.053244657324237762 -0.3582642649149802 0 0.057696222267823373 -0.35446292325014028 0 0.053244657324237762 -0.3582642649149802 0 0.057696222267823373 -0.35446292325014028 0 0.054181307711507642 -0.34983992205818981 0 0.064643683218506637 -0.34920539315333932 0 0.057696222267823373 -0.35446292325014028 0 0.054181307711507642 -0.34983992205818981 0 0.064643683218506637 -0.34920539315333932 0 0.060945063747813971 -0.34285112352430303 0 0.054181307711507642 -0.34983992205818981 0 0.048773826387857627 -0.3544856011778737 0 0.047583047975914103 -0.35244241635483559 0 0.043663507306638913 -0.36868104746756258 0 0.04071506683574927 -0.34065806194451792 0 0.047583047975914103 -0.35244241635483559 0 0.04071506683574927 -0.34065806194451792 0 0.047583047975914103 -0.35244241635483559 0 0.03985573710467899 -0.35136837444597901 0 0.04071506683574927 -0.34065806194451792 0 0.03985573710467899 -0.35136837444597901 0 0.03205896378917665 -0.35434441690964041 0 0.04071506683574927 -0.34065806194451792 0 0.03205896378917665 -0.35434441690964041 0 0.025431496553892478 -0.35168882095041942 0 0.04071506683574927 -0.34065806194451792 0 0.025431496553892478 -0.35168882095041942 0 0.03985573710467899 -0.35136837444597901 0 0.03205896378917665 -0.35434441690964041 0 0.039065869817875902 -0.35802860257492208 0 0.047583047975914103 -0.35244241635483559 0 0.03985573710467899 -0.35136837444597901 0 0.039065869817875902 -0.35802860257492208 0 0.02837172461734 -0.38295609391969199 0 0.033371525452051833 -0.36592480980272157 0 0.043663507306638913 -0.36868104746756258 0 0.047583047975914103 -0.35244241635483559 0 0.039065869817875902 -0.35802860257492208 0 0.043663507306638913 -0.36868104746756258 0 0.047583047975914103 -0.35244241635483559 0 0.043663507306638913 -0.36868104746756258 0 0.039065869817875902 -0.35802860257492208 0 0.033371525452051833 -0.36592480980272157 0 0.043663507306638913 -0.36868104746756258 0 0.03205896378917665 -0.35434441690964041 0 0.039065869817875902 -0.35802860257492208 0 0.033371525452051833 -0.36592480980272157 0 0.02837172461734 -0.38295609391969199 0 0.0099352179383349771 -0.36287309999936251 0 0.02837172461734 -0.38295609391969199 0 0.023697561729227701 -0.3656138881417908 0 0.0099352179383349771 -0.36287309999936251 0 0.02837172461734 -0.38295609391969199 0 0.033371525452051833 -0.36592480980272157 0 0.023697561729227701 -0.3656138881417908 0 0.02837172461734 -0.38295609391969199 0 0.0122991559467155 -0.37891225603134221 0 0.0099352179383349771 -0.36287309999936251 0 0.03205896378917665 -0.35434441690964041 0 0.033371525452051833 -0.36592480980272157 0 0.023697561729227701 -0.3656138881417908 0 0.023697561729227701 -0.3656138881417908 0 0.025431496553892478 -0.35168882095041942 0 0.0099352179383349771 -0.36287309999936251 0 0.025431496553892478 -0.35168882095041942 0 0.0075807645751098419 -0.34453611388615663 0 0.025431496553892478 -0.35168882095041942 0 0.0075807645751098419 -0.34453611388615663 0 0.02636863849756152 -0.33688388254537838 0 0.025431496553892478 -0.35168882095041942 0 0.0099352179383349771 -0.36287309999936251 0 0.03205896378917665 -0.35434441690964041 0 0.023697561729227701 -0.3656138881417908 0 0.025431496553892478 -0.35168882095041942 0 0.03205896378917665 -0.35434441690964041 0 0.025431496553892478 -0.35168882095041942 0 -0.0096343958099064687 -0.34155580596031437 0 0.0099352179383349771 -0.36287309999936251 0 -0.0096343958099064687 -0.34155580596031437 0 0.0075807645751098419 -0.34453611388615663 0 0.0099352179383349771 -0.36287309999936251 0 0.025431496553892478 -0.35168882095041942 0 0.0075807645751098419 -0.34453611388615663 0 0.0099352179383349771 -0.36287309999936251 0 -0.002178803782163227 -0.37161627006544062 0 0.0122991559467155 -0.37891225603134221 0 0.0099352179383349771 -0.36287309999936251 0 -0.0070150904897389628 -0.35875101633193152 0 -0.002178803782163227 -0.37161627006544062 0 0.0099352179383349771 -0.36287309999936251 0 -0.002178803782163227 -0.37161627006544062 0 0.0099352179383349771 -0.36287309999936251 0 0.03015636661650286 -0.3225410253719756 0 0.019597666397256509 -0.30442398879943339 0 0.03015636661650286 -0.3225410253719756 0 0.014793392922354411 -0.31628120652474823 0 0.019597666397256509 -0.30442398879943339 0 0.03015636661650286 -0.3225410253719756 0 0.01453256369494863 -0.32953892791496292 0 0.014793392922354411 -0.31628120652474823 0 0.03015636661650286 -0.3225410253719756 0 0.02636863849756152 -0.33688388254537838 0 0.01453256369494863 -0.32953892791496292 0 0.0075807645751098419 -0.34453611388615663 0 0.02636863849756152 -0.33688388254537838 0 0.01453256369494863 -0.32953892791496292 0 0.04071506683574927 -0.34065806194451792 0 0.025431496553892478 -0.35168882095041942 0 0.02636863849756152 -0.33688388254537838 0 0.0075807645751098419 -0.34453611388615663 0 0.01453256369494863 -0.32953892791496292 0 0.0034794820758208261 -0.33361449123698089 0 -0.010269967403673339 -0.33738340682189533 0 0.0075807645751098419 -0.34453611388615663 0 0.0034794820758208261 -0.33361449123698089 0 0.01453256369494863 -0.32953892791496292 0 0.0034794820758208261 -0.33361449123698089 0 0.001904989571353899 -0.32214434476741449 0 0.001904989571353899 -0.32214434476741449 0 0.014793392922354411 -0.31628120652474823 0 0.0019518825097332619 -0.30029273945570772 0 0.01453256369494863 -0.32953892791496292 0 0.001904989571353899 -0.32214434476741449 0 0.014793392922354411 -0.31628120652474823 0 0.0019518825097332619 -0.30029273945570772 0 0.0090389661780101715 -0.28630695222689118 0 0.019597666397256509 -0.30442398879943339 0 0.014793392922354411 -0.31628120652474823 0 0.0019518825097332619 -0.30029273945570772 0 0.019597666397256509 -0.30442398879943339 0 -0.0020851015340006161 -0.28052611142458661 0 0.0019518825097332619 -0.30029273945570772 0 0.0090389661780101715 -0.28630695222689118 0 0.0090389661780101715 -0.28630695222689118 0 0.019597666397256509 -0.30442398879943339 0 0.0090389661780101715 -0.28630695222689118 0 0.019597666397256509 -0.30442398879943339 0 0.033821918158706138 -0.27707393290215671 0 0.03015636661650286 -0.3225410253719756 0 0.019597666397256509 -0.30442398879943339 0 0.034491627806478041 -0.30853974567073322 0 0.019597666397256509 -0.30442398879943339 0 0.034491627806478041 -0.30853974567073322 0 0.043330632548044458 -0.29475484461045087 0 0.044648526871603783 -0.31770081170742831 0 0.034491627806478041 -0.30853974567073322 0 0.043330632548044458 -0.29475484461045087 0 0.019597666397256509 -0.30442398879943339 0 0.043330632548044458 -0.29475484461045087 0 0.033821918158706138 -0.27707393290215671 0 0.043330632548044458 -0.29475484461045087 0 0.062049371387241412 -0.28749956346879602 0 0.033821918158706138 -0.27707393290215671 0 0.064064269807315097 -0.28416082313012542 0 0.058270312985904418 -0.30816514798469019 0 0.062049371387241412 -0.28749956346879602 0 0.033821918158706138 -0.27707393290215671 0 0.064064269807315097 -0.28416082313012542 0 0.062049371387241412 -0.28749956346879602 0 0.058270312985904418 -0.30816514798469019 0 0.043330632548044458 -0.29475484461045087 0 0.062049371387241412 -0.28749956346879602 0 0.058270312985904418 -0.30816514798469019 0 0.044648526871603783 -0.31770081170742831 0 0.043330632548044458 -0.29475484461045087 0 0.058270312985904418 -0.30816514798469019 0 0.069858226628725775 -0.26015649827556059 0 0.051624075113339378 -0.26919050519125598 0 0.046498349670861652 -0.24826912251879649 0 0.064064269807315097 -0.28416082313012542 0 0.069858226628725775 -0.26015649827556059 0 0.051624075113339378 -0.26919050519125598 0 0.062049371387241412 -0.28749956346879602 0 0.051624075113339378 -0.26919050519125598 0 0.033821918158706138 -0.27707393290215671 0 0.064064269807315097 -0.28416082313012542 0 0.062049371387241412 -0.28749956346879602 0 0.051624075113339378 -0.26919050519125598 0 0.051624075113339378 -0.26919050519125598 0 0.033821918158706138 -0.27707393290215671 0 0.034240698289148337 -0.25967273023798509 0 0.051624075113339378 -0.26919050519125598 0 0.034240698289148337 -0.25967273023798509 0 0.046498349670861652 -0.24826912251879649 0 0.034240698289148337 -0.25967273023798509 0 0.02296875629887114 -0.2464092256209898 0 0.046498349670861652 -0.24826912251879649 0 0.034240698289148337 -0.25967273023798509 0 0.0055944649301708496 -0.26664830233551728 0 0.02296875629887114 -0.2464092256209898 0 0.0090389661780101715 -0.28630695222689118 0 0.033821918158706138 -0.27707393290215671 0 0.0055944649301708496 -0.26664830233551728 0 0.033821918158706138 -0.27707393290215671 0 0.034240698289148337 -0.25967273023798509 0 0.0055944649301708496 -0.26664830233551728 0 0.033821918158706138 -0.27707393290215671 0 0.0055944649301708496 -0.26664830233551728 0 -0.0020851015340006161 -0.28052611142458661 0 0.0090389661780101715 -0.28630695222689118 0 0.0055944649301708496 -0.26664830233551728 0 0.0055944649301708496 -0.26664830233551728 0 0.0055632338660241776 -0.24332209518663511 0 0.02296875629887114 -0.2464092256209898 0 -0.0080727856436109482 -0.2481099565327444 0 0.0055944649301708496 -0.26664830233551728 0 0.0055632338660241776 -0.24332209518663511 0 0.0055632338660241776 -0.24332209518663511 0 0.0032521440618358652 -0.23009641691855939 0 0.019268989126464159 -0.2308348024940351 0 -0.0084819670471955304 -0.2367225590632196 0 0.0055632338660241776 -0.24332209518663511 0 0.0032521440618358652 -0.23009641691855939 0 -0.0075276580997289226 -0.21896018305478171 0 0.0032521440618358652 -0.23009641691855939 0 0.012041166441398349 -0.21677938876306921 0 0.0032521440618358652 -0.23009641691855939 0 0.019268989126464159 -0.2308348024940351 0 0.012041166441398349 -0.21677938876306921 0 0.019268989126464159 -0.2308348024940351 0 0.028464877365028059 -0.21915571909051779 0 0.012041166441398349 -0.21677938876306921 0 0.019268989126464159 -0.2308348024940351 0 0.028464877365028059 -0.21915571909051779 0 0.041174919052571327 -0.22964645066930789 0 0.0055632338660241776 -0.24332209518663511 0 0.019268989126464159 -0.2308348024940351 0 0.02296875629887114 -0.2464092256209898 0 0.019268989126464159 -0.2308348024940351 0 0.02296875629887114 -0.2464092256209898 0 0.041174919052571327 -0.22964645066930789 0 -0.0075276580997289226 -0.21896018305478171 0 0.003555539334036632 -0.19934620758084881 0 0.012041166441398349 -0.21677938876306921 0 0.003555539334036632 -0.19934620758084881 0 0.012041166441398349 -0.21677938876306921 0 0.02523310686075431 -0.20228300343967229 0 0.028464877365028059 -0.21915571909051779 0 0.012041166441398349 -0.21677938876306921 0 0.02523310686075431 -0.20228300343967229 0 0.02523310686075431 -0.20228300343967229 0 0.033125333554059701 -0.1865598477748947 0 0.018588522793563201 -0.18166153924030251 0 0.003555539334036632 -0.19934620758084881 0 0.02523310686075431 -0.20228300343967229 0 0.018588522793563201 -0.18166153924030251 0 0.048648578511840943 -0.20623258170594561 0 0.049880579816306267 -0.17970719815632741 0 0.033125333554059701 -0.1865598477748947 0 0.02523310686075431 -0.20228300343967229 0 0.048648578511840943 -0.20623258170594561 0 0.033125333554059701 -0.1865598477748947 0 0.028464877365028059 -0.21915571909051779 0 0.02523310686075431 -0.20228300343967229 0 0.048648578511840943 -0.20623258170594561 0 0.028464877365028059 -0.21915571909051779 0 0.048648578511840943 -0.20623258170594561 0 0.041174919052571327 -0.22964645066930789 0 0.048648578511840943 -0.20623258170594561 0 0.059757914812518881 -0.22869522271940709 0 0.066598585428591164 -0.21133354617687591 0 0.048648578511840943 -0.20623258170594561 0 0.067160325985138131 -0.18691533881804831 0 0.049880579816306267 -0.17970719815632741 0 0.048648578511840943 -0.20623258170594561 0 0.066598585428591164 -0.21133354617687591 0 0.067160325985138131 -0.18691533881804831 0 0.069858226628725775 -0.26015649827556059 0 0.046498349670861652 -0.24826912251879649 0 0.059757914812518881 -0.22869522271940709 0 0.02296875629887114 -0.2464092256209898 0 0.046498349670861652 -0.24826912251879649 0 0.041174919052571327 -0.22964645066930789 0 0.048648578511840943 -0.20623258170594561 0 0.041174919052571327 -0.22964645066930789 0 0.059757914812518881 -0.22869522271940709 0 0.046498349670861652 -0.24826912251879649 0 0.041174919052571327 -0.22964645066930789 0 0.059757914812518881 -0.22869522271940709 0 0.069858226628725775 -0.26015649827556059 0 0.059757914812518881 -0.22869522271940709 0 0.080941623453078815 -0.2334444244951252 0 0.069858226628725775 -0.26015649827556059 0 0.096521476943682558 -0.25181800011133371 0 0.080941623453078815 -0.2334444244951252 0 0.096521476943682558 -0.25181800011133371 0 0.080941623453078815 -0.2334444244951252 0 0.102389076685389 -0.22730157072293841 0 0.080941623453078815 -0.2334444244951252 0 0.084774701335263575 -0.20710845477049339 0 0.102389076685389 -0.22730157072293841 0 0.059757914812518881 -0.22869522271940709 0 0.080941623453078815 -0.2334444244951252 0 0.066598585428591164 -0.21133354617687591 0 0.080941623453078815 -0.2334444244951252 0 0.066598585428591164 -0.21133354617687591 0 0.084774701335263575 -0.20710845477049339 0 0.084774701335263575 -0.20710845477049339 0 0.067160325985138131 -0.18691533881804831 0 0.066598585428591164 -0.21133354617687591 0 0.084774701335263575 -0.20710845477049339 0 0.067160325985138131 -0.18691533881804831 0 0.092537347032927528 -0.18889969997864839 0 0.084774701335263575 -0.20710845477049339 0 0.067160325985138131 -0.18691533881804831 0 0.084774701335263575 -0.20710845477049339 0 0.102389076685389 -0.22730157072293841 0 0.084774701335263575 -0.20710845477049339 0 0.10575093398731179 -0.20517541990618701 0 0.102389076685389 -0.22730157072293841 0 0.092537347032927528 -0.18889969997864839 0 0.10575093398731179 -0.20517541990618701 0 0.11404320040195411 -0.17785048998131209 0 0.092537347032927528 -0.18889969997864839 0 0.084774701335263575 -0.20710845477049339 0 0.10575093398731179 -0.20517541990618701 0 0.10575093398731179 -0.20517541990618701 0 0.11404320040195411 -0.17785048998131209 0 0.12592289232087811 -0.19910656028939411 0 0.10575093398731179 -0.20517541990618701 0 0.1284413173888232 -0.22347585252773641 0 0.12592289232087811 -0.19910656028939411 0 0.10575093398731179 -0.20517541990618701 0 0.102389076685389 -0.22730157072293841 0 0.1284413173888232 -0.22347585252773641 0 0.1200034520355143 -0.24749468667538321 0 0.102389076685389 -0.22730157072293841 0 0.1284413173888232 -0.22347585252773641 0 0.1200034520355143 -0.24749468667538321 0 0.102389076685389 -0.22730157072293841 0 0.096521476943682558 -0.25181800011133371 0 0.1200034520355143 -0.24749468667538321 0 0.102389076685389 -0.22730157072293841 0 0.099885875260422058 -0.15149088269105351 0 0.1161887790728692 -0.1476769396888597 0 0.1105045846919957 -0.16013033574144619 0 0.099885875260422058 -0.15149088269105351 0 0.099597293261818404 -0.1347502866929414 0 0.1161887790728692 -0.1476769396888597 0 0.099597293261818404 -0.1347502866929414 0 0.1161887790728692 -0.1476769396888597 0 0.099597293261818404 -0.1347502866929414 0 0.1047785765018954 -0.13712350701568179 0 0.1161887790728692 -0.1476769396888597 0 0.099597293261818404 -0.1347502866929414 0 0.093527805260815264 -0.13002146576964491 0 0.104312872852085 -0.12243825994362539 0 0.099597293261818404 -0.1347502866929414 0 0.093527805260815264 -0.13002146576964491 0 0.099597293261818404 -0.1347502866929414 0 0.093527805260815264 -0.13002146576964491 0 0.092996203934319052 -0.1329056080468716 0 0.099597293261818404 -0.1347502866929414 0 0.1088944047617572 -0.13480079442927331 0 0.104312872852085 -0.12243825994362539 0 0.099597293261818404 -0.1347502866929414 0 0.1047785765018954 -0.13712350701568179 0 0.1088944047617572 -0.13480079442927331 0 0.099597293261818404 -0.1347502866929414 0 0.1088944047617572 -0.13480079442927331 0 0.1047785765018954 -0.13712350701568179 0 0.1088944047617572 -0.13480079442927331 0 0.1088944047617572 -0.13480079442927331 0 0.1161887790728692 -0.1476769396888597 0 0.13638976604354719 -0.13495016646355951 0 0.1088944047617572 -0.13480079442927331 0 0.12800820934211829 -0.12401417466047961 0 0.13638976604354719 -0.13495016646355951 0 0.1047785765018954 -0.13712350701568179 0 0.1088944047617572 -0.13480079442927331 0 0.1161887790728692 -0.1476769396888597 0 0.1088944047617572 -0.13480079442927331 0 0.104312872852085 -0.12243825994362539 0 0.12800820934211829 -0.12401417466047961 0 0.1088944047617572 -0.13480079442927331 0 0.12800820934211829 -0.12401417466047961 0 0.1088944047617572 -0.13480079442927331 0 0.13638976604354719 -0.13495016646355951 0 0.1161887790728692 -0.1476769396888597 0 0.1105045846919957 -0.16013033574144619 0 0.1305387904294309 -0.15561497697083931 0 0.1105045846919957 -0.16013033574144619 0 0.11404320040195411 -0.17785048998131209 0 0.1305387904294309 -0.15561497697083931 0 0.092537347032927528 -0.18889969997864839 0 0.11404320040195411 -0.17785048998131209 0 0.090957573454969964 -0.1674487964172009 0 0.1105045846919957 -0.16013033574144619 0 0.11404320040195411 -0.17785048998131209 0 0.090957573454969964 -0.1674487964172009 0 0.099885875260422058 -0.15149088269105351 0 0.1105045846919957 -0.16013033574144619 0 0.090957573454969964 -0.1674487964172009 0 0.099885875260422058 -0.15149088269105351 0 0.090957573454969964 -0.1674487964172009 0 0.080257725164813276 -0.1505404030764457 0 0.090957573454969964 -0.1674487964172009 0 0.065342325237630991 -0.1650228072456788 0 0.080257725164813276 -0.1505404030764457 0 0.092537347032927528 -0.18889969997864839 0 0.090957573454969964 -0.1674487964172009 0 0.067160325985138131 -0.18691533881804831 0 0.090957573454969964 -0.1674487964172009 0 0.067160325985138131 -0.18691533881804831 0 0.065342325237630991 -0.1650228072456788 0 0.065342325237630991 -0.1650228072456788 0 0.080257725164813276 -0.1505404030764457 0 0.056224073158944461 -0.14994265306170279 0 0.080257725164813276 -0.1505404030764457 0 0.069539210615093855 -0.1345869923500955 0 0.056224073158944461 -0.14994265306170279 0 0.099885875260422058 -0.15149088269105351 0 0.099597293261818404 -0.1347502866929414 0 0.080257725164813276 -0.1505404030764457 0 0.099597293261818404 -0.1347502866929414 0 0.080257725164813276 -0.1505404030764457 0 0.069539210615093855 -0.1345869923500955 0 0.099597293261818404 -0.1347502866929414 0 0.092996203934319052 -0.1329056080468716 0 0.069539210615093855 -0.1345869923500955 0 0.099597293261818404 -0.1347502866929414 0 0.069539210615093855 -0.1345869923500955 0 0.092996203934319052 -0.1329056080468716 0 0.069539210615093855 -0.1345869923500955 0 0.079322302472514483 -0.11895376470488229 0 0.093527805260815264 -0.13002146576964491 0 0.092996203934319052 -0.1329056080468716 0 0.079322302472514483 -0.11895376470488229 0 0.093527805260815264 -0.13002146576964491 0 0.092996203934319052 -0.1329056080468716 0 0.069539210615093855 -0.1345869923500955 0 0.052298963826290519 -0.1211548808236817 0 0.066569319149528045 -0.1206454253796948 0 0.069539210615093855 -0.1345869923500955 0 0.039481127968369292 -0.1344236980072451 0 0.052298963826290519 -0.1211548808236817 0 0.069539210615093855 -0.1345869923500955 0 0.056224073158944461 -0.14994265306170279 0 0.039481127968369292 -0.1344236980072451 0 0.069539210615093855 -0.1345869923500955 0 0.039481127968369292 -0.1344236980072451 0 0.056224073158944461 -0.14994265306170279 0 0.038811693183881758 -0.15444647348478721 0 0.047368807546727579 -0.16279517251764489 0 0.056224073158944461 -0.14994265306170279 0 0.038811693183881758 -0.15444647348478721 0 0.039481127968369292 -0.1344236980072451 0 0.038811693183881758 -0.15444647348478721 0 0.039481127968369292 -0.1344236980072451 0 0.019056913867763529 -0.155566515408149 0 0.034777770017858589 -0.1343981464191871 0 0.039481127968369292 -0.1344236980072451 0 0.022320289212787989 -0.1422177528203018 0 0.034777770017858589 -0.1343981464191871 0 0.039481127968369292 -0.1344236980072451 0 0.034777770017858589 -0.1343981464191871 0 0.029299678594365521 -0.12697140115214181 0 0.037800108132664212 -0.12348471533883321 0 0.034777770017858589 -0.1343981464191871 0 0.039481127968369292 -0.1344236980072451 0 0.037800108132664212 -0.12348471533883321 0 0.039481127968369292 -0.1344236980072451 0 0.052298963826290519 -0.1211548808236817 0 0.039481127968369292 -0.1344236980072451 0 0.052298963826290519 -0.1211548808236817 0 0.037800108132664212 -0.12348471533883321 0 0.067160325985138131 -0.18691533881804831 0 0.065342325237630991 -0.1650228072456788 0 0.049880579816306267 -0.17970719815632741 0 0.065342325237630991 -0.1650228072456788 0 0.049880579816306267 -0.17970719815632741 0 0.047368807546727579 -0.16279517251764489 0 0.065342325237630991 -0.1650228072456788 0 0.056224073158944461 -0.14994265306170279 0 0.047368807546727579 -0.16279517251764489 0 0.049880579816306267 -0.17970719815632741 0 0.047368807546727579 -0.16279517251764489 0 0.031927543377605602 -0.16950432842919569 0 0.038811693183881758 -0.15444647348478721 0 0.047368807546727579 -0.16279517251764489 0 0.031927543377605602 -0.16950432842919569 0 0.049880579816306267 -0.17970719815632741 0 0.031927543377605602 -0.16950432842919569 0 0.033125333554059701 -0.1865598477748947 0 0.031927543377605602 -0.16950432842919569 0 0.033125333554059701 -0.1865598477748947 0 0.018588522793563201 -0.18166153924030251 0 0.031927543377605602 -0.16950432842919569 0 0.018588522793563201 -0.18166153924030251 0 0.019056913867763529 -0.155566515408149 0 0.038811693183881758 -0.15444647348478721 0 0.031927543377605602 -0.16950432842919569 0 0.019056913867763529 -0.155566515408149 0 -0.0013673002328405961 -0.1767093328090546 0 0.018588522793563201 -0.18166153924030251 0 0.019056913867763529 -0.155566515408149 0 -0.0013673002328405961 -0.1767093328090546 0 0.019056913867763529 -0.155566515408149 0 -0.0013673002328405961 -0.1767093328090546 0 0.019056913867763529 -0.155566515408149 0 0.0027310736070901482 -0.15493719994590471 0 -0.0013673002328405961 -0.1767093328090546 0 0.003555539334036632 -0.19934620758084881 0 0.018588522793563201 -0.18166153924030251 0 0.020222670022858619 -0.12863691797839069 0 0.022320289212787989 -0.1422177528203018 0 0.0088678229424013627 -0.13941235935176011 0 0.020222670022858619 -0.12863691797839069 0 0.02665510196196769 -0.1330560545925053 0 0.022320289212787989 -0.1422177528203018 0 0.034777770017858589 -0.1343981464191871 0 0.029299678594365521 -0.12697140115214181 0 0.02665510196196769 -0.1330560545925053 0 0.020222670022858619 -0.12863691797839069 0 0.029299678594365521 -0.12697140115214181 0 0.02665510196196769 -0.1330560545925053 0 0.034777770017858589 -0.1343981464191871 0 0.02665510196196769 -0.1330560545925053 0 0.022320289212787989 -0.1422177528203018 0 0.039481127968369292 -0.1344236980072451 0 0.019056913867763529 -0.155566515408149 0 0.019056913867763529 -0.155566515408149 0 0.022320289212787989 -0.1422177528203018 0 0.0088678229424013627 -0.13941235935176011 0 0.039481127968369292 -0.1344236980072451 0 0.019056913867763529 -0.155566515408149 0 0.022320289212787989 -0.1422177528203018 0 0.019056913867763529 -0.155566515408149 0 0.0027310736070901482 -0.15493719994590471 0 0.0088678229424013627 -0.13941235935176011 0 0.020222670022858619 -0.12863691797839069 0 0.0088678229424013627 -0.13941235935176011 0 0.0015243557028834459 -0.11711868301268021 0 0.020222670022858619 -0.12863691797839069 0 0.0015243557028834459 -0.11711868301268021 0 0.0144479962461943 -0.1082343501681014 0 0.020222670022858619 -0.12863691797839069 0 0.02728947708542654 -0.1146689930447462 0 0.0144479962461943 -0.1082343501681014 0 0.020222670022858619 -0.12863691797839069 0 0.029299678594365521 -0.12697140115214181 0 0.02728947708542654 -0.1146689930447462 0 0.0144479962461943 -0.1082343501681014 0 0.01674231050701382 -0.093658367309864349 0 0.03170108987002046 -0.10050694789866579 0 0.02728947708542654 -0.1146689930447462 0 0.0144479962461943 -0.1082343501681014 0 0.03170108987002046 -0.10050694789866579 0 0.01674231050701382 -0.093658367309864349 0 0.02745527456064175 -0.089089442263575569 0 0.03170108987002046 -0.10050694789866579 0 0.0144479962461943 -0.1082343501681014 0 0.001856719827670471 -0.098182337095309047 0 0.01674231050701382 -0.093658367309864349 0 0.0015243557028834459 -0.11711868301268021 0 0.0144479962461943 -0.1082343501681014 0 0.001856719827670471 -0.098182337095309047 0 0.001856719827670471 -0.098182337095309047 0 0.0065051428120863272 -0.082127796022149757 0 0.01674231050701382 -0.093658367309864349 0 0.0065051428120863272 -0.082127796022149757 0 0.018539693253586439 -0.071597204448153262 0 0.01731060528333208 -0.084118202510935727 0 0.0065051428120863272 -0.082127796022149757 0 0.01674231050701382 -0.093658367309864349 0 0.01731060528333208 -0.084118202510935727 0 0.0065051428120863272 -0.082127796022149757 0 0.018539693253586439 -0.071597204448153262 0 0.00035237720396625368 -0.061086817302918282 0 0.018539693253586439 -0.071597204448153262 0 0.00035237720396625368 -0.061086817302918282 0 0.029337839486141829 -0.062098975348790997 0 0.018539693253586439 -0.071597204448153262 0 0.036998616429076953 -0.080413518666692163 0 0.029337839486141829 -0.062098975348790997 0 0.018539693253586439 -0.071597204448153262 0 0.039278739387756327 -0.087755278287702396 0 0.018539693253586439 -0.071597204448153262 0 0.02745527456064175 -0.089089442263575569 0 0.039278739387756327 -0.087755278287702396 0 0.018539693253586439 -0.071597204448153262 0 0.01731060528333208 -0.084118202510935727 0 0.02745527456064175 -0.089089442263575569 0 0.01674231050701382 -0.093658367309864349 0 0.01731060528333208 -0.084118202510935727 0 0.02745527456064175 -0.089089442263575569 0 0.018539693253586439 -0.071597204448153262 0 0.036998616429076953 -0.080413518666692163 0 0.039278739387756327 -0.087755278287702396 0 0.02745527456064175 -0.089089442263575569 0 0.039278739387756327 -0.087755278287702396 0 0.036114206476440321 -0.094502097047588079 0 0.036998616429076953 -0.080413518666692163 0 0.039278739387756327 -0.087755278287702396 0 0.050747139898636717 -0.081209848062237813 0 0.058323301768317432 -0.063111133394663815 0 0.029337839486141829 -0.062098975348790997 0 0.036998616429076953 -0.080413518666692163 0 0.058323301768317432 -0.063111133394663815 0 0.029337839486141829 -0.062098975348790997 0 0.036998616429076953 -0.080413518666692163 0 0.058323301768317432 -0.063111133394663815 0 0.058323301768317432 -0.063111133394663815 0 0.050747139898636717 -0.081209848062237813 0 0.060228637404373828 -0.081759239016750626 0 0.036998616429076953 -0.080413518666692163 0 0.058323301768317432 -0.063111133394663815 0 0.050747139898636717 -0.081209848062237813 0 0.039278739387756327 -0.087755278287702396 0 0.050747139898636717 -0.081209848062237813 0 0.060818353003097771 -0.090653503469919336 0 0.050747139898636717 -0.081209848062237813 0 0.060228637404373828 -0.081759239016750626 0 0.060818353003097771 -0.090653503469919336 0 0.060017785521926562 -0.10391335212725129 0 0.042153090511964017 -0.099193769589441219 0 0.043653631303676513 -0.1092911725859987 0 0.060017785521926562 -0.10391335212725129 0 0.043653631303676513 -0.1092911725859987 0 0.039278739387756327 -0.087755278287702396 0 0.060818353003097771 -0.090653503469919336 0 0.060017785521926562 -0.10391335212725129 0 0.060017785521926562 -0.10391335212725129 0 0.053375718786791107 -0.1112883554404277 0 0.043653631303676513 -0.1092911725859987 0 0.039278739387756327 -0.087755278287702396 0 0.060017785521926562 -0.10391335212725129 0 0.039278739387756327 -0.087755278287702396 0 0.060017785521926562 -0.10391335212725129 0 0.042153090511964017 -0.099193769589441219 0 0.060017785521926562 -0.10391335212725129 0 0.053375718786791107 -0.1112883554404277 0 0.065116799684213397 -0.10788606364011991 0 0.052298963826290519 -0.1211548808236817 0 0.066569319149528045 -0.1206454253796948 0 0.065116799684213397 -0.10788606364011991 0 0.052298963826290519 -0.1211548808236817 0 0.065116799684213397 -0.10788606364011991 0 0.052298963826290519 -0.1211548808236817 0 0.053375718786791107 -0.1112883554404277 0 0.065116799684213397 -0.10788606364011991 0 0.052298963826290519 -0.1211548808236817 0 0.053375718786791107 -0.1112883554404277 0 0.043653631303676513 -0.1092911725859987 0 0.02728947708542654 -0.1146689930447462 0 0.037800108132664212 -0.12348471533883321 0 0.043653631303676513 -0.1092911725859987 0 0.02728947708542654 -0.1146689930447462 0 0.043653631303676513 -0.1092911725859987 0 0.052298963826290519 -0.1211548808236817 0 0.037800108132664212 -0.12348471533883321 0 0.043653631303676513 -0.1092911725859987 0 0.029299678594365521 -0.12697140115214181 0 0.02728947708542654 -0.1146689930447462 0 0.037800108132664212 -0.12348471533883321 0 0.02728947708542654 -0.1146689930447462 0 0.03170108987002046 -0.10050694789866579 0 0.043653631303676513 -0.1092911725859987 0 0.036114206476440321 -0.094502097047588079 0 0.03170108987002046 -0.10050694789866579 0 0.042153090511964017 -0.099193769589441219 0 0.02745527456064175 -0.089089442263575569 0 0.036114206476440321 -0.094502097047588079 0 0.03170108987002046 -0.10050694789866579 0 0.039278739387756327 -0.087755278287702396 0 0.036114206476440321 -0.094502097047588079 0 0.042153090511964017 -0.099193769589441219 0 0.03170108987002046 -0.10050694789866579 0 0.042153090511964017 -0.099193769589441219 0 0.043653631303676513 -0.1092911725859987 0 0.025695344612614111 0.0095801541182225364 0 0.02812452509478746 -0.0099579005571815878 0 0.006935528729737548 -0.0054826371559186567 0 0.02812452509478746 -0.0099579005571815878 0 0.006935528729737548 -0.0054826371559186567 0 0.01889941714368459 -0.025130787452367569 0 0.006935528729737548 -0.0054826371559186567 0 0.0027408304473846411 -0.028176541972939319 0 0.01889941714368459 -0.025130787452367569 0 0.02812452509478746 -0.0099579005571815878 0 0.01889941714368459 -0.025130787452367569 0 0.035567370731091272 -0.02454493013615917 0 0.01889941714368459 -0.025130787452367569 0 0.02846567832778216 -0.042756626880165419 0 0.035567370731091272 -0.02454493013615917 0 0.01889941714368459 -0.025130787452367569 0 0.02846567832778216 -0.042756626880165419 0 0.0096258971738255473 -0.043108802377643002 0 0.02846567832778216 -0.042756626880165419 0 0.0096258971738255473 -0.043108802377643002 0 0.016945448047928951 -0.052262805477379423 0 0.01889941714368459 -0.025130787452367569 0 0.0096258971738255473 -0.043108802377643002 0 -0.01026660782967455 -0.041229232136501717 0 0.0027408304473846411 -0.028176541972939319 0 0.0096258971738255473 -0.043108802377643002 0 0.0027408304473846411 -0.028176541972939319 0 0.01889941714368459 -0.025130787452367569 0 0.0096258971738255473 -0.043108802377643002 0 0.0096258971738255473 -0.043108802377643002 0 0.00035237720396625368 -0.061086817302918282 0 0.016945448047928951 -0.052262805477379423 0 0.00035237720396625368 -0.061086817302918282 0 0.016945448047928951 -0.052262805477379423 0 0.029337839486141829 -0.062098975348790997 0 0.0096258971738255473 -0.043108802377643002 0 0.00035237720396625368 -0.061086817302918282 0 0.00035237720396625368 -0.061086817302918282 0 0.029337839486141829 -0.062098975348790997 0 0.02846567832778216 -0.042756626880165419 0 0.016945448047928951 -0.052262805477379423 0 0.029337839486141829 -0.062098975348790997 0 0.02846567832778216 -0.042756626880165419 0 0.029337839486141829 -0.062098975348790997 0 0.044041605111135473 -0.049431168693685697 0 0.058323301768317432 -0.063111133394663815 0 0.029337839486141829 -0.062098975348790997 0 0.044041605111135473 -0.049431168693685697 0 0.058323301768317432 -0.063111133394663815 0 0.044041605111135473 -0.049431168693685697 0 0.059903341899081253 -0.040049795258846832 0 0.059903341899081253 -0.040049795258846832 0 0.045154502468205723 -0.035444412579530127 0 0.052999286202529479 -0.022291816621987929 0 0.044041605111135473 -0.049431168693685697 0 0.059903341899081253 -0.040049795258846832 0 0.045154502468205723 -0.035444412579530127 0 0.02846567832778216 -0.042756626880165419 0 0.044041605111135473 -0.049431168693685697 0 0.045154502468205723 -0.035444412579530127 0 0.02846567832778216 -0.042756626880165419 0 0.045154502468205723 -0.035444412579530127 0 0.035567370731091272 -0.02454493013615917 0 0.045154502468205723 -0.035444412579530127 0 0.035567370731091272 -0.02454493013615917 0 0.052999286202529479 -0.022291816621987929 0 0.035567370731091272 -0.02454493013615917 0 0.052999286202529479 -0.022291816621987929 0 0.04138045704507981 -0.013293391242584921 0 0.02812452509478746 -0.0099579005571815878 0 0.035567370731091272 -0.02454493013615917 0 0.04138045704507981 -0.013293391242584921 0 0.059903341899081253 -0.040049795258846832 0 0.052999286202529479 -0.022291816621987929 0 0.073093181043766914 -0.026775388104941698 0 0.052999286202529479 -0.022291816621987929 0 0.049896637954744763 -0.0073960790217490677 0 0.04138045704507981 -0.013293391242584921 0 0.052999286202529479 -0.022291816621987929 0 0.049896637954744763 -0.0073960790217490677 0 0.066530330394949447 -0.012320269852860621 0 0.049896637954744763 -0.0073960790217490677 0 0.040314465242246092 -0.002276229875846851 0 0.04138045704507981 -0.013293391242584921 0 0.025695344612614111 0.0095801541182225364 0 0.02812452509478746 -0.0099579005571815878 0 0.040314465242246092 -0.002276229875846851 0 0.046640351189982193 0.001482106492276504 0 0.049896637954744763 -0.0073960790217490677 0 0.040314465242246092 -0.002276229875846851 0 0.02812452509478746 -0.0099579005571815878 0 0.040314465242246092 -0.002276229875846851 0 0.04138045704507981 -0.013293391242584921 0 0.075461568133428525 0.0044331687040122013 0 0.081703970602104437 -0.011974759962048749 0 0.098011391193308373 -0.0056982583262641584 0 0.075461568133428525 0.0044331687040122013 0 0.049896637954744763 -0.0073960790217490677 0 0.075461568133428525 0.0044331687040122013 0 0.049896637954744763 -0.0073960790217490677 0 0.066530330394949447 -0.012320269852860621 0 0.075461568133428525 0.0044331687040122013 0 0.081703970602104437 -0.011974759962048749 0 0.066530330394949447 -0.012320269852860621 0 0.081703970602104437 -0.011974759962048749 0 0.066530330394949447 -0.012320269852860621 0 0.073093181043766914 -0.026775388104941698 0 0.052999286202529479 -0.022291816621987929 0 0.066530330394949447 -0.012320269852860621 0 0.073093181043766914 -0.026775388104941698 0 0.081703970602104437 -0.011974759962048749 0 0.097837743661838034 -0.031049975793767819 0 0.098011391193308373 -0.0056982583262641584 0 0.081703970602104437 -0.011974759962048749 0 0.073093181043766914 -0.026775388104941698 0 0.097837743661838034 -0.031049975793767819 0 0.078080522715077566 -0.047080554594215653 0 0.097861902682226248 -0.045151270938537998 0 0.097837743661838034 -0.031049975793767819 0 0.073093181043766914 -0.026775388104941698 0 0.078080522715077566 -0.047080554594215653 0 0.097837743661838034 -0.031049975793767819 0 0.078080522715077566 -0.047080554594215653 0 0.097837743661838034 -0.031049975793767819 0 0.059903341899081253 -0.040049795258846832 0 0.073093181043766914 -0.026775388104941698 0 0.078080522715077566 -0.047080554594215653 0 0.058323301768317432 -0.063111133394663815 0 0.078080522715077566 -0.047080554594215653 0 0.058323301768317432 -0.063111133394663815 0 0.059903341899081253 -0.040049795258846832 0 0.078080522715077566 -0.047080554594215653 0 0.058323301768317432 -0.063111133394663815 0 0.078080522715077566 -0.047080554594215653 0 0.081939961595450139 -0.063935815506958552 0 0.078080522715077566 -0.047080554594215653 0 0.094142039140793971 -0.055881476276546937 0 0.081939961595450139 -0.063935815506958552 0 0.078080522715077566 -0.047080554594215653 0 0.094142039140793971 -0.055881476276546937 0 0.097861902682226248 -0.045151270938537998 0 0.094142039140793971 -0.055881476276546937 0 0.081939961595450139 -0.063935815506958552 0 0.1067368008806147 -0.064801708903802782 0 0.094142039140793971 -0.055881476276546937 0 0.1075629424949773 -0.053875431803618333 0 0.097861902682226248 -0.045151270938537998 0 0.094142039140793971 -0.055881476276546937 0 0.1075629424949773 -0.053875431803618333 0 0.1067368008806147 -0.064801708903802782 0 0.1075629424949773 -0.053875431803618333 0 0.1067368008806147 -0.064801708903802782 0 0.1075629424949773 -0.053875431803618333 0 0.1232921759667842 -0.047663851323270827 0 0.1067368008806147 -0.064801708903802782 0 0.1232921759667842 -0.047663851323270827 0 0.1067368008806147 -0.064801708903802782 0 0.1075629424949773 -0.053875431803618333 0 0.1232921759667842 -0.047663851323270827 0 0.1109518143893137 -0.039435966374661548 0 0.1232921759667842 -0.047663851323270827 0 0.1067368008806147 -0.064801708903802782 0 0.13548767730717889 -0.06580567532731052 0 0.1232921759667842 -0.047663851323270827 0 0.1109518143893137 -0.039435966374661548 0 0.124582941869709 -0.030507807285028901 0 0.1109518143893137 -0.039435966374661548 0 0.097861902682226248 -0.045151270938537998 0 0.097837743661838034 -0.031049975793767819 0 0.1075629424949773 -0.053875431803618333 0 0.1109518143893137 -0.039435966374661548 0 0.097861902682226248 -0.045151270938537998 0 0.097837743661838034 -0.031049975793767819 0 0.1175949646085984 -0.015019396993320021 0 0.097837743661838034 -0.031049975793767819 0 0.1175949646085984 -0.015019396993320021 0 0.098011391193308373 -0.0056982583262641584 0 0.1109518143893137 -0.039435966374661548 0 0.097837743661838034 -0.031049975793767819 0 0.1175949646085984 -0.015019396993320021 0 0.1109518143893137 -0.039435966374661548 0 0.124582941869709 -0.030507807285028901 0 0.1175949646085984 -0.015019396993320021 0 0.124582941869709 -0.030507807285028901 0 0.1175949646085984 -0.015019396993320021 0 0.13165260102391191 -0.019660205177744808 0 0.11882011836095251 0.0065886106746579649 0 0.1175949646085984 -0.015019396993320021 0 0.098011391193308373 -0.0056982583262641584 0 0.11882011836095251 0.0065886106746579649 0 0.13735218555535891 0.001011181807127467 0 0.1175949646085984 -0.015019396993320021 0 0.073111172643960082 -0.099610417542301155 0 0.10058413041743761 -0.090581864498492995 0 0.088608598291174498 -0.101420796185217 0 0.073111172643960082 -0.099610417542301155 0 0.10058413041743761 -0.090581864498492995 0 0.083297568291202648 -0.10670285905343881 0 0.088608598291174498 -0.101420796185217 0 0.073111172643960082 -0.099610417542301155 0 0.083297568291202648 -0.10670285905343881 0 0.088608598291174498 -0.101420796185217 0 0.097441521812097198 -0.10878804364663471 0 0.093527805260815264 -0.13002146576964491 0 0.079322302472514483 -0.11895376470488229 0 0.097441521812097198 -0.10878804364663471 0 0.083297568291202648 -0.10670285905343881 0 0.079322302472514483 -0.11895376470488229 0 0.097441521812097198 -0.10878804364663471 0 0.093527805260815264 -0.13002146576964491 0 0.079322302472514483 -0.11895376470488229 0 0.079322302472514483 -0.11895376470488229 0 0.065116799684213397 -0.10788606364011991 0 0.083297568291202648 -0.10670285905343881 0 0.079322302472514483 -0.11895376470488229 0 0.065116799684213397 -0.10788606364011991 0 0.079322302472514483 -0.11895376470488229 0 0.066569319149528045 -0.1206454253796948 0 0.065116799684213397 -0.10788606364011991 0 0.069539210615093855 -0.1345869923500955 0 0.079322302472514483 -0.11895376470488229 0 0.066569319149528045 -0.1206454253796948 0 0.060017785521926562 -0.10391335212725129 0 0.065116799684213397 -0.10788606364011991 0 0.060017785521926562 -0.10391335212725129 0 0.073111172643960082 -0.099610417542301155 0 0.065116799684213397 -0.10788606364011991 0 0.073111172643960082 -0.099610417542301155 0 0.083297568291202648 -0.10670285905343881 0 0.065116799684213397 -0.10788606364011991 0 0.073111172643960082 -0.099610417542301155 0 0.060017785521926562 -0.10391335212725129 0 0.065116799684213397 -0.10788606364011991 0 0.073111172643960082 -0.099610417542301155 0 0.060818353003097771 -0.090653503469919336 0 0.060017785521926562 -0.10391335212725129 0 0.073111172643960082 -0.099610417542301155 0 0.060818353003097771 -0.090653503469919336 0 0.073111172643960082 -0.099610417542301155 0 0.074211161232423301 -0.082716200610011378 0 0.060228637404373828 -0.081759239016750626 0 0.060818353003097771 -0.090653503469919336 0 0.074211161232423301 -0.082716200610011378 0 0.058323301768317432 -0.063111133394663815 0 0.081939961595450139 -0.063935815506958552 0 0.058323301768317432 -0.063111133394663815 0 0.074211161232423301 -0.082716200610011378 0 0.081939961595450139 -0.063935815506958552 0 0.058323301768317432 -0.063111133394663815 0 0.060228637404373828 -0.081759239016750626 0 0.074211161232423301 -0.082716200610011378 0 0.074211161232423301 -0.082716200610011378 0 0.081939961595450139 -0.063935815506958552 0 0.089190063779311518 -0.082965808471458069 0 0.081939961595450139 -0.063935815506958552 0 0.089190063779311518 -0.082965808471458069 0 0.1052689549146623 -0.0663211994006144 0 0.073111172643960082 -0.099610417542301155 0 0.074211161232423301 -0.082716200610011378 0 0.089190063779311518 -0.082965808471458069 0 0.073111172643960082 -0.099610417542301155 0 0.089190063779311518 -0.082965808471458069 0 0.073111172643960082 -0.099610417542301155 0 0.089190063779311518 -0.082965808471458069 0 0.10058413041743761 -0.090581864498492995 0 0.089190063779311518 -0.082965808471458069 0 0.1017080788123951 -0.087804556385465471 0 0.1052689549146623 -0.0663211994006144 0 0.089190063779311518 -0.082965808471458069 0 0.10058413041743761 -0.090581864498492995 0 0.1017080788123951 -0.087804556385465471 0 0.1017080788123951 -0.087804556385465471 0 0.1084674426683357 -0.077888137089068013 0 0.1052689549146623 -0.0663211994006144 0 0.089190063779311518 -0.082965808471458069 0 0.1052689549146623 -0.0663211994006144 0 0.081939961595450139 -0.063935815506958552 0 0.1067368008806147 -0.064801708903802782 0 0.1052689549146623 -0.0663211994006144 0 0.081939961595450139 -0.063935815506958552 0 0.1067368008806147 -0.064801708903802782 0 0.1017080788123951 -0.087804556385465471 0 0.1052689549146623 -0.0663211994006144 0 0.1084674426683357 -0.077888137089068013 0 0.1067368008806147 -0.064801708903802782 0 0.1052689549146623 -0.0663211994006144 0 0.1067368008806147 -0.064801708903802782 0 0.1052689549146623 -0.0663211994006144 0 0.1067368008806147 -0.064801708903802782 0 0.13548767730717889 -0.06580567532731052 0 0.1084674426683357 -0.077888137089068013 0 0.1067368008806147 -0.064801708903802782 0 0.1232061248222129 -0.075206297362028066 0 0.1067368008806147 -0.064801708903802782 0 0.1232061248222129 -0.075206297362028066 0 0.13548767730717889 -0.06580567532731052 0 0.1017080788123951 -0.087804556385465471 0 0.1084674426683357 -0.077888137089068013 0 0.1272797878356694 -0.088593758706814907 0 0.1017080788123951 -0.087804556385465471 0 0.1272797878356694 -0.088593758706814907 0 0.1084674426683357 -0.077888137089068013 0 0.1232061248222129 -0.075206297362028066 0 0.1272797878356694 -0.088593758706814907 0 0.1017080788123951 -0.087804556385465471 0 0.11567178204704499 -0.10568275569041199 0 0.1272797878356694 -0.088593758706814907 0 0.1017080788123951 -0.087804556385465471 0 0.11567178204704499 -0.10568275569041199 0 0.097441521812097198 -0.10878804364663471 0 0.1017080788123951 -0.087804556385465471 0 0.097441521812097198 -0.10878804364663471 0 0.088608598291174498 -0.101420796185217 0 0.10058413041743761 -0.090581864498492995 0 0.097441521812097198 -0.10878804364663471 0 0.10058413041743761 -0.090581864498492995 0 0.1017080788123951 -0.087804556385465471 0 0.097441521812097198 -0.10878804364663471 0 0.093527805260815264 -0.13002146576964491 0 0.097441521812097198 -0.10878804364663471 0 0.104312872852085 -0.12243825994362539 0 0.093527805260815264 -0.13002146576964491 0 0.097441521812097198 -0.10878804364663471 0 0.11567178204704499 -0.10568275569041199 0 0.097441521812097198 -0.10878804364663471 0 0.104312872852085 -0.12243825994362539 0 0.11567178204704499 -0.10568275569041199 0 0.104312872852085 -0.12243825994362539 0 0.12800820934211829 -0.12401417466047961 0 0.12800820934211829 -0.12401417466047961 0 0.14712201392247631 -0.1132275548916801 0 0.13655559816636781 -0.1031347463460832 0 0.12800820934211829 -0.12401417466047961 0 0.14712201392247631 -0.1132275548916801 0 0.11567178204704499 -0.10568275569041199 0 0.12800820934211829 -0.12401417466047961 0 0.13655559816636781 -0.1031347463460832 0 0.12800820934211829 -0.12401417466047961 0 0.14712201392247631 -0.1132275548916801 0 0.1486045981545247 -0.12747252536747111 0 0.14712201392247631 -0.1132275548916801 0 0.16095359288685571 -0.1184472051676727 0 0.1486045981545247 -0.12747252536747111 0 0.15146120268426411 -0.099532086410862586 0 0.13655559816636781 -0.1031347463460832 0 0.1528514968589437 -0.089382961028164357 0 0.14712201392247631 -0.1132275548916801 0 0.15146120268426411 -0.099532086410862586 0 0.16623581850283431 -0.10244093512288061 0 0.14712201392247631 -0.1132275548916801 0 0.15146120268426411 -0.099532086410862586 0 0.13655559816636781 -0.1031347463460832 0 0.11567178204704499 -0.10568275569041199 0 0.13655559816636781 -0.1031347463460832 0 0.1272797878356694 -0.088593758706814907 0 0.1272797878356694 -0.088593758706814907 0 0.13805891541926751 -0.078942206783145619 0 0.1528514968589437 -0.089382961028164357 0 0.1272797878356694 -0.088593758706814907 0 0.1528514968589437 -0.089382961028164357 0 0.13655559816636781 -0.1031347463460832 0 0.1272797878356694 -0.088593758706814907 0 0.1528514968589437 -0.089382961028164357 0 0.1232061248222129 -0.075206297362028066 0 0.1272797878356694 -0.088593758706814907 0 0.13805891541926751 -0.078942206783145619 0 0.1232061248222129 -0.075206297362028066 0 0.13805891541926751 -0.078942206783145619 0 0.13548767730717889 -0.06580567532731052 0 0.13548767730717889 -0.06580567532731052 0 0.16423855373374319 -0.066809641750814969 0 0.13548767730717889 -0.06580567532731052 0 0.1516507619880918 -0.076739651506421189 0 0.16423855373374319 -0.066809641750814969 0 0.13548767730717889 -0.06580567532731052 0 0.16423855373374319 -0.066809641750814969 0 0.16004124225532049 -0.061841453839887157 0 0.13805891541926751 -0.078942206783145619 0 0.13548767730717889 -0.06580567532731052 0 0.1516507619880918 -0.076739651506421189 0 0.13805891541926751 -0.078942206783145619 0 0.1516507619880918 -0.076739651506421189 0 0.1528514968589437 -0.089382961028164357 0 0.15146120268426411 -0.099532086410862586 0 0.1528514968589437 -0.089382961028164357 0 0.15581646250916109 -0.090151240212135456 0 0.1528514968589437 -0.089382961028164357 0 0.15581646250916109 -0.090151240212135456 0 0.17842320588221819 -0.090172163349513806 0 0.1528514968589437 -0.089382961028164357 0 0.17842320588221819 -0.090172163349513806 0 0.15581646250916109 -0.090151240212135456 0 0.16859491992305889 -0.093070393687126218 0 0.17842320588221819 -0.090172163349513806 0 0.1528514968589437 -0.089382961028164357 0 0.1653897445003264 -0.079862578323319361 0 0.17842320588221819 -0.090172163349513806 0 0.1516507619880918 -0.076739651506421189 0 0.1528514968589437 -0.089382961028164357 0 0.1653897445003264 -0.079862578323319361 0 0.1516507619880918 -0.076739651506421189 0 0.1653897445003264 -0.079862578323319361 0 0.16423855373374319 -0.066809641750814969 0 0.1653897445003264 -0.079862578323319361 0 0.16423855373374319 -0.066809641750814969 0 0.17833356117891219 -0.077628002067558224 0 0.16423855373374319 -0.066809641750814969 0 0.1727598808088672 -0.056322389892066158 0 0.1929894301603077 -0.067813608174319001 0 0.16423855373374319 -0.066809641750814969 0 0.1929894301603077 -0.067813608174319001 0 0.16423855373374319 -0.066809641750814969 0 0.17833356117891219 -0.077628002067558224 0 0.1929894301603077 -0.067813608174319001 0 0.17833356117891219 -0.077628002067558224 0 0.19040307974074269 -0.080139672987034255 0 0.1929894301603077 -0.067813608174319001 0 0.16859491992305889 -0.093070393687126218 0 0.17842320588221819 -0.090172163349513806 0 0.17335524666804841 -0.094081054567607611 0 0.17842320588221819 -0.090172163349513806 0 0.17824607109877541 -0.095663109832525739 0 0.17335524666804841 -0.094081054567607611 0 0.1653897445003264 -0.079862578323319361 0 0.17833356117891219 -0.077628002067558224 0 0.17842320588221819 -0.090172163349513806 0 0.17833356117891219 -0.077628002067558224 0 0.1854866420256687 -0.084161575248007242 0 0.19040307974074269 -0.080139672987034255 0 0.17833356117891219 -0.077628002067558224 0 0.17842320588221819 -0.090172163349513806 0 0.1854866420256687 -0.084161575248007242 0 0.18404025852736719 -0.096743595743047278 0 0.18504385230606449 -0.10434071571553651 0 0.19243594079672521 -0.096163448387799222 0 0.17824607109877541 -0.095663109832525739 0 0.18504385230606449 -0.10434071571553651 0 0.16623581850283431 -0.10244093512288061 0 0.18504385230606449 -0.10434071571553651 0 0.18014950107347269 -0.1188522098678762 0 0.16623581850283431 -0.10244093512288061 0 0.18404025852736719 -0.096743595743047278 0 0.17824607109877541 -0.095663109832525739 0 0.18504385230606449 -0.10434071571553651 0 0.17842320588221819 -0.090172163349513806 0 0.18404025852736719 -0.096743595743047278 0 0.19243594079672521 -0.096163448387799222 0 0.17842320588221819 -0.090172163349513806 0 0.18404025852736719 -0.096743595743047278 0 0.17824607109877541 -0.095663109832525739 0 0.17824607109877541 -0.095663109832525739 0 0.17335524666804841 -0.094081054567607611 0 0.16623581850283431 -0.10244093512288061 0 0.17824607109877541 -0.095663109832525739 0 0.16623581850283431 -0.10244093512288061 0 0.18504385230606449 -0.10434071571553651 0 0.18014950107347269 -0.1188522098678762 0 0.1922879604253335 -0.1099500278873989 0 0.18014950107347269 -0.1188522098678762 0 0.16623581850283431 -0.10244093512288061 0 0.18014950107347269 -0.1188522098678762 0 0.16095359288685571 -0.1184472051676727 0 0.16623581850283431 -0.10244093512288061 0 0.14712201392247631 -0.1132275548916801 0 0.16095359288685571 -0.1184472051676727 0 0.16623581850283431 -0.10244093512288061 0 0.18014950107347269 -0.1188522098678762 0 0.16095359288685571 -0.1184472051676727 0 0.16265603278097029 -0.1302428005884553 0 0.14712201392247631 -0.1132275548916801 0 0.16623581850283431 -0.10244093512288061 0 0.15581646250916109 -0.090151240212135456 0 0.16859491992305889 -0.093070393687126218 0 0.16623581850283431 -0.10244093512288061 0 0.15146120268426411 -0.099532086410862586 0 0.15581646250916109 -0.090151240212135456 0 0.16623581850283431 -0.10244093512288061 0 0.15581646250916109 -0.090151240212135456 0 0.16623581850283431 -0.10244093512288061 0 0.16859491992305889 -0.093070393687126218 0 0.17335524666804841 -0.094081054567607611 0 0.16623581850283431 -0.10244093512288061 0 0.13735218555535891 0.001011181807127467 0 0.1449152044553462 -0.019939696741877431 0 0.14216046477152491 0.0049125148476896544 0 0.15727218843160701 -0.01758578836774349 0 0.15849764294065671 -0.0060544572746906826 0 0.14216046477152491 0.0049125148476896544 0 0.15727218843160701 -0.01758578836774349 0 0.14216046477152491 0.0049125148476896544 0 0.1449152044553462 -0.019939696741877431 0 0.15727218843160701 -0.01758578836774349 0 0.14216046477152491 0.0049125148476896544 0 0.13735218555535891 0.001011181807127467 0 0.1449152044553462 -0.019939696741877431 0 0.13735218555535891 0.001011181807127467 0 0.1175949646085984 -0.015019396993320021 0 0.13735218555535891 0.001011181807127467 0 0.1175949646085984 -0.015019396993320021 0 0.13165260102391191 -0.019660205177744808 0 0.13735218555535891 0.001011181807127467 0 0.13165260102391191 -0.019660205177744808 0 0.1449152044553462 -0.019939696741877431 0 0.13165260102391191 -0.019660205177744808 0 0.13984755105295521 -0.030525993742740402 0 0.1449152044553462 -0.019939696741877431 0 0.124582941869709 -0.030507807285028901 0 0.13165260102391191 -0.019660205177744808 0 0.13984755105295521 -0.030525993742740402 0 0.1449152044553462 -0.019939696741877431 0 0.15247822335533329 -0.040890575290882317 0 0.15727218843160701 -0.01758578836774349 0 0.13984755105295521 -0.030525993742740402 0 0.1449152044553462 -0.019939696741877431 0 0.15247822335533329 -0.040890575290882317 0 0.1449152044553462 -0.019939696741877431 0 0.15247822335533329 -0.040890575290882317 0 0.15247822335533329 -0.040890575290882317 0 0.1379109625223634 -0.045605004272587249 0 0.14629243763992239 -0.054068479542427092 0 0.13984755105295521 -0.030525993742740402 0 0.15247822335533329 -0.040890575290882317 0 0.1379109625223634 -0.045605004272587249 0 0.1232921759667842 -0.047663851323270827 0 0.13984755105295521 -0.030525993742740402 0 0.1379109625223634 -0.045605004272587249 0 0.1232921759667842 -0.047663851323270827 0 0.124582941869709 -0.030507807285028901 0 0.13984755105295521 -0.030525993742740402 0 0.1232921759667842 -0.047663851323270827 0 0.13984755105295521 -0.030525993742740402 0 0.1232921759667842 -0.047663851323270827 0 0.13548767730717889 -0.06580567532731052 0 0.1379109625223634 -0.045605004272587249 0 0.13548767730717889 -0.06580567532731052 0 0.1379109625223634 -0.045605004272587249 0 0.14629243763992239 -0.054068479542427092 0 0.13548767730717889 -0.06580567532731052 0 0.14629243763992239 -0.054068479542427092 0 0.16004124225532049 -0.061841453839887157 0 0.15247822335533329 -0.040890575290882317 0 0.14629243763992239 -0.054068479542427092 0 0.16004124225532049 -0.061841453839887157 0 0.15247822335533329 -0.040890575290882317 0 0.16004124225532049 -0.061841453839887157 0 0.1644158146278025 -0.049784627651503079 0 0.1644158146278025 -0.049784627651503079 0 0.1727598808088672 -0.056322389892066158 0 0.1723839120916891 -0.040084091583176683 0 0.15247822335533329 -0.040890575290882317 0 0.16004124225532049 -0.061841453839887157 0 0.16423855373374319 -0.066809641750814969 0 0.16004124225532049 -0.061841453839887157 0 0.1727598808088672 -0.056322389892066158 0 0.16004124225532049 -0.061841453839887157 0 0.1644158146278025 -0.049784627651503079 0 0.1727598808088672 -0.056322389892066158 0 0.1727598808088672 -0.056322389892066158 0 0.18434240851125541 -0.050289724698312777 0 0.1723839120916891 -0.040084091583176683 0 0.1727598808088672 -0.056322389892066158 0 0.18434240851125541 -0.050289724698312777 0 0.1929894301603077 -0.067813608174319001 0 0.1723839120916891 -0.040084091583176683 0 0.18077822909658589 -0.032018797610549231 0 0.17598651952492231 -0.0227560541305885 0 0.18434240851125541 -0.050289724698312777 0 0.1723839120916891 -0.040084091583176683 0 0.18674227588606429 -0.037749552466939278 0 0.1723839120916891 -0.040084091583176683 0 0.18674227588606429 -0.037749552466939278 0 0.18077822909658589 -0.032018797610549231 0 0.18674227588606429 -0.037749552466939278 0 0.18077822909658589 -0.032018797610549231 0 0.18610830639217099 -0.030062433202775862 0 0.15247822335533329 -0.040890575290882317 0 0.1723839120916891 -0.040084091583176683 0 0.15727218843160701 -0.01758578836774349 0 0.15247822335533329 -0.040890575290882317 0 0.1644158146278025 -0.049784627651503079 0 0.1723839120916891 -0.040084091583176683 0 0.1723839120916891 -0.040084091583176683 0 0.15727218843160701 -0.01758578836774349 0 0.1723839120916891 -0.040084091583176683 0 0.1668946229318731 -0.019675061199070819 0 0.17598651952492231 -0.0227560541305885 0 0.1723839120916891 -0.040084091583176683 0 0.15727218843160701 -0.01758578836774349 0 0.1668946229318731 -0.019675061199070819 0 0.1668946229318731 -0.019675061199070819 0 0.17598651952492231 -0.0227560541305885 0 0.16985348277487761 -0.0099868764823510571 0 0.18077822909658589 -0.032018797610549231 0 0.18438258456793261 -0.021379302004443181 0 0.17598651952492231 -0.0227560541305885 0 0.18077822909658589 -0.032018797610549231 0 0.18610830639217099 -0.030062433202775862 0 0.18438258456793261 -0.021379302004443181 0 0.18438258456793261 -0.021379302004443181 0 0.17598651952492231 -0.0227560541305885 0 0.17878486519392331 -0.011645355321630489 0 0.17598651952492231 -0.0227560541305885 0 0.17878486519392331 -0.011645355321630489 0 0.16985348277487761 -0.0099868764823510571 0 0.17878486519392331 -0.011645355321630489 0 0.17506184651935949 -0.0021247232161890161 0 0.16985348277487761 -0.0099868764823510571 0 0.18438258456793261 -0.021379302004443181 0 0.17878486519392331 -0.011645355321630489 0 0.18863989258252481 -0.001979820774580698 0 0.17878486519392331 -0.011645355321630489 0 0.17506184651935949 -0.0021247232161890161 0 0.18863989258252481 -0.001979820774580698 0 0.1628037813635097 0.0015330777282007481 0 0.17506184651935949 -0.0021247232161890161 0 0.16985348277487761 -0.0099868764823510571 0 0.1668946229318731 -0.019675061199070819 0 0.16985348277487761 -0.0099868764823510571 0 0.15849764294065671 -0.0060544572746906826 0 0.15727218843160701 -0.01758578836774349 0 0.1668946229318731 -0.019675061199070819 0 0.15849764294065671 -0.0060544572746906826 0 0.1628037813635097 0.0015330777282007481 0 0.16985348277487761 -0.0099868764823510571 0 0.15849764294065671 -0.0060544572746906826 0 0.1628037813635097 0.0015330777282007481 0 0.15453230216132671 0.0032055715019124438 0 0.15849764294065671 -0.0060544572746906826 0 0.21174544862736719 0.0096628206364345465 0 0.20589386385567829 -0.0063134785331596111 0 0.2185782736923042 -0.0038367730406402641 0 0.20589386385567829 -0.0063134785331596111 0 0.2185782736923042 -0.0038367730406402641 0 0.2199828155312514 -0.0225516893132638 0 0.20589386385567829 -0.0063134785331596111 0 0.18863989258252481 -0.001979820774580698 0 0.1936475112771239 -0.030998707124919651 0 0.20589386385567829 -0.0063134785331596111 0 0.1936475112771239 -0.030998707124919651 0 0.20001428446098229 -0.034334459813343092 0 0.18863989258252481 -0.001979820774580698 0 0.1936475112771239 -0.030998707124919651 0 0.20589386385567829 -0.0063134785331596111 0 0.20001428446098229 -0.034334459813343092 0 0.18438258456793261 -0.021379302004443181 0 0.18863989258252481 -0.001979820774580698 0 0.1936475112771239 -0.030998707124919651 0 0.18610830639217099 -0.030062433202775862 0 0.18438258456793261 -0.021379302004443181 0 0.1936475112771239 -0.030998707124919651 0 0.20589386385567829 -0.0063134785331596111 0 0.20001428446098229 -0.034334459813343092 0 0.2199828155312514 -0.0225516893132638 0 0.20001428446098229 -0.034334459813343092 0 0.22061008072662569 -0.045125245157715169 0 0.20001428446098229 -0.034334459813343092 0 0.22061008072662569 -0.045125245157715169 0 0.2199828155312514 -0.0225516893132638 0 0.20001428446098229 -0.034334459813343092 0 0.19683654360934791 -0.049478981375062181 0 0.22061008072662569 -0.045125245157715169 0 0.1936475112771239 -0.030998707124919651 0 0.19683654360934791 -0.049478981375062181 0 0.18674227588606429 -0.037749552466939278 0 0.1936475112771239 -0.030998707124919651 0 0.19683654360934791 -0.049478981375062181 0 0.1936475112771239 -0.030998707124919651 0 0.20001428446098229 -0.034334459813343092 0 0.19683654360934791 -0.049478981375062181 0 0.1936475112771239 -0.030998707124919651 0 0.20001428446098229 -0.034334459813343092 0 0.18674227588606429 -0.037749552466939278 0 0.18610830639217099 -0.030062433202775862 0 0.1936475112771239 -0.030998707124919651 0 0.18434240851125541 -0.050289724698312777 0 0.18674227588606429 -0.037749552466939278 0 0.19683654360934791 -0.049478981375062181 0 0.20001428446098229 -0.034334459813343092 0 0.19683654360934791 -0.049478981375062181 0 0.19683654360934791 -0.049478981375062181 0 0.1929894301603077 -0.067813608174319001 0 0.2000429458732931 -0.068059913463883598 0 0.19683654360934791 -0.049478981375062181 0 0.21158346953455981 -0.057932445704329483 0 0.2000429458732931 -0.068059913463883598 0 0.19683654360934791 -0.049478981375062181 0 0.2000429458732931 -0.068059913463883598 0 0.19683654360934791 -0.049478981375062181 0 0.1929894301603077 -0.067813608174319001 0 0.18434240851125541 -0.050289724698312777 0 0.19683654360934791 -0.049478981375062181 0 0.1929894301603077 -0.067813608174319001 0 0.19683654360934791 -0.049478981375062181 0 0.21158346953455981 -0.057932445704329483 0 0.22061008072662569 -0.045125245157715169 0 0.24120587699226881 -0.055916030502087773 0 0.22061008072662569 -0.045125245157715169 0 0.2288443079289719 -0.069065642820655804 0 0.21158346953455981 -0.057932445704329483 0 0.22061008072662569 -0.045125245157715169 0 0.2288443079289719 -0.069065642820655804 0 0.24120587699226881 -0.055916030502087773 0 0.22061008072662569 -0.045125245157715169 0 0.25030159180115191 -0.034143426788088307 0 0.24120587699226881 -0.055916030502087773 0 0.23430517811137791 -0.037629801295311363 0 0.25030159180115191 -0.034143426788088307 0 0.23430517811137791 -0.037629801295311363 0 0.23651070060392609 -0.023431292744830981 0 0.22061008072662569 -0.045125245157715169 0 0.23430517811137791 -0.037629801295311363 0 0.2199828155312514 -0.0225516893132638 0 0.24120587699226881 -0.055916030502087773 0 0.22061008072662569 -0.045125245157715169 0 0.23430517811137791 -0.037629801295311363 0 0.2199828155312514 -0.0225516893132638 0 0.23651070060392609 -0.023431292744830981 0 0.2300866381754704 -0.0072438550720441714 0 0.23430517811137791 -0.037629801295311363 0 0.2199828155312514 -0.0225516893132638 0 0.23651070060392609 -0.023431292744830981 0 0.25030159180115191 -0.034143426788088307 0 0.23651070060392609 -0.023431292744830981 0 0.2464198669495459 -0.012097030270161889 0 0.23790413247208811 0.0091049515404343275 0 0.2464198669495459 -0.012097030270161889 0 0.2300866381754704 -0.0072438550720441714 0 0.23651070060392609 -0.023431292744830981 0 0.2464198669495459 -0.012097030270161889 0 0.2300866381754704 -0.0072438550720441714 0 0.2185782736923042 -0.0038367730406402641 0 0.2199828155312514 -0.0225516893132638 0 0.2300866381754704 -0.0072438550720441714 0 0.22518260227175371 0.0072623370788317187 0 0.2185782736923042 -0.0038367730406402641 0 0.2300866381754704 -0.0072438550720441714 0 0.20666963866093291 -0.1113398018781358 0 0.20399491490549271 -0.090961365670864353 0 0.20666963866093291 -0.1113398018781358 0 0.23081911420975029 -0.091789222750733895 0 0.20666963866093291 -0.1113398018781358 0 0.20399491490549271 -0.090961365670864353 0 0.23081911420975029 -0.091789222750733895 0 0.2184940671700534 -0.12394732724419751 0 0.20666963866093291 -0.1113398018781358 0 0.22056261316880149 -0.1108234873110058 0 0.2184940671700534 -0.12394732724419751 0 0.20975191972323501 -0.12432290509972491 0 0.20666963866093291 -0.1113398018781358 0 0.2184940671700534 -0.12394732724419751 0 0.20666963866093291 -0.1113398018781358 0 0.20975191972323501 -0.12432290509972491 0 0.20666963866093291 -0.1113398018781358 0 0.1971408692894723 -0.1190539635876471 0 0.20975191972323501 -0.12432290509972491 0 0.20666963866093291 -0.1113398018781358 0 0.18014950107347269 -0.1188522098678762 0 0.1971408692894723 -0.1190539635876471 0 0.19406318364410949 -0.13526348461287321 0 0.20666963866093291 -0.1113398018781358 0 0.1971408692894723 -0.1190539635876471 0 0.18014950107347269 -0.1188522098678762 0 0.1971408692894723 -0.1190539635876471 0 0.1922879604253335 -0.1099500278873989 0 0.20666963866093291 -0.1113398018781358 0 0.1971408692894723 -0.1190539635876471 0 0.1922879604253335 -0.1099500278873989 0 0.20666963866093291 -0.1113398018781358 0 0.19243594079672521 -0.096163448387799222 0 0.20399491490549271 -0.090961365670864353 0 0.18504385230606449 -0.10434071571553651 0 0.1922879604253335 -0.1099500278873989 0 0.19243594079672521 -0.096163448387799222 0 0.20666963866093291 -0.1113398018781358 0 0.1922879604253335 -0.1099500278873989 0 0.19243594079672521 -0.096163448387799222 0 0.20666963866093291 -0.1113398018781358 0 0.19243594079672521 -0.096163448387799222 0 0.1854866420256687 -0.084161575248007242 0 0.19040307974074269 -0.080139672987034255 0 0.20399491490549271 -0.090961365670864353 0 0.17842320588221819 -0.090172163349513806 0 0.19243594079672521 -0.096163448387799222 0 0.20399491490549271 -0.090961365670864353 0 0.17842320588221819 -0.090172163349513806 0 0.20399491490549271 -0.090961365670864353 0 0.17842320588221819 -0.090172163349513806 0 0.1854866420256687 -0.084161575248007242 0 0.20399491490549271 -0.090961365670864353 0 0.2000429458732931 -0.068059913463883598 0 0.20399491490549271 -0.090961365670864353 0 0.19040307974074269 -0.080139672987034255 0 0.2000429458732931 -0.068059913463883598 0 0.20399491490549271 -0.090961365670864353 0 0.19040307974074269 -0.080139672987034255 0 0.1929894301603077 -0.067813608174319001 0 0.2000429458732931 -0.068059913463883598 0 0.19040307974074269 -0.080139672987034255 0 0.1929894301603077 -0.067813608174319001 0 0.1929894301603077 -0.067813608174319001 0 0.2000429458732931 -0.068059913463883598 0 0.2000429458732931 -0.068059913463883598 0 0.2288443079289719 -0.069065642820655804 0 0.2000429458732931 -0.068059913463883598 0 0.21771238563745279 -0.081480669998114597 0 0.2288443079289719 -0.069065642820655804 0 0.21158346953455981 -0.057932445704329483 0 0.2000429458732931 -0.068059913463883598 0 0.2288443079289719 -0.069065642820655804 0 0.2000429458732931 -0.068059913463883598 0 0.20399491490549271 -0.090961365670864353 0 0.21771238563745279 -0.081480669998114597 0 0.20399491490549271 -0.090961365670864353 0 0.21771238563745279 -0.081480669998114597 0 0.23081911420975029 -0.091789222750733895 0 0.20399491490549271 -0.090961365670864353 0 0.23081911420975029 -0.091789222750733895 0 0.21771238563745279 -0.081480669998114597 0 0.23081911420975029 -0.091789222750733895 0 0.2288443079289719 -0.069065642820655804 0 0.25764566998465072 -0.070071372177431313 0 0.24120587699226881 -0.055916030502087773 0 0.2288443079289719 -0.069065642820655804 0 0.25764566998465072 -0.070071372177431313 0 0.2288443079289719 -0.069065642820655804 0 0.25764566998465072 -0.070071372177431313 0 0.2288443079289719 -0.069065642820655804 0 0.24423239209720191 -0.080930297464084477 0 0.25666672159796139 -0.092586939936295867 0 0.23081911420975029 -0.091789222750733895 0 0.23081911420975029 -0.091789222750733895 0 0.2288443079289719 -0.069065642820655804 0 0.24423239209720191 -0.080930297464084477 0 0.25666672159796139 -0.092586939936295867 0 0.23081911420975029 -0.091789222750733895 0 0.24423239209720191 -0.080930297464084477 0 0.23081911420975029 -0.091789222750733895 0 0.24423239209720191 -0.080930297464084477 0 0.25666672159796139 -0.092586939936295867 0 0.23081911420975029 -0.091789222750733895 0 0.23839025179526999 -0.1151992729885977 0 0.20666963866093291 -0.1113398018781358 0 0.23081911420975029 -0.091789222750733895 0 0.22056261316880149 -0.1108234873110058 0 0.23081911420975029 -0.091789222750733895 0 0.22056261316880149 -0.1108234873110058 0 0.23839025179526999 -0.1151992729885977 0 0.2184940671700534 -0.12394732724419751 0 0.22056261316880149 -0.1108234873110058 0 0.23839025179526999 -0.1151992729885977 0 0.2184940671700534 -0.12394732724419751 0 0.23839025179526999 -0.1151992729885977 0 0.22928680998153819 -0.13545484142638689 0 0.25915390151091949 -0.11811210275817149 0 0.25133622254172122 -0.13557462765415079 0 0.23839025179526999 -0.1151992729885977 0 0.25133622254172122 -0.13557462765415079 0 0.25208407187516418 -0.1419613505697605 0 0.23274332603383319 -0.13914027229300069 0 0.25133622254172122 -0.13557462765415079 0 0.23839025179526999 -0.1151992729885977 0 0.22928680998153819 -0.13545484142638689 0 0.25133622254172122 -0.13557462765415079 0 0.22928680998153819 -0.13545484142638689 0 0.25133622254172122 -0.13557462765415079 0 0.23274332603383319 -0.13914027229300069 0 0.22928680998153819 -0.13545484142638689 0 0.25208407187516418 -0.1419613505697605 0 0.23274332603383319 -0.13914027229300069 0 0.2530488896403309 -0.16079061319898569 0 0.23274332603383319 -0.13914027229300069 0 0.2530488896403309 -0.16079061319898569 0 0.23274332603383319 -0.13914027229300069 0 0.2334622085995452 -0.15779257262933219 0 0.2530488896403309 -0.16079061319898569 0 0.25208407187516418 -0.1419613505697605 0 0.23274332603383319 -0.13914027229300069 0 0.22694604844669111 -0.15137512496012309 0 0.2202725953444182 -0.1456731206256075 0 0.22100128495381829 -0.16152072110389429 0 0.22694604844669111 -0.15137512496012309 0 0.23274332603383319 -0.13914027229300069 0 0.2334622085995452 -0.15779257262933219 0 0.22694604844669111 -0.15137512496012309 0 0.2202725953444182 -0.1456731206256075 0 0.23274332603383319 -0.13914027229300069 0 0.23274332603383319 -0.13914027229300069 0 0.20959101376118139 -0.13576323162740581 0 0.22928680998153819 -0.13545484142638689 0 0.2116749968128239 -0.1353591630196288 0 0.23274332603383319 -0.13914027229300069 0 0.22928680998153819 -0.13545484142638689 0 0.2116749968128239 -0.1353591630196288 0 0.2184940671700534 -0.12394732724419751 0 0.22928680998153819 -0.13545484142638689 0 0.2116749968128239 -0.1353591630196288 0 0.2202725953444182 -0.1456731206256075 0 0.23274332603383319 -0.13914027229300069 0 0.20959101376118139 -0.13576323162740581 0 0.23274332603383319 -0.13914027229300069 0 0.22928680998153819 -0.13545484142638689 0 0.2184940671700534 -0.12394732724419751 0 0.22928680998153819 -0.13545484142638689 0 0.23274332603383319 -0.13914027229300069 0 0.20959101376118139 -0.13576323162740581 0 0.2116749968128239 -0.1353591630196288 0 0.20975191972323501 -0.12432290509972491 0 0.2116749968128239 -0.1353591630196288 0 0.19406318364410949 -0.13526348461287321 0 0.2184940671700534 -0.12394732724419751 0 0.20975191972323501 -0.12432290509972491 0 0.2116749968128239 -0.1353591630196288 0 0.20959101376118139 -0.13576323162740581 0 0.2116749968128239 -0.1353591630196288 0 0.19406318364410949 -0.13526348461287321 0 0.2202725953444182 -0.1456731206256075 0 0.21077041390333781 -0.15496976615408631 0 0.22100128495381829 -0.16152072110389429 0 0.2202725953444182 -0.1456731206256075 0 0.20959101376118139 -0.13576323162740581 0 0.21077041390333781 -0.15496976615408631 0 0.20959101376118139 -0.13576323162740581 0 0.21077041390333781 -0.15496976615408631 0 0.19406318364410949 -0.13526348461287321 0 0.21077041390333781 -0.15496976615408631 0 0.19019323353294471 -0.15547991582157239 0 0.19406318364410949 -0.13526348461287321 0 0.21077041390333781 -0.15496976615408631 0 0.19406318364410949 -0.13526348461287321 0 0.20975191972323501 -0.12432290509972491 0 0.1971408692894723 -0.1190539635876471 0 0.19406318364410949 -0.13526348461287321 0 0.2116749968128239 -0.1353591630196288 0 0.19406318364410949 -0.13526348461287321 0 0.2064216300685435 -0.1763378775815001 0 0.19333004299069351 -0.19482382871724169 0 0.185888281266576 -0.1738959907954824 0 0.21077041390333781 -0.15496976615408631 0 0.19019323353294471 -0.15547991582157239 0 0.2064216300685435 -0.1763378775815001 0 0.19019323353294471 -0.15547991582157239 0 0.2064216300685435 -0.1763378775815001 0 0.185888281266576 -0.1738959907954824 0 0.21077041390333781 -0.15496976615408631 0 0.2064216300685435 -0.1763378775815001 0 0.22100128495381829 -0.16152072110389429 0 0.2064216300685435 -0.1763378775815001 0 0.22637928715471201 -0.1750627007060517 0 0.22100128495381829 -0.16152072110389429 0 0.2064216300685435 -0.1763378775815001 0 0.22637928715471201 -0.1750627007060517 0 0.2213864998634191 -0.19074186604973761 0 0.22637928715471201 -0.1750627007060517 0 0.2363010186387848 -0.18586727398715949 0 0.2213864998634191 -0.19074186604973761 0 0.22637928715471201 -0.1750627007060517 0 0.22100128495381829 -0.16152072110389429 0 0.2334622085995452 -0.15779257262933219 0 0.22637928715471201 -0.1750627007060517 0 0.2334622085995452 -0.15779257262933219 0 0.24133419147104179 -0.17110858194103351 0 0.22694604844669111 -0.15137512496012309 0 0.22100128495381829 -0.16152072110389429 0 0.2334622085995452 -0.15779257262933219 0 0.2530488896403309 -0.16079061319898569 0 0.2334622085995452 -0.15779257262933219 0 0.24133419147104179 -0.17110858194103351 0 0.2550208565069661 -0.17514012483034949 0 0.2530488896403309 -0.16079061319898569 0 0.24133419147104179 -0.17110858194103351 0 0.22637928715471201 -0.1750627007060517 0 0.24133419147104179 -0.17110858194103351 0 0.2363010186387848 -0.18586727398715949 0 0.25030889548151403 -0.1837077448593728 0 0.2550208565069661 -0.17514012483034949 0 0.24133419147104179 -0.17110858194103351 0 0.25030889548151403 -0.1837077448593728 0 0.24133419147104179 -0.17110858194103351 0 0.2363010186387848 -0.18586727398715949 0 0.25030889548151403 -0.1837077448593728 0 0.2363010186387848 -0.18586727398715949 0 0.24624710011957149 -0.19756578472926509 0 0.2363010186387848 -0.18586727398715949 0 0.24624710011957149 -0.19756578472926509 0 0.23232272155890341 -0.19906227567560569 0 0.24624710011957149 -0.19756578472926509 0 0.2390873575194972 -0.2119906927462733 0 0.23232272155890341 -0.19906227567560569 0 0.25806059678156651 -0.21160485628964759 0 0.24624710011957149 -0.19756578472926509 0 0.2390873575194972 -0.2119906927462733 0 0.25806059678156651 -0.21160485628964759 0 0.2390873575194972 -0.2119906927462733 0 0.2485278721491469 -0.22983386195931649 0 0.22156570902884701 -0.2081716276760221 0 0.2275965143199381 -0.22680811778712909 0 0.21130945108473639 -0.22000441216527869 0 0.2390873575194972 -0.2119906927462733 0 0.22156570902884701 -0.2081716276760221 0 0.23232272155890341 -0.19906227567560569 0 0.2390873575194972 -0.2119906927462733 0 0.22156570902884701 -0.2081716276760221 0 0.2275965143199381 -0.22680811778712909 0 0.22156570902884701 -0.2081716276760221 0 0.2213864998634191 -0.19074186604973761 0 0.23232272155890341 -0.19906227567560569 0 0.2363010186387848 -0.18586727398715949 0 0.2213864998634191 -0.19074186604973761 0 0.23232272155890341 -0.19906227567560569 0 0.2410490216361528 -0.25300372010805161 0 0.2485278721491469 -0.22983386195931649 0 0.2275965143199381 -0.22680811778712909 0 0.25787859859726192 -0.24372773219337371 0 0.2410490216361528 -0.25300372010805161 0 0.2485278721491469 -0.22983386195931649 0 0.2390873575194972 -0.2119906927462733 0 0.2485278721491469 -0.22983386195931649 0 0.2275965143199381 -0.22680811778712909 0 0.2410490216361528 -0.25300372010805161 0 0.2275965143199381 -0.22680811778712909 0 0.2136455624920251 -0.24586339942155419 0 0.2410490216361528 -0.25300372010805161 0 0.2136455624920251 -0.24586339942155419 0 0.2136455624920251 -0.24586339942155419 0 0.1995187067769538 -0.22648505830905971 0 0.1970165427207646 -0.2431475676051908 0 0.2275965143199381 -0.22680811778712909 0 0.2136455624920251 -0.24586339942155419 0 0.21130945108473639 -0.22000441216527869 0 0.2136455624920251 -0.24586339942155419 0 0.21130945108473639 -0.22000441216527869 0 0.1995187067769538 -0.22648505830905971 0 0.1995187067769538 -0.22648505830905971 0 0.1970165427207646 -0.2431475676051908 0 0.1843931124890181 -0.23269732176232691 0 0.21130945108473639 -0.22000441216527869 0 0.1995187067769538 -0.22648505830905971 0 0.19847161958806309 -0.21206345826637629 0 0.2064216300685435 -0.1763378775815001 0 0.2213864998634191 -0.19074186604973761 0 0.20705859430259141 -0.20063481153153051 0 0.22156570902884701 -0.2081716276760221 0 0.2213864998634191 -0.19074186604973761 0 0.20705859430259141 -0.20063481153153051 0 0.22156570902884701 -0.2081716276760221 0 0.21130945108473639 -0.22000441216527869 0 0.20705859430259141 -0.20063481153153051 0 0.21130945108473639 -0.22000441216527869 0 0.20705859430259141 -0.20063481153153051 0 0.19847161958806309 -0.21206345826637629 0 0.19847161958806309 -0.21206345826637629 0 0.19333004299069351 -0.19482382871724169 0 0.184507054165965 -0.21658659277756609 0 0.1995187067769538 -0.22648505830905971 0 0.19847161958806309 -0.21206345826637629 0 0.184507054165965 -0.21658659277756609 0 0.20705859430259141 -0.20063481153153051 0 0.19847161958806309 -0.21206345826637629 0 0.19333004299069351 -0.19482382871724169 0 0.2064216300685435 -0.1763378775815001 0 0.20705859430259141 -0.20063481153153051 0 0.19333004299069351 -0.19482382871724169 0 0.1776330785524223 -0.18942424135099509 0 0.184507054165965 -0.21658659277756609 0 0.16837846483810831 -0.20319749351435479 0 0.19333004299069351 -0.19482382871724169 0 0.1776330785524223 -0.18942424135099509 0 0.184507054165965 -0.21658659277756609 0 0.1776330785524223 -0.18942424135099509 0 0.184507054165965 -0.21658659277756609 0 0.184507054165965 -0.21658659277756609 0 0.1749867686249286 -0.21735889230250449 0 0.16837846483810831 -0.20319749351435479 0 0.1749867686249286 -0.21735889230250449 0 0.16837846483810831 -0.20319749351435479 0 0.15045483047290331 -0.2082327262959493 0 0.1749867686249286 -0.21735889230250449 0 0.15045483047290331 -0.2082327262959493 0 0.1749867686249286 -0.21735889230250449 0 0.16226861639455931 -0.22172210758959859 0 0.15045483047290331 -0.2082327262959493 0 0.16837846483810831 -0.20319749351435479 0 0.15045483047290331 -0.2082327262959493 0 0.15431059237432221 -0.18438501484475869 0 0.1776330785524223 -0.18942424135099509 0 0.16837846483810831 -0.20319749351435479 0 0.15431059237432221 -0.18438501484475869 0 0.1970165427207646 -0.2431475676051908 0 0.18013525364959199 -0.24590787480667409 0 0.1843931124890181 -0.23269732176232691 0 0.18013525364959199 -0.24590787480667409 0 0.1843931124890181 -0.23269732176232691 0 0.17030829067285161 -0.2305872157882054 0 0.1995187067769538 -0.22648505830905971 0 0.1749867686249286 -0.21735889230250449 0 0.1995187067769538 -0.22648505830905971 0 0.1749867686249286 -0.21735889230250449 0 0.1843931124890181 -0.23269732176232691 0 0.1995187067769538 -0.22648505830905971 0 0.184507054165965 -0.21658659277756609 0 0.1749867686249286 -0.21735889230250449 0 0.1749867686249286 -0.21735889230250449 0 0.1843931124890181 -0.23269732176232691 0 0.17030829067285161 -0.2305872157882054 0 0.16226861639455931 -0.22172210758959859 0 0.17030829067285161 -0.2305872157882054 0 0.15332457580755371 -0.23070959597173549 0 0.1749867686249286 -0.21735889230250449 0 0.16226861639455931 -0.22172210758959859 0 0.17030829067285161 -0.2305872157882054 0 0.16103468924722281 -0.25381861710109321 0 0.18013525364959199 -0.24590787480667409 0 0.17030829067285161 -0.2305872157882054 0 0.16103468924722281 -0.25381861710109321 0 0.17030829067285161 -0.2305872157882054 0 0.15332457580755371 -0.23070959597173549 0 0.16103468924722281 -0.25381861710109321 0 0.1412434604122122 -0.24631040783256791 0 0.15332457580755371 -0.23070959597173549 0 0.1412434604122122 -0.24631040783256791 0 0.15332457580755371 -0.23070959597173549 0 0.1284413173888232 -0.22347585252773641 0 0.15332457580755371 -0.23070959597173549 0 0.1284413173888232 -0.22347585252773641 0 0.15045483047290331 -0.2082327262959493 0 0.16226861639455931 -0.22172210758959859 0 0.15332457580755371 -0.23070959597173549 0 0.15045483047290331 -0.2082327262959493 0 0.1200034520355143 -0.24749468667538321 0 0.1412434604122122 -0.24631040783256791 0 0.1284413173888232 -0.22347585252773641 0 0.15045483047290331 -0.2082327262959493 0 0.12592289232087811 -0.19910656028939411 0 0.15431059237432221 -0.18438501484475869 0 0.15045483047290331 -0.2082327262959493 0 0.12592289232087811 -0.19910656028939411 0 0.1284413173888232 -0.22347585252773641 0 0.15045483047290331 -0.2082327262959493 0 0.12592289232087811 -0.19910656028939411 0 0.11404320040195411 -0.17785048998131209 0 0.12592289232087811 -0.19910656028939411 0 0.1362427207560932 -0.1734399905344442 0 0.12592289232087811 -0.19910656028939411 0 0.1362427207560932 -0.1734399905344442 0 0.15431059237432221 -0.18438501484475869 0 0.1362427207560932 -0.1734399905344442 0 0.15431059237432221 -0.18438501484475869 0 0.1498051255961938 -0.157092757972084 0 0.11404320040195411 -0.17785048998131209 0 0.1362427207560932 -0.1734399905344442 0 0.1305387904294309 -0.15561497697083931 0 0.1362427207560932 -0.1734399905344442 0 0.1498051255961938 -0.157092757972084 0 0.1305387904294309 -0.15561497697083931 0 0.1498051255961938 -0.157092757972084 0 0.1305387904294309 -0.15561497697083931 0 0.13638976604354719 -0.13495016646355951 0 0.1161887790728692 -0.1476769396888597 0 0.1305387904294309 -0.15561497697083931 0 0.13638976604354719 -0.13495016646355951 0 0.12800820934211829 -0.12401417466047961 0 0.13638976604354719 -0.13495016646355951 0 0.1486045981545247 -0.12747252536747111 0 0.13638976604354719 -0.13495016646355951 0 0.16388512732533739 -0.13509953849785281 0 0.13638976604354719 -0.13495016646355951 0 0.1486045981545247 -0.12747252536747111 0 0.16388512732533739 -0.13509953849785281 0 0.1498051255961938 -0.157092757972084 0 0.13638976604354719 -0.13495016646355951 0 0.16388512732533739 -0.13509953849785281 0 0.16388512732533739 -0.13509953849785281 0 0.17075910293887969 -0.16226188992442411 0 0.1498051255961938 -0.157092757972084 0 0.16388512732533739 -0.13509953849785281 0 0.17075910293887969 -0.16226188992442411 0 0.18014950107347269 -0.1188522098678762 0 0.16265603278097029 -0.1302428005884553 0 0.16388512732533739 -0.13509953849785281 0 0.16095359288685571 -0.1184472051676727 0 0.1486045981545247 -0.12747252536747111 0 0.16265603278097029 -0.1302428005884553 0 0.1486045981545247 -0.12747252536747111 0 0.16265603278097029 -0.1302428005884553 0 0.16388512732533739 -0.13509953849785281 0 0.16265603278097029 -0.1302428005884553 0 0.16388512732533739 -0.13509953849785281 0 0.19406318364410949 -0.13526348461287321 0 0.16388512732533739 -0.13509953849785281 0 0.18014950107347269 -0.1188522098678762 0 0.19406318364410949 -0.13526348461287321 0 0.18014950107347269 -0.1188522098678762 0 0.19406318364410949 -0.13526348461287321 0 0.16388512732533739 -0.13509953849785281 0 0.19019323353294471 -0.15547991582157239 0 0.16388512732533739 -0.13509953849785281 0 0.17075910293887969 -0.16226188992442411 0 0.19019323353294471 -0.15547991582157239 0 0.19406318364410949 -0.13526348461287321 0 0.16388512732533739 -0.13509953849785281 0 0.19019323353294471 -0.15547991582157239 0 0.185888281266576 -0.1738959907954824 0 0.17075910293887969 -0.16226188992442411 0 0.1776330785524223 -0.18942424135099509 0 0.185888281266576 -0.1738959907954824 0 0.17075910293887969 -0.16226188992442411 0 0.1776330785524223 -0.18942424135099509 0 0.17075910293887969 -0.16226188992442411 0 0.19333004299069351 -0.19482382871724169 0 0.1776330785524223 -0.18942424135099509 0 0.185888281266576 -0.1738959907954824 0 0.1776330785524223 -0.18942424135099509 0 0.15431059237432221 -0.18438501484475869 0 0.17075910293887969 -0.16226188992442411 0 0.15431059237432221 -0.18438501484475869 0 0.1498051255961938 -0.157092757972084 0 0.17075910293887969 -0.16226188992442411 0 
</DataArray>
</Points>
<Cells>
<DataArray type="UInt32" Name="connectivity" format="ascii">
0 1 2 3 4 5 6 7 8 9 10 11 12 13 14 15 16 17 18 19 20 21 22 23 24 25 26 27 28 29 30 31 32 33 34 35 36 37 38 39 40 41 42 43 44 45 46 47 48 49 50 51 52 53 54 55 56 57 58 59 60 61 62 63 64 65 66 67 68 69 70 71 72 73 74 75 76 77 78 79 80 81 82 83 84 85 86 87 88 89 90 91 92 93 94 95 96 97 98 99 100 101 102 103 104 105 106 107 108 109 110 111 112 113 114 115 116 117 118 119 120 121 122 123 124 125 126 127 128 129 130 131 132 133 134 135 136 137 138 139 140 141 142 143 144 145 146 147 148 149 150 151 152 153 154 155 156 157 158 159 160 161 162 163 164 165 166 167 168 169 170 171 172 173 174 175 176 177 178 179 180 181 182 183 184 185 186 187 188 189 190 191 192 193 194 195 196 197 198 199 200 201 202 203 204 205 206 207 208 209 210 211 212 213 214 215 216 217 218 219 220 221 222 223 224 225 226 227 228 229 230 231 232 233 234 235 236 237 238 239 240 241 242 243 244 245 246 247 248 249 250 251 252 253 254 255 256 257 258 259 260 261 262 263 264 265 266 267 268 269 270 271 272 273 274 275 276 277 278 279 280 281 282 283 284 285 286 287 288 289 290 291 292 293 294 295 296 297 298 299 300 301 302 303 304 305 306 307 308 309 310 311 312 313 314 315 316 317 318 319 320 321 322 323 324 325 326 327 328 329 330 331 332 333 334 335 336 337 338 339 340 341 342 343 344 345 346 347 348 349 350 351 352 353 354 355 356 357 358 359 360 361 362 363 364 365 366 367 368 369 370 371 372 373 374 375 376 377 378 379 380 381 382 383 384 385 386 387 388 389 390 391 392 393 394 395 396 397 398 399 400 401 402 403 404 405 406 407 408 409 410 411 412 413 414 415 416 417 418 419 420 421 422 423 424 425 426 427 428 429 430 431 432 433 434 435 436 437 438 439 440 441 442 443 444 445 446 447 448 449 450 451 452 453 454 455 456 457 458 459 460 461 462 463 464 465 466 467 468 469 470 471 472 473 474 475 476 477 478 479 480 481 482 483 484 485 486 487 488 489 490 491 492 493 494 495 496 497 498 499 500 501 502 503 504 505 506 507 508 509 510 511 512 513 514 515 516 517 518 519 520 521 522 523 524 525 526 527 528 529 530 531 532 533 534 535 536 537 538 539 540 541 542 543 544 545 546 547 548 549 550 551 552 553 554 555 556 557 558 559 560 561 562 563 564 565 566 567 568 569 570 571 572 573 574 575 576 577 578 579 580 581 582 583 584 585 586 587 588 589 590 591 592 593 594 595 596 597 598 599 600 601 602 603 604 605 606 607 608 609 610 611 612 613 614 615 616 617 618 619 620 621 622 623 624 625 626 627 628 629 630 631 632 633 634 635 636 637 638 639 640 641 642 643 644 645 646 647 648 649 650 651 652 653 654 655 656 657 658 659 660 661 662 663 664 665 666 667 668 669 670 671 672 673 674 675 676 677 678 679 680 681 682 683 684 685 686 687 688 689 690 691 692 693 694 695 696 697 698 699 700 701 702 703 704 705 706 707 708 709 710 711 712 713 714 715 716 717 718 719 720 721 722 723 724 725 726 727 728 729 730 731 732 733 734 735 736 737 738 739 740 741 742 743 744 745 746 747 748 749 750 751 752 753 754 755 756 757 758 759 760 761 762 763 764 765 766 767 768 769 770 771 772 773 774 775 776 777 778 779 780 781 782 783 784 785 786 787 788 789 790 791 792 793 794 795 796 797 798 799 800 801 802 803 804 805 806 807 808 809 810 811 812 813 814 815 816 817 818 819 820 821 822 823 824 825 826 827 828 829 830 831 832 833 834 835 836 837 838 839 840 841 842 843 844 845 846 847 848 849 850 851 852 853 854 855 856 857 858 859 860 861 862 863 864 865 866 867 868 869 870 871 872 873 874 875 876 877 878 879 880 881 882 883 884 885 886 887 888 889 890 891 892 893 894 895 896 897 898 899 900 901 902 903 904 905 906 907 908 909 910 911 912 913 914 915 916 917 918 919 920 921 922 923 924 925 926 927 928 929 930 931 932 933 934 935 936 937 938 939 940 941 942 943 944 945 946 947 948 949 950 951 952 953 954 955 956 957 958 959 960 961 962 963 964 965 966 967 968 969 970 971 972 973 974 975 976 977 978 979 980 981 982 983 984 985 986 987 988 989 990 991 992 993 994 995 996 997 998 999 1000 1001 1002 1003 1004 1005 1006 1007 1008 1009 1010 1011 1012 1013 1014 1015 1016 1017 1018 1019 1020 1021 1022 1023 1024 1025 1026 1027 1028 1029 1030 1031 1032 1033 1034 1035 1036 1037 1038 1039 1040 1041 1042 1043 1044 1045 1046 1047 1048 1049 1050 1051 1052 1053 1054 1055 1056 1057 1058 1059 1060 1061 1062 1063 1064 1065 1066 1067 1068 1069 1070 1071 1072 1073 1074 1075 1076 1077 1078 1079 1080 1081 1082 1083 1084 1085 1086 1087 1088 1089 1090 1091 1092 1093 1094 1095 1096 1097 1098 1099 1100 1101 1102 1103 1104 1105 1106 1107 1108 1109 1110 1111 1112 1113 1114 1115 1116 1117 1118 1119 1120 1121 1122 1123 1124 1125 1126 1127 1128 1129 1130 1131 1132 1133 1134 1135 1136 1137 1138 1139 1140 1141 1142 1143 1144 1145 1146 1147 1148 1149 1150 1151 1152 1153 1154 1155 1156 1157 1158 1159 1160 1161 1162 1163 1164 1165 1166 1167 1168 1169 1170 1171 1172 1173 1174 1175 1176 1177 1178 1179 1180 1181 1182 1183 1184 1185 1186 1187 1188 1189 1190 1191 1192 1193 1194 1195 1196 1197 1198 1199 1200 1201 1202 1203 1204 1205 1206 1207 1208 1209 1210 1211 1212 1213 1214 1215 1216 1217 1218 1219 1220 1221 1222 1223 1224 1225 1226 1227 1228 1229 1230 1231 1232 1233 1234 1235 1236 1237 1238 1239 1240 1241 1242 1243 1244 1245 1246 1247 1248 1249 1250 1251 1252 1253 1254 1255 1256 1257 1258 1259 1260 1261 1262 1263 1264 1265 1266 1267 1268 1269 1270 1271 1272 1273 1274 1275 1276 1277 1278 1279 1280 1281 1282 1283 1284 1285 1286 1287 1288 1289 1290 1291 1292 1293 1294 1295 1296 1297 1298 1299 1300 1301 1302 1303 1304 1305 1306 1307 1308 1309 1310 1311 1312 1313 1314 1315 1316 1317 1318 1319 1320 1321 1322 1323 1324 1325 1326 1327 1328 1329 1330 1331 1332 1333 1334 1335 1336 1337 1338 1339 1340 1341 1342 1343 1344 1345 1346 1347 1348 1349 1350 1351 1352 1353 1354 1355 1356 1357 1358 1359 1360 1361 1362 1363 1364 1365 1366 1367 1368 1369 1370 1371 1372 1373 1374 1375 1376 1377 1378 1379 1380 1381 1382 1383 1384 1385 1386 1387 1388 1389 1390 1391 1392 1393 1394 1395 1396 1397 1398 1399 1400 1401 1402 1403 1404 1405 1406 1407 1408 1409 1410 1411 1412 1413 1414 1415 1416 1417 1418 1419 1420 1421 1422 1423 1424 1425 1426 1427 1428 1429 1430 1431 1432 1433 1434 1435 1436 1437 1438 1439 1440 1441 1442 1443 1444 1445 1446 1447 1448 1449 1450 1451 1452 1453 1454 1455 1456 1457 1458 1459 1460 1461 1462 1463 1464 1465 1466 1467 1468 1469 1470 1471 1472 1473 1474 1475 1476 1477 1478 1479 1480 1481 1482 1483 1484 1485 1486 1487 1488 1489 1490 1491 1492 1493 1494 1495 1496 1497 1498 1499 1500 1501 1502 1503 1504 1505 1506 1507 1508 1509 1510 1511 1512 1513 1514 1515 1516 1517 1518 1519 1520 1521 1522 1523 1524 1525 1526 1527 1528 1529 1530 1531 1532 1533 1534 1535 1536 1537 1538 1539 1540 1541 1542 1543 1544 1545 1546 1547 1548 1549 1550 1551 1552 1553 1554 1555 1556 1557 1558 1559 1560 1561 1562 1563 1564 1565 1566 1567 1568 1569 1570 1571 1572 1573 1574 1575 1576 1577 1578 1579 1580 1581 1582 1583 1584 1585 1586 1587 1588 1589 1590 1591 1592 1593 1594 1595 1596 1597 1598 1599 1600 1601 1602 1603 1604 1605 1606 1607 1608 1609 1610 1611 1612 1613 1614 1615 1616 1617 1618 1619 1620 1621 1622 1623 1624 1625 1626 1627 1628 1629 1630 1631 1632 1633 1634 1635 1636 1637 1638 1639 1640 1641 1642 1643 1644 1645 1646 1647 1648 1649 1650 1651 1652 1653 1654 1655 1656 1657 1658 1659 1660 1661 1662 1663 1664 1665 1666 1667 1668 1669 1670 1671 1672 1673 1674 1675 1676 1677 1678 1679 1680 1681 1682 1683 1684 1685 1686 1687 1688 1689 1690 1691 1692 1693 1694 1695 1696 1697 1698 1699 1700 1701 1702 1703 1704 1705 1706 1707 1708 1709 1710 1711 1712 1713 1714 1715 1716 1717 1718 1719 1720 1721 1722 1723 1724 1725 1726 1727 1728 1729 1730 1731 1732 1733 1734 1735 1736 1737 1738 1739 1740 1741 1742 1743 1744 1745 1746 1747 1748 1749 1750 1751 1752 1753 1754 1755 1756 1757 1758 1759 1760 1761 1762 1763 1764 1765 1766 1767 1768 1769 1770 1771 1772 1773 1774 1775 1776 1777 1778 1779 1780 1781 1782 1783 1784 1785 1786 1787 1788 1789 1790 1791 1792 1793 1794 1795 1796 1797 1798 1799 1800 1801 1802 1803 1804 1805 1806 1807 1808 1809 1810 1811 1812 1813 1814 1815 1816 1817 1818 1819 1820 1821 1822 1823 1824 1825 1826 1827 1828 1829 1830 1831 1832 1833 1834 1835 1836 1837 1838 1839 1840 1841 1842 1843 1844 1845 1846 1847 1848 1849 1850 1851 1852 1853 1854 1855 1856 1857 1858 1859 1860 1861 1862 1863 1864 1865 1866 1867 1868 1869 1870 1871 1872 1873 1874 1875 1876 1877 1878 1879 1880 1881 1882 1883 1884 1885 1886 1887 1888 1889 1890 1891 1892 1893 1894 1895 1896 1897 1898 1899 1900 1901 1902 1903 1904 1905 1906 1907 1908 1909 1910 1911 1912 1913 1914 1915 1916 1917 1918 1919 1920 1921 1922 1923 1924 1925 1926 1927 1928 1929 1930 1931 1932 1933 1934 1935 1936 1937 1938 1939 1940 1941 1942 1943 1944 1945 1946 1947 1948 1949 1950 1951 1952 1953 1954 1955 1956 1957 1958 1959 1960 1961 1962 1963 1964 1965 1966 1967 1968 1969 1970 1971 1972 1973 1974 1975 1976 1977 1978 1979 1980 1981 1982 1983 1984 1985 1986 1987 1988 1989 1990 1991 1992 1993 1994 1995 1996 1997 1998 1999 2000 2001 2002 2003 2004 2005 2006 2007 2008 2009 2010 2011 2012 2013 2014 2015 2016 2017 2018 2019 2020 2021 2022 2023 2024 2025 2026 2027 2028 2029 2030 2031 2032 2033 2034 2035 2036 2037 2038 2039 2040 2041 2042 2043 2044 2045 2046 2047 2048 2049 2050 2051 2052 2053 2054 2055 2056 2057 2058 2059 2060 2061 2062 2063 2064 2065 2066 2067 2068 2069 2070 2071 2072 2073 2074 2075 2076 2077 2078 2079 2080 2081 2082 2083 2084 2085 2086 2087 2088 2089 2090 2091 2092 2093 2094 2095 2096 2097 2098 2099 2100 2101 2102 2103 2104 2105 2106 2107 2108 2109 2110 2111 2112 2113 2114 2115 2116 2117 2118 2119 2120 2121 2122 2123 2124 2125 2126 2127 2128 2129 2130 2131 2132 2133 2134 2135 2136 2137 2138 2139 2140 2141 2142 2143 2144 2145 2146 2147 2148 2149 2150 2151 2152 2153 2154 2155 2156 2157 2158 2159 2160 2161 2162 2163 2164 2165 2166 2167 2168 2169 2170 2171 2172 2173 2174 2175 2176 2177 2178 2179 2180 2181 2182 2183 2184 2185 2186 2187 2188 2189 2190 2191 2192 2193 2194 2195 2196 2197 2198 2199 2200 2201 2202 2203 2204 2205 2206 2207 2208 2209 2210 2211 2212 2213 2214 2215 2216 2217 2218 2219 2220 2221 2222 2223 2224 2225 2226 2227 2228 2229 2230 2231 2232 2233 2234 2235 2236 2237 2238 2239 2240 2241 2242 2243 2244 2245 2246 2247 2248 2249 2250 2251 2252 2253 2254 2255 2256 2257 2258 2259 2260 2261 2262 2263 2264 2265 2266 2267 2268 2269 2270 2271 2272 2273 2274 2275 2276 2277 2278 2279 2280 2281 2282 2283 2284 2285 2286 2287 2288 2289 2290 2291 2292 2293 2294 2295 2296 2297 2298 2299 2300 2301 2302 2303 2304 2305 2306 2307 2308 2309 2310 2311 2312 2313 2314 2315 2316 2317 2318 2319 2320 2321 2322 2323 2324 2325 2326 2327 2328 2329 2330 2331 2332 2333 2334 2335 2336 2337 2338 2339 2340 2341 2342 2343 2344 2345 2346 2347 2348 2349 2350 2351 2352 2353 2354 2355 2356 2357 2358 2359 2360 2361 2362 2363 2364 2365 2366 2367 2368 2369 2370 2371 2372 2373 2374 2375 2376 2377 2378 2379 2380 2381 2382 2383 2384 2385 2386 2387 2388 2389 2390 2391 2392 2393 2394 2395 2396 2397 2398 2399 2400 2401 2402 2403 2404 2405 2406 2407 2408 2409 2410 2411 2412 2413 2414 2415 2416 2417 2418 2419 2420 2421 2422 2423 2424 2425 2426 2427 2428 2429 2430 2431 2432 2433 2434 2435 2436 2437 2438 2439 2440 2441 2442 2443 2444 2445 2446 2447 2448 2449 2450 2451 2452 2453 2454 2455 2456 2457 2458 2459 2460 2461 2462 2463 2464 2465 2466 2467 2468 2469 2470 2471 2472 2473 2474 2475 2476 2477 2478 2479 2480 2481 2482 2483 2484 2485 2486 2487 2488 2489 2490 2491 2492 2493 2494 2495 2496 2497 2498 2499 2500 2501 2502 2503 2504 2505 2506 2507 2508 2509 2510 2511 2512 2513 2514 2515 2516 2517 2518 2519 2520 2521 2522 2523 2524 2525 2526 2527 2528 2529 2530 2531 2532 2533 2534 2535 2536 2537 2538 2539 2540 2541 2542 2543 2544 2545 2546 2547 2548 2549 2550 2551 2552 2553 2554 2555 2556 2557 2558 2559 2560 2561 2562 2563 2564 2565 2566 2567 2568 2569 2570 2571 2572 2573 2574 2575 2576 2577 2578 2579 2580 2581 2582 2583 2584 2585 2586 2587 2588 2589 2590 2591 2592 2593 2594 2595 2596 2597 2598 2599 2600 2601 2602 2603 2604 2605 2606 2607 2608 2609 2610 2611 2612 2613 2614 2615 2616 2617 2618 2619 2620 2621 2622 2623 2624 2625 2626 2627 2628 2629 2630 2631 2632 2633 2634 2635 2636 2637 2638 2639 2640 2641 2642 2643 2644 2645 2646 2647 2648 2649 2650 2651 2652 2653 2654 2655 2656 2657 2658 2659 2660 2661 2662 2663 2664 2665 2666 2667 2668 2669 2670 2671 2672 2673 2674 2675 2676 2677 2678 2679 2680 2681 2682 2683 2684 2685 2686 2687 2688 2689 2690 2691 2692 2693 2694 2695 2696 2697 2698 2699 2700 2701 2702 2703 2704 2705 2706 2707 2708 2709 2710 2711 2712 2713 2714 2715 2716 2717 2718 2719 2720 2721 2722 2723 2724 2725 2726 2727 2728 2729 2730 2731 2732 2733 2734 2735 2736 2737 2738 2739 2740 2741 2742 2743 2744 2745 2746 2747 2748 2749 2750 2751 2752 2753 2754 2755 2756 2757 2758 2759 2760 2761 2762 2763 2764 2765 2766 2767 2768 2769 2770 2771 2772 2773 2774 2775 2776 2777 2778 2779 2780 2781 2782 2783 2784 2785 2786 2787 2788 2789 2790 2791 2792 2793 2794 2795 2796 2797 2798 2799 2800 2801 2802 2803 2804 2805 2806 2807 2808 2809 2810 2811 2812 2813 2814 2815 2816 2817 2818 2819 2820 2821 2822 2823 2824 2825 2826 2827 2828 2829 2830 2831 2832 2833 2834 2835 2836 2837 2838 2839 2840 2841 2842 2843 2844 2845 2846 2847 2848 2849 2850 2851 2852 2853 2854 2855 2856 2857 2858 2859 2860 2861 2862 2863 2864 2865 2866 2867 2868 2869 2870 2871 2872 2873 2874 2875 2876 2877 2878 2879 2880 2881 2882 2883 2884 2885 2886 2887 2888 2889 2890 2891 2892 2893 2894 2895 2896 2897 2898 2899 2900 2901 2902 2903 2904 2905 2906 2907 2908 2909 2910 2911 2912 2913 2914 2915 2916 2917 2918 2919 2920 2921 2922 2923 2924 2925 2926 2927 2928 2929 2930 2931 2932 2933 2934 2935 2936 2937 2938 2939 2940 2941 2942 2943 2944 2945 2946 2947 2948 2949 2950 2951 2952 2953 2954 2955 2956 2957 2958 2959 2960 2961 2962 2963 2964 2965 2966 2967 2968 2969 2970 2971 2972 2973 2974 2975 2976 2977 2978 2979 2980 2981 2982 2983 2984 2985 2986 2987 2988 2989 2990 2991 2992 2993 2994 2995 2996 2997 2998 2999 3000 3001 3002 3003 3004 3005 3006 3007 3008 3009 3010 3011 3012 3013 3014 3015 3016 3017 3018 3019 3020 3021 3022 3023 3024 3025 3026 3027 3028 3029 3030 3031 3032 3033 3034 3035 3036 3037 3038 3039 3040 3041 3042 3043 3044 3045 3046 3047 3048 3049 3050 3051 3052 3053 3054 3055 3056 3057 3058 3059 3060 3061 3062 3063 3064 3065 3066 3067 3068 3069 3070 3071 3072 3073 3074 3075 3076 3077 3078 3079 3080 3081 3082 3083 3084 3085 3086 3087 3088 3089 3090 3091 3092 3093 3094 3095 3096 3097 3098 3099 3100 3101 3102 3103 3104 3105 3106 3107 3108 3109 3110 3111 3112 3113 3114 3115 3116 3117 3118 3119 3120 3121 3122 3123 3124 3125 3126 3127 3128 3129 3130 3131 3132 3133 3134 3135 3136 3137 3138 3139 3140 3141 3142 3143 3144 3145 3146 3147 3148 3149 3150 3151 3152 3153 3154 3155 3156 3157 3158 3159 3160 3161 3162 3163 3164 3165 3166 3167 3168 3169 3170 3171 3172 3173 3174 3175 3176 3177 3178 3179 3180 3181 3182 3183 3184 3185 3186 3187 3188 3189 3190 3191 3192 3193 3194 3195 3196 3197 3198 3199 3200 3201 3202 3203 3204 3205 3206 3207 3208 3209 3210 3211 3212 3213 3214 3215 3216 3217 3218 3219 3220 3221 3222 3223 3224 3225 3226 3227 3228 3229 3230 3231 3232 3233 3234 3235 3236 3237 3238 3239 3240 3241 3242 3243 3244 3245 3246 3247 3248 3249 3250 3251 3252 3253 3254 3255 3256 3257 3258 3259 3260 3261 3262 3263 3264 3265 3266 3267 3268 3269 3270 3271 3272 3273 3274 3275 3276 3277 3278 3279 3280 3281 3282 3283 3284 3285 3286 3287 3288 3289 3290 3291 3292 3293 3294 3295 3296 3297 3298 3299 3300 3301 3302 3303 3304 3305 3306 3307 3308 3309 3310 3311 3312 3313 3314 3315 3316 3317 3318 3319 3320 3321 3322 3323 3324 3325 3326 3327 3328 3329 3330 3331 3332 3333 3334 3335 3336 3337 3338 3339 3340 3341 3342 3343 3344 3345 3346 3347 3348 3349 3350 3351 3352 3353 3354 3355 3356 3357 3358 3359 3360 3361 3362 3363 3364 3365 3366 3367 3368 3369 3370 3371 3372 3373 3374 3375 3376 3377 3378 3379 3380 3381 3382 3383 3384 3385 3386 3387 3388 3389 3390 3391 3392 3393 3394 3395 3396 3397 3398 3399 3400 3401 3402 3403 3404 3405 3406 3407 3408 3409 3410 3411 3412 3413 3414 3415 3416 3417 3418 3419 3420 3421 3422 3423 3424 3425 3426 3427 3428 3429 3430 3431 3432 3433 3434 3435 3436 3437 3438 3439 3440 3441 3442 3443 3444 3445 3446 3447 3448 3449 3450 3451 3452 3453 3454 3455 3456 3457 3458 3459 3460 3461 3462 3463 3464 3465 3466 3467 3468 3469 3470 3471 3472 3473 3474 3475 3476 3477 3478 3479 3480 3481 3482 3483 3484 3485 3486 3487 3488 3489 3490 3491 3492 3493 3494 3495 3496 3497 3498 3499 3500 3501 3502 3503 3504 3505 3506 3507 3508 3509 3510 3511 3512 3513 3514 3515 3516 3517 3518 3519 3520 3521 3522 3523 3524 3525 3526 3527 3528 3529 3530 3531 3532 3533 3534 3535 3536 3537 3538 3539 3540 3541 3542 3543 3544 3545 3546 3547 3548 3549 3550 3551 3552 3553 3554 3555 3556 3557 3558 3559 3560 3561 3562 3563 3564 3565 3566 3567 3568 3569 3570 3571 3572 3573 3574 3575 3576 3577 3578 3579 3580 3581 3582 3583 3584 3585 3586 3587 3588 3589 3590 3591 3592 3593 3594 3595 3596 3597 3598 3599 3600 3601 3602 3603 3604 3605 3606 3607 3608 3609 3610 3611 3612 3613 3614 3615 3616 3617 3618 3619 3620 3621 3622 3623 3624 3625 3626 3627 3628 3629 3630 3631 3632 3633 3634 3635 3636 3637 3638 3639 3640 3641 3642 3643 3644 3645 3646 3647 3648 3649 3650 3651 3652 3653 3654 3655 3656 3657 3658 3659 3660 3661 3662 3663 3664 3665 3666 3667 3668 3669 3670 3671 3672 3673 3674 3675 3676 3677 3678 3679 3680 3681 3682 3683 3684 3685 3686 3687 3688 3689 3690 3691 3692 3693 3694 3695 3696 3697 3698 3699 3700 3701 3702 3703 3704 3705 3706 3707 3708 3709 3710 3711 3712 3713 3714 3715 3716 3717 3718 3719 3720 3721 3722 3723 3724 3725 3726 3727 3728 3729 3730 3731 3732 3733 3734 3735 3736 3737 3738 3739 3740 3741 3742 3743 3744 3745 3746 3747 3748 3749 3750 3751 3752 3753 3754 3755 3756 3757 3758 3759 3760 3761 3762 3763 3764 3765 3766 3767 3768 3769 3770 3771 3772 3773 3774 3775 3776 3777 3778 3779 3780 3781 3782 3783 3784 3785 3786 3787 3788 3789 3790 3791 3792 3793 3794 3795 3796 3797 3798 3799 3800 3801 3802 3803 3804 3805 3806 3807 3808 3809 3810 3811 3812 3813 3814 3815 3816 3817 3818 3819 3820 3821 3822 3823 3824 3825 3826 3827 3828 3829 3830 3831 3832 3833 3834 3835 3836 3837 3838 3839 3840 3841 3842 3843 3844 3845 3846 3847 3848 3849 3850 3851 3852 3853 3854 3855 3856 3857 3858 3859 3860 3861 3862 3863 3864 3865 3866 3867 3868 3869 3870 3871 3872 3873 3874 3875 3876 3877 3878 3879 3880 3881 3882 3883 3884 3885 3886 3887 3888 3889 3890 3891 3892 3893 3894 3895 3896 3897 3898 3899 3900 3901 3902 3903 3904 3905 3906 3907 3908 3909 3910 3911 3912 3913 3914 3915 3916 3917 3918 3919 3920 3921 3922 3923 3924 3925 3926 3927 3928 3929 3930 3931 3932 3933 3934 3935 3936 3937 3938 3939 3940 3941 3942 3943 3944 3945 3946 3947 3948 3949 3950 3951 3952 3953 3954 3955 3956 3957 3958 3959 3960 3961 3962 3963 3964 3965 3966 3967 3968 3969 3970 3971 3972 3973 3974 3975 3976 3977 3978 3979 3980 3981 3982 3983 3984 3985 3986 3987 3988 3989 3990 3991 3992 3993 3994 3995 3996 3997 3998 3999 4000 4001 4002 4003 4004 4005 4006 4007 4008 4009 4010 4011 4012 4013 4014 4015 4016 4017 4018 4019 4020 4021 4022 4023 4024 4025 4026 4027 4028 4029 4030 4031 4032 4033 4034 4035 4036 4037 4038 4039 4040 4041 4042 4043 4044 4045 4046 4047 4048 4049 4050 4051 4052 4053 4054 4055 4056 4057 4058 4059 4060 4061 4062 4063 4064 4065 4066 4067 4068 4069 4070 4071 4072 4073 4074 4075 4076 4077 4078 4079 4080 4081 4082 4083 4084 4085 4086 4087 4088 4089 4090 4091 4092 4093 4094 4095 4096 4097 4098 4099 4100 4101 4102 4103 4104 4105 4106 4107 4108 4109 4110 4111 4112 4113 4114 4115 4116 4117 4118 4119 4120 4121 4122 4123 4124 4125 4126 4127 4128 4129 4130 4131 4132 4133 4134 4135 4136 4137 4138 4139 4140 4141 4142 4143 4144 4145 4146 4147 4148 4149 4150 4151 4152 4153 4154 4155 4156 4157 4158 4159 4160 4161 4162 4163 4164 4165 4166 4167 4168 4169 4170 4171 4172 4173 4174 4175 4176 4177 4178 4179 4180 4181 4182 4183 4184 4185 4186 4187 4188 4189 4190 4191 4192 4193 4194 4195 4196 4197 4198 4199 4200 4201 4202 4203 4204 4205 4206 4207 4208 4209 4210 4211 4212 4213 4214 4215 4216 4217 4218 4219 4220 4221 4222 4223 4224 4225 4226 4227 4228 4229 4230 4231 4232 4233 4234 4235 4236 4237 4238 4239 4240 4241 4242 4243 4244 4245 4246 4247 4248 4249 4250 4251 4252 4253 4254 4255 4256 4257 4258 4259 4260 4261 4262 4263 4264 4265 4266 4267 4268 4269 4270 4271 4272 4273 4274 4275 4276 4277 4278 4279 4280 4281 4282 4283 4284 4285 4286 4287 4288 4289 4290 4291 4292 4293 4294 4295 4296 4297 4298 4299 4300 4301 4302 4303 4304 4305 4306 4307 4308 4309 4310 4311 4312 4313 4314 4315 4316 4317 4318 4319 4320 4321 4322 4323 4324 4325 4326 4327 4328 4329 4330 4331 4332 4333 4334 4335 4336 4337 4338 4339 4340 4341 4342 4343 4344 4345 4346 4347 4348 4349 4350 4351 4352 4353 4354 4355 4356 4357 4358 4359 4360 4361 4362 4363 4364 4365 4366 4367 4368 4369 4370 4371 4372 4373 4374 4375 4376 4377 4378 4379 4380 4381 4382 4383 4384 4385 4386 4387 4388 4389 4390 4391 4392 4393 4394 4395 4396 4397 4398 4399 4400 4401 4402 4403 4404 4405 4406 4407 4408 4409 4410 4411 4412 4413 4414 4415 4416 4417 4418 4419 4420 4421 4422 4423 4424 4425 4426 4427 4428 4429 4430 4431 4432 4433 4434 4435 4436 4437 4438 4439 4440 4441 4442 4443 4444 4445 4446 4447 4448 4449 4450 4451 4452 4453 4454 4455 4456 4457 4458 4459 4460 4461 4462 4463 4464 4465 4466 4467 4468 4469 4470 4471 4472 4473 4474 4475 4476 4477 4478 4479 4480 4481 4482 4483 4484 4485 4486 4487 4488 4489 4490 4491 4492 4493 4494 4495 4496 4497 4498 4499 4500 4501 4502 4503 4504 4505 4506 4507 4508 4509 4510 4511 4512 4513 4514 4515 4516 4517 4518 4519 4520 4521 4522 4523 4524 4525 4526 4527 4528 4529 4530 4531 4532 4533 4534 4535 4536 4537 4538 4539 4540 4541 4542 4543 4544 4545 4546 4547 4548 4549 4550 4551 4552 4553 4554 4555 4556 4557 4558 4559 4560 4561 4562 4563 4564 4565 4566 4567 4568 4569 4570 4571 4572 4573 4574 4575 4576 4577 4578 4579 4580 4581 4582 4583 4584 4585 4586 4587 4588 4589 4590 4591 4592 4593 4594 4595 4596 4597 4598 4599 4600 4601 4602 4603 4604 4605 4606 4607 4608 4609 4610 4611 4612 4613 4614 4615 4616 4617 4618 4619 4620 4621 4622 4623 4624 4625 4626 4627 4628 4629 4630 4631 4632 4633 4634 4635 4636 4637 4638 4639 4640 4641 4642 4643 4644 4645 4646 4647 4648 4649 4650 4651 4652 4653 4654 4655 4656 4657 4658 4659 4660 4661 4662 4663 4664 4665 4666 4667 4668 4669 4670 4671 4672 4673 4674 4675 4676 4677 4678 4679 4680 4681 4682 4683 4684 4685 4686 4687 4688 4689 4690 4691 4692 4693 4694 4695 4696 4697 4698 4699 4700 4701 4702 4703 4704 4705 4706 4707 4708 4709 4710 4711 4712 4713 4714 4715 4716 4717 4718 4719 4720 4721 4722 4723 4724 4725 4726 4727 4728 4729 4730 4731 4732 4733 4734 4735 4736 4737 4738 4739 4740 4741 4742 4743 4744 4745 4746 4747 4748 4749 4750 4751 4752 4753 4754 4755 4756 4757 4758 4759 4760 4761 4762 4763 4764 4765 4766 4767 4768 4769 4770 4771 4772 4773 4774 4775 4776 4777 4778 4779 4780 4781 4782 4783 4784 4785 4786 4787 4788 4789 4790 4791 4792 4793 4794 4795 4796 4797 4798 4799 4800 4801 4802 4803 4804 4805 4806 4807 4808 4809 4810 4811 4812 4813 4814 4815 4816 4817 4818 4819 4820 4821 4822 4823 4824 4825 4826 4827 4828 4829 4830 4831 4832 4833 4834 4835 4836 4837 4838 4839 4840 4841 4842 4843 4844 4845 4846 4847 4848 4849 4850 4851 4852 4853 4854 4855 4856 4857 4858 4859 4860 4861 4862 4863 4864 4865 4866 4867 4868 4869 4870 4871 4872 4873 4874 4875 4876 4877 4878 4879 4880 4881 4882 4883 4884 4885 4886 4887 4888 4889 4890 4891 4892 4893 4894 4895 4896 4897 4898 4899 4900 4901 4902 4903 4904 4905 4906 4907 4908 4909 4910 4911 4912 4913 4914 4915 4916 4917 4918 4919 4920 4921 4922 4923 4924 4925 4926 4927 4928 4929 4930 4931 4932 4933 4934 4935 4936 4937 4938 4939 4940 4941 4942 4943 4944 4945 4946 4947 4948 4949 4950 4951 4952 4953 4954 4955 4956 4957 4958 4959 4960 4961 4962 4963 4964 4965 4966 4967 4968 4969 4970 4971 4972 4973 4974 4975 4976 4977 4978 4979 4980 4981 4982 4983 4984 4985 4986 4987 4988 4989 4990 4991 4992 4993 4994 4995 4996 4997 4998 4999 5000 5001 5002 5003 5004 5005 5006 5007 5008 5009 5010 5011 5012 5013 5014 5015 5016 5017 5018 5019 5020 5021 5022 5023 5024 5025 5026 5027 5028 5029 5030 5031 5032 5033 5034 5035 5036 5037 5038 5039 5040 5041 5042 5043 5044 5045 5046 5047 5048 5049 5050 5051 5052 5053 5054 5055 5056 5057 5058 5059 5060 5061 5062 5063 5064 5065 5066 5067 5068 5069 5070 5071 5072 5073 5074 5075 5076 5077 5078 5079 5080 5081 5082 5083 5084 5085 5086 5087 5088 5089 5090 5091 5092 5093 5094 5095 5096 5097 5098 5099 5100 5101 5102 5103 5104 5105 5106 5107 5108 5109 5110 5111 5112 5113 5114 5115 5116 5117 5118 5119 5120 5121 5122 5123 5124 5125 5126 5127 5128 5129 5130 5131 5132 5133 5134 5135 5136 5137 5138 5139 5140 5141 5142 5143 5144 5145 5146 5147 5148 5149 5150 5151 5152 5153 5154 5155 5156 5157 5158 5159 5160 5161 5162 5163 5164 5165 5166 5167 5168 5169 5170 5171 5172 5173 5174 5175 5176 5177 5178 5179 5180 5181 5182 5183 5184 5185 5186 5187 5188 5189 5190 5191 5192 5193 5194 5195 5196 5197 5198 5199 5200 5201 5202 5203 5204 5205 5206 5207 5208 5209 5210 5211 5212 5213 5214 5215 5216 5217 5218 5219 5220 5221 5222 5223 5224 5225 5226 5227 5228 5229 5230 5231 5232 5233 5234 5235 5236 5237 5238 5239 5240 5241 5242 5243 5244 5245 5246 5247 5248 5249 5250 5251 5252 5253 5254 5255 5256 5257 5258 5259 5260 5261 5262 5263 5264 5265 5266 5267 5268 5269 5270 5271 5272 5273 5274 5275 5276 5277 5278 5279 5280 5281 5282 5283 5284 5285 5286 5287 5288 5289 5290 5291 5292 5293 5294 5295 5296 5297 5298 5299 5300 5301 5302 5303 5304 5305 5306 5307 5308 5309 5310 5311 5312 5313 5314 5315 5316 5317 5318 5319 5320 5321 5322 5323 5324 5325 5326 5327 5328 5329 5330 5331 5332 5333 5334 5335 5336 5337 5338 5339 5340 5341 5342 5343 5344 5345 5346 5347 5348 5349 5350 5351 5352 5353 5354 5355 5356 5357 5358 5359 5360 5361 5362 5363 5364 5365 5366 5367 5368 5369 5370 5371 5372 5373 5374 5375 5376 5377 5378 5379 5380 5381 5382 5383 5384 5385 5386 5387 5388 5389 5390 5391 5392 5393 5394 5395 5396 5397 5398 5399 5400 5401 5402 5403 5404 5405 5406 5407 5408 5409 5410 5411 5412 5413 5414 5415 5416 5417 5418 5419 5420 5421 5422 5423 5424 5425 5426 5427 5428 5429 5430 5431 5432 5433 5434 5435 5436 5437 5438 5439 5440 5441 5442 5443 5444 5445 5446 5447 5448 5449 5450 5451 5452 5453 5454 5455 5456 5457 5458 5459 5460 5461 5462 5463 5464 5465 5466 5467 5468 5469 5470 5471 5472 5473 5474 5475 5476 5477 5478 5479 5480 5481 5482 5483 5484 5485 5486 5487 5488 5489 5490 5491 5492 5493 5494 5495 5496 5497 5498 5499 5500 5501 5502 5503 5504 5505 5506 5507 5508 5509 5510 5511 5512 5513 5514 5515 5516 5517 5518 5519 5520 5521 5522 5523 5524 5525 5526 5527 5528 5529 5530 5531 5532 5533 5534 5535 5536 5537 5538 5539 5540 5541 5542 5543 5544 5545 5546 5547 5548 5549 5550 5551 5552 5553 5554 5555 5556 5557 5558 5559 5560 5561 5562 5563 5564 5565 5566 5567 5568 5569 5570 5571 5572 5573 5574 5575 5576 5577 5578 5579 5580 5581 5582 5583 5584 5585 5586 5587 5588 5589 5590 5591 5592 5593 5594 5595 5596 5597 5598 5599 5600 5601 5602 5603 5604 5605 5606 5607 5608 5609 5610 5611 5612 5613 5614 5615 5616 5617 5618 5619 5620 5621 5622 5623 5624 5625 5626 5627 5628 5629 5630 5631 5632 5633 5634 5635 5636 5637 5638 5639 5640 5641 5642 5643 5644 5645 5646 5647 5648 5649 5650 5651 5652 5653 5654 5655 5656 5657 5658 5659 5660 5661 5662 5663 5664 5665 5666 5667 5668 5669 5670 5671 5672 5673 5674 5675 5676 5677 5678 5679 5680 5681 5682 5683 5684 5685 5686 5687 5688 5689 5690 5691 5692 5693 5694 5695 5696 5697 5698 5699 5700 5701 5702 5703 5704 5705 5706 5707 5708 5709 5710 5711 5712 5713 5714 5715 5716 5717 5718 5719 5720 5721 5722 5723 5724 5725 5726 5727 5728 5729 5730 5731 5732 5733 5734 5735 5736 5737 5738 5739 5740 5741 5742 5743 5744 5745 5746 5747 5748 5749 5750 5751 5752 5753 5754 5755 5756 5757 5758 5759 5760 5761 5762 5763 5764 5765 5766 5767 5768 5769 5770 5771 5772 5773 5774 5775 5776 5777 5778 5779 5780 5781 5782 5783 5784 5785 5786 5787 5788 5789 5790 5791 5792 5793 5794 5795 5796 5797 5798 5799 5800 5801 5802 5803 5804 5805 5806 5807 5808 5809 5810 5811 5812 5813 5814 5815 5816 5817 5818 5819 5820 5821 5822 5823 5824 5825 5826 5827 5828 5829 5830 5831 5832 5833 5834 5835 5836 5837 5838 5839 5840 5841 5842 5843 5844 5845 5846 5847 5848 5849 5850 5851 5852 5853 5854 5855 5856 5857 5858 5859 5860 5861 5862 5863 5864 5865 5866 5867 5868 5869 5870 5871 5872 5873 5874 5875 5876 5877 5878 5879 5880 5881 5882 5883 5884 5885 5886 5887 5888 5889 5890 5891 5892 5893 5894 5895 5896 5897 5898 5899 5900 5901 5902 5903 5904 5905 5906 5907 5908 5909 5910 5911 5912 5913 5914 5915 5916 5917 5918 5919 5920 5921 5922 5923 5924 5925 5926 5927 5928 5929 5930 5931 5932 5933 5934 5935 5936 5937 5938 5939 5940 5941 5942 5943 5944 5945 5946 5947 5948 5949 5950 5951 5952 5953 5954 5955 5956 5957 5958 5959 5960 5961 5962 5963 5964 5965 5966 5967 5968 5969 5970 5971 5972 5973 5974 5975 5976 5977 5978 5979 5980 5981 5982 5983 5984 5985 5986 5987 5988 5989 5990 5991 5992 5993 5994 5995 5996 5997 5998 5999 6000 6001 6002 6003 6004 6005 6006 6007 6008 6009 6010 6011 6012 6013 6014 6015 6016 6017 6018 6019 6020 6021 6022 6023 6024 6025 6026 6027 6028 6029 6030 6031 6032 6033 6034 6035 6036 6037 6038 6039 6040 6041 6042 6043 6044 6045 6046 6047 6048 6049 6050 6051 6052 6053 6054 6055 6056 6057 6058 6059 6060 6061 6062 6063 6064 6065 6066 6067 6068 6069 6070 6071 6072 6073 6074 6075 6076 6077 6078 6079 6080 6081 6082 6083 6084 6085 6086 6087 6088 6089 6090 6091 6092 6093 6094 6095 6096 6097 6098 6099 6100 6101 6102 6103 6104 6105 6106 6107 6108 6109 6110 6111 6112 6113 6114 6115 6116 6117 6118 6119 6120 6121 6122 6123 6124 6125 6126 6127 6128 6129 6130 6131 6132 6133 6134 6135 6136 6137 6138 6139 6140 6141 6142 6143 6144 6145 6146 6147 6148 6149 6150 6151 6152 6153 6154 6155 6156 6157 6158 6159 6160 6161 6162 6163 6164 6165 6166 6167 6168 6169 6170 6171 6172 6173 6174 6175 6176 6177 6178 6179 6180 6181 6182 6183 6184 6185 6186 6187 6188 6189 6190 6191 6192 6193 6194 6195 6196 6197 6198 6199 6200 6201 6202 6203 6204 6205 6206 6207 6208 6209 6210 6211 6212 6213 6214 6215 6216 6217 6218 6219 6220 6221 6222 6223 6224 6225 6226 6227 6228 6229 6230 6231 6232 6233 6234 6235 6236 6237 6238 6239 6240 6241 6242 6243 6244 6245 6246 6247 6248 6249 6250 6251 6252 6253 6254 6255 6256 6257 6258 6259 6260 6261 6262 6263 6264 6265 6266 6267 6268 6269 6270 6271 6272 6273 6274 6275 6276 6277 6278 6279 6280 6281 6282 6283 6284 6285 6286 6287 6288 6289 6290 6291 6292 6293 6294 6295 6296 6297 6298 6299 6300 6301 6302 6303 6304 6305 6306 6307 6308 6309 6310 6311 6312 6313 6314 6315 6316 6317 6318 6319 6320 6321 6322 6323 6324 6325 6326 6327 6328 6329 6330 6331 6332 6333 6334 6335 6336 6337 6338 6339 6340 6341 6342 6343 6344 6345 6346 6347 6348 6349 6350 6351 6352 6353 6354 6355 6356 6357 6358 6359 6360 6361 6362 6363 6364 6365 6366 6367 6368 6369 6370 6371 6372 6373 6374 6375 6376 6377 6378 6379 6380 6381 6382 6383 6384 6385 6386 6387 6388 6389 6390 6391 6392 6393 6394 6395 6396 6397 6398 6399 6400 6401 6402 6403 6404 6405 6406 6407 6408 6409 6410 6411 6412 6413 6414 6415 6416 6417 6418 6419 6420 6421 6422 6423 6424 6425 6426 6427 6428 6429 6430 6431 6432 6433 6434 6435 6436 6437 6438 6439 6440 6441 6442 6443 6444 6445 6446 6447 6448 6449 6450 6451 6452 6453 6454 6455 6456 6457 6458 6459 6460 6461 6462 6463 6464 6465 6466 6467 6468 6469 6470 6471 6472 6473 6474 6475 6476 6477 6478 6479 6480 6481 6482 6483 6484 6485 6486 6487 6488 6489 6490 6491 6492 6493 6494 6495 6496 6497 6498 6499 6500 6501 6502 6503 6504 6505 6506 6507 6508 6509 6510 6511 6512 6513 6514 6515 6516 6517 6518 6519 6520 6521 6522 6523 6524 6525 6526 6527 6528 6529 6530 6531 6532 6533 6534 6535 6536 6537 6538 6539 6540 6541 6542 6543 6544 6545 6546 6547 6548 6549 6550 6551 6552 6553 6554 6555 6556 6557 6558 6559 6560 6561 6562 6563 6564 6565 6566 6567 6568 6569 6570 6571 6572 6573 6574 6575 6576 6577 6578 6579 6580 6581 6582 6583 6584 6585 6586 6587 6588 6589 6590 6591 6592 6593 6594 6595 6596 6597 6598 6599 6600 6601 6602 6603 6604 6605 6606 6607 6608 6609 6610 6611 6612 6613 6614 6615 6616 6617 6618 6619 6620 6621 6622 6623 6624 6625 6626 6627 6628 6629 6630 6631 6632 6633 6634 6635 6636 6637 6638 6639 6640 6641 6642 6643 6644 6645 6646 6647 6648 6649 6650 6651 6652 6653 6654 6655 6656 6657 6658 6659 6660 6661 6662 6663 6664 6665 6666 6667 6668 6669 6670 6671 6672 6673 6674 6675 6676 6677 6678 6679 6680 6681 6682 6683 6684 6685 6686 6687 6688 6689 6690 6691 6692 6693 6694 6695 6696 6697 6698 6699 6700 6701 6702 6703 6704 6705 6706 6707 6708 6709 6710 6711 6712 6713 6714 6715 6716 6717 6718 6719 6720 6721 6722 6723 6724 6725 6726 6727 6728 6729 6730 6731 6732 6733 6734 6735 6736 6737 6738 6739 6740 6741 6742 6743 6744 6745 6746 6747 6748 6749 6750 6751 6752 6753 6754 6755 6756 6757 6758 6759 6760 6761 6762 6763 6764 6765 6766 6767 6768 6769 6770 6771 6772 6773 6774 6775 6776 6777 6778 6779 6780 6781 6782 6783 6784 6785 6786 6787 6788 6789 6790 6791 6792 6793 6794 6795 6796 6797 6798 6799 6800 6801 6802 6803 6804 6805 6806 6807 6808 6809 6810 6811 6812 6813 6814 6815 6816 6817 6818 6819 6820 6821 6822 6823 6824 6825 6826 6827 6828 6829 6830 6831 6832 6833 6834 6835 6836 6837 6838 6839 6840 6841 6842 6843 6844 6845 6846 6847 6848 6849 6850 6851 6852 6853 6854 6855 6856 6857 6858 6859 6860 6861 6862 6863 6864 6865 6866 6867 6868 6869 6870 6871 6872 6873 6874 6875 6876 6877 6878 6879 6880 6881 6882 6883 6884 6885 6886 6887 6888 6889 6890 6891 6892 6893 6894 6895 6896 6897 6898 6899 6900 6901 6902 6903 6904 6905 6906 6907 6908 6909 6910 6911 6912 6913 6914 6915 6916 6917 6918 6919 6920 6921 6922 6923 6924 6925 6926 6927 6928 6929 6930 6931 6932 6933 6934 6935 6936 6937 6938 6939 6940 6941 6942 6943 6944 6945 6946 6947 6948 6949 6950 6951 6952 6953 6954 6955 6956 6957 6958 6959 6960 6961 6962 6963 6964 6965 6966 6967 6968 6969 6970 6971 6972 6973 6974 6975 6976 6977 6978 6979 6980 6981 6982 6983 6984 6985 6986 6987 6988 6989 6990 6991 6992 6993 6994 6995 6996 6997 6998 6999 7000 7001 7002 7003 7004 7005 7006 7007 7008 7009 7010 7011 7012 7013 7014 7015 7016 7017 7018 7019 7020 7021 7022 7023 7024 7025 7026 7027 7028 7029 7030 7031 7032 7033 7034 7035 7036 7037 7038 7039 7040 7041 7042 7043 7044 7045 7046 7047 7048 7049 7050 7051 7052 7053 7054 7055 7056 7057 7058 7059 7060 7061 7062 7063 7064 7065 7066 7067 7068 7069 7070 7071 7072 7073 7074 7075 7076 7077 7078 7079 7080 7081 7082 7083 7084 7085 7086 7087 7088 7089 7090 7091 7092 7093 7094 7095 7096 7097 7098 7099 7100 7101 7102 7103 7104 7105 7106 7107 7108 7109 7110 7111 7112 7113 7114 7115 7116 7117 7118 7119 7120 7121 7122 7123 7124 7125 7126 7127 7128 7129 7130 7131 7132 7133 7134 7135 7136 7137 7138 7139 7140 7141 7142 7143 7144 7145 7146 7147 7148 7149 7150 7151 7152 7153 7154 7155 7156 7157 7158 7159 7160 7161 7162 7163 7164 7165 7166 7167 7168 7169 7170 7171 7172 7173 7174 7175 7176 7177 7178 7179 7180 7181 7182 7183 7184 7185 7186 7187 7188 7189 7190 7191 7192 7193 7194 7195 7196 7197 7198 7199 7200 7201 7202 7203 7204 7205 7206 7207 7208 7209 7210 7211 7212 7213 7214 7215 7216 7217 7218 7219 7220 7221 7222 7223 7224 7225 7226 7227 7228 7229 7230 7231 7232 7233 7234 7235 7236 7237 7238 7239 7240 7241 7242 7243 7244 7245 7246 7247 7248 7249 7250 7251 7252 7253 7254 7255 7256 7257 7258 7259 7260 7261 7262 7263 7264 7265 7266 7267 7268 7269 7270 7271 7272 7273 7274 7275 7276 7277 7278 7279 7280 7281 7282 7283 7284 7285 7286 7287 7288 7289 7290 7291 7292 7293 7294 7295 7296 7297 7298 7299 7300 7301 7302 7303 7304 7305 7306 7307 7308 7309 7310 7311 7312 7313 7314 7315 7316 7317 7318 7319 7320 7321 7322 7323 7324 7325 7326 7327 7328 7329 7330 7331 7332 7333 7334 7335 7336 7337 7338 7339 7340 7341 7342 7343 7344 7345 7346 7347 7348 7349 7350 7351 7352 7353 7354 7355 7356 7357 7358 7359 7360 7361 7362 7363 7364 7365 7366 7367 7368 7369 7370 7371 7372 7373 7374 7375 7376 7377 7378 7379 7380 7381 7382 7383 7384 7385 7386 7387 7388 7389 7390 7391 7392 7393 7394 7395 7396 7397 7398 7399 7400 7401 7402 7403 7404 7405 7406 7407 7408 7409 7410 7411 7412 7413 7414 7415 7416 7417 7418 7419 7420 7421 7422 7423 7424 7425 7426 7427 7428 7429 7430 7431 7432 7433 7434 7435 7436 7437 7438 7439 7440 7441 7442 7443 7444 7445 7446 7447 7448 7449 7450 7451 7452 7453 7454 7455 7456 7457 7458 7459 7460 7461 7462 7463 7464 7465 7466 7467 7468 7469 7470 7471 7472 7473 7474 7475 7476 7477 7478 7479 7480 7481 7482 7483 7484 7485 7486 7487 7488 7489 7490 7491 7492 7493 7494 7495 7496 7497 7498 7499 7500 7501 7502 7503 7504 7505 7506 7507 7508 7509 7510 7511 7512 7513 7514 7515 7516 7517 7518 7519 7520 7521 7522 7523 7524 7525 7526 7527 7528 7529 7530 7531 7532 7533 7534 7535 7536 7537 7538 7539 7540 7541 7542 7543 7544 7545 7546 7547 7548 7549 7550 7551 7552 7553 7554 7555 7556 7557 7558 7559 7560 7561 7562 7563 7564 7565 7566 7567 7568 7569 7570 7571 7572 7573 7574 7575 7576 7577 7578 7579 7580 7581 7582 7583 7584 7585 7586 7587 7588 7589 7590 7591 7592 7593 7594 7595 7596 7597 7598 7599 7600 7601 7602 7603 7604 7605 7606 7607 7608 7609 7610 7611 7612 7613 7614 7615 7616 7617 7618 7619 7620 7621 7622 7623 7624 7625 7626 7627 7628 7629 7630 7631 7632 7633 7634 7635 7636 7637 7638 7639 7640 7641 7642 7643 7644 7645 7646 7647 7648 7649 7650 7651 7652 7653 7654 7655 7656 7657 7658 7659 7660 7661 7662 7663 7664 7665 7666 7667 7668 7669 7670 7671 7672 7673 7674 7675 7676 7677 7678 7679 7680 7681 7682 7683 7684 7685 7686 7687 7688 7689 7690 7691 7692 7693 7694 7695 7696 7697 7698 7699 7700 7701 7702 7703 7704 7705 7706 7707 7708 7709 7710 7711 7712 7713 7714 7715 7716 7717 7718 7719 7720 7721 7722 7723 7724 7725 7726 7727 7728 7729 7730 7731 7732 7733 7734 7735 7736 7737 7738 7739 7740 7741 7742 7743 7744 7745 7746 7747 7748 7749 7750 7751 7752 7753 7754 7755 7756 7757 7758 7759 7760 7761 7762 7763 7764 7765 7766 7767 7768 7769 7770 7771 7772 7773 7774 7775 7776 7777 7778 7779 7780 7781 7782 7783 7784 7785 7786 7787 7788 7789 7790 7791 7792 7793 7794 7795 7796 7797 7798 7799 7800 7801 7802 7803 7804 7805 7806 7807 7808 7809 7810 7811 7812 7813 7814 7815 7816 7817 7818 7819 7820 7821 7822 7823 7824 7825 7826 7827 7828 7829 7830 7831 7832 7833 7834 7835 7836 7837 7838 7839 7840 7841 7842 7843 7844 7845 7846 7847 7848 7849 7850 7851 7852 7853 7854 7855 7856 7857 7858 7859 7860 7861 7862 7863 7864 7865 7866 7867 7868 7869 7870 7871 7872 7873 7874 7875 7876 7877 7878 7879 7880 7881 7882 7883 7884 7885 7886 7887 7888 7889 7890 7891 7892 7893 7894 7895 7896 7897 7898 7899 7900 7901 7902 7903 7904 7905 7906 7907 7908 7909 7910 7911 7912 7913 7914 7915 7916 7917 7918 7919 7920 7921 7922 7923 7924 7925 7926 7927 7928 7929 7930 7931 7932 7933 7934 7935 7936 7937 7938 7939 7940 7941 7942 7943 7944 7945 7946 7947 7948 7949 7950 7951 7952 7953 7954 7955 7956 7957 7958 7959 7960 7961 7962 7963 7964 7965 7966 7967 7968 7969 7970 7971 7972 7973 7974 7975 7976 7977 7978 7979 7980 7981 7982 7983 7984 7985 7986 7987 7988 7989 7990 7991 7992 7993 7994 7995 7996 7997 7998 7999 8000 8001 8002 8003 8004 8005 8006 8007 8008 8009 8010 8011 8012 8013 8014 8015 8016 8017 8018 8019 8020 8021 8022 8023 8024 8025 8026 8027 8028 8029 8030 8031 8032 8033 8034 8035 8036 8037 8038 8039 8040 8041 8042 8043 8044 8045 8046 8047 8048 8049 8050 8051 8052 8053 8054 8055 8056 8057 8058 8059 8060 8061 8062 8063 8064 8065 8066 8067 8068 8069 8070 8071 8072 8073 8074 8075 8076 8077 8078 8079 8080 8081 8082 8083 8084 8085 8086 8087 8088 8089 8090 8091 8092 8093 8094 8095 8096 8097 8098 8099 8100 8101 8102 8103 8104 8105 8106 8107 8108 8109 8110 8111 8112 8113 8114 8115 8116 8117 8118 8119 8120 8121 8122 8123 8124 8125 8126 8127 8128 8129 8130 8131 8132 8133 8134 8135 8136 8137 8138 8139 8140 8141 8142 8143 8144 8145 8146 8147 8148 8149 8150 8151 8152 8153 8154 8155 8156 8157 8158 8159 8160 8161 8162 8163 8164 8165 8166 8167 8168 8169 8170 8171 8172 8173 8174 8175 8176 8177 8178 8179 8180 8181 8182 8183 8184 8185 8186 8187 8188 8189 8190 8191 8192 8193 8194 8195 8196 8197 8198 8199 8200 8201 8202 8203 8204 8205 8206 8207 8208 8209 8210 8211 8212 8213 8214 8215 8216 8217 8218 8219 8220 8221 8222 8223 8224 8225 8226 8227 8228 8229 8230 8231 8232 8233 8234 8235 8236 8237 8238 8239 8240 8241 8242 8243 8244 8245 8246 8247 8248 8249 8250 8251 8252 8253 8254 8255 8256 8257 8258 8259 8260 8261 8262 8263 8264 8265 8266 8267 8268 8269 8270 8271 8272 8273 8274 8275 8276 8277 8278 8279 8280 8281 8282 8283 8284 8285 8286 8287 8288 8289 8290 8291 8292 8293 8294 8295 8296 8297 8298 8299 8300 8301 8302 8303 8304 8305 8306 8307 8308 8309 8310 8311 8312 8313 8314 8315 8316 8317 8318 8319 8320 8321 8322 8323 8324 8325 8326 8327 8328 8329 8330 8331 8332 8333 8334 8335 8336 8337 8338 8339 8340 8341 8342 8343 8344 8345 8346 8347 8348 8349 8350 8351 8352 8353 8354 8355 8356 8357 8358 8359 8360 8361 8362 8363 8364 8365 8366 8367 8368 8369 8370 8371 8372 8373 8374 8375 8376 8377 8378 8379 8380 8381 8382 8383 8384 8385 8386 8387 8388 8389 8390 8391 8392 8393 8394 8395 8396 8397 8398 8399 8400 8401 8402 8403 8404 8405 8406 8407 8408 8409 8410 8411 8412 8413 8414 8415 8416 8417 8418 8419 8420 8421 8422 8423 8424 8425 8426 8427 8428 8429 8430 8431 8432 8433 8434 8435 8436 8437 8438 8439 8440 8441 8442 8443 8444 8445 8446 8447 8448 8449 8450 8451 8452 8453 8454 8455 8456 8457 8458 8459 8460 8461 8462 8463 8464 8465 8466 8467 8468 8469 8470 8471 8472 8473 8474 8475 8476 8477 8478 8479 8480 8481 8482 8483 8484 8485 8486 8487 8488 8489 8490 8491 8492 8493 8494 8495 8496 8497 8498 8499 8500 8501 8502 8503 8504 8505 8506 8507 8508 8509 8510 8511 8512 8513 8514 8515 8516 8517 8518 8519 8520 8521 8522 8523 8524 8525 8526 8527 8528 8529 8530 8531 8532 8533 8534 8535 8536 8537 8538 8539 8540 8541 8542 8543 8544 8545 8546 8547 8548 8549 8550 8551 8552 8553 8554 8555 8556 8557 8558 8559 8560 8561 8562 8563 8564 8565 8566 8567 8568 8569 8570 8571 8572 8573 8574 8575 8576 8577 8578 8579 8580 8581 8582 8583 8584 8585 8586 8587 8588 8589 8590 8591 8592 8593 8594 8595 8596 8597 8598 8599 8600 8601 8602 8603 8604 8605 8606 8607 8608 8609 8610 8611 8612 8613 8614 8615 8616 8617 8618 8619 8620 8621 8622 8623 8624 8625 8626 8627 8628 8629 8630 8631 8632 8633 8634 8635 8636 8637 8638 8639 8640 8641 8642 8643 8644 8645 8646 8647 8648 8649 8650 8651 8652 8653 8654 8655 8656 8657 8658 8659 8660 8661 8662 8663 8664 8665 8666 8667 8668 8669 8670 8671 8672 8673 8674 8675 8676 8677 8678 8679 8680 8681 8682 8683 8684 8685 8686 8687 8688 8689 8690 8691 8692 8693 8694 8695 8696 8697 8698 8699 8700 8701 8702 8703 8704 8705 8706 8707 8708 8709 8710 8711 8712 8713 8714 8715 8716 8717 8718 8719 8720 8721 8722 8723 8724 8725 8726 8727 8728 8729 8730 8731 8732 8733 8734 8735 8736 8737 8738 8739 8740 8741 8742 8743 8744 8745 8746 8747 8748 8749 8750 8751 8752 8753 8754 8755 8756 8757 8758 8759 8760 8761 8762 8763 8764 8765 8766 8767 8768 8769 8770 8771 8772 8773 8774 8775 8776 8777 8778 8779 8780 8781 8782 8783 8784 8785 8786 8787 8788 8789 8790 8791 8792 8793 8794 8795 8796 8797 8798 8799 8800 8801 8802 8803 8804 8805 8806 8807 8808 8809 8810 8811 8812 8813 8814 8815 8816 8817 8818 8819 8820 8821 8822 8823 8824 8825 8826 8827 8828 8829 8830 8831 8832 8833 8834 8835 8836 8837 8838 8839 8840 8841 8842 8843 8844 8845 8846 8847 8848 8849 8850 8851 8852 8853 8854 8855 8856 8857 8858 8859 8860 8861 8862 8863 8864 8865 8866 8867 8868 8869 8870 8871 8872 8873 8874 8875 8876 8877 8878 8879 8880 8881 8882 8883 8884 8885 8886 8887 8888 8889 8890 8891 8892 8893 8894 8895 8896 8897 8898 8899 8900 8901 8902 8903 8904 8905 8906 8907 8908 8909 8910 8911 8912 8913 8914 8915 8916 8917 8918 8919 8920 8921 8922 8923 8924 8925 8926 8927 8928 8929 8930 8931 8932 8933 8934 8935 8936 8937 8938 8939 8940 8941 8942 8943 8944 8945 8946 8947 8948 8949 8950 8951 8952 8953 8954 8955 8956 8957 8958 8959 8960 8961 8962 8963 8964 8965 8966 8967 8968 8969 8970 8971 8972 8973 8974 8975 8976 8977 8978 8979 8980 8981 8982 8983 8984 8985 8986 8987 8988 8989 8990 8991 8992 8993 8994 8995 8996 8997 8998 8999 9000 9001 9002 9003 9004 9005 9006 9007 9008 9009 9010 9011 9012 9013 9014 9015 9016 9017 9018 9019 9020 9021 9022 9023 9024 9025 9026 9027 9028 9029 9030 9031 9032 9033 9034 9035 9036 9037 9038 9039 9040 9041 9042 9043 9044 9045 9046 9047 9048 9049 9050 9051 9052 9053 9054 9055 9056 9057 9058 9059 9060 9061 9062 9063 9064 9065 9066 9067 9068 9069 9070 9071 9072 9073 9074 9075 9076 9077 9078 9079 9080 9081 9082 9083 9084 9085 9086 9087 9088 9089 9090 9091 9092 9093 9094 9095 9096 9097 9098 9099 9100 9101 9102 9103 9104 9105 9106 9107 9108 9109 9110 9111 9112 9113 9114 9115 9116 9117 9118 9119 9120 9121 9122 9123 9124 9125 9126 9127 9128 9129 9130 9131 9132 9133 9134 9135 9136 9137 9138 9139 9140 9141 9142 9143 9144 9145 9146 9147 9148 9149 9150 9151 9152 9153 9154 9155 9156 9157 9158 9159 9160 9161 9162 9163 9164 9165 9166 9167 9168 9169 9170 9171 9172 9173 9174 9175 9176 9177 9178 9179 9180 9181 9182 9183 9184 9185 9186 9187 9188 9189 9190 9191 9192 9193 9194 9195 9196 9197 9198 9199 9200 9201 9202 9203 9204 9205 9206 9207 9208 9209 9210 9211 9212 9213 9214 9215 9216 9217 9218 9219 9220 9221 9222 9223 9224 9225 9226 9227 9228 9229 9230 9231 9232 9233 9234 9235 9236 9237 9238 9239 9240 9241 9242 9243 9244 9245 9246 9247 9248 9249 9250 9251 9252 9253 9254 9255 9256 9257 9258 9259 9260 9261 9262 9263 9264 9265 9266 9267 9268 9269 9270 9271 9272 9273 9274 9275 9276 9277 9278 9279 9280 9281 9282 9283 9284 9285 9286 9287 9288 9289 9290 9291 9292 9293 9294 9295 9296 9297 9298 9299 9300 9301 9302 9303 9304 9305 9306 9307 9308 9309 9310 9311 9312 9313 9314 9315 9316 9317 9318 9319 9320 9321 9322 9323 9324 9325 9326 9327 9328 9329 9330 9331 9332 9333 9334 9335 9336 9337 9338 9339 9340 9341 9342 9343 9344 9345 9346 9347 9348 9349 9350 9351 9352 9353 9354 9355 9356 9357 9358 9359 9360 9361 9362 9363 9364 9365 9366 9367 9368 9369 9370 9371 9372 9373 9374 9375 9376 9377 9378 9379 9380 9381 9382 9383 9384 9385 9386 9387 9388 9389 9390 9391 9392 9393 9394 9395 9396 9397 9398 9399 9400 9401 9402 9403 9404 9405 9406 9407 9408 9409 9410 9411 9412 9413 9414 9415 9416 9417 9418 9419 9420 9421 9422 9423 9424 9425 9426 9427 9428 9429 9430 9431 9432 9433 9434 9435 9436 9437 9438 9439 9440 9441 9442 9443 9444 9445 9446 9447 9448 9449 9450 9451 9452 9453 9454 9455 9456 9457 9458 9459 9460 9461 9462 9463 9464 9465 9466 9467 9468 9469 9470 9471 9472 9473 9474 9475 9476 9477 9478 9479 9480 9481 9482 9483 9484 9485 9486 9487 9488 9489 9490 9491 9492 9493 9494 9495 9496 9497 9498 9499 9500 9501 9502 9503 9504 9505 9506 9507 9508 9509 9510 9511 9512 9513 9514 9515 9516 9517 9518 9519 9520 9521 9522 9523 9524 9525 9526 9527 9528 9529 9530 9531 9532 9533 9534 9535 9536 9537 9538 9539 9540 9541 9542 9543 9544 9545 9546 9547 9548 9549 9550 9551 9552 9553 9554 9555 9556 9557 9558 9559 9560 9561 9562 9563 9564 9565 9566 9567 9568 9569 9570 9571 9572 9573 9574 9575 9576 9577 9578 9579 9580 9581 9582 9583 9584 9585 9586 9587 9588 9589 9590 9591 9592 9593 9594 9595 9596 9597 9598 9599 9600 9601 9602 9603 9604 9605 9606 9607 9608 9609 9610 9611 9612 9613 9614 9615 9616 9617 9618 9619 9620 9621 9622 9623 9624 9625 9626 9627 9628 9629 9630 9631 9632 9633 9634 9635 9636 9637 9638 9639 9640 9641 9642 9643 9644 9645 9646 9647 9648 9649 9650 9651 9652 9653 9654 9655 9656 9657 9658 9659 9660 9661 9662 9663 9664 9665 9666 9667 9668 9669 9670 9671 9672 9673 9674 9675 9676 9677 9678 9679 9680 9681 9682 9683 9684 9685 9686 9687 9688 9689 9690 9691 9692 9693 9694 9695 9696 9697 9698 9699 9700 9701 9702 9703 9704 9705 9706 9707 9708 9709 9710 9711 9712 9713 9714 9715 9716 9717 9718 9719 9720 9721 9722 9723 9724 9725 9726 9727 9728 9729 9730 9731 9732 9733 9734 9735 9736 9737 9738 9739 9740 9741 9742 9743 9744 9745 9746 9747 9748 9749 9750 9751 9752 9753 9754 9755 9756 9757 9758 9759 9760 9761 9762 9763 9764 9765 9766 9767 9768 9769 9770 9771 9772 9773 9774 9775 9776 9777 9778 9779 9780 9781 9782 9783 9784 9785 9786 9787 9788 9789 9790 9791 9792 9793 9794 9795 9796 9797 9798 9799 9800 9801 9802 9803 9804 9805 9806 9807 9808 9809 9810 9811 9812 9813 9814 9815 9816 9817 9818 9819 9820 9821 9822 9823 9824 9825 9826 9827 9828 9829 9830 9831 9832 9833 9834 9835 9836 9837 9838 9839 9840 9841 9842 9843 9844 9845 9846 9847 9848 9849 9850 9851 9852 9853 9854 9855 9856 9857 9858 9859 9860 9861 9862 9863 9864 9865 9866 9867 9868 9869 9870 9871 9872 9873 9874 9875 9876 9877 9878 9879 9880 9881 9882 9883 9884 9885 9886 9887 9888 9889 9890 9891 9892 9893 9894 9895 9896 9897 9898 9899 9900 9901 9902 9903 9904 9905 9906 9907 9908 9909 9910 9911 9912 9913 9914 9915 9916 9917 9918 9919 9920 9921 9922 9923 9924 9925 9926 9927 9928 9929 9930 9931 9932 9933 9934 9935 9936 9937 9938 9939 9940 9941 9942 9943 9944 9945 9946 9947 9948 9949 9950 9951 9952 9953 9954 9955 9956 9957 9958 9959 9960 9961 9962 9963 9964 9965 9966 9967 9968 9969 9970 9971 9972 9973 9974 9975 9976 9977 9978 9979 9980 9981 9982 9983 9984 9985 9986 9987 9988 9989 9990 9991 9992 9993 9994 9995 9996 9997 9998 9999 10000 10001 10002 10003 10004 10005 10006 10007 10008 10009 10010 10011 10012 10013 10014 10015 10016 10017 10018 10019 10020 10021 10022 10023 10024 10025 10026 10027 10028 10029 10030 10031 10032 10033 10034 10035 10036 10037 10038 10039 10040 10041 10042 10043 10044 10045 10046 10047 10048 10049 10050 10051 10052 10053 10054 10055 10056 10057 10058 10059 10060 10061 10062 10063 10064 10065 10066 10067 10068 10069 10070 10071 10072 10073 10074 10075 10076 10077 10078 10079 10080 10081 10082 10083 10084 10085 10086 10087 10088 10089 10090 10091 10092 10093 10094 10095 10096 10097 10098 10099 10100 10101 10102 10103 10104 10105 10106 10107 10108 10109 10110 10111 10112 10113 10114 10115 10116 10117 10118 10119 10120 10121 10122 10123 10124 10125 10126 10127 10128 10129 10130 10131 10132 10133 10134 10135 10136 10137 10138 10139 10140 10141 10142 10143 10144 10145 10146 10147 10148 10149 10150 10151 10152 10153 10154 10155 10156 10157 10158 10159 10160 10161 10162 10163 10164 10165 10166 10167 10168 10169 10170 10171 10172 10173 10174 10175 10176 10177 10178 10179 10180 10181 10182 10183 10184 10185 10186 10187 10188 10189 10190 10191 10192 10193 10194 10195 10196 10197 10198 10199 10200 10201 10202 10203 10204 10205 10206 10207 10208 10209 10210 10211 10212 10213 10214 10215 10216 10217 10218 10219 10220 10221 10222 10223 10224 10225 10226 10227 10228 10229 10230 10231 10232 10233 10234 10235 10236 10237 10238 10239 10240 10241 10242 10243 10244 10245 10246 10247 10248 10249 10250 10251 10252 10253 10254 10255 10256 10257 10258 10259 10260 10261 10262 10263 10264 10265 10266 10267 10268 10269 10270 10271 10272 10273 10274 10275 10276 10277 10278 10279 10280 10281 10282 10283 10284 10285 10286 10287 10288 10289 10290 10291 10292 10293 10294 10295 10296 10297 10298 10299 10300 10301 10302 10303 10304 10305 10306 10307 10308 10309 10310 10311 10312 10313 10314 10315 10316 10317 10318 10319 10320 10321 10322 10323 10324 10325 10326 10327 10328 10329 10330 10331 10332 10333 10334 10335 10336 10337 10338 10339 10340 10341 10342 10343 10344 10345 10346 10347 10348 10349 10350 10351 10352 10353 10354 10355 10356 10357 10358 10359 10360 10361 10362 10363 10364 10365 10366 10367 10368 10369 10370 10371 10372 10373 10374 10375 10376 10377 10378 10379 10380 10381 10382 10383 10384 10385 10386 10387 10388 10389 10390 10391 10392 10393 10394 10395 10396 10397 10398 10399 10400 10401 10402 10403 10404 10405 10406 10407 10408 10409 10410 10411 10412 10413 10414 10415 10416 10417 10418 10419 10420 10421 10422 10423 10424 10425 10426 10427 10428 10429 10430 10431 10432 10433 10434 10435 10436 10437 10438 10439 10440 10441 10442 10443 10444 10445 10446 10447 10448 10449 10450 10451 10452 10453 10454 10455 10456 10457 10458 10459 10460 10461 10462 10463 10464 10465 10466 10467 10468 10469 10470 10471 10472 10473 10474 10475 10476 10477 10478 10479 10480 10481 10482 10483 10484 10485 10486 10487 10488 10489 10490 10491 10492 10493 10494 10495 10496 10497 10498 10499 10500 10501 10502 10503 10504 10505 10506 10507 10508 10509 10510 10511 10512 10513 10514 10515 10516 10517 10518 10519 10520 10521 10522 10523 10524 10525 10526 10527 10528 10529 10530 10531 10532 10533 10534 10535 10536 10537 10538 10539 10540 10541 10542 10543 10544 10545 10546 10547 10548 10549 10550 10551 10552 10553 10554 10555 10556 10557 10558 10559 10560 10561 10562 10563 10564 10565 10566 10567 10568 10569 10570 10571 10572 10573 10574 10575 10576 10577 10578 10579 10580 10581 10582 10583 10584 10585 10586 10587 10588 10589 10590 10591 10592 10593 10594 10595 10596 10597 10598 10599 10600 10601 10602 10603 10604 10605 10606 10607 10608 10609 10610 10611 10612 10613 10614 10615 10616 10617 10618 10619 10620 10621 10622 10623 10624 10625 10626 10627 10628 10629 10630 10631 10632 10633 10634 10635 10636 10637 10638 10639 10640 10641 10642 10643 10644 10645 10646 10647 10648 10649 10650 10651 10652 10653 10654 10655 10656 10657 10658 10659 10660 10661 10662 10663 10664 10665 10666 10667 10668 10669 10670 10671 10672 10673 10674 10675 10676 10677 10678 10679 10680 10681 10682 10683 10684 10685 10686 10687 10688 10689 10690 10691 10692 10693 10694 10695 10696 10697 10698 10699 10700 10701 10702 10703 10704 10705 10706 10707 10708 10709 10710 10711 10712 10713 10714 10715 10716 10717 10718 10719 10720 10721 10722 10723 10724 10725 10726 10727 10728 10729 10730 10731 10732 10733 10734 10735 10736 10737 10738 10739 10740 10741 10742 10743 10744 10745 10746 10747 10748 10749 10750 10751 10752 10753 10754 10755 10756 10757 10758 10759 10760 10761 10762 10763 10764 10765 10766 10767 10768 10769 10770 10771 10772 10773 10774 10775 10776 10777 10778 10779 10780 10781 10782 10783 10784 10785 10786 10787 10788 10789 10790 10791 10792 10793 10794 10795 10796 10797 10798 10799 10800 10801 10802 10803 10804 10805 10806 10807 10808 10809 10810 10811 10812 10813 10814 10815 10816 10817 10818 10819 10820 10821 10822 10823 10824 10825 10826 10827 10828 10829 10830 10831 10832 10833 10834 10835 10836 10837 10838 10839 10840 10841 10842 10843 10844 10845 10846 10847 10848 10849 10850 10851 10852 10853 10854 10855 10856 10857 10858 10859 10860 10861 10862 10863 10864 10865 10866 10867 10868 10869 10870 10871 10872 10873 10874 10875 10876 10877 10878 10879 10880 10881 10882 10883 10884 10885 10886 10887 10888 10889 10890 10891 10892 10893 10894 10895 10896 10897 10898 10899 10900 10901 10902 10903 10904 10905 10906 10907 10908 10909 10910 10911 10912 10913 10914 10915 10916 10917 10918 10919 10920 10921 10922 10923 10924 10925 10926 10927 10928 10929 10930 10931 10932 10933 10934 10935 10936 10937 10938 10939 10940 10941 10942 10943 10944 10945 10946 10947 10948 10949 10950 10951 10952 10953 10954 10955 10956 10957 10958 10959 10960 10961 10962 10963 10964 10965 10966 10967 10968 10969 10970 10971 10972 10973 10974 10975 10976 10977 10978 10979 10980 10981 10982 10983 10984 10985 10986 10987 10988 10989 10990 10991 10992 10993 10994 10995 10996 10997 10998 10999 11000 11001 11002 11003 11004 11005 11006 11007 11008 11009 11010 11011 11012 11013 11014 11015 11016 11017 11018 11019 11020 11021 11022 11023 11024 11025 11026 11027 11028 11029 11030 11031 11032 11033 11034 11035 11036 11037 11038 11039 11040 11041 11042 11043 11044 11045 11046 11047 11048 11049 11050 11051 11052 11053 11054 11055 11056 11057 11058 11059 11060 11061 11062 11063 11064 11065 11066 11067 11068 11069 11070 11071 11072 11073 11074 11075 11076 11077 11078 11079 11080 11081 11082 11083 11084 11085 11086 11087 11088 11089 11090 11091 11092 11093 11094 11095 11096 11097 11098 11099 11100 11101 11102 11103 11104 11105 11106 11107 11108 11109 11110 11111 11112 11113 11114 11115 11116 11117 11118 11119 11120 11121 11122 11123 11124 11125 11126 11127 11128 11129 11130 11131 11132 11133 11134 11135 11136 11137 11138 11139 11140 11141 11142 11143 11144 11145 11146 11147 11148 11149 11150 11151 11152 11153 11154 11155 11156 11157 11158 11159 11160 11161 11162 11163 11164 11165 11166 11167 11168 11169 11170 11171 11172 11173 11174 11175 11176 11177 11178 11179 11180 11181 11182 11183 11184 11185 11186 11187 11188 11189 11190 11191 11192 11193 11194 11195 11196 11197 11198 11199 11200 11201 11202 11203 11204 11205 11206 11207 11208 11209 11210 11211 11212 11213 11214 11215 11216 11217 11218 11219 11220 11221 11222 11223 11224 11225 11226 11227 11228 11229 11230 11231 11232 11233 11234 11235 11236 11237 11238 11239 11240 11241 11242 11243 11244 11245 11246 11247 11248 11249 11250 11251 11252 11253 11254 11255 11256 11257 11258 11259 11260 11261 11262 11263 11264 11265 11266 11267 11268 11269 11270 11271 11272 11273 11274 11275 11276 11277 11278 11279 11280 11281 11282 11283 11284 11285 11286 11287 11288 11289 11290 11291 11292 11293 11294 11295 11296 11297 11298 11299 11300 11301 11302 11303 11304 11305 11306 11307 11308 11309 11310 11311 11312 11313 11314 11315 11316 11317 11318 11319 11320 11321 11322 11323 11324 11325 11326 11327 11328 11329 11330 11331 11332 11333 11334 11335 11336 11337 11338 11339 11340 11341 11342 11343 11344 11345 11346 11347 11348 11349 11350 11351 11352 11353 11354 11355 11356 11357 11358 11359 11360 11361 11362 11363 11364 11365 11366 11367 11368 11369 11370 11371 11372 11373 11374 11375 11376 11377 11378 11379 11380 11381 11382 11383 11384 11385 11386 11387 11388 11389 11390 11391 11392 11393 11394 11395 11396 11397 11398 11399 11400 11401 11402 11403 11404 11405 11406 11407 11408 11409 11410 11411 11412 11413 11414 11415 11416 11417 11418 11419 11420 11421 11422 11423 11424 11425 11426 11427 11428 11429 11430 11431 11432 11433 11434 11435 11436 11437 11438 11439 11440 11441 11442 11443 11444 11445 11446 11447 11448 11449 11450 11451 11452 11453 11454 11455 11456 11457 11458 11459 11460 11461 11462 11463 11464 11465 11466 11467 11468 11469 11470 11471 11472 11473 11474 11475 11476 11477 11478 11479 11480 11481 11482 11483 11484 11485 11486 11487 11488 11489 11490 11491 11492 11493 11494 11495 11496 11497 11498 11499 11500 11501 11502 11503 11504 11505 11506 11507 11508 11509 11510 11511 11512 11513 11514 11515 11516 11517 11518 11519 11520 11521 11522 11523 11524 11525 11526 11527 11528 11529 11530 11531 11532 11533 11534 11535 11536 11537 11538 11539 11540 11541 11542 11543 11544 11545 11546 11547 11548 11549 11550 11551 11552 11553 11554 11555 11556 11557 11558 11559 11560 11561 11562 11563 11564 11565 11566 11567 11568 11569 11570 11571 11572 11573 11574 11575 11576 11577 11578 11579 11580 11581 11582 11583 11584 11585 11586 11587 11588 11589 11590 11591 11592 11593 11594 11595 11596 11597 11598 11599 11600 11601 11602 11603 11604 11605 11606 11607 11608 11609 11610 11611 11612 11613 11614 11615 11616 11617 11618 11619 11620 11621 11622 11623 11624 11625 11626 11627 11628 11629 11630 11631 11632 11633 11634 11635 11636 11637 11638 11639 11640 11641 11642 11643 11644 11645 11646 11647 11648 11649 11650 11651 11652 11653 11654 11655 11656 11657 11658 11659 11660 11661 11662 11663 11664 11665 11666 11667 11668 11669 11670 11671 11672 11673 11674 11675 11676 11677 11678 11679 11680 11681 11682 11683 11684 11685 11686 11687 11688 11689 11690 11691 11692 11693 11694 11695 11696 11697 11698 11699 11700 11701 11702 11703 11704 11705 11706 11707 11708 11709 11710 11711 11712 11713 11714 11715 11716 11717 11718 11719 11720 11721 11722 11723 11724 11725 11726 11727 11728 11729 11730 11731 11732 11733 11734 11735 11736 11737 11738 11739 11740 11741 11742 11743 11744 11745 11746 11747 11748 11749 11750 11751 11752 11753 11754 11755 11756 11757 11758 11759 11760 11761 11762 11763 11764 11765 11766 11767 11768 11769 11770 11771 11772 11773 11774 11775 11776 11777 11778 11779 11780 11781 11782 11783 11784 11785 11786 11787 11788 11789 11790 11791 11792 11793 11794 11795 11796 11797 11798 11799 11800 11801 11802 11803 11804 11805 11806 11807 11808 11809 11810 11811 11812 11813 11814 11815 11816 11817 11818 11819 11820 11821 11822 11823 11824 11825 11826 11827 11828 11829 11830 11831 11832 11833 11834 11835 11836 11837 11838 11839 11840 11841 11842 11843 11844 11845 11846 11847 11848 11849 11850 11851 11852 11853 11854 11855 11856 11857 11858 11859 11860 11861 11862 11863 11864 11865 11866 11867 11868 11869 11870 11871 11872 11873 11874 11875 11876 11877 11878 11879 11880 11881 11882 11883 11884 11885 11886 11887 11888 11889 11890 11891 11892 11893 11894 11895 11896 11897 11898 11899 11900 11901 11902 11903 11904 11905 11906 11907 11908 11909 11910 11911 11912 11913 11914 11915 11916 11917 11918 11919 11920 11921 11922 11923 11924 11925 11926 11927 11928 11929 11930 11931 11932 11933 11934 11935 11936 11937 11938 11939 11940 11941 11942 11943 11944 11945 11946 11947 11948 11949 11950 11951 11952 11953 11954 11955 11956 11957 11958 11959 11960 11961 11962 11963 11964 11965 11966 11967 11968 11969 11970 11971 11972 11973 11974 11975 11976 11977 11978 11979 11980 11981 11982 11983 11984 11985 11986 11987 11988 11989 11990 11991 11992 11993 11994 11995 11996 11997 11998 11999 12000 12001 12002 12003 12004 12005 12006 12007 12008 12009 12010 12011 12012 12013 12014 12015 12016 12017 12018 12019 12020 12021 12022 12023 12024 12025 12026 12027 12028 12029 12030 12031 12032 12033 12034 12035 12036 12037 12038 12039 12040 12041 12042 12043 12044 12045 12046 12047 12048 12049 12050 12051 12052 12053 12054 12055 12056 12057 12058 12059 12060 12061 12062 12063 12064 12065 12066 12067 12068 12069 12070 12071 12072 12073 12074 12075 12076 12077 12078 12079 12080 12081 12082 12083 12084 12085 12086 12087 12088 12089 12090 12091 12092 12093 12094 12095 12096 12097 12098 12099 12100 12101 12102 12103 12104 12105 12106 12107 12108 12109 12110 12111 12112 12113 12114 12115 12116 12117 12118 12119 12120 12121 12122 12123 12124 12125 12126 12127 12128 12129 12130 12131 12132 12133 12134 12135 12136 12137 12138 12139 12140 12141 12142 12143 12144 12145 12146 12147 12148 12149 12150 12151 12152 12153 12154 12155 12156 12157 12158 12159 12160 12161 12162 12163 12164 12165 12166 12167 12168 12169 12170 12171 12172 12173 12174 12175 12176 12177 12178 12179 12180 12181 12182 12183 12184 12185 12186 12187 12188 12189 12190 12191 12192 12193 12194 12195 12196 12197 12198 12199 12200 12201 12202 12203 12204 12205 12206 12207 12208 12209 12210 12211 12212 12213 12214 12215 12216 12217 12218 12219 12220 12221 12222 12223 12224 12225 12226 12227 12228 12229 12230 12231 12232 12233 12234 12235 12236 12237 12238 12239 12240 12241 12242 12243 12244 12245 12246 12247 12248 12249 12250 12251 12252 12253 12254 12255 12256 12257 12258 12259 12260 12261 12262 12263 12264 12265 12266 12267 12268 12269 12270 12271 12272 12273 12274 12275 12276 12277 12278 12279 12280 12281 12282 12283 12284 12285 12286 12287 12288 12289 12290 12291 12292 12293 12294 12295 12296 12297 12298 12299 12300 12301 12302 12303 12304 12305 12306 12307 12308 12309 12310 12311 12312 12313 12314 12315 12316 12317 12318 12319 12320 12321 12322 12323 12324 12325 12326 12327 12328 12329 12330 12331 12332 12333 12334 12335 12336 12337 12338 12339 12340 12341 12342 12343 12344 12345 12346 12347 12348 12349 12350 12351 12352 12353 12354 12355 12356 12357 12358 12359 12360 12361 12362 12363 12364 12365 12366 12367 12368 12369 12370 12371 12372 12373 12374 12375 12376 12377 12378 12379 12380 12381 12382 12383 12384 12385 12386 12387 12388 12389 12390 12391 12392 12393 12394 12395 12396 12397 12398 12399 12400 12401 12402 12403 12404 12405 12406 12407 12408 12409 12410 12411 12412 12413 12414 12415 12416 12417 12418 12419 12420 12421 12422 12423 12424 12425 12426 12427 12428 12429 12430 12431 12432 12433 12434 12435 12436 12437 12438 12439 12440 12441 12442 12443 12444 12445 12446 12447 12448 12449 12450 12451 12452 12453 12454 12455 12456 12457 12458 12459 12460 12461 12462 12463 12464 12465 12466 12467 12468 12469 12470 12471 12472 12473 12474 12475 12476 12477 12478 12479 12480 12481 12482 12483 12484 12485 12486 12487 12488 12489 12490 12491 12492 12493 12494 12495 12496 12497 12498 12499 12500 12501 12502 12503 12504 12505 12506 12507 12508 12509 12510 12511 12512 12513 12514 12515 12516 12517 12518 12519 12520 12521 12522 12523 12524 12525 12526 12527 12528 12529 12530 12531 12532 12533 12534 12535 12536 12537 12538 12539 12540 12541 12542 12543 12544 12545 12546 12547 12548 12549 12550 12551 12552 12553 12554 12555 12556 12557 12558 12559 12560 12561 12562 12563 12564 12565 12566 12567 12568 12569 12570 12571 12572 12573 12574 12575 12576 12577 12578 12579 12580 12581 12582 12583 12584 12585 12586 12587 12588 12589 12590 12591 12592 12593 12594 12595 12596 12597 12598 12599 12600 12601 12602 12603 12604 12605 12606 12607 12608 12609 12610 12611 12612 12613 12614 12615 12616 12617 12618 12619 12620 12621 12622 12623 12624 12625 12626 12627 12628 12629 12630 12631 12632 12633 12634 12635 12636 12637 12638 12639 12640 12641 12642 12643 12644 12645 12646 12647 12648 12649 12650 12651 12652 12653 12654 12655 12656 12657 12658 12659 12660 12661 12662 12663 12664 12665 12666 12667 12668 12669 12670 12671 12672 12673 12674 12675 12676 12677 12678 12679 12680 12681 12682 12683 12684 12685 12686 12687 12688 12689 12690 12691 12692 12693 12694 12695 12696 12697 12698 12699 12700 12701 12702 12703 12704 12705 12706 12707 12708 12709 12710 12711 12712 12713 12714 12715 12716 12717 12718 12719 12720 12721 12722 12723 12724 12725 12726 12727 12728 12729 12730 12731 12732 12733 12734 12735 12736 12737 12738 12739 12740 12741 12742 12743 12744 12745 12746 12747 12748 12749 12750 12751 12752 12753 12754 12755 12756 12757 12758 12759 12760 12761 12762 12763 12764 12765 12766 12767 12768 12769 12770 12771 12772 12773 12774 12775 12776 12777 12778 12779 12780 12781 12782 12783 12784 12785 12786 12787 12788 12789 12790 12791 12792 12793 12794 12795 12796 12797 12798 12799 12800 12801 12802 12803 12804 12805 12806 12807 12808 12809 12810 12811 12812 12813 12814 12815 12816 12817 12818 12819 12820 12821 12822 12823 12824 12825 12826 12827 12828 12829 12830 12831 12832 12833 12834 12835 12836 12837 12838 12839 12840 12841 12842 12843 12844 12845 12846 12847 12848 12849 12850 12851 12852 12853 12854 12855 12856 12857 12858 12859 12860 12861 12862 12863 12864 12865 12866 12867 12868 12869 12870 12871 12872 12873 12874 12875 12876 12877 12878 12879 12880 12881 12882 12883 12884 12885 12886 12887 12888 12889 12890 12891 12892 12893 12894 12895 12896 12897 12898 12899 12900 12901 12902 12903 12904 12905 12906 12907 12908 12909 12910 12911 12912 12913 12914 12915 12916 12917 12918 12919 12920 12921 12922 12923 12924 12925 12926 12927 12928 12929 12930 12931 12932 12933 12934 12935 12936 12937 12938 12939 12940 12941 12942 12943 12944 12945 12946 12947 12948 12949 12950 12951 12952 12953 12954 12955 12956 12957 12958 12959 12960 12961 12962 12963 12964 12965 12966 12967 12968 12969 12970 12971 12972 12973 12974 12975 12976 12977 12978 12979 12980 12981 12982 12983 12984 12985 12986 12987 12988 12989 12990 12991 12992 12993 12994 12995 12996 12997 12998 12999 13000 13001 13002 13003 13004 13005 13006 13007 13008 13009 13010 13011 13012 13013 13014 13015 13016 13017 13018 13019 13020 13021 13022 13023 13024 13025 13026 13027 13028 13029 13030 13031 13032 13033 13034 13035 13036 13037 13038 13039 13040 13041 13042 13043 13044 13045 13046 13047 13048 13049 13050 13051 13052 13053 13054 13055 13056 13057 13058 13059 13060 13061 13062 13063 13064 13065 13066 13067 13068 13069 13070 13071 13072 13073 13074 13075 13076 13077 13078 13079 13080 13081 13082 13083 13084 13085 13086 13087 13088 13089 13090 13091 13092 13093 13094 13095 13096 13097 13098 13099 13100 13101 13102 13103 13104 13105 13106 13107 13108 13109 13110 13111 13112 13113 13114 13115 13116 13117 13118 13119 13120 13121 13122 13123 13124 13125 13126 13127 13128 13129 13130 13131 13132 13133 13134 13135 13136 13137 13138 13139 13140 13141 13142 13143 13144 13145 13146 13147 13148 13149 13150 13151 13152 13153 13154 13155 13156 13157 13158 13159 13160 13161 13162 13163 13164 13165 13166 13167 13168 13169 13170 13171 13172 13173 13174 13175 13176 13177 13178 13179 13180 13181 13182 13183 13184 13185 13186 13187 13188 13189 13190 13191 13192 13193 13194 13195 13196 13197 13198 13199 13200 13201 13202 13203 13204 13205 13206 13207 13208 13209 13210 13211 13212 13213 13214 13215 13216 13217 13218 13219 13220 13221 13222 13223 13224 13225 13226 13227 13228 13229 13230 13231 13232 13233 13234 13235 13236 13237 13238 13239 13240 13241 13242 13243 13244 13245 13246 13247 13248 13249 13250 13251 13252 13253 13254 13255 13256 13257 13258 13259 13260 13261 13262 13263 13264 13265 13266 13267 13268 13269 13270 13271 13272 13273 13274 13275 13276 13277 13278 13279 13280 13281 13282 13283 13284 13285 13286 13287 13288 13289 13290 13291 13292 13293 13294 13295 13296 13297 13298 13299 13300 13301 13302 13303 13304 13305 13306 13307 13308 13309 13310 13311 13312 13313 13314 13315 13316 13317 13318 13319 13320 13321 13322 13323 13324 13325 13326 13327 13328 13329 13330 13331 13332 13333 13334 13335 13336 13337 13338 13339 13340 13341 13342 13343 13344 13345 13346 13347 13348 13349 13350 13351 13352 13353 13354 13355 13356 13357 13358 13359 13360 13361 13362 13363 13364 13365 13366 13367 13368 13369 13370 13371 13372 13373 13374 13375 13376 13377 13378 13379 13380 13381 13382 13383 13384 13385 13386 13387 13388 13389 13390 13391 13392 13393 13394 13395 13396 13397 13398 13399 13400 13401 13402 13403 13404 13405 13406 13407 13408 13409 13410 13411 13412 13413 13414 13415 13416 13417 13418 13419 13420 13421 13422 13423 13424 13425 13426 13427 13428 13429 13430 13431 13432 13433 13434 13435 13436 13437 13438 13439 13440 13441 13442 13443 13444 13445 13446 13447 13448 13449 13450 13451 13452 13453 13454 13455 13456 13457 13458 13459 13460 13461 13462 13463 13464 13465 13466 13467 13468 13469 13470 13471 13472 13473 13474 13475 13476 13477 13478 13479 13480 13481 13482 13483 13484 13485 13486 13487 13488 13489 13490 13491 13492 13493 13494 13495 13496 13497 13498 13499 13500 13501 13502 13503 13504 13505 13506 13507 13508 13509 13510 13511 13512 13513 13514 13515 13516 13517 13518 13519 13520 13521 13522 13523 13524 13525 13526 13527 13528 13529 13530 13531 13532 13533 13534 13535 13536 13537 13538 13539 13540 13541 13542 13543 13544 13545 13546 13547 13548 13549 13550 13551 13552 13553 13554 13555 13556 13557 13558 13559 13560 13561 13562 13563 13564 13565 13566 13567 13568 13569 13570 13571 13572 13573 13574 13575 13576 13577 13578 13579 13580 13581 13582 13583 13584 13585 13586 13587 13588 13589 13590 13591 13592 13593 13594 13595 13596 13597 13598 13599 13600 13601 13602 13603 13604 13605 13606 13607 13608 13609 13610 13611 13612 13613 13614 13615 13616 13617 13618 13619 13620 13621 13622 13623 13624 13625 13626 13627 13628 13629 13630 13631 13632 13633 13634 13635 13636 13637 13638 13639 13640 13641 13642 13643 13644 13645 13646 13647 13648 13649 13650 13651 13652 13653 13654 13655 13656 13657 13658 13659 13660 13661 13662 13663 13664 13665 13666 13667 13668 13669 13670 13671 13672 13673 13674 13675 13676 13677 13678 13679 13680 13681 13682 13683 13684 13685 13686 13687 13688 13689 13690 13691 13692 13693 13694 13695 13696 13697 13698 13699 13700 13701 13702 13703 13704 13705 13706 13707 13708 13709 13710 13711 13712 13713 13714 13715 13716 13717 13718 13719 13720 13721 13722 13723 13724 13725 13726 13727 13728 13729 13730 13731 13732 13733 13734 13735 13736 13737 13738 13739 13740 13741 13742 13743 13744 13745 13746 13747 13748 13749 13750 13751 13752 13753 13754 13755 13756 13757 13758 13759 13760 13761 13762 13763 13764 13765 13766 13767 13768 13769 13770 13771 13772 13773 13774 13775 13776 13777 13778 13779 13780 13781 13782 13783 13784 13785 13786 13787 13788 13789 13790 13791 13792 13793 13794 13795 13796 13797 13798 13799 13800 13801 13802 13803 13804 13805 13806 13807 13808 13809 13810 13811 13812 13813 13814 13815 13816 13817 13818 13819 13820 13821 13822 13823 13824 13825 13826 13827 13828 13829 13830 13831 13832 13833 13834 13835 13836 13837 13838 13839 13840 13841 13842 13843 13844 13845 13846 13847 13848 13849 13850 13851 13852 13853 13854 13855 13856 13857 13858 13859 13860 13861 13862 13863 13864 13865 13866 13867 13868 13869 13870 13871 13872 13873 13874 13875 13876 13877 13878 13879 13880 13881 13882 13883 13884 13885 13886 13887 13888 13889 13890 13891 13892 13893 13894 13895 13896 13897 13898 13899 13900 13901 13902 13903 13904 13905 13906 13907 13908 13909 13910 13911 13912 13913 13914 13915 13916 13917 13918 13919 13920 13921 13922 13923 13924 13925 13926 13927 13928 13929 13930 13931 13932 13933 13934 13935 13936 13937 13938 13939 13940 13941 13942 13943 13944 13945 13946 13947 13948 13949 13950 13951 13952 13953 13954 13955 13956 13957 13958 13959 13960 13961 13962 13963 13964 13965 13966 13967 13968 13969 13970 13971 13972 13973 13974 13975 13976 13977 13978 13979 13980 13981 13982 13983 13984 13985 13986 13987 13988 13989 13990 13991 13992 13993 13994 13995 13996 13997 13998 13999 14000 14001 14002 14003 14004 14005 14006 14007 14008 14009 14010 14011 14012 14013 14014 14015 14016 14017 14018 14019 14020 14021 14022 14023 14024 14025 14026 14027 14028 14029 14030 14031 14032 14033 14034 14035 14036 14037 14038 14039 14040 14041 14042 14043 14044 14045 14046 14047 14048 14049 14050 14051 14052 14053 14054 14055 14056 14057 14058 14059 14060 14061 14062 14063 14064 14065 14066 14067 14068 14069 14070 14071 14072 14073 14074 14075 14076 14077 14078 14079 14080 14081 14082 14083 14084 14085 14086 14087 14088 14089 14090 14091 14092 14093 14094 14095 14096 14097 14098 14099 14100 14101 14102 14103 14104 14105 14106 14107 14108 14109 14110 14111 14112 14113 14114 14115 14116 14117 14118 14119 14120 14121 14122 14123 14124 14125 14126 14127 14128 14129 14130 14131 14132 14133 14134 14135 14136 14137 14138 14139 14140 14141 14142 14143 14144 14145 14146 14147 14148 14149 14150 14151 14152 14153 14154 14155 14156 14157 14158 14159 14160 14161 14162 14163 14164 14165 14166 14167 14168 14169 14170 14171 14172 14173 14174 14175 14176 14177 14178 14179 14180 14181 14182 14183 14184 14185 14186 14187 14188 14189 14190 14191 14192 14193 14194 14195 14196 14197 14198 14199 14200 14201 14202 14203 14204 14205 14206 14207 14208 14209 14210 14211 14212 14213 14214 14215 14216 14217 14218 14219 14220 14221 14222 14223 14224 14225 14226 14227 14228 14229 14230 14231 14232 14233 14234 14235 14236 14237 14238 14239 14240 14241 14242 14243 14244 14245 14246 14247 14248 14249 14250 14251 14252 14253 14254 14255 14256 14257 14258 14259 14260 14261 14262 14263 14264 14265 14266 14267 14268 14269 14270 14271 14272 14273 14274 14275 14276 14277 14278 14279 14280 14281 14282 14283 14284 14285 14286 14287 14288 14289 14290 14291 14292 14293 14294 14295 14296 14297 14298 14299 14300 14301 14302 14303 14304 14305 14306 14307 14308 14309 14310 14311 14312 14313 14314 14315 14316 14317 14318 14319 14320 14321 14322 14323 14324 14325 14326 14327 14328 14329 14330 14331 14332 14333 14334 14335 14336 14337 14338 14339 14340 14341 14342 14343 14344 14345 14346 14347 14348 14349 14350 14351 14352 14353 14354 14355 14356 14357 14358 14359 14360 14361 14362 14363 14364 14365 14366 14367 14368 14369 14370 14371 14372 14373 14374 14375 14376 14377 14378 14379 14380 14381 14382 14383 14384 14385 14386 14387 14388 14389 14390 14391 14392 14393 14394 14395 14396 14397 14398 14399 14400 14401 14402 14403 14404 14405 14406 14407 14408 14409 14410 14411 14412 14413 14414 14415 14416 14417 14418 14419 14420 14421 14422 14423 14424 14425 14426 14427 14428 14429 14430 14431 14432 14433 14434 14435 14436 14437 14438 14439 14440 14441 14442 14443 14444 14445 14446 14447 14448 14449 14450 14451 14452 14453 14454 14455 14456 14457 14458 14459 14460 14461 14462 14463 14464 14465 14466 14467 14468 14469 14470 14471 14472 14473 14474 14475 14476 14477 14478 14479 14480 14481 14482 14483 14484 14485 14486 14487 14488 14489 14490 14491 14492 14493 14494 14495 14496 14497 14498 14499 14500 14501 14502 14503 14504 14505 14506 14507 14508 14509 14510 14511 14512 14513 14514 14515 14516 14517 14518 14519 14520 14521 14522 14523 14524 14525 14526 14527 14528 14529 14530 14531 14532 14533 14534 14535 14536 14537 14538 14539 14540 14541 14542 14543 14544 14545 14546 14547 14548 14549 14550 14551 14552 14553 14554 14555 14556 14557 14558 14559 14560 14561 14562 14563 14564 14565 14566 14567 14568 14569 14570 14571 14572 14573 14574 14575 14576 14577 14578 14579 14580 14581 14582 14583 14584 14585 14586 14587 14588 14589 14590 14591 14592 14593 14594 14595 14596 14597 14598 14599 14600 14601 14602 14603 14604 14605 14606 14607 14608 14609 14610 14611 14612 14613 14614 14615 14616 14617 14618 14619 14620 14621 14622 14623 14624 14625 14626 14627 14628 14629 14630 14631 14632 14633 14634 14635 14636 14637 14638 14639 14640 14641 14642 14643 14644 14645 14646 14647 14648 14649 14650 14651 14652 14653 14654 14655 14656 14657 14658 14659 14660 14661 14662 14663 14664 14665 14666 14667 14668 14669 14670 14671 14672 14673 14674 14675 14676 14677 14678 14679 14680 14681 14682 14683 14684 14685 14686 14687 14688 14689 14690 14691 14692 14693 14694 14695 14696 14697 14698 14699 14700 14701 14702 14703 14704 14705 14706 14707 14708 14709 14710 14711 14712 14713 14714 14715 14716 14717 14718 14719 14720 14721 14722 14723 14724 14725 14726 14727 14728 14729 14730 14731 14732 14733 14734 14735 14736 14737 14738 14739 14740 14741 14742 14743 14744 14745 14746 14747 14748 14749 14750 14751 14752 14753 14754 14755 14756 14757 14758 14759 14760 14761 14762 14763 14764 14765 14766 14767 14768 14769 14770 14771 14772 14773 14774 14775 14776 14777 14778 14779 14780 14781 14782 14783 14784 14785 14786 14787 14788 14789 14790 14791 14792 14793 14794 14795 14796 14797 14798 14799 14800 14801 14802 14803 14804 14805 14806 14807 14808 14809 14810 14811 14812 14813 14814 14815 14816 14817 14818 14819 14820 14821 14822 14823 14824 14825 14826 14827 14828 14829 14830 14831 14832 14833 14834 14835 14836 14837 14838 14839 14840 14841 14842 14843 14844 14845 14846 14847 14848 14849 14850 14851 14852 14853 14854 14855 14856 14857 14858 14859 14860 14861 14862 14863 14864 14865 14866 14867 14868 14869 14870 14871 14872 14873 14874 14875 14876 14877 14878 14879 14880 14881 14882 14883 14884 14885 14886 14887 14888 14889 14890 14891 14892 14893 14894 14895 14896 14897 14898 14899 14900 14901 14902 14903 14904 14905 14906 14907 14908 14909 14910 14911 14912 14913 14914 14915 14916 14917 14918 14919 14920 14921 14922 14923 14924 14925 14926 14927 14928 14929 14930 14931 14932 14933 14934 14935 14936 14937 14938 14939 14940 14941 14942 14943 14944 14945 14946 14947 14948 14949 14950 14951 14952 14953 14954 14955 14956 14957 14958 14959 14960 14961 14962 14963 14964 14965 14966 14967 14968 14969 14970 14971 14972 14973 14974 14975 14976 14977 14978 14979 14980 14981 14982 14983 14984 14985 14986 14987 14988 14989 14990 14991 14992 14993 14994 14995 14996 14997 14998 14999 15000 15001 15002 15003 15004 15005 15006 15007 15008 15009 15010 15011 15012 15013 15014 15015 15016 15017 15018 15019 15020 15021 15022 15023 15024 15025 15026 15027 15028 15029 15030 15031 15032 15033 15034 15035 15036 15037 15038 15039 15040 15041 15042 15043 15044 15045 15046 15047 15048 15049 15050 15051 15052 15053 15054 15055 15056 15057 15058 15059 15060 15061 15062 15063 15064 15065 15066 15067 15068 15069 15070 15071 15072 15073 15074 15075 15076 15077 15078 15079 15080 15081 15082 15083 15084 15085 15086 15087 15088 15089 15090 15091 15092 15093 15094 15095 15096 15097 15098 15099 15100 15101 15102 15103 15104 15105 15106 15107 15108 15109 15110 15111 15112 15113 15114 15115 15116 15117 15118 15119 15120 15121 15122 15123 15124 15125 15126 15127 15128 15129 15130 15131 15132 15133 15134 15135 15136 15137 15138 15139 15140 15141 15142 15143 15144 15145 15146 15147 15148 15149 15150 15151 15152 15153 15154 15155 15156 15157 15158 15159 15160 15161 15162 15163 15164 15165 15166 15167 15168 15169 15170 15171 15172 15173 15174 15175 15176 15177 15178 15179 15180 15181 15182 15183 15184 15185 15186 15187 15188 15189 15190 15191 15192 15193 15194 15195 15196 15197 15198 15199 15200 15201 15202 15203 15204 15205 15206 15207 15208 15209 15210 15211 15212 15213 15214 15215 15216 15217 15218 15219 15220 15221 15222 15223 15224 15225 15226 15227 15228 15229 15230 15231 15232 15233 15234 15235 15236 15237 15238 15239 15240 15241 15242 15243 15244 15245 15246 15247 15248 15249 15250 15251 15252 15253 15254 15255 15256 15257 15258 15259 15260 15261 15262 15263 15264 15265 15266 15267 15268 15269 15270 15271 15272 15273 15274 15275 15276 15277 15278 15279 15280 15281 15282 15283 15284 15285 15286 15287 15288 15289 15290 15291 15292 15293 15294 15295 15296 15297 15298 15299 15300 15301 15302 15303 15304 15305 15306 15307 15308 15309 15310 15311 15312 15313 15314 15315 15316 15317 15318 15319 15320 15321 15322 15323 15324 15325 15326 15327 15328 15329 15330 15331 15332 15333 15334 15335 15336 15337 15338 15339 15340 15341 15342 15343 15344 15345 15346 15347 15348 15349 15350 15351 15352 15353 15354 15355 15356 15357 15358 15359 15360 15361 15362 15363 15364 15365 15366 15367 15368 15369 15370 15371 15372 15373 15374 15375 15376 15377 15378 15379 15380 15381 15382 15383 15384 15385 15386 15387 15388 15389 15390 15391 15392 15393 15394 15395 15396 15397 15398 15399 15400 15401 15402 15403 15404 15405 15406 15407 15408 15409 15410 15411 15412 15413 15414 15415 15416 15417 15418 15419 15420 15421 15422 15423 15424 15425 15426 15427 15428 15429 15430 15431 15432 15433 15434 15435 15436 15437 15438 15439 15440 15441 15442 15443 15444 15445 15446 15447 15448 15449 15450 15451 15452 15453 15454 15455 15456 15457 15458 15459 15460 15461 15462 15463 15464 15465 15466 15467 15468 15469 15470 15471 15472 15473 15474 15475 15476 15477 15478 15479 15480 15481 15482 15483 15484 15485 15486 15487 15488 15489 15490 15491 15492 15493 15494 15495 15496 15497 15498 15499 15500 15501 15502 15503 15504 15505 15506 15507 15508 15509 15510 15511 15512 15513 15514 15515 15516 15517 15518 15519 15520 15521 15522 15523 15524 15525 15526 15527 15528 15529 15530 15531 15532 15533 15534 15535 15536 15537 15538 15539 15540 15541 15542 15543 15544 15545 15546 15547 15548 15549 15550 15551 15552 15553 15554 15555 15556 15557 15558 15559 15560 15561 15562 15563 15564 15565 15566 15567 15568 15569 15570 15571 15572 15573 15574 15575 15576 15577 15578 15579 15580 15581 15582 15583 15584 15585 15586 15587 15588 15589 15590 15591 15592 15593 15594 15595 15596 15597 15598 15599 15600 15601 15602 15603 15604 15605 15606 15607 15608 15609 15610 15611 15612 15613 15614 15615 15616 15617 15618 15619 15620 15621 15622 15623 15624 15625 15626 15627 15628 15629 15630 15631 15632 15633 15634 15635 15636 15637 15638 15639 15640 15641 15642 15643 15644 15645 15646 15647 15648 15649 15650 15651 15652 15653 15654 15655 15656 15657 15658 15659 15660 15661 15662 15663 15664 15665 15666 15667 15668 15669 15670 15671 15672 15673 15674 15675 15676 15677 15678 15679 15680 15681 15682 15683 15684 15685 15686 15687 15688 15689 15690 15691 15692 15693 15694 15695 15696 15697 15698 15699 15700 15701 15702 15703 15704 15705 15706 15707 15708 15709 15710 15711 15712 15713 15714 15715 15716 15717 15718 15719 15720 15721 15722 15723 15724 15725 15726 15727 15728 15729 15730 15731 15732 15733 15734 15735 15736 15737 15738 15739 15740 15741 15742 15743 15744 15745 15746 15747 15748 15749 15750 15751 15752 15753 15754 15755 15756 15757 15758 15759 15760 15761 15762 15763 15764 15765 15766 15767 15768 15769 15770 15771 15772 15773 15774 15775 15776 15777 15778 15779 15780 15781 15782 15783 15784 15785 15786 15787 15788 15789 15790 15791 15792 15793 15794 15795 15796 15797 15798 15799 15800 15801 15802 15803 15804 15805 15806 15807 15808 15809 15810 15811 15812 15813 15814 15815 15816 15817 15818 15819 15820 15821 15822 15823 15824 15825 15826 15827 15828 15829 15830 15831 15832 15833 15834 15835 15836 15837 15838 15839 15840 15841 15842 15843 15844 15845 15846 15847 15848 15849 15850 15851 15852 15853 15854 15855 15856 15857 15858 15859 15860 15861 15862 15863 15864 15865 15866 15867 15868 15869 15870 15871 15872 15873 15874 15875 15876 15877 15878 15879 15880 15881 15882 15883 15884 15885 15886 15887 15888 15889 15890 15891 15892 15893 15894 15895 15896 15897 15898 15899 15900 15901 15902 15903 15904 15905 15906 15907 15908 15909 15910 15911 15912 15913 15914 15915 15916 15917 15918 15919 15920 15921 15922 15923 15924 15925 15926 15927 15928 15929 15930 15931 15932 15933 15934 15935 15936 15937 15938 15939 15940 15941 15942 15943 15944 15945 15946 15947 15948 15949 15950 15951 15952 15953 15954 15955 15956 15957 15958 15959 15960 15961 15962 15963 15964 15965 15966 15967 15968 15969 15970 15971 15972 15973 15974 15975 15976 15977 15978 15979 15980 15981 15982 15983 15984 15985 15986 15987 15988 15989 15990 15991 15992 15993 15994 15995 15996 15997 15998 15999 16000 16001 16002 16003 16004 16005 16006 16007 16008 16009 16010 16011 16012 16013 16014 16015 16016 16017 16018 16019 16020 16021 16022 16023 16024 16025 16026 16027 16028 16029 16030 16031 16032 16033 16034 16035 16036 16037 16038 16039 16040 16041 16042 16043 16044 16045 16046 16047 16048 16049 16050 16051 16052 16053 16054 16055 16056 16057 16058 16059 16060 16061 16062 16063 16064 16065 16066 16067 16068 16069 16070 16071 16072 16073 16074 16075 16076 16077 16078 16079 16080 16081 16082 16083 16084 16085 16086 16087 16088 16089 16090 16091 16092 16093 16094 16095 16096 16097 16098 16099 16100 16101 16102 16103 16104 16105 16106 16107 16108 16109 16110 16111 16112 16113 16114 16115 16116 16117 16118 16119 16120 16121 16122 16123 16124 16125 16126 16127 16128 16129 16130 16131 16132 16133 16134 16135 16136 16137 16138 16139 16140 16141 16142 16143 16144 16145 16146 16147 16148 16149 16150 16151 16152 16153 16154 16155 16156 16157 16158 16159 16160 16161 16162 16163 16164 16165 16166 16167 16168 16169 16170 16171 16172 16173 16174 16175 16176 16177 16178 16179 16180 16181 16182 16183 16184 16185 16186 16187 16188 16189 16190 16191 16192 16193 16194 16195 16196 16197 16198 16199 16200 16201 16202 16203 16204 16205 16206 16207 16208 16209 16210 16211 16212 16213 16214 16215 16216 16217 16218 16219 16220 16221 16222 16223 16224 16225 16226 16227 16228 16229 16230 16231 16232 16233 16234 16235 16236 16237 16238 16239 16240 16241 16242 16243 16244 16245 16246 16247 16248 16249 16250 16251 16252 16253 16254 16255 16256 16257 16258 16259 16260 16261 16262 16263 16264 16265 16266 16267 16268 16269 16270 16271 16272 16273 16274 16275 16276 16277 16278 16279 16280 16281 16282 16283 16284 16285 16286 16287 16288 16289 16290 16291 16292 16293 16294 16295 16296 16297 16298 16299 16300 16301 16302 16303 16304 16305 16306 16307 16308 16309 16310 16311 16312 16313 16314 16315 16316 16317 16318 16319 16320 16321 16322 16323 16324 16325 16326 16327 16328 16329 16330 16331 16332 16333 16334 16335 16336 16337 16338 16339 16340 16341 16342 16343 16344 16345 16346 16347 16348 16349 16350 16351 16352 16353 16354 16355 16356 16357 16358 16359 16360 16361 16362 16363 16364 16365 16366 16367 16368 16369 16370 16371 16372 16373 16374 16375 16376 16377 16378 16379 16380 16381 16382 16383 16384 16385 16386 16387 16388 16389 16390 16391 16392 16393 16394 16395 16396 16397 16398 16399 16400 16401 16402 16403 16404 16405 16406 16407 16408 16409 16410 16411 16412 16413 16414 16415 16416 16417 16418 16419 16420 16421 16422 16423 16424 16425 16426 16427 16428 16429 16430 16431 16432 16433 16434 16435 16436 16437 16438 16439 16440 16441 16442 16443 16444 16445 16446 16447 16448 16449 16450 16451 16452 16453 16454 16455 16456 16457 16458 16459 16460 16461 16462 16463 16464 16465 16466 16467 16468 16469 16470 16471 16472 16473 16474 16475 16476 16477 16478 16479 16480 16481 16482 16483 16484 16485 16486 16487 16488 16489 16490 16491 16492 16493 16494 16495 16496 16497 16498 16499 16500 16501 16502 16503 16504 16505 16506 16507 16508 16509 16510 16511 16512 16513 16514 16515 16516 16517 16518 16519 16520 16521 16522 16523 16524 16525 16526 16527 16528 16529 16530 16531 16532 16533 16534 16535 16536 16537 16538 16539 16540 16541 16542 16543 16544 16545 16546 16547 16548 16549 16550 16551 16552 16553 16554 16555 16556 16557 16558 16559 16560 16561 16562 16563 16564 16565 16566 16567 16568 16569 16570 16571 16572 16573 16574 16575 16576 16577 16578 16579 16580 16581 16582 16583 16584 16585 16586 16587 16588 16589 16590 16591 16592 16593 16594 16595 16596 16597 16598 16599 16600 16601 16602 16603 16604 16605 16606 16607 16608 16609 16610 16611 16612 16613 16614 16615 16616 16617 16618 16619 16620 16621 16622 16623 16624 16625 16626 16627 16628 16629 16630 16631 16632 16633 16634 16635 16636 16637 16638 16639 16640 16641 16642 16643 16644 16645 16646 16647 16648 16649 16650 16651 16652 16653 16654 16655 16656 16657 16658 16659 16660 16661 16662 16663 16664 16665 16666 16667 16668 16669 16670 16671 16672 16673 16674 16675 16676 16677 16678 16679 16680 16681 16682 16683 16684 16685 16686 16687 16688 16689 16690 16691 16692 16693 16694 16695 16696 16697 16698 16699 16700 16701 16702 16703 16704 16705 16706 16707 16708 16709 16710 16711 16712 16713 16714 16715 16716 16717 16718 16719 16720 16721 16722 16723 16724 16725 16726 16727 16728 16729 16730 16731 16732 16733 16734 16735 16736 16737 16738 16739 16740 16741 16742 16743 16744 16745 16746 16747 16748 16749 16750 16751 16752 16753 16754 16755 16756 16757 16758 16759 16760 16761 16762 16763 16764 16765 16766 16767 16768 16769 16770 16771 16772 16773 16774 16775 16776 16777 16778 16779 16780 16781 16782 16783 16784 16785 16786 16787 16788 16789 16790 16791 16792 16793 16794 16795 16796 16797 16798 16799 16800 16801 16802 16803 16804 16805 16806 16807 16808 16809 16810 16811 16812 16813 16814 16815 16816 16817 16818 16819 16820 16821 16822 16823 16824 16825 16826 16827 16828 16829 16830 16831 16832 16833 16834 16835 16836 16837 16838 16839 16840 16841 16842 16843 16844 16845 16846 16847 16848 16849 16850 16851 16852 16853 16854 16855 16856 16857 16858 16859 16860 16861 16862 16863 16864 16865 16866 16867 16868 16869 16870 16871 16872 16873 16874 16875 16876 16877 16878 16879 16880 16881 16882 16883 16884 16885 16886 16887 16888 16889 16890 16891 16892 16893 16894 16895 16896 16897 16898 16899 16900 16901 16902 16903 16904 16905 16906 16907 16908 16909 16910 16911 16912 16913 16914 16915 16916 16917 16918 16919 16920 16921 16922 16923 16924 16925 16926 16927 16928 16929 16930 16931 16932 16933 16934 16935 16936 16937 16938 16939 16940 16941 16942 16943 16944 16945 16946 16947 16948 16949 16950 16951 16952 16953 16954 16955 16956 16957 16958 16959 16960 16961 16962 16963 16964 16965 16966 16967 16968 16969 16970 16971 16972 16973 16974 16975 16976 16977 16978 16979 16980 16981 16982 16983 16984 16985 16986 16987 16988 16989 16990 16991 16992 16993 16994 16995 16996 16997 16998 16999 17000 17001 17002 17003 17004 17005 17006 17007 17008 17009 17010 17011 17012 17013 17014 17015 17016 17017 17018 17019 17020 17021 17022 17023 17024 17025 17026 17027 17028 17029 17030 17031 17032 17033 17034 17035 17036 17037 17038 17039 17040 17041 17042 17043 17044 17045 17046 17047 17048 17049 17050 17051 17052 17053 17054 17055 17056 17057 17058 17059 17060 17061 17062 17063 17064 17065 17066 17067 17068 17069 17070 17071 17072 17073 17074 17075 17076 17077 17078 17079 17080 17081 17082 17083 17084 17085 17086 17087 17088 17089 17090 17091 17092 17093 17094 17095 17096 17097 17098 17099 17100 17101 17102 17103 17104 17105 17106 17107 17108 17109 17110 17111 17112 17113 17114 17115 17116 17117 17118 17119 17120 17121 17122 17123 17124 17125 17126 17127 17128 17129 17130 17131 17132 17133 17134 17135 17136 17137 17138 17139 17140 17141 17142 17143 17144 17145 17146 17147 17148 17149 17150 17151 17152 17153 17154 17155 17156 17157 17158 17159 17160 17161 17162 17163 17164 17165 17166 17167 17168 17169 17170 17171 17172 17173 17174 17175 17176 17177 17178 17179 17180 17181 17182 17183 17184 17185 17186 17187 17188 17189 17190 17191 17192 17193 17194 17195 17196 17197 17198 17199 17200 17201 17202 17203 17204 17205 17206 17207 17208 17209 17210 17211 17212 17213 17214 17215 17216 17217 17218 17219 17220 17221 17222 17223 17224 17225 17226 17227 17228 17229 17230 17231 17232 17233 17234 17235 17236 17237 17238 17239 17240 17241 17242 17243 17244 17245 17246 17247 17248 17249 17250 17251 17252 17253 17254 17255 17256 17257 17258 17259 17260 17261 17262 17263 17264 17265 17266 17267 17268 17269 17270 17271 17272 17273 17274 17275 17276 17277 17278 17279 17280 17281 17282 17283 17284 17285 17286 17287 17288 17289 17290 17291 17292 17293 17294 17295 17296 17297 17298 17299 17300 17301 17302 17303 17304 17305 17306 17307 17308 17309 17310 17311 17312 17313 17314 17315 17316 17317 17318 17319 17320 17321 17322 17323 17324 17325 17326 17327 17328 17329 17330 17331 17332 17333 17334 17335 17336 17337 17338 17339 17340 17341 17342 17343 17344 17345 17346 17347 17348 17349 17350 17351 17352 17353 17354 17355 17356 17357 17358 17359 17360 17361 17362 17363 17364 17365 17366 17367 17368 17369 17370 17371 17372 17373 17374 17375 17376 17377 17378 17379 17380 17381 17382 17383 17384 17385 17386 17387 17388 17389 17390 17391 17392 17393 17394 17395 17396 17397 17398 17399 17400 17401 17402 17403 17404 17405 17406 17407 17408 17409 17410 17411 17412 17413 17414 17415 17416 17417 17418 17419 17420 17421 17422 17423 17424 17425 17426 17427 17428 17429 17430 17431 17432 17433 17434 17435 17436 17437 17438 17439 17440 17441 17442 17443 17444 17445 17446 17447 17448 17449 17450 17451 17452 17453 17454 17455 17456 17457 17458 17459 17460 17461 17462 17463 17464 17465 17466 17467 17468 17469 17470 17471 17472 17473 17474 17475 17476 17477 17478 17479 17480 17481 17482 17483 17484 17485 17486 17487 17488 17489 17490 17491 17492 17493 17494 17495 17496 17497 17498 17499 17500 17501 17502 17503 17504 17505 17506 17507 17508 17509 17510 17511 17512 17513 17514 17515 17516 17517 17518 17519 17520 17521 17522 17523 17524 17525 17526 17527 17528 17529 17530 17531 17532 17533 17534 17535 17536 17537 17538 17539 17540 17541 17542 17543 17544 17545 17546 17547 17548 17549 17550 17551 17552 17553 17554 17555 17556 17557 17558 17559 17560 17561 17562 17563 17564 17565 17566 17567 17568 17569 17570 17571 17572 17573 17574 17575 17576 17577 17578 17579 17580 17581 17582 17583 17584 17585 17586 17587 17588 17589 17590 17591 17592 17593 17594 17595 17596 17597 17598 17599 17600 17601 17602 17603 17604 17605 17606 17607 17608 17609 17610 17611 17612 17613 17614 17615 17616 17617 17618 17619 17620 17621 17622 17623 17624 17625 17626 17627 17628 17629 17630 17631 17632 17633 17634 17635 17636 17637 17638 17639 17640 17641 17642 17643 17644 17645 17646 17647 17648 17649 17650 17651 17652 17653 17654 17655 17656 17657 17658 17659 17660 17661 17662 17663 17664 17665 17666 17667 17668 17669 17670 17671 17672 17673 17674 17675 17676 17677 17678 17679 17680 17681 17682 17683 17684 17685 17686 17687 17688 17689 17690 17691 17692 17693 17694 17695 17696 17697 17698 17699 17700 17701 17702 17703 17704 17705 17706 17707 17708 17709 17710 17711 17712 17713 17714 17715 17716 17717 17718 17719 17720 17721 17722 17723 17724 17725 17726 17727 17728 17729 17730 17731 17732 17733 17734 17735 17736 17737 17738 17739 17740 17741 17742 17743 17744 17745 17746 17747 17748 17749 17750 17751 17752 17753 17754 17755 17756 17757 17758 17759 17760 17761 17762 17763 17764 17765 17766 17767 17768 17769 17770 17771 17772 17773 17774 17775 17776 17777 17778 17779 17780 17781 17782 17783 17784 17785 17786 17787 17788 17789 17790 17791 17792 17793 17794 17795 17796 17797 17798 17799 17800 17801 17802 17803 17804 17805 17806 17807 17808 17809 17810 17811 17812 17813 17814 17815 17816 17817 17818 17819 17820 17821 17822 17823 17824 17825 17826 17827 17828 17829 17830 17831 17832 17833 17834 17835 17836 17837 17838 17839 17840 17841 17842 17843 17844 17845 17846 17847 17848 17849 17850 17851 17852 17853 17854 17855 17856 17857 17858 17859 17860 17861 17862 17863 17864 17865 17866 17867 17868 17869 17870 17871 17872 17873 17874 17875 17876 17877 17878 17879 17880 17881 17882 17883 17884 17885 17886 17887 17888 17889 17890 17891 17892 17893 17894 17895 17896 17897 17898 17899 17900 17901 17902 17903 17904 17905 17906 17907 17908 17909 17910 17911 17912 17913 17914 17915 17916 17917 17918 17919 17920 17921 17922 17923 17924 17925 17926 17927 17928 17929 17930 17931 17932 17933 17934 17935 17936 17937 17938 17939 17940 17941 17942 17943 17944 17945 17946 17947 17948 17949 17950 17951 17952 17953 17954 17955 17956 17957 17958 17959 17960 17961 17962 17963 17964 17965 17966 17967 17968 17969 17970 17971 17972 17973 17974 17975 17976 17977 17978 17979 17980 17981 17982 17983 17984 17985 17986 17987 17988 17989 17990 17991 17992 17993 17994 17995 17996 17997 17998 17999 18000 18001 18002 18003 18004 18005 18006 18007 18008 18009 18010 18011 18012 18013 18014 18015 18016 18017 18018 18019 18020 18021 18022 18023 18024 18025 18026 18027 18028 18029 18030 18031 18032 18033 18034 18035 18036 18037 18038 18039 18040 18041 18042 18043 18044 18045 18046 18047 18048 18049 18050 18051 18052 18053 18054 18055 18056 18057 18058 18059 18060 18061 18062 18063 18064 18065 18066 18067 18068 18069 18070 18071 18072 18073 18074 18075 18076 18077 18078 18079 18080 18081 18082 18083 18084 18085 18086 18087 18088 18089 18090 18091 18092 18093 18094 18095 18096 18097 18098 18099 18100 18101 18102 18103 18104 18105 18106 18107 18108 18109 18110 18111 18112 18113 18114 18115 18116 18117 18118 18119 18120 18121 18122 18123 18124 18125 18126 18127 18128 18129 18130 18131 18132 18133 18134 18135 18136 18137 18138 18139 18140 18141 18142 18143 18144 18145 18146 18147 18148 18149 18150 18151 18152 18153 18154 18155 18156 18157 18158 18159 18160 18161 18162 18163 18164 18165 18166 18167 18168 18169 18170 18171 18172 18173 18174 18175 18176 18177 18178 18179 18180 18181 18182 18183 18184 18185 18186 18187 18188 18189 18190 18191 18192 18193 18194 18195 18196 18197 18198 18199 18200 18201 18202 18203 18204 18205 18206 18207 18208 18209 18210 18211 18212 18213 18214 18215 18216 18217 18218 18219 18220 18221 18222 18223 18224 18225 18226 18227 18228 18229 18230 18231 18232 18233 18234 18235 18236 18237 18238 18239 18240 18241 18242 18243 18244 18245 18246 18247 18248 18249 18250 18251 18252 18253 18254 18255 18256 18257 18258 18259 18260 18261 18262 18263 18264 18265 18266 18267 18268 18269 18270 18271 18272 18273 18274 18275 18276 18277 18278 18279 18280 18281 18282 18283 18284 18285 18286 18287 18288 18289 18290 18291 18292 18293 18294 18295 18296 18297 18298 18299 18300 18301 18302 18303 18304 18305 18306 18307 18308 18309 18310 18311 18312 18313 18314 18315 18316 18317 18318 18319 18320 18321 18322 18323 18324 18325 18326 18327 18328 18329 18330 18331 18332 18333 18334 18335 18336 18337 18338 18339 18340 18341 18342 18343 18344 18345 18346 18347 18348 18349 18350 18351 18352 18353 18354 18355 18356 18357 18358 18359 18360 18361 18362 18363 18364 18365 18366 18367 18368 18369 18370 18371 18372 18373 18374 18375 18376 18377 18378 18379 18380 18381 18382 18383 18384 18385 18386 18387 18388 18389 18390 18391 18392 18393 18394 18395 18396 18397 18398 18399 18400 18401 18402 18403 18404 18405 18406 18407 18408 18409 18410 18411 18412 18413 18414 18415 18416 18417 18418 18419 18420 18421 18422 18423 18424 18425 18426 18427 18428 18429 18430 18431 18432 18433 18434 18435 18436 18437 18438 18439 18440 18441 18442 18443 18444 18445 18446 18447 18448 18449 18450 18451 18452 18453 18454 18455 18456 18457 18458 18459 18460 18461 18462 18463 18464 18465 18466 18467 18468 18469 18470 18471 18472 18473 18474 18475 18476 18477 18478 18479 18480 18481 18482 18483 18484 18485 18486 18487 18488 18489 18490 18491 18492 18493 18494 18495 18496 18497 18498 18499 18500 18501 18502 18503 18504 18505 18506 18507 18508 18509 18510 18511 18512 18513 18514 18515 18516 18517 18518 18519 18520 18521 18522 18523 18524 18525 18526 18527 18528 18529 18530 18531 18532 18533 18534 18535 18536 18537 18538 18539 18540 18541 18542 18543 18544 18545 18546 18547 18548 18549 18550 18551 18552 18553 18554 18555 18556 18557 18558 18559 18560 18561 18562 18563 18564 18565 18566 18567 18568 18569 18570 18571 18572 18573 18574 18575 18576 18577 18578 18579 18580 18581 18582 18583 18584 18585 18586 18587 18588 18589 18590 18591 18592 18593 18594 18595 18596 18597 18598 18599 18600 18601 18602 18603 18604 18605 18606 18607 18608 18609 18610 18611 18612 18613 18614 18615 18616 18617 18618 18619 18620 18621 18622 18623 18624 18625 18626 18627 18628 18629 18630 18631 18632 18633 18634 18635 18636 18637 18638 18639 18640 18641 18642 18643 18644 18645 18646 18647 18648 18649 18650 18651 18652 18653 18654 18655 18656 18657 18658 18659 18660 18661 18662 18663 18664 18665 18666 18667 18668 18669 18670 18671 18672 18673 18674 18675 18676 18677 18678 18679 18680 18681 18682 18683 18684 18685 18686 18687 18688 18689 18690 18691 18692 18693 18694 18695 18696 18697 18698 18699 18700 18701 18702 18703 18704 18705 18706 18707 18708 18709 18710 18711 18712 18713 18714 18715 18716 18717 18718 18719 18720 18721 18722 18723 18724 18725 18726 18727 18728 18729 18730 18731 18732 18733 18734 18735 18736 18737 18738 18739 18740 18741 18742 18743 18744 18745 18746 18747 18748 18749 18750 18751 18752 18753 18754 18755 18756 18757 18758 18759 18760 18761 18762 18763 18764 18765 18766 18767 18768 18769 18770 18771 18772 18773 18774 18775 18776 18777 18778 18779 18780 18781 18782 18783 18784 18785 18786 18787 18788 18789 18790 18791 18792 18793 18794 18795 18796 18797 18798 18799 18800 18801 18802 18803 18804 18805 18806 18807 18808 18809 18810 18811 18812 18813 18814 18815 18816 18817 18818 18819 18820 18821 18822 18823 18824 18825 18826 18827 18828 18829 18830 18831 18832 18833 18834 18835 18836 18837 18838 18839 18840 18841 18842 18843 18844 18845 18846 18847 18848 18849 18850 18851 18852 18853 18854 18855 18856 18857 18858 18859 18860 18861 18862 18863 18864 18865 18866 18867 18868 18869 18870 18871 18872 18873 18874 18875 18876 18877 18878 18879 18880 18881 18882 18883 18884 18885 18886 18887 18888 18889 18890 18891 18892 18893 18894 18895 18896 18897 18898 18899 18900 18901 18902 18903 18904 18905 18906 18907 18908 18909 18910 18911 18912 18913 18914 18915 18916 18917 18918 18919 18920 18921 18922 18923 18924 18925 18926 18927 18928 18929 18930 18931 18932 18933 18934 18935 18936 18937 18938 18939 18940 18941 18942 18943 18944 18945 18946 18947 18948 18949 18950 18951 18952 18953 18954 18955 18956 18957 18958 18959 18960 18961 18962 18963 18964 18965 18966 18967 18968 18969 18970 18971 18972 18973 18974 18975 18976 18977 18978 18979 18980 18981 18982 18983 18984 18985 18986 18987 18988 18989 18990 18991 18992 18993 18994 18995 18996 18997 18998 18999 19000 19001 19002 19003 19004 19005 19006 19007 19008 19009 19010 19011 19012 19013 19014 19015 19016 19017 19018 19019 19020 19021 19022 19023 19024 19025 19026 19027 19028 19029 19030 19031 19032 19033 19034 19035 19036 19037 19038 19039 19040 19041 19042 19043 19044 19045 19046 19047 19048 19049 19050 19051 19052 19053 19054 19055 19056 19057 19058 19059 19060 19061 19062 19063 19064 19065 19066 19067 19068 19069 19070 19071 19072 19073 19074 19075 19076 19077 19078 19079 19080 19081 19082 19083 19084 19085 19086 19087 19088 19089 19090 19091 19092 19093 19094 19095 19096 19097 19098 19099 19100 19101 19102 19103 19104 19105 19106 19107 19108 19109 19110 19111 19112 19113 19114 19115 19116 19117 19118 19119 19120 19121 19122 19123 19124 19125 19126 19127 19128 19129 19130 19131 19132 19133 19134 19135 19136 19137 19138 19139 19140 19141 19142 19143 19144 19145 19146 19147 19148 19149 19150 19151 19152 19153 19154 19155 19156 19157 19158 19159 19160 19161 19162 19163 19164 19165 19166 19167 19168 19169 19170 19171 19172 19173 19174 19175 19176 19177 19178 19179 19180 19181 19182 19183 19184 19185 19186 19187 19188 19189 19190 19191 19192 19193 19194 19195 19196 19197 19198 19199 19200 19201 19202 19203 19204 19205 19206 19207 19208 19209 19210 19211 19212 19213 19214 19215 19216 19217 19218 19219 19220 19221 19222 19223 19224 19225 19226 19227 19228 19229 19230 19231 19232 19233 19234 19235 19236 19237 19238 19239 19240 19241 19242 19243 19244 19245 19246 19247 19248 19249 19250 19251 19252 19253 19254 19255 19256 19257 19258 19259 19260 19261 19262 19263 19264 19265 19266 19267 19268 19269 19270 19271 19272 19273 19274 19275 19276 19277 19278 19279 19280 19281 19282 19283 19284 19285 19286 19287 19288 19289 19290 19291 19292 19293 19294 19295 19296 19297 19298 19299 19300 19301 19302 19303 19304 19305 19306 19307 19308 19309 19310 19311 19312 19313 19314 19315 19316 19317 19318 19319 19320 19321 19322 19323 19324 19325 19326 19327 19328 19329 19330 19331 19332 19333 19334 19335 19336 19337 19338 19339 19340 19341 19342 19343 19344 19345 19346 19347 19348 19349 19350 19351 19352 19353 19354 19355 19356 19357 19358 19359 19360 19361 19362 19363 19364 19365 19366 19367 19368 19369 19370 19371 19372 19373 19374 19375 19376 19377 19378 19379 19380 19381 19382 19383 19384 19385 19386 19387 19388 19389 19390 19391 19392 19393 19394 19395 19396 19397 19398 19399 19400 19401 19402 19403 19404 19405 19406 19407 19408 19409 19410 19411 19412 19413 19414 19415 19416 19417 19418 19419 19420 19421 19422 19423 19424 19425 19426 19427 19428 19429 19430 19431 19432 19433 19434 19435 19436 19437 19438 19439 19440 19441 19442 19443 19444 19445 19446 19447 19448 19449 19450 19451 19452 19453 19454 19455 19456 19457 19458 19459 19460 19461 19462 19463 19464 19465 19466 19467 19468 19469 19470 19471 19472 19473 19474 19475 19476 19477 19478 19479 19480 19481 19482 19483 19484 19485 19486 19487 19488 19489 19490 19491 19492 19493 19494 19495 19496 19497 19498 19499 19500 19501 19502 19503 19504 19505 19506 19507 19508 19509 19510 19511 19512 19513 19514 19515 19516 19517 19518 19519 19520 19521 19522 19523 19524 19525 19526 19527 19528 19529 19530 19531 19532 19533 19534 19535 19536 19537 19538 19539 19540 19541 19542 19543 19544 19545 19546 19547 19548 19549 19550 19551 19552 19553 19554 19555 19556 19557 19558 19559 19560 19561 19562 19563 19564 19565 19566 19567 19568 19569 19570 19571 19572 19573 19574 19575 19576 19577 19578 19579 19580 19581 19582 19583 19584 19585 19586 19587 19588 19589 19590 19591 19592 19593 19594 19595 19596 19597 19598 19599 19600 19601 19602 19603 19604 19605 19606 19607 19608 19609 19610 19611 19612 19613 19614 19615 19616 19617 19618 19619 19620 19621 19622 19623 19624 19625 19626 19627 19628 19629 19630 19631 19632 19633 19634 19635 19636 19637 19638 19639 19640 19641 19642 19643 19644 19645 19646 19647 19648 19649 19650 19651 19652 19653 19654 19655 19656 19657 19658 19659 19660 19661 19662 19663 19664 19665 19666 19667 19668 19669 19670 19671 19672 19673 19674 19675 19676 19677 19678 19679 19680 19681 19682 19683 19684 19685 19686 19687 19688 19689 19690 19691 19692 19693 19694 19695 19696 19697 19698 19699 19700 19701 19702 19703 19704 19705 19706 19707 19708 19709 19710 19711 19712 19713 19714 19715 19716 19717 19718 19719 19720 19721 19722 19723 19724 19725 19726 19727 19728 19729 19730 19731 19732 19733 19734 19735 19736 19737 19738 19739 19740 19741 19742 19743 19744 19745 19746 19747 19748 19749 19750 19751 19752 19753 19754 19755 19756 19757 19758 19759 19760 19761 19762 19763 19764 19765 19766 19767 19768 19769 19770 19771 19772 19773 19774 19775 19776 19777 19778 19779 19780 19781 19782 19783 19784 19785 19786 19787 19788 19789 19790 19791 19792 19793 19794 19795 19796 19797 19798 19799 19800 19801 19802 19803 19804 19805 19806 19807 19808 19809 19810 19811 19812 19813 19814 19815 19816 19817 19818 19819 19820 19821 19822 19823 19824 19825 19826 19827 19828 19829 19830 19831 19832 19833 19834 19835 19836 19837 19838 19839 19840 19841 19842 19843 19844 19845 19846 19847 19848 19849 19850 19851 19852 19853 19854 19855 19856 19857 19858 19859 19860 19861 19862 19863 19864 19865 19866 19867 19868 19869 19870 19871 19872 19873 19874 19875 19876 19877 19878 19879 19880 19881 19882 19883 19884 19885 19886 19887 19888 19889 19890 19891 19892 19893 19894 19895 19896 19897 19898 19899 19900 19901 19902 19903 19904 19905 19906 19907 19908 19909 19910 19911 19912 19913 19914 19915 19916 19917 19918 19919 19920 19921 19922 19923 19924 19925 19926 19927 19928 19929 19930 19931 19932 19933 19934 19935 19936 19937 19938 19939 19940 19941 19942 19943 19944 19945 19946 19947 19948 19949 19950 19951 19952 19953 19954 19955 19956 19957 19958 19959 19960 19961 19962 19963 19964 19965 19966 19967 19968 19969 19970 19971 19972 19973 19974 19975 19976 19977 19978 19979 19980 19981 19982 19983 19984 19985 19986 19987 19988 19989 19990 19991 19992 19993 19994 19995 19996 19997 19998 19999 20000 20001 20002 20003 20004 20005 20006 20007 20008 20009 20010 20011 20012 20013 20014 20015 20016 20017 20018 20019 20020 20021 20022 20023 20024 20025 20026 20027 20028 20029 20030 20031 20032 20033 20034 20035 20036 20037 20038 20039 20040 20041 20042 20043 20044 20045 20046 20047 20048 20049 20050 20051 20052 20053 20054 20055 20056 20057 20058 20059 20060 20061 20062 20063 20064 20065 20066 20067 20068 20069 20070 20071 20072 20073 20074 20075 20076 20077 20078 20079 20080 20081 20082 20083 20084 20085 20086 20087 20088 20089 20090 20091 20092 20093 20094 20095 20096 20097 20098 20099 20100 20101 20102 20103 20104 20105 20106 20107 20108 20109 20110 20111 20112 20113 20114 20115 20116 20117 20118 20119 20120 20121 20122 20123 20124 20125 20126 20127 20128 20129 20130 20131 20132 20133 20134 20135 20136 20137 20138 20139 20140 20141 20142 20143 20144 20145 20146 20147 20148 20149 20150 20151 20152 20153 20154 20155 20156 20157 20158 20159 20160 20161 20162 20163 20164 20165 20166 20167 20168 20169 20170 20171 20172 20173 20174 20175 20176 20177 20178 20179 20180 20181 20182 20183 20184 20185 20186 20187 20188 20189 20190 20191 20192 20193 20194 20195 20196 20197 20198 20199 20200 20201 20202 20203 20204 20205 20206 20207 20208 20209 20210 20211 20212 20213 20214 20215 20216 20217 20218 20219 20220 20221 20222 20223 20224 20225 20226 20227 20228 20229 20230 20231 20232 20233 20234 20235 20236 20237 20238 20239 20240 20241 20242 20243 20244 20245 20246 20247 20248 20249 20250 20251 20252 20253 20254 20255 20256 20257 20258 20259 20260 20261 20262 20263 20264 20265 20266 20267 20268 20269 20270 20271 20272 20273 20274 20275 20276 20277 20278 20279 20280 20281 20282 20283 20284 20285 20286 20287 20288 20289 20290 20291 20292 20293 20294 20295 20296 20297 20298 20299 20300 20301 20302 20303 20304 20305 20306 20307 20308 20309 20310 20311 20312 20313 20314 20315 20316 20317 20318 20319 20320 20321 20322 20323 20324 20325 20326 20327 20328 20329 20330 20331 20332 20333 20334 20335 20336 20337 20338 20339 20340 20341 20342 20343 20344 20345 20346 20347 20348 20349 20350 20351 20352 20353 20354 20355 20356 20357 20358 20359 20360 20361 20362 20363 20364 20365 20366 20367 20368 20369 20370 20371 20372 20373 20374 20375 20376 20377 20378 20379 20380 20381 20382 20383 20384 20385 20386 20387 20388 20389 20390 20391 20392 20393 20394 20395 20396 20397 20398 20399 20400 20401 20402 20403 20404 20405 20406 20407 20408 20409 20410 20411 20412 20413 20414 20415 20416 20417 20418 20419 20420 20421 20422 20423 20424 20425 20426 20427 20428 20429 20430 20431 20432 20433 20434 20435 20436 20437 20438 20439 20440 20441 20442 20443 20444 20445 20446 20447 20448 20449 20450 20451 20452 20453 20454 20455 20456 20457 20458 20459 20460 20461 20462 20463 20464 20465 20466 20467 20468 20469 20470 20471 20472 20473 20474 20475 20476 20477 20478 20479 20480 20481 20482 20483 20484 20485 20486 20487 20488 20489 20490 20491 20492 20493 20494 20495 20496 20497 20498 20499 20500 20501 20502 20503 20504 20505 20506 20507 20508 20509 20510 20511 20512 20513 20514 20515 20516 20517 20518 20519 20520 20521 20522 20523 20524 20525 20526 20527 20528 20529 20530 20531 20532 20533 20534 20535 20536 20537 20538 20539 20540 20541 20542 20543 20544 20545 20546 20547 20548 20549 20550 20551 20552 20553 20554 20555 20556 20557 20558 20559 20560 20561 20562 20563 20564 20565 20566 20567 20568 20569 20570 20571 20572 20573 20574 20575 20576 20577 20578 20579 20580 20581 20582 20583 20584 20585 20586 20587 20588 20589 20590 20591 20592 20593 20594 20595 20596 20597 20598 20599 20600 20601 20602 20603 20604 20605 20606 20607 20608 20609 20610 20611 20612 20613 20614 20615 20616 20617 20618 20619 20620 20621 20622 20623 20624 20625 20626 20627 20628 20629 20630 20631 20632 20633 20634 20635 20636 20637 20638 20639 20640 20641 20642 20643 20644 20645 20646 20647 20648 20649 20650 20651 20652 20653 20654 20655 20656 20657 20658 20659 20660 20661 20662 20663 20664 20665 20666 20667 20668 20669 20670 20671 20672 20673 20674 20675 20676 20677 20678 20679 20680 20681 20682 20683 20684 20685 20686 20687 20688 20689 20690 20691 20692 20693 20694 20695 20696 20697 20698 20699 20700 20701 20702 20703 20704 20705 20706 20707 20708 20709 20710 20711 20712 20713 20714 20715 20716 20717 20718 20719 20720 20721 20722 20723 20724 20725 20726 20727 20728 20729 20730 20731 20732 20733 20734 20735 20736 20737 20738 20739 20740 20741 20742 20743 20744 20745 20746 20747 20748 20749 20750 20751 20752 20753 20754 20755 20756 20757 20758 20759 20760 20761 20762 20763 20764 20765 20766 20767 20768 20769 20770 20771 20772 20773 20774 20775 20776 20777 20778 20779 20780 20781 20782 20783 20784 20785 20786 20787 20788 20789 20790 20791 20792 20793 20794 20795 20796 20797 20798 20799 20800 20801 20802 20803 20804 20805 20806 20807 20808 20809 20810 20811 20812 20813 20814 20815 20816 20817 20818 20819 20820 20821 20822 20823 20824 20825 20826 20827 20828 20829 20830 20831 20832 20833 20834 20835 20836 20837 20838 20839 20840 20841 20842 20843 20844 20845 20846 20847 20848 20849 20850 20851 20852 20853 20854 20855 20856 20857 20858 20859 20860 20861 20862 20863 20864 20865 20866 20867 20868 20869 20870 20871 20872 20873 20874 20875 20876 20877 20878 20879 20880 20881 20882 20883 20884 20885 20886 20887 20888 20889 20890 20891 20892 20893 20894 20895 20896 20897 20898 20899 20900 20901 20902 20903 20904 20905 20906 20907 20908 20909 20910 20911 20912 20913 20914 20915 20916 20917 20918 20919 20920 20921 20922 20923 20924 20925 20926 20927 20928 20929 20930 20931 20932 20933 20934 20935 20936 20937 20938 20939 20940 20941 20942 20943 20944 20945 20946 20947 20948 20949 20950 20951 20952 20953 20954 20955 20956 20957 20958 20959 20960 20961 20962 20963 20964 20965 20966 20967 20968 20969 20970 20971 20972 20973 20974 20975 20976 20977 20978 20979 20980 20981 20982 20983 20984 20985 20986 20987 20988 20989 20990 20991 20992 20993 20994 20995 20996 20997 20998 20999 21000 21001 21002 21003 21004 21005 21006 21007 21008 21009 21010 21011 21012 21013 21014 21015 21016 21017 21018 21019 21020 21021 21022 21023 21024 21025 21026 21027 21028 21029 21030 21031 21032 21033 21034 21035 21036 21037 21038 21039 21040 21041 21042 21043 21044 21045 21046 21047 21048 21049 21050 21051 21052 21053 21054 21055 21056 21057 21058 21059 21060 21061 21062 21063 21064 21065 21066 21067 21068 21069 21070 21071 21072 21073 21074 21075 21076 21077 21078 21079 21080 21081 21082 21083 21084 21085 21086 21087 21088 21089 21090 21091 21092 21093 21094 21095 21096 21097 21098 21099 21100 21101 21102 21103 21104 21105 21106 21107 21108 21109 21110 21111 21112 21113 21114 21115 21116 21117 21118 21119 21120 21121 21122 21123 21124 21125 21126 21127 21128 21129 21130 21131 21132 21133 21134 21135 21136 21137 21138 21139 21140 21141 21142 21143 21144 21145 21146 21147 21148 21149 21150 21151 21152 21153 21154 21155 21156 21157 21158 21159 21160 21161 21162 21163 21164 21165 21166 21167 21168 21169 21170 21171 21172 21173 21174 21175 21176 21177 21178 21179 21180 21181 21182 21183 21184 21185 21186 21187 21188 21189 21190 21191 21192 21193 21194 21195 21196 21197 21198 21199 21200 21201 21202 21203 21204 21205 21206 21207 21208 21209 21210 21211 21212 21213 21214 21215 21216 21217 21218 21219 21220 21221 21222 21223 21224 21225 21226 21227 21228 21229 21230 21231 21232 21233 21234 21235 21236 21237 21238 21239 21240 21241 21242 21243 21244 21245 21246 21247 21248 21249 21250 21251 21252 21253 21254 21255 21256 21257 21258 21259 21260 21261 21262 21263 21264 21265 21266 21267 21268 21269 21270 21271 21272 21273 21274 21275 21276 21277 21278 21279 21280 21281 21282 21283 21284 21285 21286 21287 21288 21289 21290 21291 21292 21293 21294 21295 21296 21297 21298 21299 21300 21301 21302 21303 21304 21305 21306 21307 21308 21309 21310 21311 21312 21313 21314 21315 21316 21317 21318 21319 21320 21321 21322 21323 21324 21325 21326 21327 21328 21329 21330 21331 21332 21333 21334 21335 21336 21337 21338 21339 21340 21341 21342 21343 21344 21345 21346 21347 21348 21349 21350 21351 21352 21353 21354 21355 21356 21357 21358 21359 21360 21361 21362 21363 21364 21365 21366 21367 21368 21369 21370 21371 21372 21373 21374 21375 21376 21377 21378 21379 21380 21381 21382 21383 21384 21385 21386 21387 21388 21389 21390 21391 21392 21393 21394 21395 21396 21397 21398 21399 21400 21401 21402 21403 21404 21405 21406 21407 21408 21409 21410 21411 21412 21413 21414 21415 21416 21417 21418 21419 21420 21421 21422 21423 21424 21425 21426 21427 21428 21429 21430 21431 21432 21433 21434 21435 21436 21437 21438 21439 21440 21441 21442 21443 21444 21445 21446 21447 21448 21449 21450 21451 21452 21453 21454 21455 21456 21457 21458 21459 21460 21461 21462 21463 21464 21465 21466 21467 21468 21469 21470 21471 21472 21473 21474 21475 21476 21477 21478 21479 21480 21481 21482 21483 21484 21485 21486 21487 21488 21489 21490 21491 21492 21493 21494 21495 21496 21497 21498 21499 21500 21501 21502 21503 21504 21505 21506 21507 21508 21509 21510 21511 21512 21513 21514 21515 21516 21517 21518 21519 21520 21521 21522 21523 21524 21525 21526 21527 21528 21529 21530 21531 21532 21533 21534 21535 21536 21537 21538 21539 21540 21541 21542 21543 21544 21545 21546 21547 21548 21549 21550 21551 21552 21553 21554 21555 21556 21557 21558 21559 21560 21561 21562 21563 21564 21565 21566 21567 21568 21569 21570 21571 21572 21573 21574 21575 21576 21577 21578 21579 21580 21581 21582 21583 21584 21585 21586 21587 21588 21589 21590 21591 21592 21593 21594 21595 21596 21597 21598 21599 21600 21601 21602 21603 21604 21605 21606 21607 21608 21609 21610 21611 21612 21613 21614 21615 21616 21617 21618 21619 21620 21621 21622 21623 21624 21625 21626 21627 21628 21629 21630 21631 21632 21633 21634 21635 21636 21637 21638 21639 21640 21641 21642 21643 21644 21645 21646 21647 21648 21649 21650 21651 21652 21653 21654 21655 21656 21657 21658 21659 21660 21661 21662 21663 21664 21665 21666 21667 21668 21669 21670 21671 21672 21673 21674 21675 21676 21677 21678 21679 21680 21681 21682 21683 21684 21685 21686 21687 21688 21689 21690 21691 21692 21693 21694 21695 21696 21697 21698 21699 21700 21701 21702 21703 21704 21705 21706 21707 21708 21709 21710 21711 21712 21713 21714 21715 21716 21717 21718 21719 21720 21721 21722 21723 21724 21725 21726 21727 21728 21729 21730 21731 21732 21733 21734 21735 21736 21737 21738 21739 21740 21741 21742 21743 21744 21745 21746 21747 21748 21749 21750 21751 21752 21753 21754 21755 21756 21757 21758 21759 21760 21761 21762 21763 21764 21765 21766 21767 21768 21769 21770 21771 21772 21773 21774 21775 21776 21777 21778 21779 21780 21781 21782 21783 21784 21785 21786 21787 21788 21789 21790 21791 21792 21793 21794 21795 21796 21797 21798 21799 21800 21801 21802 21803 21804 21805 21806 21807 21808 21809 21810 21811 21812 21813 21814 21815 21816 21817 21818 21819 21820 21821 21822 21823 21824 21825 21826 21827 21828 21829 21830 21831 21832 21833 21834 21835 21836 21837 21838 21839 21840 21841 21842 21843 21844 21845 21846 21847 21848 21849 21850 21851 21852 21853 21854 21855 21856 21857 21858 21859 21860 21861 21862 21863 21864 21865 21866 21867 21868 21869 21870 21871 21872 21873 21874 21875 21876 21877 21878 21879 21880 21881 21882 21883 21884 21885 21886 21887 21888 21889 21890 21891 21892 21893 21894 21895 21896 21897 21898 21899 21900 21901 21902 21903 21904 21905 21906 21907 21908 21909 21910 21911 21912 21913 21914 21915 21916 21917 21918 21919 21920 21921 21922 21923 21924 21925 21926 21927 21928 21929 21930 21931 21932 21933 21934 21935 21936 21937 21938 21939 21940 21941 21942 21943 21944 21945 21946 21947 21948 21949 21950 21951 21952 21953 21954 21955 21956 21957 21958 21959 21960 21961 21962 21963 21964 21965 21966 21967 21968 21969 21970 21971 21972 21973 21974 21975 21976 21977 21978 21979 21980 21981 21982 21983 21984 21985 21986 21987 21988 21989 21990 21991 21992 21993 21994 21995 21996 21997 21998 21999 22000 22001 22002 22003 22004 22005 22006 22007 22008 22009 22010 22011 22012 22013 22014 22015 22016 22017 22018 22019 22020 22021 22022 22023 22024 22025 22026 22027 22028 22029 22030 22031 22032 22033 22034 22035 22036 22037 22038 22039 22040 22041 22042 22043 22044 22045 22046 22047 22048 22049 22050 22051 22052 22053 22054 22055 22056 22057 22058 22059 22060 22061 22062 22063 22064 22065 22066 22067 22068 22069 22070 22071 22072 22073 22074 22075 22076 22077 22078 22079 22080 22081 22082 22083 22084 22085 22086 22087 22088 22089 22090 22091 22092 22093 22094 22095 22096 22097 22098 22099 22100 22101 22102 22103 22104 22105 22106 22107 22108 22109 22110 22111 22112 22113 22114 22115 22116 22117 22118 22119 22120 22121 22122 22123 22124 22125 22126 22127 22128 22129 22130 22131 22132 22133 22134 22135 22136 22137 22138 22139 22140 22141 22142 22143 22144 22145 22146 22147 22148 22149 22150 22151 22152 22153 22154 22155 22156 22157 22158 22159 22160 22161 22162 22163 22164 22165 22166 22167 22168 22169 22170 22171 22172 22173 22174 22175 22176 22177 22178 22179 22180 22181 22182 22183 22184 22185 22186 22187 22188 22189 22190 22191 22192 22193 22194 22195 22196 22197 22198 22199 22200 22201 22202 22203 22204 22205 22206 22207 22208 22209 22210 22211 22212 22213 22214 22215 22216 22217 22218 22219 22220 22221 22222 22223 22224 22225 22226 22227 22228 22229 22230 22231 22232 22233 22234 22235 22236 22237 22238 22239 22240 22241 22242 22243 22244 22245 22246 22247 22248 22249 22250 22251 22252 22253 22254 22255 22256 22257 22258 22259 22260 22261 22262 22263 22264 22265 22266 22267 22268 22269 22270 22271 22272 22273 22274 22275 22276 22277 22278 22279 22280 22281 22282 22283 22284 22285 22286 22287 22288 22289 22290 22291 22292 22293 22294 22295 22296 22297 22298 22299 22300 22301 22302 22303 22304 22305 22306 22307 22308 22309 22310 22311 22312 22313 22314 22315 22316 22317 22318 22319 22320 22321 22322 22323 22324 22325 22326 22327 22328 22329 22330 22331 22332 22333 22334 22335 22336 22337 22338 22339 22340 22341 22342 22343 22344 22345 22346 22347 22348 22349 22350 22351 22352 22353 22354 22355 22356 22357 22358 22359 22360 22361 22362 22363 22364 22365 22366 22367 22368 22369 22370 22371 22372 22373 22374 22375 22376 22377 22378 22379 22380 22381 22382 22383 22384 22385 22386 22387 22388 22389 22390 22391 22392 22393 22394 22395 22396 22397 22398 22399 22400 22401 22402 22403 22404 22405 22406 22407 22408 22409 22410 22411 22412 22413 22414 22415 22416 22417 22418 22419 22420 22421 22422 22423 22424 22425 22426 22427 22428 22429 22430 22431 22432 22433 22434 22435 22436 22437 22438 22439 22440 22441 22442 22443 22444 22445 22446 22447 22448 22449 22450 22451 22452 22453 22454 22455 22456 22457 22458 22459 22460 22461 22462 22463 22464 22465 22466 22467 22468 22469 22470 22471 22472 22473 22474 22475 22476 22477 22478 22479 22480 22481 22482 22483 22484 22485 22486 22487 22488 22489 22490 22491 22492 22493 22494 22495 22496 22497 22498 22499 22500 22501 22502 22503 22504 22505 22506 22507 22508 22509 22510 22511 22512 22513 22514 22515 22516 22517 22518 22519 22520 22521 22522 22523 22524 22525 22526 22527 22528 22529 22530 22531 22532 22533 22534 22535 22536 22537 22538 22539 22540 22541 22542 22543 22544 22545 22546 22547 22548 22549 22550 22551 22552 22553 22554 22555 22556 22557 22558 22559 22560 22561 22562 22563 22564 22565 22566 22567 22568 22569 22570 22571 22572 22573 22574 22575 22576 22577 22578 22579 22580 22581 22582 22583 22584 22585 22586 22587 22588 22589 22590 22591 22592 22593 22594 22595 22596 22597 22598 22599 22600 22601 22602 22603 22604 22605 22606 22607 22608 22609 22610 22611 22612 22613 22614 22615 22616 22617 22618 22619 22620 22621 22622 22623 22624 22625 22626 22627 22628 22629 22630 22631 22632 22633 22634 22635 22636 22637 22638 22639 22640 22641 22642 22643 22644 22645 22646 22647 22648 22649 22650 22651 22652 22653 22654 22655 22656 22657 22658 22659 22660 22661 22662 22663 22664 22665 22666 22667 22668 22669 22670 22671 22672 22673 22674 22675 22676 22677 22678 22679 22680 22681 22682 22683 22684 22685 22686 22687 22688 22689 22690 22691 22692 22693 22694 22695 22696 22697 22698 22699 22700 22701 22702 22703 22704 22705 22706 22707 22708 22709 22710 22711 22712 22713 22714 22715 22716 22717 22718 22719 22720 22721 22722 22723 22724 22725 22726 22727 22728 22729 22730 22731 22732 22733 22734 22735 22736 22737 22738 22739 22740 22741 22742 22743 22744 22745 22746 22747 22748 22749 22750 22751 22752 22753 22754 22755 22756 22757 22758 22759 22760 22761 22762 22763 22764 22765 22766 22767 22768 22769 22770 22771 22772 22773 22774 22775 22776 22777 22778 22779 22780 22781 22782 22783 22784 22785 22786 22787 22788 22789 22790 22791 22792 22793 22794 22795 22796 22797 22798 22799 22800 22801 22802 22803 22804 22805 22806 22807 22808 22809 22810 22811 22812 22813 22814 22815 22816 22817 22818 22819 22820 22821 22822 22823 22824 22825 22826 22827 22828 22829 22830 22831 22832 22833 22834 22835 22836 22837 22838 22839 22840 22841 22842 22843 22844 22845 22846 22847 22848 22849 22850 22851 22852 22853 22854 22855 22856 22857 22858 22859 22860 22861 22862 22863 22864 22865 22866 22867 22868 22869 22870 22871 22872 22873 22874 22875 22876 22877 22878 22879 22880 22881 22882 22883 22884 22885 22886 22887 22888 22889 22890 22891 22892 22893 22894 22895 22896 22897 22898 22899 22900 22901 22902 22903 22904 22905 22906 22907 22908 22909 22910 22911 22912 22913 22914 22915 22916 22917 22918 22919 22920 22921 22922 22923 22924 22925 22926 22927 22928 22929 22930 22931 22932 22933 22934 22935 22936 22937 22938 22939 22940 22941 22942 22943 22944 22945 22946 22947 22948 22949 22950 22951 22952 22953 22954 22955 22956 22957 22958 22959 22960 22961 22962 22963 22964 22965 22966 22967 22968 22969 22970 22971 22972 22973 22974 22975 22976 22977 22978 22979 22980 22981 22982 22983 22984 22985 22986 22987 22988 22989 22990 22991 22992 22993 22994 22995 22996 22997 22998 22999 23000 23001 23002 23003 23004 23005 23006 23007 23008 23009 23010 23011 23012 23013 23014 23015 23016 23017 23018 23019 23020 23021 23022 23023 23024 23025 23026 23027 23028 23029 23030 23031 23032 23033 23034 23035 23036 23037 23038 23039 23040 23041 23042 23043 23044 23045 23046 23047 23048 23049 23050 23051 23052 23053 23054 23055 23056 23057 23058 23059 23060 23061 23062 23063 23064 23065 23066 23067 23068 23069 23070 23071 23072 23073 23074 23075 23076 23077 23078 23079 23080 23081 23082 23083 23084 23085 23086 23087 23088 23089 23090 23091 23092 23093 23094 23095 23096 23097 23098 23099 23100 23101 23102 23103 23104 23105 23106 23107 23108 23109 23110 23111 23112 23113 23114 23115 23116 23117 23118 23119 23120 23121 23122 23123 23124 23125 23126 23127 23128 23129 23130 23131 23132 23133 23134 23135 23136 23137 23138 23139 23140 23141 23142 23143 23144 23145 23146 23147 23148 23149 23150 23151 23152 23153 23154 23155 23156 23157 23158 23159 23160 23161 23162 23163 23164 23165 23166 23167 23168 23169 23170 23171 23172 23173 23174 23175 23176 23177 23178 23179 23180 23181 23182 23183 23184 23185 23186 23187 23188 23189 23190 23191 23192 23193 23194 23195 23196 23197 23198 23199 23200 23201 23202 23203 23204 23205 23206 23207 23208 23209 23210 23211 23212 23213 23214 23215 23216 23217 23218 23219 23220 23221 23222 23223 23224 23225 23226 23227 23228 23229 23230 23231 23232 23233 23234 23235 23236 23237 23238 23239 23240 23241 23242 23243 23244 23245 23246 23247 23248 23249 23250 23251 23252 23253 23254 23255 23256 23257 23258 23259 23260 23261 23262 23263 23264 23265 23266 23267 23268 23269 23270 23271 23272 23273 23274 23275 23276 23277 23278 23279 23280 23281 23282 23283 23284 23285 23286 23287 23288 23289 23290 23291 23292 23293 23294 23295 23296 23297 23298 23299 23300 23301 23302 23303 23304 23305 23306 23307 23308 23309 23310 23311 23312 23313 23314 23315 23316 23317 23318 23319 23320 23321 23322 23323 23324 23325 23326 23327 23328 23329 23330 23331 23332 23333 23334 23335 23336 23337 23338 23339 23340 23341 23342 23343 23344 23345 23346 23347 23348 23349 23350 23351 23352 23353 23354 23355 23356 23357 23358 23359 23360 23361 23362 23363 23364 23365 23366 23367 23368 23369 23370 23371 23372 23373 23374 23375 23376 23377 23378 23379 23380 23381 23382 23383 23384 23385 23386 23387 23388 23389 23390 23391 23392 23393 23394 23395 23396 23397 23398 23399 23400 23401 23402 23403 23404 23405 23406 23407 23408 23409 23410 23411 23412 23413 23414 23415 23416 23417 23418 23419 23420 23421 23422 23423 23424 23425 23426 23427 23428 23429 23430 23431 23432 23433 23434 23435 23436 23437 23438 23439 23440 23441 23442 23443 23444 23445 23446 23447 23448 23449 23450 23451 23452 23453 23454 23455 23456 23457 23458 23459 23460 23461 23462 23463 23464 23465 23466 23467 23468 23469 23470 23471 23472 23473 23474 23475 23476 23477 23478 23479 23480 23481 23482 23483 23484 23485 23486 23487 23488 23489 23490 23491 23492 23493 23494 23495 23496 23497 23498 23499 23500 23501 23502 23503 23504 23505 23506 23507 23508 23509 23510 23511 23512 23513 23514 23515 23516 23517 23518 23519 23520 23521 23522 23523 23524 23525 23526 23527 23528 23529 23530 23531 23532 23533 23534 23535 23536 23537 23538 23539 23540 23541 23542 23543 23544 23545 23546 23547 23548 23549 23550 23551 23552 23553 23554 23555 23556 23557 23558 23559 23560 23561 23562 23563 23564 23565 23566 23567 23568 23569 23570 23571 23572 23573 23574 23575 23576 23577 23578 23579 23580 23581 23582 23583 23584 23585 23586 23587 23588 23589 23590 23591 23592 23593 23594 23595 23596 23597 23598 23599 23600 23601 23602 23603 23604 23605 23606 23607 23608 23609 23610 23611 23612 23613 23614 23615 23616 23617 23618 23619 23620 23621 23622 23623 23624 23625 23626 23627 23628 23629 23630 23631 23632 23633 23634 23635 23636 23637 23638 23639 23640 23641 23642 23643 23644 23645 23646 23647 23648 23649 23650 23651 23652 23653 23654 23655 23656 23657 23658 23659 23660 23661 23662 23663 23664 23665 23666 23667 23668 23669 23670 23671 23672 23673 23674 23675 23676 23677 23678 23679 23680 23681 23682 23683 23684 23685 23686 23687 23688 23689 23690 23691 23692 23693 23694 23695 23696 23697 23698 23699 23700 23701 23702 23703 23704 23705 23706 23707 23708 23709 23710 23711 23712 23713 23714 23715 23716 23717 23718 23719 23720 23721 23722 23723 23724 23725 23726 23727 23728 23729 23730 23731 23732 23733 23734 23735 23736 23737 23738 23739 23740 23741 23742 23743 23744 23745 23746 23747 23748 23749 23750 23751 23752 23753 23754 23755 23756 23757 23758 23759 23760 23761 23762 23763 23764 23765 23766 23767 23768 23769 23770 23771 23772 23773 23774 23775 23776 23777 23778 23779 23780 23781 23782 23783 23784 23785 23786 23787 23788 23789 23790 23791 23792 23793 23794 23795 23796 23797 23798 23799 23800 23801 23802 23803 23804 23805 23806 23807 23808 23809 23810 23811 23812 23813 23814 23815 23816 23817 23818 23819 23820 23821 23822 23823 23824 23825 23826 23827 23828 23829 23830 23831 23832 23833 23834 23835 23836 23837 23838 23839 23840 23841 23842 23843 23844 23845 23846 23847 23848 23849 23850 23851 23852 23853 23854 23855 23856 23857 23858 23859 23860 23861 23862 23863 23864 23865 23866 23867 23868 23869 23870 23871 23872 23873 23874 23875 23876 23877 23878 23879 23880 23881 23882 23883 23884 23885 23886 23887 23888 23889 23890 23891 23892 23893 23894 23895 23896 23897 23898 23899 23900 23901 23902 23903 23904 23905 23906 23907 23908 23909 23910 23911 23912 23913 23914 23915 23916 23917 23918 23919 23920 23921 23922 23923 23924 23925 23926 23927 23928 23929 23930 23931 23932 23933 23934 23935 23936 23937 23938 23939 23940 23941 23942 23943 23944 23945 23946 23947 23948 23949 23950 23951 23952 23953 23954 23955 23956 23957 23958 23959 23960 23961 23962 23963 23964 23965 23966 23967 23968 23969 23970 23971 23972 23973 23974 23975 23976 23977 23978 23979 23980 23981 23982 23983 23984 23985 23986 23987 23988 23989 23990 23991 23992 23993 23994 23995 23996 23997 23998 23999 24000 24001 24002 24003 24004 24005 24006 24007 24008 24009 24010 24011 24012 24013 24014 24015 24016 24017 24018 24019 24020 24021 24022 24023 24024 24025 24026 24027 24028 24029 24030 24031 24032 24033 24034 24035 24036 24037 24038 24039 24040 24041 24042 24043 24044 24045 24046 24047 24048 24049 24050 24051 24052 24053 24054 24055 24056 24057 24058 24059 24060 24061 24062 24063 24064 24065 24066 24067 24068 24069 24070 24071 24072 24073 24074 24075 24076 24077 24078 24079 24080 24081 24082 24083 24084 24085 24086 24087 24088 24089 24090 24091 24092 24093 24094 24095 24096 24097 24098 24099 24100 24101 24102 24103 24104 24105 24106 24107 24108 24109 24110 24111 24112 24113 24114 24115 24116 24117 24118 24119 24120 24121 24122 24123 24124 24125 24126 24127 24128 24129 24130 24131 24132 24133 24134 24135 24136 24137 24138 24139 24140 24141 24142 24143 24144 24145 24146 24147 24148 24149 24150 24151 24152 24153 24154 24155 24156 24157 24158 24159 24160 24161 24162 24163 24164 24165 24166 24167 24168 24169 24170 24171 24172 24173 24174 24175 24176 24177 24178 24179 24180 24181 24182 24183 24184 24185 24186 24187 24188 24189 24190 24191 24192 24193 24194 24195 24196 24197 24198 24199 24200 24201 24202 24203 24204 24205 24206 24207 24208 24209 24210 24211 24212 24213 24214 24215 24216 24217 24218 24219 24220 24221 24222 24223 24224 24225 24226 24227 24228 24229 24230 24231 24232 24233 24234 24235 24236 24237 24238 24239 24240 24241 24242 24243 24244 24245 24246 24247 24248 24249 24250 24251 24252 24253 24254 24255 24256 24257 24258 24259 24260 24261 24262 24263 24264 24265 24266 24267 24268 24269 24270 24271 24272 24273 24274 24275 24276 24277 24278 24279 24280 24281 24282 24283 24284 24285 24286 24287 24288 24289 24290 24291 24292 24293 24294 24295 24296 24297 24298 24299 24300 24301 24302 24303 24304 24305 24306 24307 24308 24309 24310 24311 24312 24313 24314 24315 24316 24317 24318 24319 24320 24321 24322 24323 24324 24325 24326 24327 24328 24329 24330 24331 24332 24333 24334 24335 24336 24337 24338 24339 24340 24341 24342 24343 24344 24345 24346 24347 24348 24349 24350 24351 24352 24353 24354 24355 24356 24357 24358 24359 24360 24361 24362 24363 24364 24365 24366 24367 24368 24369 24370 24371 24372 24373 24374 24375 24376 24377 24378 24379 24380 24381 24382 24383 24384 24385 24386 24387 24388 24389 24390 24391 24392 24393 24394 24395 24396 24397 24398 24399 24400 24401 24402 24403 24404 24405 24406 24407 24408 24409 24410 24411 24412 24413 24414 24415 24416 24417 24418 24419 24420 24421 24422 24423 24424 24425 24426 24427 24428 24429 24430 24431 24432 24433 24434 24435 24436 24437 24438 24439 24440 24441 24442 24443 24444 24445 24446 24447 24448 24449 24450 24451 24452 24453 24454 24455 24456 24457 24458 24459 24460 24461 24462 24463 24464 24465 24466 24467 24468 24469 24470 24471 24472 24473 24474 24475 24476 24477 24478 24479 24480 24481 24482 24483 24484 24485 24486 24487 24488 24489 24490 24491 24492 24493 24494 24495 24496 24497 24498 24499 24500 24501 24502 24503 24504 24505 24506 24507 24508 24509 24510 24511 24512 24513 24514 24515 24516 24517 24518 24519 24520 24521 24522 24523 24524 24525 24526 24527 24528 24529 24530 24531 24532 24533 24534 24535 24536 24537 24538 24539 24540 24541 24542 24543 24544 24545 24546 24547 24548 24549 24550 24551 24552 24553 24554 24555 24556 24557 24558 24559 24560 24561 24562 24563 24564 24565 24566 24567 24568 24569 24570 24571 24572 24573 24574 24575 24576 24577 24578 24579 24580 24581 24582 24583 24584 24585 24586 24587 24588 24589 24590 24591 24592 24593 24594 24595 24596 24597 24598 24599 24600 24601 24602 24603 24604 24605 24606 24607 24608 24609 24610 24611 24612 24613 24614 24615 24616 24617 24618 24619 24620 24621 24622 24623 24624 24625 24626 24627 24628 24629 24630 24631 24632 24633 24634 24635 24636 24637 24638 24639 24640 24641 24642 24643 24644 24645 24646 24647 24648 24649 24650 24651 24652 24653 24654 24655 24656 24657 24658 24659 24660 24661 24662 24663 24664 24665 24666 24667 24668 24669 24670 24671 24672 24673 24674 24675 24676 24677 24678 24679 24680 24681 24682 24683 24684 24685 24686 24687 24688 24689 24690 24691 24692 24693 24694 24695 24696 24697 24698 24699 24700 24701 24702 24703 24704 24705 24706 24707 24708 24709 24710 24711 24712 24713 24714 24715 24716 24717 24718 24719 24720 24721 24722 24723 24724 24725 24726 24727 24728 24729 24730 24731 24732 24733 24734 24735 24736 24737 24738 24739 24740 24741 24742 24743 24744 24745 24746 24747 24748 24749 24750 24751 24752 24753 24754 24755 24756 24757 24758 24759 24760 24761 24762 24763 24764 24765 24766 24767 24768 24769 24770 24771 24772 24773 24774 24775 24776 24777 24778 24779 24780 24781 24782 24783 24784 24785 24786 24787 24788 24789 24790 24791 24792 24793 24794 24795 24796 24797 24798 24799 24800 24801 24802 24803 24804 24805 24806 24807 24808 24809 24810 24811 24812 24813 24814 24815 24816 24817 24818 24819 24820 24821 24822 24823 24824 24825 24826 24827 24828 24829 24830 24831 24832 24833 24834 24835 24836 24837 24838 24839 24840 24841 24842 24843 24844 24845 24846 24847 24848 24849 24850 24851 24852 24853 24854 24855 24856 24857 24858 24859 24860 24861 24862 24863 24864 24865 24866 24867 24868 24869 24870 24871 24872 24873 24874 24875 24876 24877 24878 24879 24880 24881 24882 24883 24884 24885 24886 24887 24888 24889 24890 24891 24892 24893 24894 24895 24896 24897 24898 24899 24900 24901 24902 24903 24904 24905 24906 24907 24908 24909 24910 24911 24912 24913 24914 24915 24916 24917 24918 24919 24920 24921 24922 24923 24924 24925 24926 24927 24928 24929 24930 24931 24932 24933 24934 24935 24936 24937 24938 24939 24940 24941 24942 24943 24944 24945 24946 24947 24948 24949 24950 24951 24952 24953 24954 24955 24956 24957 24958 24959 24960 24961 24962 24963 24964 24965 24966 24967 24968 24969 24970 24971 24972 24973 24974 24975 24976 24977 24978 24979 24980 24981 24982 24983 24984 24985 24986 24987 24988 24989 24990 24991 24992 24993 24994 24995 24996 24997 24998 24999 25000 25001 25002 25003 25004 25005 25006 25007 25008 25009 25010 25011 25012 25013 25014 25015 25016 25017 25018 25019 25020 25021 25022 25023 25024 25025 25026 25027 25028 25029 25030 25031 25032 25033 25034 25035 25036 25037 25038 25039 25040 25041 25042 25043 25044 25045 25046 25047 25048 25049 25050 25051 25052 25053 25054 25055 25056 25057 25058 25059 25060 25061 25062 25063 25064 25065 25066 25067 25068 25069 25070 25071 25072 25073 25074 25075 25076 25077 25078 25079 25080 25081 25082 25083 25084 25085 25086 25087 25088 25089 25090 25091 25092 25093 25094 25095 25096 25097 25098 25099 25100 25101 25102 25103 25104 25105 25106 25107 25108 25109 25110 25111 25112 25113 25114 25115 25116 25117 25118 25119 25120 25121 25122 25123 25124 25125 25126 25127 25128 25129 25130 25131 25132 25133 25134 25135 25136 25137 25138 25139 25140 25141 25142 25143 25144 25145 25146 25147 25148 25149 25150 25151 25152 25153 25154 25155 25156 25157 25158 25159 25160 25161 25162 25163 25164 25165 25166 25167 25168 25169 25170 25171 25172 25173 25174 25175 25176 25177 25178 25179 25180 25181 25182 25183 25184 25185 25186 25187 25188 25189 25190 25191 25192 25193 25194 25195 25196 25197 25198 25199 25200 25201 25202 25203 25204 25205 25206 25207 25208 25209 25210 25211 25212 25213 25214 25215 25216 25217 25218 25219 25220 25221 25222 25223 25224 25225 25226 25227 25228 25229 25230 25231 25232 25233 25234 25235 25236 25237 25238 25239 25240 25241 25242 25243 25244 25245 25246 25247 25248 25249 25250 25251 25252 25253 25254 25255 25256 25257 25258 25259 25260 25261 25262 25263 25264 25265 25266 25267 25268 25269 25270 25271 25272 25273 25274 25275 25276 25277 25278 25279 25280 25281 25282 25283 25284 25285 25286 25287 25288 25289 25290 25291 25292 25293 25294 25295 25296 25297 25298 25299 25300 25301 25302 25303 25304 25305 25306 25307 25308 25309 25310 25311 25312 25313 25314 25315 25316 25317 25318 25319 25320 25321 25322 25323 25324 25325 25326 25327 25328 25329 25330 25331 25332 25333 25334 25335 25336 25337 25338 25339 25340 25341 25342 25343 25344 25345 25346 25347 25348 25349 25350 25351 25352 25353 25354 25355 25356 25357 25358 25359 25360 25361 25362 25363 25364 25365 25366 25367 25368 25369 25370 25371 25372 25373 25374 25375 25376 25377 25378 25379 25380 25381 25382 25383 25384 25385 25386 25387 25388 25389 25390 25391 25392 25393 25394 25395 25396 25397 25398 25399 25400 25401 25402 25403 25404 25405 25406 25407 25408 25409 25410 25411 25412 25413 25414 25415 25416 25417 25418 25419 25420 25421 25422 25423 25424 25425 25426 25427 25428 25429 25430 25431 25432 25433 25434 25435 25436 25437 25438 25439 25440 25441 25442 25443 25444 25445 25446 25447 25448 25449 25450 25451 25452 25453 25454 25455 25456 25457 25458 25459 25460 25461 25462 25463 25464 25465 25466 25467 25468 25469 25470 25471 25472 25473 25474 25475 25476 25477 25478 25479 25480 25481 25482 25483 25484 25485 25486 25487 25488 25489 25490 25491 25492 25493 25494 25495 25496 25497 25498 25499 25500 25501 25502 25503 25504 25505 25506 25507 25508 25509 25510 25511 25512 25513 25514 25515 25516 25517 25518 25519 25520 25521 25522 25523 25524 25525 25526 25527 25528 25529 25530 25531 25532 25533 25534 25535 25536 25537 25538 25539 25540 25541 25542 25543 25544 25545 25546 25547 25548 25549 25550 25551 25552 25553 25554 25555 25556 25557 25558 25559 25560 25561 25562 25563 25564 25565 25566 25567 25568 25569 25570 25571 25572 25573 25574 25575 25576 25577 25578 25579 25580 25581 25582 25583 25584 25585 25586 25587 25588 25589 25590 25591 25592 25593 25594 25595 25596 25597 25598 25599 25600 25601 25602 25603 25604 25605 25606 25607 25608 25609 25610 25611 25612 25613 25614 25615 25616 25617 25618 25619 25620 25621 25622 25623 25624 25625 25626 25627 25628 25629 25630 25631 25632 25633 25634 25635 25636 25637 25638 25639 25640 25641 25642 25643 25644 25645 25646 25647 25648 25649 25650 25651 25652 25653 25654 25655 25656 25657 25658 25659 25660 25661 25662 25663 25664 25665 25666 25667 25668 25669 25670 25671 25672 25673 25674 25675 25676 25677 25678 25679 25680 25681 25682 25683 25684 25685 25686 25687 25688 25689 25690 25691 25692 25693 25694 25695 25696 25697 25698 25699 25700 25701 25702 25703 25704 25705 25706 25707 25708 25709 25710 25711 25712 25713 25714 25715 25716 25717 25718 25719 25720 25721 25722 25723 25724 25725 25726 25727 25728 25729 25730 25731 25732 25733 25734 25735 25736 25737 25738 25739 25740 25741 25742 25743 25744 25745 25746 25747 25748 25749 25750 25751 25752 25753 25754 25755 25756 25757 25758 25759 25760 25761 25762 25763 25764 25765 25766 25767 25768 25769 25770 25771 25772 25773 25774 25775 25776 25777 25778 25779 25780 25781 25782 25783 25784 25785 25786 25787 25788 25789 25790 25791 25792 25793 25794 25795 25796 25797 25798 25799 25800 25801 25802 25803 25804 25805 25806 25807 25808 25809 25810 25811 25812 25813 25814 25815 25816 25817 25818 25819 25820 25821 25822 25823 25824 25825 25826 25827 25828 25829 25830 25831 25832 25833 25834 25835 25836 25837 25838 25839 25840 25841 25842 25843 25844 25845 25846 25847 25848 25849 25850 25851 25852 25853 25854 25855 25856 25857 25858 25859 25860 25861 25862 25863 25864 25865 25866 25867 25868 25869 25870 25871 25872 25873 25874 25875 25876 25877 25878 25879 25880 25881 25882 25883 25884 25885 25886 25887 25888 25889 25890 25891 25892 25893 25894 25895 25896 25897 25898 25899 25900 25901 25902 25903 25904 25905 25906 25907 25908 25909 25910 25911 25912 25913 25914 25915 25916 25917 25918 25919 25920 25921 25922 25923 25924 25925 25926 25927 25928 25929 25930 25931 25932 25933 25934 25935 25936 25937 25938 25939 25940 25941 25942 25943 25944 25945 25946 25947 25948 25949 25950 25951 25952 25953 25954 25955 25956 25957 25958 25959 25960 25961 25962 25963 25964 25965 25966 25967 25968 25969 25970 25971 25972 25973 25974 25975 25976 25977 25978 25979 25980 25981 25982 25983 25984 25985 25986 25987 25988 25989 25990 25991 25992 25993 25994 25995 25996 25997 25998 25999 26000 26001 26002 26003 26004 26005 26006 26007 26008 26009 26010 26011 26012 26013 26014 26015 26016 26017 26018 26019 26020 26021 26022 26023 26024 26025 26026 26027 26028 26029 26030 26031 26032 26033 26034 26035 26036 26037 26038 26039 26040 26041 26042 26043 26044 26045 26046 26047 26048 26049 26050 26051 26052 26053 26054 26055 26056 26057 26058 26059 26060 26061 26062 26063 26064 26065 26066 26067 26068 26069 26070 26071 26072 26073 26074 26075 26076 26077 26078 26079 26080 26081 26082 26083 26084 26085 26086 26087 26088 26089 26090 26091 26092 26093 26094 26095 26096 26097 26098 26099 26100 26101 26102 26103 26104 26105 26106 26107 26108 26109 26110 26111 26112 26113 26114 26115 26116 26117 26118 26119 26120 26121 26122 26123 26124 26125 26126 26127 26128 26129 26130 26131 26132 26133 26134 26135 26136 26137 26138 26139 26140 26141 26142 26143 26144 26145 26146 26147 26148 26149 26150 26151 26152 26153 26154 26155 26156 26157 26158 26159 26160 26161 26162 26163 26164 26165 26166 26167 26168 26169 26170 26171 26172 26173 26174 26175 26176 26177 26178 26179 26180 26181 26182 26183 26184 26185 26186 26187 26188 26189 26190 26191 26192 26193 26194 26195 26196 26197 26198 26199 26200 26201 26202 26203 26204 26205 26206 26207 26208 26209 26210 26211 26212 26213 26214 26215 26216 26217 26218 26219 26220 26221 26222 26223 26224 26225 26226 26227 26228 26229 26230 26231 26232 26233 26234 26235 26236 26237 26238 26239 26240 26241 26242 26243 26244 26245 26246 26247 26248 26249 26250 26251 26252 26253 26254 26255 26256 26257 26258 26259 26260 26261 26262 26263 26264 26265 26266 26267 26268 26269 26270 26271 26272 26273 26274 26275 26276 26277 26278 26279 26280 26281 26282 26283 26284 26285 26286 26287 26288 26289 26290 26291 26292 26293 26294 26295 26296 26297 26298 26299 26300 26301 26302 26303 26304 26305 26306 26307 26308 26309 26310 26311 26312 26313 26314 26315 26316 26317 26318 26319 26320 26321 26322 26323 26324 26325 26326 26327 26328 26329 26330 26331 26332 26333 26334 26335 26336 26337 26338 26339 26340 26341 26342 26343 26344 26345 26346 26347 26348 26349 26350 26351 26352 26353 26354 26355 26356 26357 26358 26359 26360 26361 26362 26363 26364 26365 26366 26367 26368 26369 26370 26371 26372 26373 26374 26375 26376 26377 26378 26379 26380 26381 26382 26383 26384 26385 26386 26387 26388 26389 26390 26391 26392 26393 26394 26395 26396 26397 26398 26399 26400 26401 26402 26403 26404 26405 26406 26407 26408 26409 26410 26411 26412 26413 26414 26415 26416 26417 26418 26419 26420 26421 26422 26423 26424 26425 26426 26427 26428 26429 26430 26431 26432 26433 26434 26435 26436 26437 26438 26439 26440 26441 26442 26443 26444 26445 26446 26447 26448 26449 26450 26451 26452 26453 26454 26455 26456 26457 26458 26459 26460 26461 26462 26463 26464 26465 26466 26467 26468 26469 26470 26471 26472 26473 26474 26475 26476 26477 26478 26479 26480 26481 26482 26483 26484 26485 26486 26487 26488 26489 26490 26491 26492 26493 26494 26495 26496 26497 26498 26499 26500 26501 26502 26503 26504 26505 26506 26507 26508 26509 26510 26511 26512 26513 26514 26515 26516 26517 26518 26519 26520 26521 26522 26523 26524 26525 26526 26527 26528 26529 26530 26531 26532 26533 26534 26535 26536 26537 26538 26539 26540 26541 26542 26543 26544 26545 26546 26547 26548 26549 26550 26551 26552 26553 26554 26555 26556 26557 26558 26559 26560 26561 26562 26563 26564 26565 26566 26567 26568 26569 26570 26571 26572 26573 26574 26575 26576 26577 26578 26579 26580 26581 26582 26583 26584 26585 26586 26587 26588 26589 26590 26591 26592 26593 26594 26595 26596 26597 26598 26599 26600 26601 26602 26603 26604 26605 26606 26607 26608 26609 26610 26611 26612 26613 26614 26615 26616 26617 26618 26619 26620 26621 26622 26623 26624 26625 26626 26627 26628 26629 26630 26631 26632 26633 26634 26635 26636 26637 26638 26639 26640 26641 26642 26643 26644 26645 26646 26647 26648 26649 26650 26651 26652 26653 26654 26655 26656 26657 26658 26659 26660 26661 26662 26663 26664 26665 26666 26667 26668 26669 26670 26671 26672 26673 26674 26675 26676 26677 26678 26679 26680 26681 26682 26683 26684 26685 26686 26687 26688 26689 26690 26691 26692 26693 26694 26695 26696 26697 26698 26699 26700 26701 26702 26703 26704 26705 26706 26707 26708 26709 26710 26711 26712 26713 26714 26715 26716 26717 26718 26719 26720 26721 26722 26723 26724 26725 26726 26727 26728 26729 26730 26731 26732 26733 26734 26735 26736 26737 26738 26739 26740 26741 26742 26743 26744 26745 26746 26747 26748 26749 26750 26751 26752 26753 26754 26755 26756 26757 26758 26759 26760 26761 26762 26763 26764 26765 26766 26767 26768 26769 26770 26771 26772 26773 26774 26775 26776 26777 26778 26779 26780 26781 26782 26783 26784 26785 26786 26787 26788 26789 26790 26791 26792 26793 26794 26795 26796 26797 26798 26799 26800 26801 26802 26803 26804 26805 26806 26807 26808 26809 26810 26811 26812 26813 26814 26815 26816 26817 26818 26819 26820 26821 26822 26823 26824 26825 26826 26827 26828 26829 26830 26831 26832 26833 26834 26835 26836 26837 26838 26839 26840 26841 26842 26843 26844 26845 26846 26847 26848 26849 26850 26851 26852 26853 26854 26855 26856 26857 26858 26859 26860 26861 26862 26863 26864 26865 26866 26867 26868 26869 26870 26871 26872 26873 26874 26875 26876 26877 26878 26879 26880 26881 26882 26883 26884 26885 26886 26887 26888 26889 26890 26891 26892 26893 26894 26895 26896 26897 26898 26899 26900 26901 26902 26903 26904 26905 26906 26907 26908 26909 26910 26911 26912 26913 26914 26915 26916 26917 26918 26919 26920 26921 26922 26923 26924 26925 26926 26927 26928 26929 26930 26931 26932 26933 26934 26935 26936 26937 26938 26939 26940 26941 26942 26943 26944 26945 26946 26947 26948 26949 26950 26951 26952 26953 26954 26955 26956 26957 26958 26959 26960 26961 26962 26963 26964 26965 26966 26967 26968 26969 26970 26971 26972 26973 26974 26975 26976 26977 26978 26979 26980 26981 26982 26983 26984 26985 26986 26987 26988 26989 26990 26991 26992 26993 26994 26995 26996 26997 26998 26999 27000 27001 27002 27003 27004 27005 27006 27007 27008 27009 27010 27011 27012 27013 27014 27015 27016 27017 27018 27019 27020 27021 27022 27023 27024 27025 27026 27027 27028 27029 27030 27031 27032 27033 27034 27035 27036 27037 27038 27039 27040 27041 27042 27043 27044 27045 27046 27047 27048 27049 27050 27051 27052 27053 27054 27055 27056 27057 27058 27059 27060 27061 27062 27063 27064 27065 27066 27067 27068 27069 27070 27071 27072 27073 27074 27075 27076 27077 27078 27079 27080 27081 27082 27083 27084 27085 27086 27087 27088 27089 27090 27091 27092 27093 27094 27095 27096 27097 27098 27099 27100 27101 27102 27103 27104 27105 27106 27107 27108 27109 27110 27111 27112 27113 27114 27115 27116 27117 27118 27119 27120 27121 27122 27123 27124 27125 27126 27127 27128 27129 27130 27131 27132 27133 27134 27135 27136 27137 27138 27139 27140 27141 27142 27143 27144 27145 27146 27147 27148 27149 27150 27151 27152 27153 27154 27155 27156 27157 27158 27159 27160 27161 27162 27163 27164 27165 27166 27167 27168 27169 27170 27171 27172 27173 27174 27175 27176 27177 27178 27179 27180 27181 27182 27183 27184 27185 27186 27187 27188 27189 27190 27191 27192 27193 27194 27195 27196 27197 27198 27199 27200 27201 27202 27203 27204 27205 27206 27207 27208 27209 27210 27211 27212 27213 27214 27215 27216 27217 27218 27219 27220 27221 27222 27223 27224 27225 27226 27227 27228 27229 27230 27231 27232 27233 27234 27235 27236 27237 27238 27239 27240 27241 27242 27243 27244 27245 27246 27247 27248 27249 27250 27251 27252 27253 27254 27255 27256 27257 27258 27259 27260 27261 27262 27263 27264 27265 27266 27267 27268 27269 27270 27271 27272 27273 27274 27275 27276 27277 27278 27279 27280 27281 27282 27283 27284 27285 27286 27287 27288 27289 27290 27291 27292 27293 27294 27295 27296 27297 27298 27299 27300 27301 27302 27303 27304 27305 27306 27307 27308 27309 27310 27311 27312 27313 27314 27315 27316 27317 27318 27319 27320 27321 27322 27323 27324 27325 27326 27327 27328 27329 27330 27331 27332 27333 27334 27335 27336 27337 27338 27339 27340 27341 27342 27343 27344 27345 27346 27347 27348 27349 27350 27351 27352 27353 27354 27355 27356 27357 27358 27359 27360 27361 27362 27363 27364 27365 27366 27367 27368 27369 27370 27371 27372 27373 27374 27375 27376 27377 27378 27379 27380 27381 27382 27383 27384 27385 27386 27387 27388 27389 27390 27391 27392 27393 27394 27395 27396 27397 27398 27399 27400 27401 27402 27403 27404 27405 27406 27407 27408 27409 27410 27411 27412 27413 27414 27415 27416 27417 27418 27419 27420 27421 27422 27423 27424 27425 27426 27427 27428 27429 27430 27431 27432 27433 27434 27435 27436 27437 27438 27439 27440 27441 27442 27443 27444 27445 27446 27447 27448 27449 27450 27451 27452 27453 27454 27455 27456 27457 27458 27459 27460 27461 27462 27463 27464 27465 27466 27467 27468 27469 27470 27471 27472 27473 27474 27475 27476 27477 27478 27479 27480 27481 27482 27483 27484 27485 27486 27487 27488 27489 27490 27491 27492 27493 27494 27495 27496 27497 27498 27499 27500 27501 27502 27503 27504 27505 27506 27507 27508 27509 27510 27511 27512 27513 27514 27515 27516 27517 27518 27519 27520 27521 27522 27523 27524 27525 27526 27527 27528 27529 27530 27531 27532 27533 27534 27535 27536 27537 27538 27539 27540 27541 27542 27543 27544 27545 27546 27547 27548 27549 27550 27551 27552 27553 27554 27555 27556 27557 27558 27559 27560 27561 27562 27563 27564 27565 27566 27567 27568 27569 27570 27571 27572 27573 27574 27575 27576 27577 27578 27579 27580 27581 27582 27583 27584 27585 27586 27587 27588 27589 27590 27591 27592 27593 27594 27595 27596 27597 27598 27599 27600 27601 27602 27603 27604 27605 27606 27607 27608 27609 27610 27611 27612 27613 27614 27615 27616 27617 27618 27619 27620 27621 27622 27623 27624 27625 27626 27627 27628 27629 27630 27631 27632 27633 27634 27635 27636 27637 27638 27639 27640 27641 27642 27643 27644 27645 27646 27647 27648 27649 27650 27651 27652 27653 27654 27655 27656 27657 27658 27659 27660 27661 27662 27663 27664 27665 27666 27667 27668 27669 27670 27671 27672 27673 27674 27675 27676 27677 27678 27679 27680 27681 27682 27683 27684 27685 27686 27687 27688 27689 27690 27691 27692 27693 27694 27695 27696 27697 27698 27699 27700 27701 27702 27703 27704 27705 27706 27707 27708 27709 27710 27711 27712 27713 27714 27715 27716 27717 27718 27719 27720 27721 27722 27723 27724 27725 27726 27727 27728 27729 27730 27731 27732 27733 27734 27735 27736 27737 27738 27739 27740 27741 27742 27743 27744 27745 27746 27747 27748 27749 27750 27751 27752 27753 27754 27755 27756 27757 27758 27759 27760 27761 27762 27763 27764 27765 27766 27767 27768 27769 27770 27771 27772 27773 27774 27775 27776 27777 27778 27779 27780 27781 27782 27783 27784 27785 27786 27787 27788 27789 27790 27791 27792 27793 27794 27795 27796 27797 27798 27799 27800 27801 27802 27803 27804 27805 27806 27807 27808 27809 27810 27811 27812 27813 27814 27815 27816 27817 27818 27819 27820 27821 27822 27823 27824 27825 27826 27827 27828 27829 27830 27831 27832 27833 27834 27835 27836 27837 27838 27839 27840 27841 27842 27843 27844 27845 27846 27847 27848 27849 27850 27851 27852 27853 27854 27855 27856 27857 27858 27859 27860 27861 27862 27863 27864 27865 27866 27867 27868 27869 27870 27871 27872 27873 27874 27875 27876 27877 27878 27879 27880 27881 27882 27883 27884 27885 27886 27887 27888 27889 27890 27891 27892 27893 27894 27895 27896 27897 27898 27899 27900 27901 27902 27903 27904 27905 27906 27907 27908 27909 27910 27911 27912 27913 27914 27915 27916 27917 27918 27919 27920 27921 27922 27923 27924 27925 27926 27927 27928 27929 27930 27931 27932 27933 27934 27935 27936 27937 27938 27939 27940 27941 27942 27943 27944 27945 27946 27947 27948 27949 27950 27951 27952 27953 27954 27955 27956 27957 27958 27959 27960 27961 27962 27963 27964 27965 27966 27967 27968 27969 27970 27971 27972 27973 27974 27975 27976 27977 27978 27979 27980 27981 27982 27983 27984 27985 27986 27987 27988 27989 27990 27991 27992 27993 27994 27995 27996 27997 27998 27999 28000 28001 28002 28003 28004 28005 28006 28007 28008 28009 28010 28011 28012 28013 28014 28015 28016 28017 28018 28019 28020 28021 28022 28023 28024 28025 28026 28027 28028 28029 28030 28031 28032 28033 28034 28035 28036 28037 28038 28039 28040 28041 28042 28043 28044 28045 28046 28047 28048 28049 28050 28051 28052 28053 28054 28055 28056 28057 28058 28059 28060 28061 28062 28063 28064 28065 28066 28067 28068 28069 28070 28071 28072 28073 28074 28075 28076 28077 28078 28079 28080 28081 28082 28083 28084 28085 28086 28087 28088 28089 28090 28091 28092 28093 28094 28095 28096 28097 28098 28099 28100 28101 28102 28103 28104 28105 28106 28107 28108 28109 28110 28111 28112 28113 28114 28115 28116 28117 28118 28119 28120 28121 28122 28123 28124 28125 28126 28127 28128 28129 28130 28131 28132 28133 28134 28135 28136 28137 28138 28139 28140 28141 28142 28143 28144 28145 28146 28147 28148 28149 28150 28151 28152 28153 28154 28155 28156 28157 28158 28159 28160 28161 28162 28163 28164 28165 28166 28167 28168 28169 28170 28171 28172 28173 28174 28175 28176 28177 28178 28179 28180 28181 28182 28183 28184 28185 28186 28187 28188 28189 28190 28191 28192 28193 28194 28195 28196 28197 28198 28199 28200 28201 28202 28203 28204 28205 28206 28207 28208 28209 28210 28211 28212 28213 28214 28215 28216 28217 28218 28219 28220 28221 28222 28223 28224 28225 28226 28227 28228 28229 28230 28231 28232 28233 28234 28235 28236 28237 28238 28239 28240 28241 28242 28243 28244 28245 28246 28247 28248 28249 28250 28251 28252 28253 28254 28255 28256 28257 28258 28259 28260 28261 28262 28263 28264 28265 28266 28267 28268 28269 28270 28271 28272 28273 28274 28275 28276 28277 28278 28279 28280 28281 28282 28283 28284 28285 28286 28287 28288 28289 28290 28291 28292 28293 28294 28295 28296 28297 28298 28299 28300 28301 28302 28303 28304 28305 28306 28307 28308 28309 28310 28311 28312 28313 28314 28315 28316 28317 28318 28319 28320 28321 28322 28323 28324 28325 28326 28327 28328 28329 28330 28331 28332 28333 28334 28335 28336 28337 28338 28339 28340 28341 28342 28343 28344 28345 28346 28347 28348 28349 28350 28351 28352 28353 28354 28355 28356 28357 28358 28359 28360 28361 28362 28363 28364 28365 28366 28367 28368 28369 28370 28371 28372 28373 28374 28375 28376 28377 28378 28379 28380 28381 28382 28383 28384 28385 28386 28387 28388 28389 28390 28391 28392 28393 28394 28395 28396 28397 28398 28399 28400 28401 28402 28403 28404 28405 28406 28407 28408 28409 28410 28411 28412 28413 28414 28415 28416 28417 28418 28419 28420 28421 28422 28423 28424 28425 28426 28427 28428 28429 28430 28431 28432 28433 28434 28435 28436 28437 28438 28439 28440 28441 28442 28443 28444 28445 28446 28447 28448 28449 28450 28451 28452 28453 28454 28455 28456 28457 28458 28459 28460 28461 28462 28463 28464 28465 28466 28467 28468 28469 28470 28471 28472 28473 28474 28475 28476 28477 28478 28479 28480 28481 28482 28483 28484 28485 28486 28487 28488 28489 28490 28491 28492 28493 28494 28495 28496 28497 28498 28499 28500 28501 28502 28503 28504 28505 28506 28507 28508 28509 28510 28511 28512 28513 28514 28515 28516 28517 28518 28519 28520 28521 28522 28523 28524 28525 28526 28527 28528 28529 28530 28531 28532 28533 28534 28535 28536 28537 28538 28539 28540 28541 28542 28543 28544 28545 28546 28547 28548 28549 28550 28551 28552 28553 28554 28555 28556 28557 28558 28559 28560 28561 28562 28563 28564 28565 28566 28567 28568 28569 28570 28571 28572 28573 28574 28575 28576 28577 28578 28579 28580 28581 28582 28583 28584 28585 28586 28587 28588 28589 28590 28591 28592 28593 28594 28595 28596 28597 28598 28599 28600 28601 28602 28603 28604 28605 28606 28607 28608 28609 28610 28611 28612 28613 28614 28615 28616 28617 28618 28619 28620 28621 28622 28623 28624 28625 28626 28627 28628 28629 28630 28631 28632 28633 28634 28635 28636 28637 28638 28639 28640 28641 28642 28643 28644 28645 28646 28647 28648 28649 28650 28651 28652 28653 28654 28655 28656 28657 28658 28659 28660 28661 28662 28663 28664 28665 28666 28667 28668 28669 28670 28671 28672 28673 28674 28675 28676 28677 28678 28679 28680 28681 28682 28683 28684 28685 28686 28687 28688 28689 28690 28691 28692 28693 28694 28695 28696 28697 28698 28699 28700 28701 28702 28703 28704 28705 28706 28707 28708 28709 28710 28711 28712 28713 28714 28715 28716 28717 28718 28719 28720 28721 28722 28723 28724 28725 28726 28727 28728 28729 28730 28731 28732 28733 28734 28735 28736 28737 28738 28739 28740 28741 28742 28743 28744 28745 28746 28747 28748 28749 28750 28751 28752 28753 28754 28755 28756 28757 28758 28759 28760 28761 28762 28763 28764 28765 28766 28767 28768 28769 28770 28771 28772 28773 28774 28775 28776 28777 28778 28779 28780 28781 28782 28783 28784 28785 28786 28787 28788 28789 28790 28791 28792 28793 28794 28795 28796 28797 28798 28799 28800 28801 28802 28803 28804 28805 28806 28807 28808 28809 28810 28811 28812 28813 28814 28815 28816 28817 28818 28819 28820 28821 28822 28823 28824 28825 28826 28827 28828 28829 28830 28831 28832 28833 28834 28835 28836 28837 28838 28839 28840 28841 28842 28843 28844 28845 28846 28847 28848 28849 28850 28851 28852 28853 28854 28855 28856 28857 28858 28859 28860 28861 28862 28863 28864 28865 28866 28867 28868 28869 28870 28871 28872 28873 28874 28875 28876 28877 28878 28879 28880 28881 28882 28883 28884 28885 28886 28887 28888 28889 28890 28891 28892 28893 28894 28895 28896 28897 28898 28899 28900 28901 28902 28903 28904 28905 28906 28907 28908 28909 28910 28911 28912 28913 28914 28915 28916 28917 28918 28919 28920 28921 28922 28923 28924 28925 28926 28927 28928 28929 28930 28931 28932 28933 28934 28935 28936 28937 28938 28939 28940 28941 28942 28943 28944 28945 28946 28947 28948 28949 28950 28951 28952 28953 28954 28955 28956 28957 28958 28959 28960 28961 28962 28963 28964 28965 28966 28967 28968 28969 28970 28971 28972 28973 28974 28975 28976 28977 28978 28979 28980 28981 28982 28983 28984 28985 28986 28987 28988 28989 28990 28991 28992 28993 28994 28995 28996 28997 28998 28999 29000 29001 29002 29003 29004 29005 29006 29007 29008 29009 29010 29011 29012 29013 29014 29015 29016 29017 29018 29019 29020 29021 29022 29023 29024 29025 29026 29027 29028 29029 29030 29031 29032 29033 29034 29035 29036 29037 29038 29039 29040 29041 29042 29043 29044 29045 29046 29047 29048 29049 29050 29051 29052 29053 29054 29055 29056 29057 29058 29059 29060 29061 29062 29063 29064 29065 29066 29067 29068 29069 29070 29071 29072 29073 29074 29075 29076 29077 29078 29079 29080 29081 29082 29083 29084 29085 29086 29087 29088 29089 29090 29091 29092 29093 29094 29095 29096 29097 29098 29099 29100 29101 29102 29103 29104 29105 29106 29107 29108 29109 29110 29111 29112 29113 29114 29115 29116 29117 29118 29119 29120 29121 29122 29123 29124 29125 29126 29127 29128 29129 29130 29131 29132 29133 29134 29135 29136 29137 29138 29139 29140 29141 29142 29143 29144 29145 29146 29147 29148 29149 29150 29151 29152 29153 29154 29155 29156 29157 29158 29159 29160 29161 29162 29163 29164 29165 29166 29167 29168 29169 29170 29171 29172 29173 29174 29175 29176 29177 29178 29179 29180 29181 29182 29183 29184 29185 29186 29187 29188 29189 29190 29191 29192 29193 29194 29195 29196 29197 29198 29199 29200 29201 29202 29203 29204 29205 29206 29207 29208 29209 29210 29211 29212 29213 29214 29215 29216 29217 29218 29219 29220 29221 29222 29223 29224 29225 29226 29227 29228 29229 29230 29231 29232 29233 29234 29235 29236 29237 29238 29239 29240 29241 29242 29243 29244 29245 29246 29247 29248 29249 29250 29251 29252 29253 29254 29255 29256 29257 29258 29259 29260 29261 29262 29263 29264 29265 29266 29267 29268 29269 29270 29271 29272 29273 29274 29275 29276 29277 29278 29279 29280 29281 29282 29283 29284 29285 29286 29287 29288 29289 29290 29291 29292 29293 29294 29295 29296 29297 29298 29299 29300 29301 29302 29303 29304 29305 29306 29307 29308 29309 29310 29311 29312 29313 29314 29315 29316 29317 29318 29319 29320 29321 29322 29323 29324 29325 29326 29327 29328 29329 29330 29331 29332 29333 29334 29335 29336 29337 29338 29339 29340 29341 29342 29343 29344 29345 29346 29347 29348 29349 29350 29351 29352 29353 29354 29355 29356 29357 29358 29359 29360 29361 29362 29363 29364 29365 29366 29367 29368 29369 29370 29371 29372 29373 29374 29375 29376 29377 29378 29379 29380 29381 29382 29383 29384 29385 29386 29387 29388 29389 29390 29391 29392 29393 29394 29395 29396 29397 29398 29399 29400 29401 29402 29403 29404 29405 29406 29407 29408 29409 29410 29411 29412 29413 29414 29415 29416 29417 29418 29419 29420 29421 29422 29423 29424 29425 29426 29427 29428 29429 29430 29431 29432 29433 29434 29435 29436 29437 29438 29439 29440 29441 29442 29443 29444 29445 29446 29447 29448 29449 29450 29451 29452 29453 29454 29455 29456 29457 29458 29459 29460 29461 29462 29463 29464 29465 29466 29467 29468 29469 29470 29471 29472 29473 29474 29475 29476 29477 29478 29479 29480 29481 29482 29483 29484 29485 29486 29487 29488 29489 29490 29491 29492 29493 29494 29495 29496 29497 29498 29499 29500 29501 29502 29503 29504 29505 29506 29507 29508 29509 29510 29511 29512 29513 29514 29515 29516 29517 29518 29519 29520 29521 29522 29523 29524 29525 29526 29527 29528 29529 29530 29531 29532 29533 29534 29535 29536 29537 29538 29539 29540 29541 29542 29543 29544 29545 29546 29547 29548 29549 29550 29551 29552 29553 29554 29555 29556 29557 29558 29559 29560 29561 29562 29563 29564 29565 29566 29567 29568 29569 29570 29571 29572 29573 29574 29575 29576 29577 29578 29579 29580 29581 29582 29583 29584 29585 29586 29587 29588 29589 29590 29591 29592 29593 29594 29595 29596 29597 29598 29599 29600 29601 29602 29603 29604 29605 29606 29607 29608 29609 29610 29611 29612 29613 29614 29615 29616 29617 29618 29619 29620 29621 29622 29623 29624 29625 29626 29627 29628 29629 29630 29631 29632 29633 29634 29635 29636 29637 29638 29639 29640 29641 29642 29643 29644 29645 29646 29647 29648 29649 29650 29651 29652 29653 29654 29655 29656 29657 29658 29659 29660 29661 29662 29663 29664 29665 29666 29667 29668 29669 29670 29671 29672 29673 29674 29675 29676 29677 29678 29679 29680 29681 29682 29683 29684 29685 29686 29687 29688 29689 29690 29691 29692 29693 29694 29695 29696 29697 29698 29699 29700 29701 29702 29703 29704 29705 29706 29707 29708 29709 29710 29711 29712 29713 29714 29715 29716 29717 29718 29719 29720 29721 29722 29723 29724 29725 29726 29727 29728 29729 29730 29731 29732 29733 29734 29735 29736 29737 29738 29739 29740 29741 29742 29743 29744 29745 29746 29747 29748 29749 29750 29751 29752 29753 29754 29755 29756 29757 29758 29759 29760 29761 29762 29763 29764 29765 29766 29767 29768 29769 29770 29771 29772 29773 29774 29775 29776 29777 29778 29779 29780 29781 29782 29783 29784 29785 29786 29787 29788 29789 29790 29791 29792 29793 29794 29795 29796 29797 29798 29799 29800 29801 29802 29803 29804 29805 29806 29807 29808 29809 29810 29811 29812 29813 29814 29815 29816 29817 29818 29819 29820 29821 29822 29823 29824 29825 29826 29827 29828 29829 29830 29831 29832 29833 29834 29835 29836 29837 29838 29839 29840 29841 29842 29843 29844 29845 29846 29847 29848 29849 29850 29851 29852 29853 29854 29855 29856 29857 29858 29859 29860 29861 29862 29863 29864 29865 29866 29867 29868 29869 29870 29871 29872 29873 29874 29875 29876 29877 29878 29879 29880 29881 29882 29883 29884 29885 29886 29887 29888 29889 29890 29891 29892 29893 29894 29895 29896 29897 29898 29899 29900 29901 29902 29903 29904 29905 29906 29907 29908 29909 29910 29911 29912 29913 29914 29915 29916 29917 29918 29919 29920 29921 29922 29923 29924 29925 29926 29927 29928 29929 29930 29931 29932 29933 29934 29935 29936 29937 29938 29939 29940 29941 29942 29943 29944 29945 29946 29947 29948 29949 29950 29951 29952 29953 29954 29955 29956 29957 29958 29959 29960 29961 29962 29963 29964 29965 29966 29967 29968 29969 29970 29971 29972 29973 29974 29975 29976 29977 29978 29979 29980 29981 29982 29983 29984 29985 29986 29987 29988 29989 29990 29991 29992 29993 29994 29995 29996 29997 29998 29999 30000 30001 30002 30003 30004 30005 30006 30007 30008 30009 30010 30011 30012 30013 30014 30015 30016 30017 30018 30019 30020 30021 30022 30023 30024 30025 30026 30027 30028 30029 30030 30031 30032 30033 30034 30035 30036 30037 30038 30039 30040 30041 30042 30043 30044 30045 30046 30047 30048 30049 30050 30051 30052 30053 30054 30055 30056 30057 30058 30059 30060 30061 30062 30063 30064 30065 30066 30067 30068 30069 30070 30071 30072 30073 30074 30075 30076 30077 30078 30079 30080 30081 30082 30083 30084 30085 30086 30087 30088 30089 30090 30091 30092 30093 30094 30095 30096 30097 30098 30099 30100 30101 30102 30103 30104 30105 30106 30107 30108 30109 30110 30111 30112 30113 30114 30115 30116 30117 30118 30119 30120 30121 30122 30123 30124 30125 30126 30127 30128 30129 30130 30131 30132 30133 30134 30135 30136 30137 30138 30139 30140 30141 30142 30143 30144 30145 30146 30147 30148 30149 30150 30151 30152 30153 30154 30155 30156 30157 30158 30159 30160 30161 30162 30163 30164 30165 30166 30167 30168 30169 30170 30171 30172 30173 30174 30175 30176 30177 30178 30179 30180 30181 30182 30183 30184 30185 30186 30187 30188 30189 30190 30191 30192 30193 30194 30195 30196 30197 30198 30199 30200 30201 30202 30203 30204 30205 30206 30207 30208 30209 30210 30211 30212 30213 30214 30215 30216 30217 30218 30219 30220 30221 30222 30223 30224 30225 30226 30227 30228 30229 30230 30231 30232 30233 30234 30235 30236 30237 30238 30239 30240 30241 30242 30243 30244 30245 30246 30247 30248 30249 30250 30251 30252 30253 30254 30255 30256 30257 30258 30259 30260 30261 30262 30263 30264 30265 30266 30267 30268 30269 30270 30271 30272 30273 30274 30275 30276 30277 30278 30279 30280 30281 30282 30283 30284 30285 30286 30287 30288 30289 30290 30291 30292 30293 30294 30295 30296 30297 30298 30299 30300 30301 30302 30303 30304 30305 30306 30307 30308 30309 30310 30311 30312 30313 30314 30315 30316 30317 30318 30319 30320 30321 30322 30323 30324 30325 30326 30327 30328 30329 30330 30331 30332 30333 30334 30335 30336 30337 30338 30339 30340 30341 30342 30343 30344 30345 30346 30347 30348 30349 30350 30351 30352 30353 30354 30355 30356 30357 30358 30359 30360 30361 30362 30363 30364 30365 30366 30367 30368 30369 30370 30371 30372 30373 30374 30375 30376 30377 30378 30379 30380 30381 30382 30383 30384 30385 30386 30387 30388 30389 30390 30391 30392 30393 30394 30395 30396 30397 30398 30399 30400 30401 30402 30403 30404 30405 30406 30407 30408 30409 30410 30411 30412 30413 30414 30415 30416 30417 30418 30419 30420 30421 30422 30423 30424 30425 30426 30427 30428 30429 30430 30431 30432 30433 30434 30435 30436 30437 30438 30439 30440 30441 30442 30443 30444 30445 30446 30447 30448 30449 30450 30451 30452 30453 30454 30455 30456 30457 30458 30459 30460 30461 30462 30463 30464 30465 30466 30467 30468 30469 30470 30471 30472 30473 30474 30475 30476 30477 30478 30479 30480 30481 30482 30483 30484 30485 30486 30487 30488 30489 30490 30491 30492 30493 30494 30495 30496 30497 30498 30499 30500 30501 30502 30503 30504 30505 30506 30507 30508 30509 30510 30511 30512 30513 30514 30515 30516 30517 30518 30519 30520 30521 30522 30523 30524 30525 30526 30527 30528 30529 30530 30531 30532 30533 30534 30535 30536 30537 30538 30539 30540 30541 30542 30543 30544 30545 30546 30547 30548 30549 30550 30551 30552 30553 30554 30555 30556 30557 30558 30559 30560 30561 30562 30563 30564 30565 30566 30567 30568 30569 30570 30571 30572 30573 30574 30575 30576 30577 30578 30579 30580 30581 30582 30583 30584 30585 30586 30587 30588 30589 30590 30591 30592 30593 30594 30595 30596 30597 30598 30599 30600 30601 30602 30603 30604 30605 30606 30607 30608 30609 30610 30611 30612 30613 30614 30615 30616 30617 30618 30619 30620 30621 30622 30623 30624 30625 30626 30627 30628 30629 30630 30631 30632 30633 30634 30635 30636 30637 30638 30639 30640 30641 30642 30643 30644 30645 30646 30647 30648 30649 30650 30651 30652 30653 30654 30655 30656 30657 30658 30659 30660 30661 30662 30663 30664 30665 30666 30667 30668 30669 30670 30671 30672 30673 30674 30675 30676 30677 30678 30679 30680 30681 30682 30683 30684 30685 30686 30687 30688 30689 30690 30691 30692 30693 30694 30695 30696 30697 30698 30699 30700 30701 30702 30703 30704 30705 30706 30707 30708 30709 30710 30711 30712 30713 30714 30715 30716 30717 30718 30719 30720 30721 30722 30723 30724 30725 30726 30727 30728 30729 30730 30731 30732 30733 30734 30735 30736 30737 30738 30739 30740 30741 30742 30743 30744 30745 30746 30747 30748 30749 30750 30751 30752 30753 30754 30755 30756 30757 30758 30759 30760 30761 30762 30763 30764 30765 30766 30767 30768 30769 30770 30771 30772 30773 30774 30775 30776 30777 30778 30779 30780 30781 30782 30783 30784 30785 30786 30787 30788 30789 30790 30791 30792 30793 30794 30795 30796 30797 30798 30799 30800 30801 30802 30803 30804 30805 30806 30807 30808 30809 30810 30811 30812 30813 30814 30815 30816 30817 30818 30819 30820 30821 30822 30823 30824 30825 30826 30827 30828 30829 30830 30831 30832 30833 30834 30835 30836 30837 30838 30839 30840 30841 30842 30843 30844 30845 30846 30847 30848 30849 30850 30851 30852 30853 30854 30855 30856 30857 30858 30859 30860 30861 30862 30863 30864 30865 30866 30867 30868 30869 30870 30871 30872 30873 30874 30875 30876 30877 30878 30879 30880 
</DataArray>
<DataArray type="UInt32" Name="offsets" format="ascii">
3 6 8 11 14 17 20 22 25 28 31 34 37 40 43 46 49 52 55 58 60 63 66 69 72 74 77 80 83 86 89 92 95 97 100 103 106 109 112 115 118 121 123 126 129 132 135 138 141 144 147 150 153 156 158 160 163 166 169 172 175 178 181 184 186 189 192 195 198 201 204 207 210 213 216 219 222 225 228 231 234 237 240 243 246 249 252 254 257 260 263 266 269 272 275 278 281 284 287 289 292 295 298 300 303 306 309 312 315 318 321 324 327 330 333 336 339 342 345 348 351 354 357 360 363 366 369 372 375 378 381 384 387 390 393 396 399 402 405 408 411 414 417 420 423 426 429 432 435 437 440 442 445 448 451 454 457 460 463 466 469 472 475 478 481 484 487 490 493 496 499 502 505 508 511 514 517 520 522 525 528 530 533 535 538 541 544 547 550 553 556 559 562 565 568 571 574 577 579 582 584 587 590 593 596 599 602 605 607 610 612 615 618 621 624 627 630 632 635 638 640 643 646 649 652 655 658 660 662 665 668 670 673 675 678 680 682 685 688 691 693 696 699 702 705 708 711 714 717 720 723 726 729 732 734 737 740 743 746 749 752 755 757 760 763 766 769 772 775 778 780 783 786 789 792 794 797 800 803 806 809 812 814 817 820 823 825 828 831 834 837 840 843 846 848 851 854 857 860 863 866 868 871 874 877 880 883 886 888 891 894 897 900 903 906 909 911 914 917 920 923 926 929 932 935 938 941 944 947 950 953 956 959 962 965 968 971 974 976 978 981 984 987 990 993 995 998 1001 1004 1007 1010 1013 1016 1018 1021 1023 1026 1029 1032 1034 1037 1040 1043 1045 1048 1050 1053 1056 1059 1062 1065 1068 1071 1073 1076 1079 1082 1085 1088 1091 1094 1096 1099 1102 1105 1107 1110 1113 1116 1119 1122 1125 1128 1131 1134 1137 1140 1143 1146 1149 1152 1155 1158 1161 1164 1167 1170 1173 1176 1179 1182 1185 1188 1191 1194 1197 1200 1203 1205 1208 1211 1214 1217 1220 1223 1226 1229 1232 1235 1238 1241 1244 1247 1250 1253 1256 1259 1262 1265 1268 1271 1274 1277 1280 1283 1286 1289 1292 1295 1298 1301 1303 1306 1309 1312 1315 1318 1321 1324 1327 1330 1333 1336 1339 1342 1345 1348 1351 1354 1357 1360 1363 1365 1368 1371 1374 1377 1380 1383 1386 1388 1391 1394 1397 1400 1403 1405 1408 1411 1413 1416 1418 1421 1424 1427 1430 1432 1435 1438 1440 1443 1446 1449 1452 1455 1458 1460 1463 1466 1469 1472 1475 1478 1481 1484 1487 1490 1493 1496 1499 1502 1505 1508 1511 1514 1517 1519 1522 1525 1528 1531 1534 1537 1540 1543 1546 1549 1552 1554 1556 1559 1562 1565 1568 1571 1574 1577 1580 1583 1586 1589 1592 1595 1598 1601 1604 1607 1610 1613 1616 1619 1621 1624 1626 1628 1631 1634 1636 1639 1642 1645 1648 1651 1654 1657 1660 1663 1666 1669 1672 1675 1677 1680 1683 1686 1689 1692 1695 1698 1700 1702 1705 1708 1711 1714 1717 1720 1723 1726 1728 1730 1733 1736 1739 1741 1744 1747 1750 1753 1756 1759 1762 1765 1768 1771 1774 1777 1780 1783 1786 1789 1792 1795 1798 1801 1804 1807 1810 1813 1816 1819 1822 1825 1828 1831 1834 1837 1840 1843 1846 1848 1851 1854 1856 1859 1862 1865 1868 1870 1873 1876 1879 1881 1884 1887 1890 1892 1895 1898 1900 1903 1906 1909 1912 1915 1918 1921 1924 1927 1930 1933 1936 1939 1942 1945 1948 1951 1954 1957 1960 1963 1965 1968 1971 1974 1976 1979 1982 1985 1988 1991 1993 1996 1999 2002 2005 2008 2011 2013 2016 2019 2022 2025 2028 2031 2034 2037 2040 2043 2046 2049 2052 2055 2058 2061 2064 2067 2069 2072 2075 2078 2081 2084 2087 2090 2093 2096 2099 2102 2105 2108 2111 2114 2117 2120 2123 2126 2129 2132 2134 2137 2140 2143 2146 2149 2152 2155 2158 2161 2164 2167 2170 2173 2176 2179 2181 2184 2187 2190 2193 2196 2199 2202 2205 2208 2211 2214 2217 2220 2223 2226 2229 2232 2235 2237 2240 2243 2246 2249 2252 2255 2258 2260 2263 2266 2269 2272 2275 2278 2281 2284 2287 2290 2293 2296 2299 2302 2305 2308 2311 2314 2317 2320 2323 2325 2328 2331 2334 2337 2340 2343 2346 2349 2352 2354 2357 2360 2363 2366 2369 2372 2375 2378 2380 2383 2386 2389 2392 2395 2398 2401 2404 2407 2410 2413 2416 2419 2422 2425 2428 2431 2434 2437 2439 2442 2445 2448 2451 2454 2456 2459 2462 2465 2467 2470 2473 2476 2479 2482 2485 2487 2490 2493 2496 2499 2502 2505 2508 2511 2514 2517 2519 2522 2525 2528 2531 2534 2537 2540 2543 2546 2549 2552 2555 2557 2560 2562 2565 2568 2571 2574 2577 2580 2583 2585 2588 2590 2593 2596 2599 2602 2605 2608 2611 2614 2617 2620 2623 2626 2629 2632 2635 2638 2641 2644 2647 2650 2653 2656 2659 2662 2665 2668 2671 2674 2677 2680 2683 2686 2689 2692 2695 2698 2701 2704 2707 2710 2713 2716 2719 2722 2725 2727 2729 2732 2735 2737 2740 2743 2746 2749 2752 2755 2758 2761 2764 2767 2770 2773 2776 2779 2782 2785 2787 2790 2793 2796 2799 2801 2804 2807 2809 2812 2815 2818 2821 2824 2827 2829 2832 2834 2837 2840 2842 2845 2848 2851 2854 2857 2860 2863 2866 2869 2872 2874 2877 2880 2883 2886 2889 2891 2893 2896 2899 2902 2905 2907 2910 2913 2915 2918 2920 2923 2926 2929 2932 2935 2937 2940 2943 2945 2948 2951 2954 2957 2960 2963 2966 2969 2972 2975 2978 2981 2983 2986 2989 2992 2995 2998 3001 3004 3007 3010 3013 3016 3019 3022 3025 3028 3030 3033 3035 3038 3040 3042 3045 3047 3050 3053 3055 3058 3061 3064 3067 3070 3073 3075 3078 3080 3083 3086 3088 3091 3094 3097 3099 3102 3105 3107 3110 3113 3116 3119 3122 3124 3127 3130 3132 3135 3138 3141 3144 3147 3149 3152 3154 3157 3160 3162 3165 3168 3170 3173 3176 3179 3182 3185 3188 3191 3194 3196 3199 3202 3205 3208 3211 3214 3217 3220 3223 3226 3228 3231 3234 3237 3240 3242 3245 3248 3250 3253 3256 3259 3262 3265 3267 3270 3273 3276 3279 3282 3284 3287 3289 3292 3295 3298 3301 3304 3307 3309 3312 3315 3318 3321 3324 3327 3330 3333 3335 3337 3339 3342 3345 3348 3351 3353 3356 3358 3361 3364 3367 3369 3371 3374 3377 3380 3382 3385 3388 3391 3393 3396 3398 3401 3403 3405 3408 3410 3413 3416 3419 3422 3424 3427 3430 3433 3435 3438 3440 3443 3445 3448 3451 3454 3457 3460 3463 3466 3468 3471 3474 3477 3480 3482 3485 3488 3491 3494 3497 3500 3503 3506 3508 3511 3513 3515 3518 3521 3524 3526 3529 3532 3535 3538 3540 3542 3545 3548 3550 3552 3555 3558 3561 3564 3567 3569 3572 3575 3578 3581 3584 3587 3590 3593 3595 3598 3600 3603 3606 3609 3612 3615 3618 3621 3624 3627 3630 3633 3636 3639 3642 3645 3648 3651 3653 3656 3659 3662 3665 3668 3671 3674 3677 3680 3683 3686 3689 3692 3695 3698 3701 3704 3707 3710 3713 3716 3719 3722 3725 3728 3730 3733 3735 3738 3741 3744 3747 3750 3752 3754 3757 3760 3763 3766 3768 3770 3773 3775 3778 3781 3783 3786 3789 3791 3794 3797 3800 3803 3805 3807 3810 3813 3816 3819 3822 3825 3828 3831 3833 3836 3839 3841 3844 3847 3850 3852 3855 3858 3860 3863 3866 3869 3872 3875 3878 3880 3883 3886 3889 3892 3895 3898 3900 3903 3906 3909 3912 3915 3917 3920 3923 3925 3927 3930 3933 3935 3938 3941 3943 3946 3949 3952 3955 3958 3961 3964 3967 3970 3973 3976 3979 3981 3984 3986 3989 3992 3994 3997 4000 4003 4006 4009 4012 4014 4017 4020 4023 4025 4027 4029 4032 4035 4038 4040 4042 4045 4047 4049 4052 4055 4057 4060 4063 4065 4068 4070 4073 4075 4078 4081 4084 4086 4088 4091 4094 4096 4098 4100 4102 4105 4108 4111 4113 4115 4118 4121 4123 4125 4127 4130 4132 4134 4137 4140 4142 4145 4147 4149 4152 4154 4157 4160 4162 4165 4167 4169 4172 4175 4178 4181 4183 4185 4188 4191 4193 4196 4199 4202 4204 4207 4210 4213 4216 4219 4222 4225 4228 4231 4234 4237 4240 4243 4246 4249 4252 4255 4258 4261 4264 4267 4270 4273 4276 4279 4282 4285 4288 4291 4294 4297 4300 4303 4306 4309 4312 4315 4318 4321 4324 4327 4330 4333 4336 4339 4342 4345 4348 4351 4354 4357 4360 4363 4366 4369 4372 4375 4378 4380 4383 4385 4388 4391 4394 4397 4400 4403 4406 4409 4412 4415 4418 4421 4424 4427 4429 4432 4435 4438 4441 4444 4447 4450 4453 4456 4459 4461 4464 4467 4470 4473 4476 4479 4482 4485 4488 4491 4494 4497 4500 4503 4506 4509 4512 4515 4518 4521 4524 4527 4530 4533 4536 4539 4542 4545 4548 4551 4554 4557 4560 4563 4566 4569 4572 4575 4578 4581 4584 4587 4590 4593 4596 4599 4601 4604 4607 4610 4612 4615 4617 4620 4623 4626 4629 4632 4634 4637 4639 4642 4645 4648 4651 4654 4657 4660 4663 4666 4669 4672 4675 4678 4681 4684 4687 4690 4693 4696 4699 4702 4705 4708 4711 4714 4716 4719 4722 4725 4728 4731 4734 4736 4739 4741 4744 4747 4750 4752 4755 4758 4760 4763 4766 4769 4772 4775 4778 4781 4784 4787 4790 4793 4796 4799 4802 4805 4808 4811 4814 4817 4820 4823 4826 4829 4832 4835 4838 4841 4844 4847 4850 4853 4856 4859 4862 4865 4868 4871 4873 4876 4878 4881 4884 4887 4890 4893 4896 4899 4902 4905 4908 4910 4913 4916 4919 4922 4925 4928 4931 4934 4937 4940 4943 4946 4949 4952 4955 4958 4961 4963 4966 4969 4972 4974 4976 4979 4981 4984 4987 4990 4993 4996 4999 5002 5005 5007 5010 5013 5016 5019 5021 5024 5027 5030 5033 5036 5039 5042 5044 5047 5050 5052 5055 5057 5060 5063 5065 5068 5071 5073 5075 5078 5081 5084 5087 5090 5093 5096 5099 5102 5105 5108 5111 5114 5117 5120 5122 5125 5127 5130 5133 5136 5138 5141 5143 5146 5149 5152 5155 5158 5161 5164 5167 5170 5173 5176 5179 5181 5184 5186 5189 5192 5195 5198 5201 5204 5207 5210 5212 5215 5218 5220 5223 5226 5229 5231 5233 5236 5239 5242 5245 5248 5251 5254 5257 5260 5263 5266 5269 5272 5275 5278 5281 5284 5287 5290 5293 5296 5298 5301 5304 5307 5310 5313 5315 5318 5320 5323 5326 5329 5332 5334 5337 5340 5342 5345 5348 5351 5354 5357 5359 5362 5365 5368 5371 5373 5376 5379 5382 5385 5388 5391 5394 5396 5399 5402 5405 5407 5410 5413 5416 5419 5422 5425 5428 5431 5434 5437 5440 5442 5445 5448 5451 5454 5457 5460 5463 5466 5468 5471 5474 5477 5480 5483 5486 5488 5491 5494 5497 5500 5503 5506 5508 5511 5514 5517 5520 5523 5526 5529 5532 5535 5538 5541 5543 5546 5549 5552 5554 5557 5560 5563 5565 5568 5570 5573 5576 5579 5582 5585 5588 5590 5593 5596 5599 5602 5605 5608 5611 5614 5617 5620 5623 5626 5629 5632 5635 5637 5640 5643 5646 5649 5652 5654 5657 5660 5663 5666 5669 5672 5675 5678 5680 5683 5686 5689 5692 5695 5698 5701 5704 5707 5710 5713 5716 5719 5722 5725 5728 5730 5733 5736 5739 5742 5744 5747 5750 5753 5756 5759 5762 5765 5768 5771 5774 5777 5780 5783 5786 5789 5792 5795 5798 5801 5804 5807 5810 5813 5816 5819 5822 5824 5827 5830 5833 5835 5838 5840 5843 5846 5849 5852 5854 5857 5859 5862 5865 5868 5871 5874 5876 5879 5882 5885 5888 5891 5894 5897 5900 5903 5905 5908 5911 5914 5917 5920 5923 5926 5929 5932 5935 5938 5941 5944 5947 5950 5953 5956 5959 5962 5965 5968 5971 5974 5977 5979 5981 5984 5987 5990 5993 5996 5998 6001 6004 6007 6009 6012 6015 6018 6020 6023 6026 6028 6031 6033 6036 6039 6042 6045 6047 6050 6053 6056 6059 6061 6063 6066 6069 6072 6075 6078 6081 6084 6087 6090 6093 6096 6099 6101 6104 6107 6110 6113 6115 6118 6121 6124 6127 6130 6132 6135 6138 6140 6143 6146 6149 6152 6155 6158 6161 6164 6167 6170 6173 6176 6179 6182 6185 6188 6190 6193 6196 6198 6201 6204 6207 6209 6212 6215 6218 6221 6224 6227 6230 6233 6236 6239 6242 6244 6247 6250 6253 6256 6259 6262 6265 6268 6271 6274 6277 6280 6283 6286 6289 6292 6294 6297 6300 6302 6305 6307 6310 6313 6315 6318 6320 6323 6325 6328 6331 6334 6337 6340 6343 6346 6349 6352 6355 6358 6361 6364 6366 6369 6371 6373 6376 6379 6381 6383 6386 6389 6391 6393 6396 6399 6402 6404 6407 6409 6412 6415 6417 6420 6423 6426 6429 6431 6433 6436 6438 6441 6444 6446 6448 6451 6454 6456 6459 6462 6465 6467 6470 6473 6476 6478 6480 6482 6485 6488 6490 6493 6495 6497 6500 6503 6506 6509 6512 6515 6518 6521 6524 6527 6530 6532 6534 6537 6539 6542 6544 6547 6549 6552 6555 6558 6560 6563 6566 6569 6572 6575 6577 6580 6583 6586 6589 6592 6595 6598 6601 6604 6607 6610 6613 6616 6619 6622 6625 6628 6631 6634 6637 6640 6643 6646 6649 6651 6654 6657 6660 6663 6666 6669 6672 6675 6678 6681 6684 6687 6690 6693 6696 6699 6702 6705 6707 6710 6713 6716 6719 6722 6725 6728 6731 6734 6737 6740 6742 6745 6748 6751 6754 6757 6759 6762 6765 6768 6771 6774 6777 6780 6783 6786 6789 6792 6795 6798 6801 6803 6806 6809 6812 6815 6818 6821 6824 6827 6830 6833 6836 6839 6842 6845 6847 6850 6852 6855 6858 6861 6864 6866 6869 6872 6875 6878 6881 6884 6887 6890 6893 6896 6899 6902 6904 6907 6909 6912 6915 6918 6921 6923 6926 6929 6932 6935 6938 6941 6944 6946 6949 6952 6955 6958 6961 6964 6967 6969 6972 6975 6978 6980 6983 6985 6988 6991 6994 6997 7000 7003 7006 7009 7012 7014 7017 7020 7023 7026 7029 7032 7035 7038 7041 7044 7047 7050 7053 7056 7059 7062 7065 7068 7071 7074 7077 7080 7083 7086 7089 7092 7095 7098 7101 7104 7107 7110 7113 7116 7119 7122 7125 7128 7131 7134 7137 7140 7143 7145 7148 7151 7153 7156 7159 7162 7165 7168 7171 7174 7177 7180 7183 7185 7188 7191 7194 7197 7200 7202 7205 7208 7210 7213 7216 7219 7222 7225 7228 7230 7233 7236 7239 7242 7244 7247 7250 7252 7255 7257 7260 7263 7266 7269 7272 7275 7278 7281 7284 7287 7290 7292 7295 7297 7300 7303 7306 7309 7311 7314 7317 7320 7323 7326 7329 7332 7335 7338 7341 7344 7347 7350 7353 7356 7359 7362 7365 7368 7371 7374 7376 7379 7382 7385 7388 7390 7393 7396 7399 7402 7405 7408 7411 7413 7416 7419 7422 7425 7428 7430 7433 7436 7439 7441 7444 7447 7450 7452 7455 7458 7460 7463 7466 7469 7471 7474 7477 7479 7482 7485 7488 7491 7494 7497 7500 7503 7506 7509 7512 7515 7518 7521 7524 7527 7530 7533 7536 7539 7542 7545 7548 7551 7554 7557 7560 7563 7566 7569 7572 7574 7577 7580 7583 7586 7589 7592 7595 7598 7601 7604 7607 7609 7612 7615 7618 7621 7624 7627 7630 7633 7636 7639 7642 7645 7648 7651 7654 7656 7658 7661 7664 7667 7669 7672 7675 7678 7681 7683 7686 7689 7691 7694 7697 7700 7703 7706 7709 7712 7715 7718 7721 7724 7727 7730 7732 7734 7737 7740 7743 7746 7749 7752 7755 7758 7761 7764 7767 7769 7772 7775 7777 7780 7783 7786 7789 7792 7795 7798 7801 7804 7807 7810 7813 7816 7819 7822 7825 7828 7831 7834 7836 7839 7842 7845 7847 7850 7853 7856 7859 7862 7864 7867 7870 7873 7876 7879 7882 7885 7888 7891 7894 7897 7900 7903 7906 7909 7912 7915 7918 7921 7924 7926 7929 7932 7934 7937 7940 7943 7946 7949 7952 7955 7958 7961 7964 7967 7970 7973 7976 7979 7982 7985 7988 7991 7993 7996 7999 8002 8005 8008 8011 8014 8017 8020 8023 8026 8029 8032 8035 8038 8041 8044 8047 8050 8053 8056 8059 8062 8065 8068 8071 8074 8077 8080 8083 8086 8089 8091 8094 8097 8100 8103 8106 8109 8111 8114 8117 8120 8123 8126 8128 8131 8134 8137 8140 8142 8145 8148 8151 8154 8157 8160 8163 8166 8169 8172 8175 8178 8181 8184 8187 8190 8193 8196 8199 8202 8205 8208 8210 8213 8216 8219 8222 8225 8228 8231 8233 8236 8239 8241 8244 8247 8249 8252 8255 8258 8261 8264 8267 8269 8272 8275 8278 8281 8284 8287 8290 8293 8296 8299 8301 8304 8306 8309 8312 8315 8318 8321 8324 8327 8330 8332 8335 8338 8340 8343 8346 8349 8351 8354 8357 8360 8362 8365 8368 8371 8373 8375 8378 8381 8383 8386 8389 8391 8394 8397 8399 8402 8405 8408 8411 8414 8417 8420 8423 8426 8428 8431 8434 8437 8439 8442 8445 8448 8450 8453 8456 8459 8461 8464 8466 8469 8472 8474 8477 8480 8483 8486 8489 8492 8495 8498 8500 8503 8506 8508 8511 8514 8517 8520 8523 8526 8529 8532 8535 8538 8541 8544 8547 8549 8552 8554 8557 8560 8563 8565 8567 8570 8572 8575 8578 8581 8584 8586 8589 8591 8594 8597 8600 8603 8606 8609 8612 8615 8618 8620 8623 8626 8629 8632 8635 8638 8641 8644 8647 8650 8653 8656 8659 8662 8665 8668 8671 8674 8677 8680 8683 8686 8689 8692 8695 8698 8701 8704 8706 8709 8712 8715 8718 8721 8724 8726 8729 8732 8735 8738 8741 8744 8746 8749 8752 8755 8758 8761 8764 8766 8769 8772 8775 8777 8780 8783 8786 8788 8791 8794 8796 8799 8802 8805 8808 8811 8814 8816 8819 8822 8825 8827 8829 8832 8835 8838 8841 8844 8847 8850 8853 8856 8859 8862 8865 8868 8871 8874 8877 8880 8882 8885 8888 8891 8894 8897 8900 8903 8905 8908 8911 8914 8917 8920 8922 8925 8928 8931 8934 8937 8939 8942 8945 8947 8950 8953 8956 8959 8961 8964 8967 8970 8973 8976 8979 8981 8984 8986 8989 8991 8993 8996 8998 9001 9004 9007 9009 9012 9015 9018 9021 9024 9026 9029 9032 9035 9037 9040 9043 9046 9049 9051 9053 9055 9058 9061 9064 9067 9069 9071 9074 9076 9079 9082 9085 9088 9091 9094 9096 9099 9101 9104 9107 9109 9112 9115 9118 9120 9123 9126 9128 9131 9134 9137 9140 9143 9146 9149 9152 9155 9158 9161 9164 9166 9169 9172 9175 9178 9180 9183 9186 9189 9192 9194 9197 9200 9203 9206 9209 9212 9215 9218 9221 9223 9225 9227 9230 9233 9236 9238 9240 9243 9246 9248 9251 9253 9256 9259 9262 9265 9268 9271 9274 9276 9279 9282 9285 9288 9291 9294 9297 9300 9303 9306 9309 9312 9315 9318 9321 9324 9326 9329 9332 9335 9338 9341 9344 9347 9350 9353 9355 9358 9361 9363 9366 9368 9371 9373 9376 9379 9381 9384 9387 9390 9392 9394 9397 9400 9402 9405 9408 9411 9413 9416 9419 9422 9425 9427 9430 9433 9436 9439 9442 9445 9448 9451 9454 9457 9460 9462 9464 9467 9470 9473 9476 9479 9482 9485 9488 9491 9494 9497 9500 9503 9506 9509 9512 9515 9518 9521 9524 9527 9530 9533 9536 9539 9542 9545 9548 9551 9554 9557 9560 9562 9565 9568 9571 9574 9577 9580 9583 9586 9589 9592 9595 9598 9601 9604 9607 9610 9613 9616 9619 9621 9624 9627 9630 9633 9636 9639 9641 9643 9646 9649 9651 9653 9656 9659 9662 9664 9667 9670 9673 9676 9679 9682 9685 9688 9691 9694 9697 9700 9703 9706 9709 9712 9715 9718 9721 9724 9727 9730 9733 9735 9738 9740 9743 9745 9748 9751 9754 9757 9760 9763 9765 9768 9770 9772 9775 9778 9780 9783 9786 9789 9792 9795 9798 9800 9802 9805 9808 9810 9812 9815 9818 9820 9822 9825 9828 9831 9834 9837 9840 9843 9846 9848 9851 9854 9857 9860 9863 9865 9868 9871 9873 9876 9879 9882 9884 9887 9890 9893 9896 9899 9902 9905 9908 9911 9914 9917 9920 9923 9926 9929 9932 9935 9938 9941 9944 9947 9950 9953 9956 9959 9962 9965 9968 9971 9974 9977 9980 9983 9986 9988 9991 9994 9996 9999 10001 10003 10006 10009 10012 10015 10018 10021 10024 10027 10030 10032 10035 10038 10041 10044 10047 10049 10052 10055 10058 10061 10064 10067 10070 10072 10075 10078 10081 10084 10087 10090 10093 10096 10098 10101 10104 10107 10110 10113 10115 10118 10121 10124 10127 10130 10133 10136 10139 10142 10145 10148 10151 10154 10157 10160 10163 10166 10169 10172 10175 10178 10181 10184 10187 10190 10193 10196 10199 10202 10205 10207 10209 10212 10215 10218 10221 10224 10227 10230 10232 10235 10238 10241 10243 10246 10248 10251 10254 10257 10260 10263 10266 10269 10272 10275 10278 10281 10284 10287 10290 10293 10296 10299 10302 10305 10308 10311 10313 10316 10319 10322 10325 10328 10331 10333 10336 10339 10342 10345 10348 10351 10354 10356 10359 10362 10364 10367 10370 10373 10376 10379 10382 10384 10387 10390 10393 10395 10398 10401 10403 10405 10408 10411 10414 10417 10420 10423 10426 10429 10432 10435 10438 10441 10444 10447 10450 10453 10456 10459 10462 10465 10468 10471 10474 10477 10480 10483 10486 10489 10491 10494 10497 10500 10503 10506 10509 10512 10515 10518 10521 10524 10527 10530 10533 10536 10539 10542 10545 10548 10550 10553 10556 10559 10561 10563 10566 10569 10572 10575 10578 10580 10583 10586 10589 10591 10594 10597 10600 10603 10606 10608 10611 10614 10617 10620 10623 10626 10629 10632 10635 10638 10641 10644 10647 10650 10653 10656 10659 10662 10665 10668 10671 10673 10676 10679 10682 10685 10688 10691 10693 10696 10699 10702 10705 10708 10711 10714 10717 10720 10723 10726 10729 10731 10734 10737 10740 10743 10745 10748 10750 10753 10756 10759 10762 10765 10768 10771 10774 10777 10780 10783 10786 10789 10791 10794 10797 10800 10803 10806 10808 10811 10814 10817 10820 10823 10826 10828 10831 10834 10837 10840 10843 10846 10849 10852 10855 10858 10861 10864 10866 10869 10872 10874 10877 10880 10882 10885 10888 10890 10893 10896 10899 10902 10905 10908 10911 10914 10917 10920 10922 10925 10928 10931 10934 10937 10940 10943 10946 10948 10951 10954 10957 10959 10962 10965 10968 10970 10973 10976 10978 10981 10984 10987 10989 10992 10995 10998 11001 11004 11006 11009 11011 11014 11017 11020 11023 11025 11027 11030 11033 11036 11038 11041 11044 11047 11050 11052 11055 11058 11061 11064 11067 11070 11073 11076 11079 11082 11085 11088 11091 11094 11097 11099 11102 11105 11107 11109 11112 11115 11118 11121 11123 11126 11129 11132 11135 11138 11141 11143 11146 11149 11152 11155 11158 11161 11163 11166 11169 11172 11175 11178 11181 11184 11187 11189 11192 11195 11198 11201 11204 11207 11210 11213 11216 11219 11221 11224 11227 11229 11232 11235 11237 11240 11243 11246 11249 11252 11254 11256 11259 11262 11264 11266 11269 11271 11274 11276 11279 11281 11283 11286 11289 11291 11294 11296 11299 11301 11304 11306 11309 11311 11314 11317 11319 11322 11324 11327 11329 11332 11335 11338 11341 11344 11347 11349 11352 11355 11358 11360 11363 11366 11369 11372 11375 11378 11381 11384 11387 11389 11392 11395 11397 11400 11402 11405 11407 11410 11413 11416 11418 11420 11423 11426 11429 11432 11435 11438 11441 11444 11447 11450 11453 11455 11458 11461 11464 11467 11470 11472 11475 11478 11481 11484 11487 11490 11493 11496 11499 11502 11505 11508 11511 11514 11517 11520 11523 11525 11528 11531 11534 11537 11540 11543 11545 11548 11551 11554 11556 11559 11562 11564 11567 11570 11573 11575 11578 11580 11582 11585 11588 11591 11594 11597 11600 11603 11606 11609 11611 11614 11617 11620 11623 11626 11629 11632 11634 11637 11639 11642 11644 11647 11650 11653 11656 11659 11662 11665 11668 11671 11674 11677 11680 11683 11686 11689 11692 11695 11698 11701 11704 11707 11710 11713 11716 11719 11722 11725 11728 11731 11734 11737 11740 11743 11746 11749 11752 11755 11757 11760 11763 11765 11767 11770 11773 11776 11779 11781 11784 11787 11790 11793 11796 11798 11801 11804 11806 11808 11811 11814 11817 11820 11823 11826 11828 11831 11833 11836 11839 11841 11843 11846 11848 11851 11854 11857 11859 11862 11865 11868 11871 11873 11876 11879 11882 11884 11887 11890 11892 11894 11897 11900 11903 11905 11908 11911 11914 11917 11919 11922 11925 11927 11930 11933 11936 11938 11941 11944 11946 11949 11952 11955 11957 11960 11962 11965 11968 11970 11973 11976 11978 11980 11983 11986 11988 11991 11993 11995 11998 12001 12004 12007 12009 12012 12015 12018 12021 12023 12026 12029 12032 12035 12038 12041 12044 12047 12050 12053 12056 12059 12061 12064 12067 12070 12073 12075 12078 12080 12083 12086 12089 12092 12095 12097 12099 12101 12104 12107 12110 12113 12116 12119 12122 12125 12127 12130 12133 12136 12139 12142 12145 12147 12150 12153 12156 12159 12161 12164 12167 12170 12173 12176 12179 12182 12185 12188 12191 12194 12197 12200 12203 12206 12209 12212 12215 12217 12220 12222 12225 12228 12230 12232 12235 12237 12240 12243 12245 12248 12250 12253 12255 12258 12260 12263 12266 12269 12272 12274 12277 12280 12283 12285 12288 12291 12294 12297 12300 12303 12306 12309 12312 12315 12318 12321 12324 12327 12330 12333 12336 12339 12342 12345 12348 12351 12354 12357 12360 12362 12365 12368 12371 12374 12377 12379 12382 12385 12388 12391 12394 12397 12400 12403 12406 12409 12412 12414 12417 12420 12423 12426 12429 12431 12434 12437 12439 12441 12444 12447 12450 12452 12455 12458 12460 12462 12465 12467 12470 12473 12476 12479 12482 12485 12488 12491 12494 12497 12500 12503 12506 12509 12512 12515 12517 12520 12523 12526 12529 12531 12534 12537 12540 12543 12546 12549 12552 12555 12557 12559 12562 12565 12567 12570 12573 12576 12579 12582 12585 12588 12591 12594 12596 12598 12601 12604 12606 12609 12612 12615 12617 12620 12623 12626 12629 12632 12635 12638 12641 12644 12647 12650 12653 12656 12659 12662 12665 12668 12671 12674 12677 12680 12683 12686 12689 12692 12695 12697 12700 12703 12706 12709 12712 12715 12718 12721 12724 12727 12730 12733 12736 12739 12742 12745 12748 12751 12754 12757 12759 12762 12765 12768 12770 12772 12775 12778 12781 12783 12786 12789 12791 12794 12797 12800 12803 12806 12808 12811 12813 12816 12819 12822 12825 12828 12831 12834 12837 12839 12842 12845 12848 12850 12853 12856 12858 12861 12863 12866 12869 12872 12874 12877 12880 12883 12885 12888 12891 12894 12897 12900 12903 12906 12909 12912 12915 12918 12921 12924 12927 12930 12933 12936 12938 12941 12944 12947 12950 12953 12956 12959 12962 12965 12967 12970 12973 12976 12979 12982 12985 12988 12991 12993 12996 12999 13002 13005 13008 13011 13014 13017 13020 13023 13026 13029 13032 13034 13037 13040 13043 13045 13048 13051 13054 13057 13060 13063 13066 13069 13072 13075 13078 13081 13084 13087 13090 13093 13096 13099 13102 13104 13107 13110 13113 13115 13118 13120 13123 13126 13129 13131 13134 13137 13140 13142 13144 13147 13150 13153 13156 13159 13162 13165 13168 13171 13174 13177 13180 13183 13186 13189 13192 13195 13198 13201 13204 13207 13210 13212 13215 13218 13221 13224 13226 13229 13232 13235 13238 13240 13243 13246 13249 13252 13255 13258 13261 13263 13266 13269 13272 13275 13277 13280 13283 13286 13289 13292 13295 13297 13300 13303 13306 13309 13312 13315 13317 13320 13323 13326 13328 13331 13334 13337 13340 13343 13346 13349 13352 13355 13357 13360 13363 13366 13369 13372 13375 13377 13380 13383 13386 13389 13392 13395 13398 13401 13404 13407 13410 13412 13415 13418 13420 13423 13426 13429 13432 13435 13437 13440 13443 13445 13448 13451 13454 13457 13460 13463 13466 13468 13470 13473 13476 13479 13482 13484 13487 13490 13493 13496 13499 13502 13504 13507 13510 13513 13516 13519 13522 13525 13528 13531 13534 13536 13539 13542 13545 13548 13551 13554 13557 13560 13563 13566 13569 13572 13574 13577 13579 13582 13585 13588 13590 13593 13596 13598 13601 13604 13607 13610 13612 13615 13618 13621 13624 13627 13629 13632 13635 13638 13641 13644 13647 13650 13653 13655 13658 13661 13664 13667 13669 13672 13675 13678 13681 13684 13687 13690 13692 13695 13698 13701 13704 13707 13710 13713 13716 13719 13722 13724 13727 13730 13733 13735 13738 13740 13743 13746 13749 13752 13755 13758 13760 13763 13765 13768 13770 13773 13776 13779 13782 13784 13787 13790 13793 13796 13799 13802 13805 13808 13811 13814 13817 13820 13823 13826 13828 13831 13833 13836 13839 13842 13845 13848 13851 13854 13856 13859 13862 13865 13868 13871 13874 13877 13880 13883 13886 13889 13892 13895 13897 13900 13903 13906 13909 13911 13914 13917 13920 13923 13926 13929 13932 13935 13938 13941 13944 13947 13950 13953 13956 13959 13962 13965 13968 13971 13974 13977 13980 13983 13985 13988 13991 13994 13997 13999 14002 14005 14008 14010 14013 14016 14018 14021 14024 14026 14029 14032 14035 14038 14041 14044 14047 14050 14053 14056 14059 14062 14065 14068 14071 14073 14076 14079 14081 14084 14087 14090 14093 14096 14099 14102 14104 14107 14110 14113 14116 14119 14121 14124 14127 14130 14132 14135 14138 14141 14143 14146 14149 14152 14155 14158 14161 14164 14166 14169 14172 14175 14177 14180 14182 14184 14187 14190 14193 14196 14199 14201 14204 14207 14210 14213 14216 14219 14222 14225 14228 14231 14233 14236 14239 14242 14245 14248 14251 14254 14257 14260 14263 14266 14269 14272 14275 14278 14281 14284 14287 14290 14293 14296 14299 14302 14305 14308 14311 14314 14317 14320 14323 14326 14329 14332 14335 14338 14341 14344 14346 14349 14352 14355 14358 14361 14364 14367 14370 14373 14376 14379 14382 14385 14388 14391 14394 14396 14399 14402 14405 14408 14411 14414 14417 14420 14423 14425 14428 14431 14434 14437 14440 14443 14446 14448 14451 14454 14457 14460 14463 14466 14469 14472 14475 14478 14481 14484 14487 14490 14493 14496 14499 14502 14505 14508 14511 14513 14516 14519 14522 14525 14528 14531 14534 14537 14540 14543 14546 14549 14552 14555 14558 14561 14564 14566 14569 14572 14575 14578 14581 14584 14587 14590 14593 14596 14599 14602 14605 14608 14611 14614 14617 14620 14623 14626 14629 14632 14635 14638 14641 14644 14647 14650 14653 14656 14659 14662 14665 14668 14671 14674 14677 14680 14683 14686 14689 14692 14695 14698 14701 14704 14706 14709 14712 14715 14718 14721 14724 14727 14730 14733 14736 14739 14742 14745 14747 14750 14752 14755 14758 14761 14764 14767 14769 14772 14775 14778 14781 14784 14786 14788 14791 14794 14797 14800 14803 14806 14809 14812 14815 14818 14821 14824 14827 14830 14833 14836 14839 14841 14843 14846 14849 14852 14855 14858 14861 14863 14866 14868 14871 14874 14877 14880 14883 14886 14889 14892 14895 14897 14900 14903 14906 14909 14912 14915 14918 14921 14924 14927 14930 14933 14936 14939 14942 14945 14948 14951 14954 14956 14959 14962 14965 14968 14971 14973 14976 14978 14981 14984 14987 14990 14993 14996 14999 15001 15004 15007 15010 15012 15015 15018 15021 15023 15026 15029 15031 15034 15037 15040 15042 15045 15048 15050 15053 15055 15058 15060 15063 15066 15068 15071 15074 15077 15080 15083 15086 15089 15092 15095 15098 15101 15104 15107 15110 15113 15116 15119 15122 15125 15128 15131 15133 15136 15138 15141 15144 15147 15150 15153 15156 15159 15161 15164 15167 15170 15173 15176 15179 15182 15185 15188 15191 15194 15197 15200 15203 15206 15209 15212 15215 15218 15220 15223 15226 15229 15231 15234 15237 15240 15243 15246 15249 15252 15255 15258 15261 15263 15266 15269 15272 15275 15277 15280 15283 15285 15288 15291 15294 15297 15300 15302 15305 15308 15311 15314 15316 15319 15321 15324 15327 15329 15332 15335 15338 15341 15344 15347 15350 15352 15355 15358 15360 15363 15365 15368 15371 15374 15377 15380 15383 15386 15389 15392 15395 15398 15401 15404 15407 15410 15413 15416 15419 15421 15424 15427 15430 15433 15436 15439 15442 15444 15447 15450 15453 15456 15458 15461 15464 15467 15470 15473 15476 15479 15482 15485 15487 15490 15493 15496 15499 15501 15504 15507 15510 15513 15516 15519 15522 15525 15528 15531 15534 15537 15539 15542 15545 15548 15551 15554 15557 15560 15563 15566 15568 15571 15574 15577 15580 15583 15586 15589 15592 15595 15598 15601 15604 15606 15609 15612 15614 15617 15620 15623 15626 15629 15632 15635 15638 15641 15643 15645 15647 15650 15653 15656 15658 15661 15664 15667 15670 15673 15676 15678 15681 15684 15687 15689 15691 15694 15697 15700 15703 15706 15709 15712 15715 15718 15721 15724 15727 15729 15732 15735 15738 15740 15742 15745 15748 15751 15754 15757 15759 15762 15765 15768 15771 15773 15776 15779 15782 15785 15787 15790 15793 15796 15799 15802 15804 15806 15808 15811 15814 15817 15819 15821 15824 15827 15830 15833 15836 15839 15842 15845 15848 15850 15852 15855 15858 15861 15863 15865 15868 15871 15874 15877 15880 15883 15886 15889 15892 15895 15898 15901 15904 15907 15910 15913 15916 15918 15921 15923 15926 15929 15932 15935 15937 15940 15943 15946 15949 15952 15955 15958 15960 15963 15966 15969 15972 15975 15978 15981 15983 15986 15989 15991 15994 15996 15998 16001 16004 16007 16009 16011 16014 16017 16020 16022 16024 16027 16030 16033 16036 16039 16042 16045 16048 16051 16054 16056 16059 16062 16065 16068 16071 16074 16077 16079 16082 16085 16088 16091 16093 16096 16099 16102 16105 16108 16111 16113 16116 16119 16122 16125 16127 16130 16132 16135 16138 16141 16144 16147 16150 16153 16156 16159 16162 16165 16168 16171 16174 16176 16179 16182 16185 16188 16191 16194 16197 16199 16202 16205 16208 16211 16213 16216 16219 16222 16224 16227 16230 16233 16236 16239 16242 16245 16248 16251 16254 16257 16260 16263 16266 16269 16272 16275 16278 16281 16284 16287 16290 16292 16295 16297 16300 16303 16305 16308 16311 16314 16316 16319 16322 16324 16327 16330 16333 16336 16339 16342 16345 16348 16351 16354 16357 16360 16363 16366 16369 16372 16375 16378 16381 16384 16386 16388 16390 16393 16396 16399 16402 16405 16408 16411 16414 16417 16420 16423 16426 16429 16431 16434 16437 16440 16442 16445 16448 16450 16453 16456 16459 16462 16464 16467 16470 16472 16474 16477 16480 16483 16486 16488 16491 16494 16496 16499 16501 16504 16507 16510 16513 16516 16519 16522 16525 16528 16531 16534 16537 16539 16542 16545 16548 16551 16554 16557 16560 16562 16565 16567 16570 16573 16576 16579 16581 16584 16587 16590 16593 16596 16599 16602 16605 16608 16611 16614 16617 16620 16623 16626 16629 16632 16635 16638 16641 16644 16647 16650 16652 16655 16658 16661 16663 16666 16668 16671 16674 16677 16679 16682 16685 16688 16691 16694 16696 16699 16702 16704 16707 16710 16713 16716 16719 16722 16725 16728 16730 16733 16736 16739 16742 16745 16747 16750 16753 16756 16759 16762 16765 16768 16771 16774 16777 16780 16783 16786 16789 16791 16794 16797 16800 16803 16805 16808 16811 16814 16817 16820 16823 16826 16829 16832 16835 16838 16841 16843 16846 16849 16852 16855 16857 16860 16863 16866 16869 16872 16875 16878 16881 16884 16887 16890 16893 16896 16898 16901 16904 16906 16909 16912 16915 16917 16920 16923 16926 16929 16932 16935 16938 16941 16944 16947 16950 16953 16956 16958 16960 16963 16965 16967 16970 16973 16976 16978 16980 16983 16985 16988 16990 16993 16995 16998 17001 17004 17006 17009 17011 17014 17017 17020 17023 17025 17028 17031 17034 17037 17040 17043 17045 17048 17051 17054 17057 17060 17062 17065 17068 17070 17073 17076 17078 17081 17084 17086 17089 17092 17095 17098 17101 17103 17106 17108 17111 17114 17117 17120 17123 17126 17129 17132 17135 17138 17141 17144 17147 17149 17152 17155 17157 17160 17163 17166 17169 17172 17175 17178 17181 17184 17186 17189 17192 17195 17198 17201 17204 17207 17210 17213 17215 17218 17221 17223 17226 17228 17231 17234 17237 17240 17243 17246 17249 17251 17254 17257 17260 17263 17266 17269 17272 17274 17277 17279 17282 17285 17287 17290 17293 17296 17298 17301 17304 17307 17310 17312 17315 17318 17321 17324 17327 17329 17332 17335 17338 17341 17344 17347 17350 17353 17356 17359 17362 17365 17368 17371 17374 17377 17380 17383 17386 17389 17392 17394 17397 17400 17402 17405 17408 17411 17413 17416 17419 17422 17425 17427 17430 17433 17436 17439 17442 17445 17448 17451 17454 17457 17460 17463 17466 17469 17472 17475 17478 17481 17484 17487 17490 17493 17496 17498 17501 17504 17507 17510 17513 17516 17518 17521 17524 17527 17530 17533 17536 17539 17542 17545 17548 17551 17554 17557 17559 17562 17564 17567 17570 17572 17575 17578 17581 17584 17586 17588 17591 17593 17596 17598 17601 17604 17607 17610 17613 17615 17618 17621 17623 17625 17628 17631 17634 17637 17640 17642 17645 17648 17650 17653 17656 17659 17662 17665 17668 17671 17674 17676 17678 17681 17684 17687 17689 17692 17694 17697 17700 17703 17706 17709 17711 17714 17716 17719 17722 17725 17728 17731 17733 17735 17738 17741 17744 17747 17749 17752 17755 17758 17761 17763 17766 17769 17772 17775 17778 17781 17784 17787 17790 17793 17796 17799 17802 17805 17808 17811 17814 17816 17819 17822 17824 17827 17830 17833 17835 17838 17841 17844 17847 17850 17853 17856 17859 17862 17865 17868 17871 17874 17877 17880 17883 17886 17889 17892 17894 17897 17900 17903 17906 17909 17912 17915 17918 17921 17924 17927 17930 17933 17936 17938 17940 17943 17946 17949 17951 17954 17957 17960 17963 17966 17968 17971 17974 17977 17980 17983 17986 17989 17992 17995 17998 18001 18003 18006 18009 18011 18014 18017 18020 18023 18026 18029 18032 18035 18038 18041 18043 18046 18049 18052 18054 18057 18059 18062 18064 18067 18070 18073 18075 18077 18080 18082 18085 18088 18090 18093 18096 18098 18100 18103 18106 18109 18111 18114 18117 18119 18122 18124 18127 18130 18133 18135 18138 18141 18143 18145 18148 18150 18153 18156 18158 18161 18163 18166 18169 18172 18175 18178 18181 18184 18187 18190 18192 18195 18198 18201 18204 18207 18209 18212 18215 18218 18221 18224 18227 18230 18233 18236 18239 18241 18244 18247 18250 18253 18255 18257 18260 18263 18265 18268 18270 18273 18276 18279 18282 18285 18287 18290 18293 18295 18298 18300 18303 18306 18309 18312 18315 18318 18321 18323 18326 18329 18332 18335 18338 18341 18344 18347 18350 18352 18355 18357 18360 18362 18365 18367 18370 18373 18376 18379 18381 18384 18387 18390 18393 18396 18398 18400 18403 18406 18409 18412 18415 18418 18420 18423 18426 18429 18432 18435 18437 18440 18443 18446 18449 18451 18454 18457 18459 18462 18464 18467 18470 18473 18475 18478 18480 18483 18486 18488 18490 18492 18495 18498 18501 18504 18507 18510 18512 18514 18516 18519 18522 18525 18528 18530 18533 18535 18538 18540 18543 18546 18549 18552 18555 18558 18560 18563 18566 18569 18572 18575 18578 18581 18584 18587 18590 18593 18596 18599 18602 18605 18608 18611 18614 18617 18620 18623 18626 18629 18632 18635 18638 18641 18644 18647 18650 18653 18656 18659 18662 18665 18668 18671 18674 18677 18680 18683 18686 18689 18692 18695 18698 18701 18704 18707 18709 18712 18715 18718 18720 18722 18725 18728 18731 18734 18737 18740 18743 18746 18749 18752 18755 18758 18761 18764 18767 18770 18773 18776 18779 18781 18784 18787 18790 18793 18796 18799 18802 18804 18807 18810 18812 18815 18818 18820 18823 18826 18828 18831 18833 18836 18839 18841 18844 18847 18850 18852 18855 18857 18860 18862 18864 18867 18870 18873 18875 18877 18880 18883 18885 18888 18891 18893 18896 18899 18902 18905 18908 18911 18914 18917 18920 18923 18926 18929 18931 18934 18937 18940 18943 18945 18948 18951 18954 18957 18959 18962 18965 18968 18971 18974 18977 18980 18983 18986 18988 18991 18993 18996 18999 19002 19005 19007 19010 19013 19016 19018 19021 19024 19027 19030 19033 19036 19038 19041 19044 19046 19049 19052 19055 19057 19060 19063 19066 19069 19072 19075 19078 19080 19083 19086 19089 19092 19095 19097 19100 19103 19106 19109 19112 19115 19118 19121 19124 19127 19130 19133 19136 19139 19142 19144 19147 19150 19153 19156 19159 19161 19164 19167 19169 19172 19174 19177 19180 19183 19186 19188 19190 19193 19196 19198 19201 19204 19207 19210 19213 19216 19219 19222 19225 19228 19231 19233 19236 19238 19241 19244 19247 19250 19253 19255 19258 19261 19264 19266 19269 19272 19275 19277 19280 19283 19286 19289 19292 19295 19298 19301 19304 19307 19310 19313 19316 19318 19321 19324 19327 19330 19333 19336 19339 19341 19344 19346 19349 19352 19355 19358 19361 19364 19367 19369 19371 19374 19377 19380 19383 19386 19389 19392 19395 19398 19400 19403 19406 19409 19412 19415 19418 19420 19422 19424 19427 19429 19432 19435 19438 19441 19444 19447 19449 19452 19454 19457 19459 19462 19464 19467 19470 19473 19476 19479 19482 19484 19487 19490 19492 19495 19498 19501 19504 19506 19509 19512 19515 19518 19521 19524 19527 19530 19533 19536 19539 19542 19545 19548 19551 19554 19557 19560 19563 19566 19569 19571 19574 19576 19579 19582 19585 19588 19591 19594 19597 19600 19603 19606 19609 19612 19615 19618 19621 19624 19627 19630 19633 19636 19639 19642 19645 19648 19651 19654 19657 19660 19663 19666 19669 19672 19675 19678 19681 19684 19687 19690 19693 19696 19699 19702 19705 19708 19711 19714 19717 19720 19723 19726 19729 19732 19735 19738 19741 19744 19747 19750 19752 19755 19758 19761 19764 19767 19770 19773 19776 19779 19782 19785 19788 19791 19794 19797 19800 19803 19806 19809 19812 19815 19818 19821 19823 19826 19829 19832 19834 19837 19839 19842 19845 19848 19851 19854 19857 19860 19863 19866 19869 19872 19875 19878 19881 19884 19887 19890 19893 19896 19899 19902 19905 19908 19911 19914 19917 19920 19923 19926 19929 19932 19935 19938 19941 19944 19947 19950 19953 19956 19958 19961 19963 19966 19969 19972 19975 19978 19981 19984 19987 19990 19993 19996 19999 20002 20005 20008 20011 20014 20017 20020 20023 20026 20029 20032 20035 20038 20040 20043 20046 20049 20052 20055 20058 20061 20064 20067 20070 20073 20076 20079 20082 20085 20088 20091 20094 20097 20100 20103 20106 20109 20112 20115 20118 20121 20124 20127 20130 20133 20136 20139 20142 20145 20148 20151 20154 20157 20160 20163 20166 20169 20172 20175 20178 20181 20184 20187 20190 20193 20196 20199 20202 20205 20208 20211 20214 20217 20220 20223 20226 20229 20232 20235 20238 20241 20244 20247 20249 20252 20255 20258 20261 20264 20267 20270 20272 20275 20278 20280 20283 20286 20289 20292 20295 20298 20301 20304 20307 20310 20313 20316 20319 20322 20325 20328 20331 20334 20337 20340 20342 20345 20348 20351 20354 20357 20360 20363 20366 20369 20372 20375 20378 20381 20384 20387 20390 20393 20396 20399 20402 20405 20408 20411 20414 20417 20420 20423 20426 20429 20432 20435 20438 20440 20443 20446 20449 20452 20454 20457 20459 20462 20465 20468 20471 20474 20477 20479 20482 20485 20487 20490 20493 20495 20497 20500 20502 20505 20508 20511 20513 20516 20519 20522 20525 20528 20531 20534 20537 20540 20543 20546 20549 20552 20555 20558 20560 20563 20566 20569 20572 20575 20578 20581 20584 20586 20589 20592 20595 20598 20601 20604 20607 20610 20613 20616 20619 20622 20625 20628 20631 20634 20637 20640 20643 20646 20649 20652 20655 20658 20661 20664 20667 20670 20673 20676 20679 20682 20685 20688 20691 20694 20696 20699 20702 20705 20708 20711 20714 20717 20719 20722 20725 20727 20730 20732 20735 20738 20741 20744 20747 20750 20753 20756 20759 20762 20765 20767 20769 20772 20775 20777 20780 20783 20785 20787 20790 20793 20796 20799 20801 20804 20806 20809 20812 20814 20817 20819 20821 20824 20826 20829 20831 20834 20837 20840 20843 20846 20849 20852 20854 20857 20859 20862 20865 20868 20871 20874 20876 20879 20882 20885 20887 20890 20893 20895 20898 20900 20903 20905 20907 20910 20913 20915 20918 20921 20924 20927 20930 20933 20935 20938 20941 20944 20947 20950 20953 20956 20959 20961 20963 20966 20969 20972 20974 20977 20980 20983 20986 20988 20990 20993 20995 20998 21001 21004 21006 21009 21012 21015 21018 21021 21024 21027 21030 21033 21036 21039 21042 21045 21048 21051 21054 21056 21059 21062 21065 21068 21071 21074 21076 21079 21081 21084 21087 21090 21092 21094 21097 21100 21102 21105 21107 21110 21113 21116 21119 21122 21125 21128 21131 21134 21137 21140 21143 21145 21147 21150 21153 21156 21159 21162 21164 21167 21170 21173 21176 21179 21182 21185 21187 21190 21193 21196 21198 21201 21203 21206 21209 21211 21214 21217 21220 21223 21226 21229 21232 21235 21238 21240 21243 21246 21248 21251 21254 21257 21260 21263 21266 21269 21272 21275 21278 21281 21283 21286 21289 21292 21295 21298 21301 21304 21307 21310 21313 21316 21319 21322 21325 21328 21331 21334 21337 21340 21343 21346 21349 21351 21354 21357 21360 21363 21366 21369 21372 21375 21378 21381 21384 21386 21389 21392 21395 21398 21400 21403 21406 21409 21412 21415 21418 21421 21424 21427 21430 21433 21435 21438 21441 21444 21447 21450 21452 21455 21457 21460 21463 21466 21469 21472 21475 21478 21481 21484 21486 21489 21492 21494 21497 21500 21502 21505 21508 21511 21514 21516 21519 21522 21525 21528 21531 21534 21537 21540 21543 21546 21549 21552 21555 21558 21561 21564 21567 21570 21573 21576 21579 21581 21584 21587 21589 21592 21594 21597 21600 21603 21606 21609 21612 21615 21618 21621 21623 21626 21629 21631 21633 21635 21638 21641 21644 21646 21649 21652 21655 21658 21661 21664 21666 21668 21671 21673 21676 21679 21681 21684 21687 21689 21692 21695 21698 21701 21703 21706 21709 21712 21715 21717 21720 21723 21726 21729 21732 21735 21738 21741 21744 21747 21750 21752 21755 21758 21760 21763 21765 21767 21770 21773 21775 21777 21779 21782 21785 21788 21791 21794 21797 21800 21803 21806 21809 21811 21814 21817 21820 21823 21826 21829 21832 21835 21838 21840 21843 21846 21849 21852 21855 21857 21860 21863 21866 21869 21872 21875 21878 21881 21884 21887 21889 21892 21895 21898 21901 21904 21907 21910 21913 21916 21919 21922 21925 21928 21931 21934 21937 21940 21943 21946 21949 21952 21955 21958 21961 21963 21965 21968 21971 21974 21977 21980 21983 21986 21989 21991 21994 21997 22000 22003 22006 22009 22012 22015 22018 22021 22024 22027 22030 22033 22036 22039 22041 22044 22047 22050 22053 22055 22058 22061 22064 22066 22068 22071 22074 22077 22080 22083 22086 22088 22091 22093 22096 22099 22102 22104 22107 22110 22113 22116 22119 22122 22125 22128 22130 22133 22135 22137 22140 22143 22146 22149 22152 22155 22158 22161 22164 22167 22170 22173 22175 22178 22181 22183 22186 22188 22191 22194 22197 22200 22203 22206 22209 22212 22215 22218 22221 22224 22227 22230 22233 22236 22239 22242 22245 22248 22251 22254 22257 22259 22262 22265 22268 22271 22274 22276 22279 22282 22285 22288 22291 22294 22297 22300 22303 22306 22308 22311 22314 22317 22319 22322 22325 22328 22331 22334 22337 22340 22343 22346 22349 22352 22354 22356 22359 22362 22365 22368 22371 22373 22376 22379 22382 22384 22387 22390 22393 22396 22399 22402 22405 22408 22411 22414 22416 22419 22422 22425 22428 22431 22434 22437 22439 22441 22444 22446 22449 22452 22455 22458 22460 22463 22466 22469 22472 22475 22477 22480 22483 22486 22489 22492 22495 22498 22501 22504 22507 22509 22512 22515 22518 22521 22524 22527 22530 22533 22536 22539 22541 22544 22547 22550 22553 22556 22559 22562 22564 22567 22570 22573 22576 22579 22582 22585 22588 22591 22594 22597 22600 22603 22606 22609 22612 22615 22618 22621 22624 22626 22629 22632 22635 22637 22640 22643 22646 22649 22652 22655 22658 22661 22664 22667 22670 22673 22676 22678 22681 22683 22685 22688 22690 22692 22695 22698 22701 22704 22707 22709 22712 22715 22718 22721 22724 22727 22730 22732 22735 22738 22740 22743 22746 22748 22751 22754 22756 22759 22762 22764 22766 22768 22770 22773 22776 22778 22780 22783 22786 22788 22791 22794 22796 22799 22802 22805 22808 22810 22812 22814 22816 22819 22822 22825 22827 22830 22832 22835 22837 22840 22842 22844 22847 22850 22853 22856 22859 22862 22865 22867 22870 22873 22875 22878 22880 22883 22886 22888 22890 22893 22896 22899 22902 22905 22908 22911 22914 22917 22920 22923 22926 22929 22932 22935 22938 22941 22943 22946 22949 22952 22955 22958 22961 22964 22967 22970 22973 22976 22979 22982 22985 22988 22991 22994 22996 22999 23002 23005 23008 23011 23014 23017 23020 23023 23026 23029 23032 23035 23038 23040 23042 23045 23048 23051 23054 23056 23059 23061 23064 23067 23070 23072 23074 23077 23079 23082 23085 23088 23091 23094 23097 23100 23103 23106 23109 23112 23115 23118 23121 23124 23127 23130 23133 23136 23138 23141 23143 23146 23149 23152 23155 23157 23160 23163 23166 23169 23172 23175 23178 23181 23184 23187 23190 23193 23196 23199 23202 23205 23208 23211 23214 23217 23219 23222 23225 23228 23231 23234 23237 23240 23243 23246 23249 23252 23255 23258 23261 23263 23266 23269 23272 23275 23278 23281 23284 23287 23290 23293 23296 23299 23302 23305 23308 23311 23314 23317 23320 23323 23326 23329 23332 23335 23338 23341 23344 23347 23350 23353 23356 23359 23362 23365 23368 23371 23374 23377 23380 23383 23386 23389 23392 23395 23398 23401 23404 23407 23410 23413 23416 23419 23422 23425 23428 23431 23434 23437 23440 23443 23446 23449 23451 23454 23457 23460 23462 23465 23468 23470 23473 23476 23479 23482 23485 23488 23491 23494 23497 23500 23503 23505 23508 23511 23514 23517 23519 23522 23525 23528 23531 23534 23537 23540 23543 23546 23549 23552 23555 23558 23561 23564 23567 23570 23573 23576 23579 23582 23585 23588 23591 23594 23597 23600 23603 23606 23608 23611 23614 23617 23620 23622 23625 23628 23631 23634 23637 23640 23643 23646 23649 23652 23654 23657 23660 23662 23665 23668 23671 23674 23677 23680 23683 23686 23689 23692 23695 23698 23700 23703 23706 23709 23712 23715 23718 23721 23724 23726 23729 23732 23735 23738 23741 23744 23747 23750 23753 23756 23758 23761 23763 23766 23769 23772 23774 23777 23780 23783 23785 23788 23790 23793 23795 23797 23800 23803 23806 23809 23812 23814 23817 23820 23823 23826 23829 23832 23835 23838 23841 23844 23847 23850 23853 23856 23859 23862 23865 23868 23871 23874 23877 23880 23883 23885 23888 23891 23893 23896 23899 23902 23904 23907 23909 23912 23915 23918 23921 23924 23927 23930 23933 23936 23939 23942 23945 23947 23950 23953 23956 23959 23962 23965 23968 23971 23974 23977 23980 23983 23986 23989 23992 23995 23998 24001 24004 24006 24009 24012 24015 24018 24021 24024 24027 24030 24033 24036 24039 24042 24045 24048 24051 24054 24057 24060 24063 24066 24069 24072 24075 24078 24081 24084 24087 24089 24092 24095 24098 24101 24104 24107 24110 24113 24116 24119 24122 24125 24128 24131 24134 24137 24140 24143 24145 24148 24151 24154 24156 24159 24162 24165 24167 24169 24172 24175 24178 24181 24184 24186 24189 24192 24195 24198 24201 24204 24207 24209 24211 24214 24217 24220 24222 24225 24227 24230 24233 24236 24239 24242 24245 24247 24249 24252 24255 24257 24259 24262 24265 24268 24271 24274 24277 24280 24283 24286 24289 24291 24294 24297 24300 24303 24306 24309 24311 24314 24317 24320 24323 24326 24329 24332 24335 24338 24341 24344 24347 24350 24353 24356 24359 24362 24364 24367 24370 24373 24376 24378 24381 24384 24386 24389 24392 24395 24398 24401 24404 24407 24410 24413 24416 24419 24421 24424 24426 24429 24431 24434 24437 24440 24443 24446 24449 24452 24455 24458 24461 24464 24467 24470 24473 24476 24479 24482 24485 24488 24490 24493 24496 24498 24501 24504 24507 24509 24512 24515 24517 24520 24523 24526 24529 24531 24534 24537 24540 24543 24546 24549 24552 24554 24557 24560 24563 24566 24569 24572 24575 24578 24581 24584 24587 24590 24593 24596 24599 24602 24605 24608 24611 24614 24617 24620 24623 24626 24629 24632 24635 24638 24641 24643 24646 24649 24652 24655 24658 24661 24664 24667 24670 24673 24676 24679 24682 24685 24688 24691 24694 24697 24700 24703 24706 24709 24712 24715 24718 24721 24724 24727 24730 24733 24736 24739 24742 24745 24748 24751 24754 24756 24758 24760 24763 24766 24768 24771 24774 24777 24779 24782 24784 24787 24790 24793 24796 24799 24801 24804 24807 24810 24813 24816 24819 24822 24824 24827 24830 24833 24836 24839 24842 24845 24848 24851 24854 24857 24860 24863 24866 24868 24871 24874 24877 24879 24882 24884 24887 24890 24893 24896 24899 24902 24905 24908 24910 24913 24916 24919 24922 24925 24928 24931 24933 24936 24938 24941 24943 24946 24949 24952 24955 24958 24961 24964 24967 24969 24972 24975 24977 24979 24981 24984 24986 24989 24991 24994 24997 25000 25003 25006 25009 25012 25015 25018 25021 25024 25027 25030 25033 25036 25039 25042 25045 25048 25051 25054 25056 25059 25062 25064 25066 25069 25072 25075 25077 25080 25083 25086 25089 25092 25095 25098 25100 25103 25105 25108 25111 25114 25117 25119 25122 25125 25127 25130 25133 25136 25139 25142 25145 25148 25150 25153 25156 25158 25161 25164 25167 25169 25172 25175 25178 25181 25184 25187 25190 25193 25196 25198 25201 25204 25207 25210 25213 25216 25218 25221 25224 25226 25229 25232 25235 25238 25240 25243 25246 25249 25252 25255 25258 25260 25262 25264 25267 25270 25273 25275 25278 25280 25283 25285 25288 25291 25294 25297 25300 25303 25305 25308 25311 25314 25316 25319 25322 25325 25327 25330 25333 25336 25339 25342 25345 25348 25351 25354 25357 25360 25363 25365 25368 25371 25374 25376 25379 25382 25385 25388 25391 25393 25395 25398 25401 25403 25406 25408 25410 25412 25415 25418 25421 25423 25426 25429 25432 25435 25438 25440 25443 25446 25449 25452 25455 25458 25461 25464 25467 25470 25473 25476 25478 25481 25484 25487 25490 25493 25496 25498 25501 25504 25506 25509 25512 25514 25517 25520 25523 25526 25529 25531 25534 25537 25539 25542 25544 25547 25549 25552 25555 25558 25561 25564 25567 25569 25572 25575 25578 25581 25583 25586 25589 25592 25595 25598 25601 25604 25607 25610 25613 25615 25618 25621 25624 25627 25630 25632 25635 25638 25641 25644 25647 25650 25653 25656 25659 25662 25665 25668 25671 25674 25677 25679 25682 25685 25688 25691 25694 25696 25699 25701 25704 25707 25710 25713 25716 25718 25721 25724 25727 25730 25733 25735 25738 25741 25744 25747 25750 25752 25755 25758 25761 25764 25767 25770 25773 25776 25779 25782 25784 25787 25789 25792 25794 25797 25800 25802 25805 25808 25811 25814 25817 25820 25823 25826 25828 25831 25833 25836 25839 25842 25845 25848 25851 25854 25857 25860 25863 25865 25868 25871 25874 25877 25880 25883 25886 25889 25892 25895 25897 25900 25903 25906 25908 25911 25913 25915 25918 25921 25924 25926 25929 25932 25935 25937 25939 25942 25945 25948 25951 25954 25957 25960 25963 25966 25969 25971 25973 25976 25979 25982 25985 25988 25990 25993 25996 25999 26002 26005 26008 26011 26014 26017 26020 26022 26025 26027 26029 26031 26034 26037 26040 26043 26046 26049 26052 26055 26057 26060 26063 26066 26069 26072 26075 26078 26081 26084 26087 26090 26093 26096 26099 26102 26105 26108 26111 26114 26117 26120 26123 26126 26129 26132 26135 26138 26141 26144 26146 26149 26152 26155 26158 26160 26163 26166 26169 26172 26175 26178 26181 26184 26186 26189 26192 26195 26198 26201 26204 26207 26210 26212 26215 26218 26221 26224 26227 26230 26233 26236 26239 26242 26245 26248 26251 26254 26257 26260 26263 26266 26269 26272 26275 26278 26281 26284 26287 26290 26292 26295 26298 26301 26304 26307 26310 26312 26315 26317 26320 26323 26325 26328 26331 26334 26336 26339 26341 26344 26347 26350 26352 26355 26358 26361 26363 26366 26369 26372 26375 26378 26381 26383 26386 26389 26392 26395 26398 26401 26404 26407 26410 26413 26416 26419 26422 26425 26428 26431 26434 26437 26440 26443 26446 26449 26452 26455 26458 26461 26464 26466 26469 26471 26474 26477 26480 26483 26485 26488 26491 26494 26497 26500 26503 26506 26509 26512 26515 26518 26521 26524 26526 26529 26532 26534 26537 26540 26542 26545 26548 26551 26554 26557 26559 26562 26565 26568 26571 26574 26577 26580 26583 26585 26588 26590 26593 26596 26599 26602 26605 26607 26609 26612 26615 26617 26620 26623 26626 26628 26631 26634 26637 26640 26643 26646 26649 26651 26654 26657 26660 26663 26666 26669 26672 26675 26678 26681 26684 26687 26690 26693 26696 26699 26701 26704 26707 26710 26713 26716 26718 26721 26723 26726 26729 26732 26735 26738 26741 26744 26747 26750 26753 26756 26759 26761 26764 26766 26769 26772 26775 26778 26781 26784 26786 26788 26791 26794 26797 26800 26803 26806 26809 26812 26815 26818 26821 26824 26827 26830 26833 26836 26839 26842 26845 26848 26851 26853 26856 26859 26861 26864 26867 26870 26873 26876 26878 26881 26884 26887 26890 26893 26896 26898 26901 26904 26907 26910 26913 26916 26919 26922 26925 26928 26931 26934 26937 26940 26943 26946 26948 26951 26954 26956 26959 26962 26965 26968 26970 26973 26976 26979 26982 26985 26988 26991 26994 26997 27000 27003 27005 27008 27011 27014 27017 27020 27023 27026 27029 27032 27035 27038 27041 27044 27047 27050 27053 27056 27059 27062 27064 27067 27070 27073 27076 27079 27082 27085 27088 27091 27094 27097 27100 27102 27105 27108 27111 27114 27117 27120 27123 27126 27129 27132 27135 27138 27141 27143 27145 27148 27151 27154 27157 27160 27163 27165 27168 27171 27174 27177 27180 27183 27186 27189 27192 27195 27198 27201 27204 27207 27210 27213 27216 27219 27222 27225 27228 27231 27234 27237 27240 27243 27246 27249 27252 27255 27258 27261 27264 27267 27270 27272 27275 27278 27281 27284 27287 27290 27293 27296 27298 27301 27304 27307 27310 27313 27316 27319 27322 27325 27328 27331 27334 27336 27339 27342 27345 27348 27350 27353 27355 27358 27361 27364 27367 27370 27373 27376 27379 27381 27384 27387 27390 27393 27396 27399 27402 27405 27408 27411 27413 27416 27419 27422 27424 27427 27430 27432 27435 27438 27441 27444 27446 27449 27452 27454 27457 27460 27463 27466 27469 27472 27475 27478 27480 27483 27486 27489 27491 27494 27497 27500 27503 27506 27509 27512 27514 27517 27519 27522 27524 27527 27529 27531 27534 27537 27540 27542 27544 27546 27549 27552 27554 27557 27560 27563 27565 27568 27571 27574 27577 27579 27582 27585 27588 27591 27594 27597 27600 27603 27606 27609 27612 27615 27618 27621 27624 27627 27630 27633 27636 27639 27642 27645 27648 27651 27654 27657 27660 27663 27666 27669 27672 27675 27678 27681 27684 27687 27690 27693 27695 27698 27701 27704 27707 27710 27713 27716 27719 27721 27724 27727 27730 27733 27735 27738 27741 27743 27746 27749 27751 27754 27757 27760 27763 27765 27768 27771 27774 27777 27780 27782 27785 27788 27791 27794 27797 27800 27803 27806 27809 27812 27815 27818 27821 27823 27825 27828 27831 27834 27836 27839 27842 27845 27848 27851 27854 27857 27860 27863 27866 27869 27872 27875 27878 27880 27883 27886 27889 27892 27895 27898 27900 27903 27906 27908 27911 27914 27917 27920 27923 27926 27929 27932 27935 27938 27940 27943 27946 27949 27952 27955 27957 27960 27963 27966 27969 27972 27975 27978 27981 27984 27987 27989 27992 27995 27998 28001 28004 28007 28010 28013 28016 28019 28022 28025 28028 28031 28034 28036 28039 28042 28045 28048 28051 28054 28057 28060 28063 28066 28069 28072 28075 28078 28081 28084 28087 28090 28093 28096 28099 28102 28105 28107 28110 28112 28115 28118 28121 28123 28126 28129 28132 28135 28138 28141 28144 28147 28150 28152 28155 28158 28161 28163 28166 28169 28172 28175 28178 28181 28184 28187 28190 28193 28196 28199 28202 28205 28208 28211 28213 28216 28219 28222 28225 28228 28230 28233 28236 28239 28241 28244 28246 28249 28252 28255 28258 28261 28264 28266 28269 28272 28275 28278 28281 28284 28287 28290 28293 28296 28299 28302 28305 28308 28311 28314 28317 28320 28323 28326 28329 28332 28335 28338 28341 28344 28347 28349 28352 28355 28357 28360 28363 28366 28369 28372 28375 28378 28380 28383 28386 28389 28392 28394 28397 28400 28402 28405 28408 28411 28414 28417 28420 28422 28425 28428 28431 28433 28436 28439 28442 28444 28447 28450 28453 28456 28459 28461 28464 28467 28470 28473 28476 28478 28481 28484 28487 28490 28493 28496 28499 28502 28504 28507 28510 28512 28515 28518 28521 28524 28526 28529 28532 28535 28538 28540 28543 28546 28549 28552 28554 28557 28560 28563 28565 28568 28570 28573 28576 28579 28582 28585 28588 28591 28594 28597 28600 28602 28605 28608 28611 28614 28617 28620 28623 28625 28627 28630 28633 28636 28639 28642 28644 28647 28650 28653 28656 28659 28661 28664 28667 28670 28672 28675 28678 28680 28683 28686 28688 28691 28694 28697 28699 28702 28705 28708 28711 28714 28717 28719 28722 28725 28728 28731 28734 28736 28739 28742 28745 28748 28751 28753 28756 28759 28762 28765 28768 28771 28773 28776 28779 28782 28785 28787 28790 28793 28796 28799 28802 28804 28807 28810 28813 28816 28819 28822 28825 28828 28831 28834 28836 28839 28842 28845 28848 28851 28854 28857 28859 28862 28865 28868 28871 28873 28875 28878 28881 28883 28886 28889 28892 28895 28898 28901 28904 28906 28909 28912 28915 28918 28921 28924 28927 28929 28932 28934 28937 28940 28942 28945 28948 28951 28954 28956 28959 28961 28964 28967 28970 28973 28976 28979 28982 28985 28988 28991 28993 28996 28999 29002 29005 29008 29010 29013 29016 29019 29021 29024 29027 29030 29033 29035 29038 29041 29043 29046 29049 29052 29055 29058 29060 29063 29065 29068 29070 29072 29075 29078 29081 29084 29086 29088 29091 29094 29097 29100 29103 29106 29109 29112 29115 29118 29121 29124 29127 29129 29132 29135 29138 29141 29144 29147 29149 29151 29154 29157 29160 29163 29166 29169 29172 29175 29178 29181 29184 29187 29190 29192 29195 29198 29201 29204 29207 29210 29213 29216 29219 29222 29225 29228 29231 29234 29237 29240 29243 29246 29249 29252 29255 29258 29261 29264 29267 29270 29273 29276 29279 29282 29285 29288 29291 29293 29296 29299 29301 29304 29307 29310 29313 29316 29319 29322 29324 29327 29330 29333 29335 29338 29341 29343 29346 29349 29352 29354 29356 29359 29362 29365 29368 29370 29372 29375 29378 29381 29384 29387 29390 29393 29396 29399 29402 29405 29408 29411 29414 29416 29419 29422 29424 29427 29430 29433 29435 29438 29441 29444 29447 29449 29452 29455 29457 29460 29463 29466 29469 29472 29475 29478 29481 29484 29487 29490 29492 29495 29498 29501 29504 29507 29510 29513 29515 29518 29521 29524 29527 29530 29533 29536 29539 29542 29545 29548 29551 29554 29557 29560 29563 29566 29569 29571 29574 29577 29580 29583 29586 29589 29591 29594 29596 29599 29602 29605 29608 29611 29613 29616 29619 29621 29624 29627 29630 29632 29635 29638 29641 29643 29646 29649 29652 29655 29658 29661 29664 29667 29670 29673 29676 29679 29682 29685 29687 29690 29693 29696 29699 29701 29703 29706 29709 29712 29715 29718 29721 29724 29727 29730 29733 29736 29739 29742 29745 29748 29751 29754 29757 29760 29762 29765 29768 29771 29774 29777 29780 29783 29786 29788 29791 29793 29796 29799 29802 29805 29808 29811 29814 29816 29819 29821 29824 29827 29830 29833 29836 29838 29841 29844 29847 29850 29853 29856 29858 29861 29864 29867 29870 29873 29875 29877 29880 29883 29886 29888 29890 29892 29895 29898 29901 29904 29907 29909 29912 29915 29918 29921 29924 29926 29929 29932 29935 29938 29940 29943 29945 29947 29950 29952 29954 29957 29960 29963 29965 29968 29971 29974 29976 29979 29982 29985 29987 29990 29993 29996 29998 30001 30004 30007 30010 30013 30016 30019 30022 30024 30027 30030 30033 30035 30038 30041 30044 30047 30050 30053 30055 30058 30061 30064 30067 30070 30073 30075 30078 30081 30084 30087 30090 30093 30096 30099 30102 30105 30108 30111 30114 30117 30119 30122 30124 30127 30130 30133 30135 30138 30141 30143 30146 30148 30151 30153 30156 30159 30161 30164 30167 30170 30173 30176 30179 30181 30184 30187 30190 30193 30195 30198 30201 30204 30207 30210 30213 30215 30218 30221 30224 30227 30230 30233 30236 30239 30242 30245 30247 30250 30253 30256 30259 30262 30265 30268 30271 30274 30277 30280 30283 30286 30289 30292 30295 30298 30301 30304 30306 30308 30311 30314 30317 30319 30322 30325 30327 30330 30333 30335 30338 30341 30343 30346 30349 30351 30353 30356 30359 30362 30365 30367 30370 30373 30376 30379 30382 30385 30388 30391 30394 30397 30400 30402 30404 30407 30410 30413 30415 30418 30420 30423 30425 30428 30431 30434 30437 30440 30442 30445 30448 30450 30453 30455 30458 30461 30463 30465 30467 30470 30473 30476 30479 30481 30484 30487 30489 30492 30494 30497 30500 30502 30505 30508 30511 30514 30517 30520 30523 30526 30528 30531 30533 30535 30538 30541 30544 30547 30550 30552 30554 30557 30560 30563 30565 30567 30570 30573 30576 30579 30582 30585 30588 30591 30593 30596 30598 30601 30604 30607 30610 30613 30616 30619 30622 30625 30628 30631 30634 30637 30640 30643 30646 30649 30652 30655 30658 30661 30664 30667 30670 30673 30676 30679 30682 30685 30687 30690 30693 30696 30699 30702 30705 30708 30711 30714 30717 30720 30723 30726 30729 30732 30734 30737 30740 30742 30745 30748 30751 30754 30757 30759 30762 30765 30768 30771 30774 30777 30780 30783 30786 30789 30792 30795 30798 30800 30803 30806 30809 30812 30815 30818 30821 30824 30827 30829 30832 30835 30837 30840 30843 30846 30849 30851 30853 30855 30858 30861 30864 30867 30870 30872 30875 30878 30881 
</DataArray>
<DataArray type="UInt32" Name="types" format="ascii">
5 5 3 5 5 5 5 3 5 5 5 5 5 5 5 5 5 5 5 5 3 5 5 5 5 3 5 5 5 5 5 5 5 3 5 5 5 5 5 5 5 5 3 5 5 5 5 5 5 5 5 5 5 5 3 3 5 5 5 5 5 5 5 5 3 5 5 5 5 5 5 5 5 5 5 5 5 5 5 5 5 5 5 5 5 5 5 3 5 5 5 5 5 5 5 5 5 5 5 3 5 5 5 3 5 5 5 5 5 5 5 5 5 5 5 5 5 5 5 5 5 5 5 5 5 5 5 5 5 5 5 5 5 5 5 5 5 5 5 5 5 5 5 5 5 5 5 5 5 3 5 3 5 5 5 5 5 5 5 5 5 5 5 5 5 5 5 5 5 5 5 5 5 5 5 5 5 5 3 5 5 3 5 3 5 5 5 5 5 5 5 5 5 5 5 5 5 5 3 5 3 5 5 5 5 5 5 5 3 5 3 5 5 5 5 5 5 3 5 5 3 5 5 5 5 5 5 3 3 5 5 3 5 3 5 3 3 5 5 5 3 5 5 5 5 5 5 5 5 5 5 5 5 5 3 5 5 5 5 5 5 5 3 5 5 5 5 5 5 5 3 5 5 5 5 3 5 5 5 5 5 5 3 5 5 5 3 5 5 5 5 5 5 5 3 5 5 5 5 5 5 3 5 5 5 5 5 5 3 5 5 5 5 5 5 5 3 5 5 5 5 5 5 5 5 5 5 5 5 5 5 5 5 5 5 5 5 5 3 3 5 5 5 5 5 3 5 5 5 5 5 5 5 3 5 3 5 5 5 3 5 5 5 3 5 3 5 5 5 5 5 5 5 3 5 5 5 5 5 5 5 3 5 5 5 3 5 5 5 5 5 5 5 5 5 5 5 5 5 5 5 5 5 5 5 5 5 5 5 5 5 5 5 5 5 5 5 5 3 5 5 5 5 5 5 5 5 5 5 5 5 5 5 5 5 5 5 5 5 5 5 5 5 5 5 5 5 5 5 5 5 3 5 5 5 5 5 5 5 5 5 5 5 5 5 5 5 5 5 5 5 5 3 5 5 5 5 5 5 5 3 5 5 5 5 5 3 5 5 3 5 3 5 5 5 5 3 5 5 3 5 5 5 5 5 5 3 5 5 5 5 5 5 5 5 5 5 5 5 5 5 5 5 5 5 5 3 5 5 5 5 5 5 5 5 5 5 5 3 3 5 5 5 5 5 5 5 5 5 5 5 5 5 5 5 5 5 5 5 5 5 3 5 3 3 5 5 3 5 5 5 5 5 5 5 5 5 5 5 5 5 3 5 5 5 5 5 5 5 3 3 5 5 5 5 5 5 5 5 3 3 5 5 5 3 5 5 5 5 5 5 5 5 5 5 5 5 5 5 5 5 5 5 5 5 5 5 5 5 5 5 5 5 5 5 5 5 5 5 5 3 5 5 3 5 5 5 5 3 5 5 5 3 5 5 5 3 5 5 3 5 5 5 5 5 5 5 5 5 5 5 5 5 5 5 5 5 5 5 5 5 3 5 5 5 3 5 5 5 5 5 3 5 5 5 5 5 5 3 5 5 5 5 5 5 5 5 5 5 5 5 5 5 5 5 5 5 3 5 5 5 5 5 5 5 5 5 5 5 5 5 5 5 5 5 5 5 5 5 3 5 5 5 5 5 5 5 5 5 5 5 5 5 5 5 3 5 5 5 5 5 5 5 5 5 5 5 5 5 5 5 5 5 5 3 5 5 5 5 5 5 5 3 5 5 5 5 5 5 5 5 5 5 5 5 5 5 5 5 5 5 5 5 5 3 5 5 5 5 5 5 5 5 5 3 5 5 5 5 5 5 5 5 3 5 5 5 5 5 5 5 5 5 5 5 5 5 5 5 5 5 5 5 3 5 5 5 5 5 3 5 5 5 3 5 5 5 5 5 5 3 5 5 5 5 5 5 5 5 5 5 3 5 5 5 5 5 5 5 5 5 5 5 5 3 5 3 5 5 5 5 5 5 5 3 5 3 5 5 5 5 5 5 5 5 5 5 5 5 5 5 5 5 5 5 5 5 5 5 5 5 5 5 5 5 5 5 5 5 5 5 5 5 5 5 5 5 5 5 5 5 5 3 3 5 5 3 5 5 5 5 5 5 5 5 5 5 5 5 5 5 5 5 3 5 5 5 5 3 5 5 3 5 5 5 5 5 5 3 5 3 5 5 3 5 5 5 5 5 5 5 5 5 5 3 5 5 5 5 5 3 3 5 5 5 5 3 5 5 3 5 3 5 5 5 5 5 3 5 5 3 5 5 5 5 5 5 5 5 5 5 5 5 3 5 5 5 5 5 5 5 5 5 5 5 5 5 5 5 3 5 3 5 3 3 5 3 5 5 3 5 5 5 5 5 5 3 5 3 5 5 3 5 5 5 3 5 5 3 5 5 5 5 5 3 5 5 3 5 5 5 5 5 3 5 3 5 5 3 5 5 3 5 5 5 5 5 5 5 5 3 5 5 5 5 5 5 5 5 5 5 3 5 5 5 5 3 5 5 3 5 5 5 5 5 3 5 5 5 5 5 3 5 3 5 5 5 5 5 5 3 5 5 5 5 5 5 5 5 3 3 3 5 5 5 5 3 5 3 5 5 5 3 3 5 5 5 3 5 5 5 3 5 3 5 3 3 5 3 5 5 5 5 3 5 5 5 3 5 3 5 3 5 5 5 5 5 5 5 3 5 5 5 5 3 5 5 5 5 5 5 5 5 3 5 3 3 5 5 5 3 5 5 5 5 3 3 5 5 3 3 5 5 5 5 5 3 5 5 5 5 5 5 5 5 3 5 3 5 5 5 5 5 5 5 5 5 5 5 5 5 5 5 5 5 3 5 5 5 5 5 5 5 5 5 5 5 5 5 5 5 5 5 5 5 5 5 5 5 5 5 3 5 3 5 5 5 5 5 3 3 5 5 5 5 3 3 5 3 5 5 3 5 5 3 5 5 5 5 3 3 5 5 5 5 5 5 5 5 3 5 5 3 5 5 5 3 5 5 3 5 5 5 5 5 5 3 5 5 5 5 5 5 3 5 5 5 5 5 3 5 5 3 3 5 5 3 5 5 3 5 5 5 5 5 5 5 5 5 5 5 5 3 5 3 5 5 3 5 5 5 5 5 5 3 5 5 5 3 3 3 5 5 5 3 3 5 3 3 5 5 3 5 5 3 5 3 5 3 5 5 5 3 3 5 5 3 3 3 3 5 5 5 3 3 5 5 3 3 3 5 3 3 5 5 3 5 3 3 5 3 5 5 3 5 3 3 5 5 5 5 3 3 5 5 3 5 5 5 3 5 5 5 5 5 5 5 5 5 5 5 5 5 5 5 5 5 5 5 5 5 5 5 5 5 5 5 5 5 5 5 5 5 5 5 5 5 5 5 5 5 5 5 5 5 5 5 5 5 5 5 5 5 5 5 5 5 5 3 5 3 5 5 5 5 5 5 5 5 5 5 5 5 5 5 3 5 5 5 5 5 5 5 5 5 5 3 5 5 5 5 5 5 5 5 5 5 5 5 5 5 5 5 5 5 5 5 5 5 5 5 5 5 5 5 5 5 5 5 5 5 5 5 5 5 5 5 5 5 5 5 5 5 3 5 5 5 3 5 3 5 5 5 5 5 3 5 3 5 5 5 5 5 5 5 5 5 5 5 5 5 5 5 5 5 5 5 5 5 5 5 5 5 3 5 5 5 5 5 5 3 5 3 5 5 5 3 5 5 3 5 5 5 5 5 5 5 5 5 5 5 5 5 5 5 5 5 5 5 5 5 5 5 5 5 5 5 5 5 5 5 5 5 5 5 5 5 3 5 3 5 5 5 5 5 5 5 5 5 5 3 5 5 5 5 5 5 5 5 5 5 5 5 5 5 5 5 5 3 5 5 5 3 3 5 3 5 5 5 5 5 5 5 5 3 5 5 5 5 3 5 5 5 5 5 5 5 3 5 5 3 5 3 5 5 3 5 5 3 3 5 5 5 5 5 5 5 5 5 5 5 5 5 5 5 3 5 3 5 5 5 3 5 3 5 5 5 5 5 5 5 5 5 5 5 5 3 5 3 5 5 5 5 5 5 5 5 3 5 5 3 5 5 5 3 3 5 5 5 5 5 5 5 5 5 5 5 5 5 5 5 5 5 5 5 5 5 3 5 5 5 5 5 3 5 3 5 5 5 5 3 5 5 3 5 5 5 5 5 3 5 5 5 5 3 5 5 5 5 5 5 5 3 5 5 5 3 5 5 5 5 5 5 5 5 5 5 5 3 5 5 5 5 5 5 5 5 3 5 5 5 5 5 5 3 5 5 5 5 5 5 3 5 5 5 5 5 5 5 5 5 5 5 3 5 5 5 3 5 5 5 3 5 3 5 5 5 5 5 5 3 5 5 5 5 5 5 5 5 5 5 5 5 5 5 5 3 5 5 5 5 5 3 5 5 5 5 5 5 5 5 3 5 5 5 5 5 5 5 5 5 5 5 5 5 5 5 5 3 5 5 5 5 3 5 5 5 5 5 5 5 5 5 5 5 5 5 5 5 5 5 5 5 5 5 5 5 5 5 5 3 5 5 5 3 5 3 5 5 5 5 3 5 3 5 5 5 5 5 3 5 5 5 5 5 5 5 5 5 3 5 5 5 5 5 5 5 5 5 5 5 5 5 5 5 5 5 5 5 5 5 5 5 5 3 3 5 5 5 5 5 3 5 5 5 3 5 5 5 3 5 5 3 5 3 5 5 5 5 3 5 5 5 5 3 3 5 5 5 5 5 5 5 5 5 5 5 5 3 5 5 5 5 3 5 5 5 5 5 3 5 5 3 5 5 5 5 5 5 5 5 5 5 5 5 5 5 5 5 3 5 5 3 5 5 5 3 5 5 5 5 5 5 5 5 5 5 5 3 5 5 5 5 5 5 5 5 5 5 5 5 5 5 5 5 3 5 5 3 5 3 5 5 3 5 3 5 3 5 5 5 5 5 5 5 5 5 5 5 5 5 3 5 3 3 5 5 3 3 5 5 3 3 5 5 5 3 5 3 5 5 3 5 5 5 5 3 3 5 3 5 5 3 3 5 5 3 5 5 5 3 5 5 5 3 3 3 5 5 3 5 3 3 5 5 5 5 5 5 5 5 5 5 5 3 3 5 3 5 3 5 3 5 5 5 3 5 5 5 5 5 3 5 5 5 5 5 5 5 5 5 5 5 5 5 5 5 5 5 5 5 5 5 5 5 5 3 5 5 5 5 5 5 5 5 5 5 5 5 5 5 5 5 5 5 3 5 5 5 5 5 5 5 5 5 5 5 3 5 5 5 5 5 3 5 5 5 5 5 5 5 5 5 5 5 5 5 5 3 5 5 5 5 5 5 5 5 5 5 5 5 5 5 3 5 3 5 5 5 5 3 5 5 5 5 5 5 5 5 5 5 5 5 3 5 3 5 5 5 5 3 5 5 5 5 5 5 5 3 5 5 5 5 5 5 5 3 5 5 5 3 5 3 5 5 5 5 5 5 5 5 5 3 5 5 5 5 5 5 5 5 5 5 5 5 5 5 5 5 5 5 5 5 5 5 5 5 5 5 5 5 5 5 5 5 5 5 5 5 5 5 5 5 5 5 5 3 5 5 3 5 5 5 5 5 5 5 5 5 5 3 5 5 5 5 5 3 5 5 3 5 5 5 5 5 5 3 5 5 5 5 3 5 5 3 5 3 5 5 5 5 5 5 5 5 5 5 5 3 5 3 5 5 5 5 3 5 5 5 5 5 5 5 5 5 5 5 5 5 5 5 5 5 5 5 5 5 3 5 5 5 5 3 5 5 5 5 5 5 5 3 5 5 5 5 5 3 5 5 5 3 5 5 5 3 5 5 3 5 5 5 3 5 5 3 5 5 5 5 5 5 5 5 5 5 5 5 5 5 5 5 5 5 5 5 5 5 5 5 5 5 5 5 5 5 5 3 5 5 5 5 5 5 5 5 5 5 5 3 5 5 5 5 5 5 5 5 5 5 5 5 5 5 5 3 3 5 5 5 3 5 5 5 5 3 5 5 3 5 5 5 5 5 5 5 5 5 5 5 5 5 3 3 5 5 5 5 5 5 5 5 5 5 5 3 5 5 3 5 5 5 5 5 5 5 5 5 5 5 5 5 5 5 5 5 5 5 3 5 5 5 3 5 5 5 5 5 3 5 5 5 5 5 5 5 5 5 5 5 5 5 5 5 5 5 5 5 5 3 5 5 3 5 5 5 5 5 5 5 5 5 5 5 5 5 5 5 5 5 5 5 3 5 5 5 5 5 5 5 5 5 5 5 5 5 5 5 5 5 5 5 5 5 5 5 5 5 5 5 5 5 5 5 5 3 5 5 5 5 5 5 3 5 5 5 5 5 3 5 5 5 5 3 5 5 5 5 5 5 5 5 5 5 5 5 5 5 5 5 5 5 5 5 5 5 3 5 5 5 5 5 5 5 3 5 5 3 5 5 3 5 5 5 5 5 5 3 5 5 5 5 5 5 5 5 5 5 3 5 3 5 5 5 5 5 5 5 5 3 5 5 3 5 5 5 3 5 5 5 3 5 5 5 3 3 5 5 3 5 5 3 5 5 3 5 5 5 5 5 5 5 5 5 3 5 5 5 3 5 5 5 3 5 5 5 3 5 3 5 5 3 5 5 5 5 5 5 5 5 3 5 5 3 5 5 5 5 5 5 5 5 5 5 5 5 5 3 5 3 5 5 5 3 3 5 3 5 5 5 5 3 5 3 5 5 5 5 5 5 5 5 5 3 5 5 5 5 5 5 5 5 5 5 5 5 5 5 5 5 5 5 5 5 5 5 5 5 5 5 5 5 3 5 5 5 5 5 5 3 5 5 5 5 5 5 3 5 5 5 5 5 5 3 5 5 5 3 5 5 5 3 5 5 3 5 5 5 5 5 5 3 5 5 5 3 3 5 5 5 5 5 5 5 5 5 5 5 5 5 5 5 5 5 3 5 5 5 5 5 5 5 3 5 5 5 5 5 3 5 5 5 5 5 3 5 5 3 5 5 5 5 3 5 5 5 5 5 5 3 5 3 5 3 3 5 3 5 5 5 3 5 5 5 5 5 3 5 5 5 3 5 5 5 5 3 3 3 5 5 5 5 3 3 5 3 5 5 5 5 5 5 3 5 3 5 5 3 5 5 5 3 5 5 3 5 5 5 5 5 5 5 5 5 5 5 5 3 5 5 5 5 3 5 5 5 5 3 5 5 5 5 5 5 5 5 5 3 3 3 5 5 5 3 3 5 5 3 5 3 5 5 5 5 5 5 5 3 5 5 5 5 5 5 5 5 5 5 5 5 5 5 5 5 3 5 5 5 5 5 5 5 5 5 3 5 5 3 5 3 5 3 5 5 3 5 5 5 3 3 5 5 3 5 5 5 3 5 5 5 5 3 5 5 5 5 5 5 5 5 5 5 5 3 3 5 5 5 5 5 5 5 5 5 5 5 5 5 5 5 5 5 5 5 5 5 5 5 5 5 5 5 5 5 5 5 5 3 5 5 5 5 5 5 5 5 5 5 5 5 5 5 5 5 5 5 5 3 5 5 5 5 5 5 3 3 5 5 3 3 5 5 5 3 5 5 5 5 5 5 5 5 5 5 5 5 5 5 5 5 5 5 5 5 5 5 5 3 5 3 5 3 5 5 5 5 5 5 3 5 3 3 5 5 3 5 5 5 5 5 5 3 3 5 5 3 3 5 5 3 3 5 5 5 5 5 5 5 5 3 5 5 5 5 5 3 5 5 3 5 5 5 3 5 5 5 5 5 5 5 5 5 5 5 5 5 5 5 5 5 5 5 5 5 5 5 5 5 5 5 5 5 5 5 5 5 5 3 5 5 3 5 3 3 5 5 5 5 5 5 5 5 5 3 5 5 5 5 5 3 5 5 5 5 5 5 5 3 5 5 5 5 5 5 5 5 3 5 5 5 5 5 3 5 5 5 5 5 5 5 5 5 5 5 5 5 5 5 5 5 5 5 5 5 5 5 5 5 5 5 5 5 5 3 3 5 5 5 5 5 5 5 3 5 5 5 3 5 3 5 5 5 5 5 5 5 5 5 5 5 5 5 5 5 5 5 5 5 5 5 3 5 5 5 5 5 5 3 5 5 5 5 5 5 5 3 5 5 3 5 5 5 5 5 5 3 5 5 5 3 5 5 3 3 5 5 5 5 5 5 5 5 5 5 5 5 5 5 5 5 5 5 5 5 5 5 5 5 5 5 5 5 3 5 5 5 5 5 5 5 5 5 5 5 5 5 5 5 5 5 5 5 3 5 5 5 3 3 5 5 5 5 5 3 5 5 5 3 5 5 5 5 5 3 5 5 5 5 5 5 5 5 5 5 5 5 5 5 5 5 5 5 5 5 5 3 5 5 5 5 5 5 3 5 5 5 5 5 5 5 5 5 5 5 5 3 5 5 5 5 3 5 3 5 5 5 5 5 5 5 5 5 5 5 5 5 3 5 5 5 5 5 3 5 5 5 5 5 5 3 5 5 5 5 5 5 5 5 5 5 5 5 3 5 5 3 5 5 3 5 5 3 5 5 5 5 5 5 5 5 5 5 3 5 5 5 5 5 5 5 5 3 5 5 5 3 5 5 5 3 5 5 3 5 5 5 3 5 5 5 5 5 3 5 3 5 5 5 5 3 3 5 5 5 3 5 5 5 5 3 5 5 5 5 5 5 5 5 5 5 5 5 5 5 5 3 5 5 3 3 5 5 5 5 3 5 5 5 5 5 5 3 5 5 5 5 5 5 3 5 5 5 5 5 5 5 5 3 5 5 5 5 5 5 5 5 5 5 3 5 5 3 5 5 3 5 5 5 5 5 3 3 5 5 3 3 5 3 5 3 5 3 3 5 5 3 5 3 5 3 5 3 5 3 5 5 3 5 3 5 3 5 5 5 5 5 5 3 5 5 5 3 5 5 5 5 5 5 5 5 5 3 5 5 3 5 3 5 3 5 5 5 3 3 5 5 5 5 5 5 5 5 5 5 5 3 5 5 5 5 5 3 5 5 5 5 5 5 5 5 5 5 5 5 5 5 5 5 5 3 5 5 5 5 5 5 3 5 5 5 3 5 5 3 5 5 5 3 5 3 3 5 5 5 5 5 5 5 5 5 3 5 5 5 5 5 5 5 3 5 3 5 3 5 5 5 5 5 5 5 5 5 5 5 5 5 5 5 5 5 5 5 5 5 5 5 5 5 5 5 5 5 5 5 5 5 5 5 5 5 3 5 5 3 3 5 5 5 5 3 5 5 5 5 5 3 5 5 3 3 5 5 5 5 5 5 3 5 3 5 5 3 3 5 3 5 5 5 3 5 5 5 5 3 5 5 5 3 5 5 3 3 5 5 5 3 5 5 5 5 3 5 5 3 5 5 5 3 5 5 3 5 5 5 3 5 3 5 5 3 5 5 3 3 5 5 3 5 3 3 5 5 5 5 3 5 5 5 5 3 5 5 5 5 5 5 5 5 5 5 5 5 3 5 5 5 5 3 5 3 5 5 5 5 5 3 3 3 5 5 5 5 5 5 5 5 3 5 5 5 5 5 5 3 5 5 5 5 3 5 5 5 5 5 5 5 5 5 5 5 5 5 5 5 5 5 5 3 5 3 5 5 3 3 5 3 5 5 3 5 3 5 3 5 3 5 5 5 5 3 5 5 5 3 5 5 5 5 5 5 5 5 5 5 5 5 5 5 5 5 5 5 5 5 5 5 5 5 5 3 5 5 5 5 5 3 5 5 5 5 5 5 5 5 5 5 5 3 5 5 5 5 5 3 5 5 3 3 5 5 5 3 5 5 3 3 5 3 5 5 5 5 5 5 5 5 5 5 5 5 5 5 5 5 3 5 5 5 5 3 5 5 5 5 5 5 5 5 3 3 5 5 3 5 5 5 5 5 5 5 5 5 3 3 5 5 3 5 5 5 3 5 5 5 5 5 5 5 5 5 5 5 5 5 5 5 5 5 5 5 5 5 5 5 5 5 5 3 5 5 5 5 5 5 5 5 5 5 5 5 5 5 5 5 5 5 5 5 3 5 5 5 3 3 5 5 5 3 5 5 3 5 5 5 5 5 3 5 3 5 5 5 5 5 5 5 5 3 5 5 5 3 5 5 3 5 3 5 5 5 3 5 5 5 3 5 5 5 5 5 5 5 5 5 5 5 5 5 5 5 5 5 3 5 5 5 5 5 5 5 5 5 3 5 5 5 5 5 5 5 5 3 5 5 5 5 5 5 5 5 5 5 5 5 5 3 5 5 5 3 5 5 5 5 5 5 5 5 5 5 5 5 5 5 5 5 5 5 5 3 5 5 5 3 5 3 5 5 5 3 5 5 5 3 3 5 5 5 5 5 5 5 5 5 5 5 5 5 5 5 5 5 5 5 5 5 5 3 5 5 5 5 3 5 5 5 5 3 5 5 5 5 5 5 5 3 5 5 5 5 3 5 5 5 5 5 5 3 5 5 5 5 5 5 3 5 5 5 3 5 5 5 5 5 5 5 5 5 3 5 5 5 5 5 5 3 5 5 5 5 5 5 5 5 5 5 5 3 5 5 3 5 5 5 5 5 3 5 5 3 5 5 5 5 5 5 5 3 3 5 5 5 5 3 5 5 5 5 5 5 3 5 5 5 5 5 5 5 5 5 5 3 5 5 5 5 5 5 5 5 5 5 5 5 3 5 3 5 5 5 3 5 5 3 5 5 5 5 3 5 5 5 5 5 3 5 5 5 5 5 5 5 5 3 5 5 5 5 3 5 5 5 5 5 5 5 3 5 5 5 5 5 5 5 5 5 5 3 5 5 5 3 5 3 5 5 5 5 5 5 3 5 3 5 3 5 5 5 5 3 5 5 5 5 5 5 5 5 5 5 5 5 5 5 3 5 3 5 5 5 5 5 5 5 3 5 5 5 5 5 5 5 5 5 5 5 5 5 3 5 5 5 5 3 5 5 5 5 5 5 5 5 5 5 5 5 5 5 5 5 5 5 5 5 5 5 5 5 3 5 5 5 5 3 5 5 5 3 5 5 3 5 5 3 5 5 5 5 5 5 5 5 5 5 5 5 5 5 5 3 5 5 3 5 5 5 5 5 5 5 3 5 5 5 5 5 3 5 5 5 3 5 5 5 3 5 5 5 5 5 5 5 3 5 5 5 3 5 3 3 5 5 5 5 5 3 5 5 5 5 5 5 5 5 5 5 3 5 5 5 5 5 5 5 5 5 5 5 5 5 5 5 5 5 5 5 5 5 5 5 5 5 5 5 5 5 5 5 5 5 5 5 5 5 3 5 5 5 5 5 5 5 5 5 5 5 5 5 5 5 5 3 5 5 5 5 5 5 5 5 5 3 5 5 5 5 5 5 5 3 5 5 5 5 5 5 5 5 5 5 5 5 5 5 5 5 5 5 5 5 5 3 5 5 5 5 5 5 5 5 5 5 5 5 5 5 5 5 5 3 5 5 5 5 5 5 5 5 5 5 5 5 5 5 5 5 5 5 5 5 5 5 5 5 5 5 5 5 5 5 5 5 5 5 5 5 5 5 5 5 5 5 5 5 5 5 3 5 5 5 5 5 5 5 5 5 5 5 5 5 3 5 3 5 5 5 5 5 3 5 5 5 5 5 3 3 5 5 5 5 5 5 5 5 5 5 5 5 5 5 5 5 5 3 3 5 5 5 5 5 5 3 5 3 5 5 5 5 5 5 5 5 5 3 5 5 5 5 5 5 5 5 5 5 5 5 5 5 5 5 5 5 5 3 5 5 5 5 5 3 5 3 5 5 5 5 5 5 5 3 5 5 5 3 5 5 5 3 5 5 3 5 5 5 3 5 5 3 5 3 5 3 5 5 3 5 5 5 5 5 5 5 5 5 5 5 5 5 5 5 5 5 5 5 5 5 3 5 3 5 5 5 5 5 5 5 3 5 5 5 5 5 5 5 5 5 5 5 5 5 5 5 5 5 5 5 3 5 5 5 3 5 5 5 5 5 5 5 5 5 5 3 5 5 5 5 3 5 5 3 5 5 5 5 5 3 5 5 5 5 3 5 3 5 5 3 5 5 5 5 5 5 5 3 5 5 3 5 3 5 5 5 5 5 5 5 5 5 5 5 5 5 5 5 5 5 5 3 5 5 5 5 5 5 5 3 5 5 5 5 3 5 5 5 5 5 5 5 5 5 3 5 5 5 5 3 5 5 5 5 5 5 5 5 5 5 5 5 3 5 5 5 5 5 5 5 5 5 3 5 5 5 5 5 5 5 5 5 5 5 5 3 5 5 3 5 5 5 5 5 5 5 5 5 3 3 3 5 5 5 3 5 5 5 5 5 5 3 5 5 5 3 3 5 5 5 5 5 5 5 5 5 5 5 5 3 5 5 5 3 3 5 5 5 5 5 3 5 5 5 5 3 5 5 5 5 3 5 5 5 5 5 3 3 3 5 5 5 3 3 5 5 5 5 5 5 5 5 5 3 3 5 5 5 3 3 5 5 5 5 5 5 5 5 5 5 5 5 5 5 5 5 5 3 5 3 5 5 5 5 3 5 5 5 5 5 5 5 3 5 5 5 5 5 5 5 3 5 5 3 5 3 3 5 5 5 3 3 5 5 5 3 3 5 5 5 5 5 5 5 5 5 5 3 5 5 5 5 5 5 5 3 5 5 5 5 3 5 5 5 5 5 5 3 5 5 5 5 3 5 3 5 5 5 5 5 5 5 5 5 5 5 5 5 5 3 5 5 5 5 5 5 5 3 5 5 5 5 3 5 5 5 3 5 5 5 5 5 5 5 5 5 5 5 5 5 5 5 5 5 5 5 5 5 5 3 5 3 5 5 3 5 5 5 3 5 5 3 5 5 5 5 5 5 5 5 5 5 5 5 5 5 5 5 5 5 5 5 3 3 3 5 5 5 5 5 5 5 5 5 5 5 5 5 3 5 5 5 3 5 5 3 5 5 5 5 3 5 5 3 3 5 5 5 5 3 5 5 3 5 3 5 5 5 5 5 5 5 5 5 5 5 5 3 5 5 5 5 5 5 5 3 5 3 5 5 5 5 3 5 5 5 5 5 5 5 5 5 5 5 5 5 5 5 5 5 5 5 5 5 5 5 3 5 5 5 3 5 3 5 5 5 3 5 5 5 5 5 3 5 5 3 5 5 5 5 5 5 5 5 3 5 5 5 5 5 3 5 5 5 5 5 5 5 5 5 5 5 5 5 5 3 5 5 5 5 3 5 5 5 5 5 5 5 5 5 5 5 5 3 5 5 5 5 3 5 5 5 5 5 5 5 5 5 5 5 5 5 3 5 5 3 5 5 5 3 5 5 5 5 5 5 5 5 5 5 5 5 5 3 3 5 3 3 5 5 5 3 3 5 3 5 3 5 3 5 5 5 3 5 3 5 5 5 5 3 5 5 5 5 5 5 3 5 5 5 5 5 3 5 5 3 5 5 3 5 5 3 5 5 5 5 5 3 5 3 5 5 5 5 5 5 5 5 5 5 5 5 5 3 5 5 3 5 5 5 5 5 5 5 5 5 3 5 5 5 5 5 5 5 5 5 3 5 5 3 5 3 5 5 5 5 5 5 5 3 5 5 5 5 5 5 5 3 5 3 5 5 3 5 5 5 3 5 5 5 5 3 5 5 5 5 5 3 5 5 5 5 5 5 5 5 5 5 5 5 5 5 5 5 5 5 5 5 5 3 5 5 3 5 5 5 3 5 5 5 5 3 5 5 5 5 5 5 5 5 5 5 5 5 5 5 5 5 5 5 5 5 5 5 5 3 5 5 5 5 5 5 3 5 5 5 5 5 5 5 5 5 5 5 5 5 3 5 3 5 5 3 5 5 5 5 3 3 5 3 5 3 5 5 5 5 5 3 5 5 3 3 5 5 5 5 5 3 5 5 3 5 5 5 5 5 5 5 5 3 3 5 5 5 3 5 3 5 5 5 5 5 3 5 3 5 5 5 5 5 3 3 5 5 5 5 3 5 5 5 5 3 5 5 5 5 5 5 5 5 5 5 5 5 5 5 5 5 5 3 5 5 3 5 5 5 3 5 5 5 5 5 5 5 5 5 5 5 5 5 5 5 5 5 5 5 3 5 5 5 5 5 5 5 5 5 5 5 5 5 5 3 3 5 5 5 3 5 5 5 5 5 3 5 5 5 5 5 5 5 5 5 5 5 3 5 5 3 5 5 5 5 5 5 5 5 5 5 3 5 5 5 3 5 3 5 3 5 5 5 3 3 5 3 5 5 3 5 5 3 3 5 5 5 3 5 5 3 5 3 5 5 5 3 5 5 3 3 5 3 5 5 3 5 3 5 5 5 5 5 5 5 5 5 3 5 5 5 5 5 3 5 5 5 5 5 5 5 5 5 5 3 5 5 5 5 3 3 5 5 3 5 3 5 5 5 5 5 3 5 5 3 5 3 5 5 5 5 5 5 5 3 5 5 5 5 5 5 5 5 5 3 5 3 5 3 5 3 5 5 5 5 3 5 5 5 5 5 3 3 5 5 5 5 5 5 3 5 5 5 5 5 3 5 5 5 5 3 5 5 3 5 3 5 5 5 3 5 3 5 5 3 3 3 5 5 5 5 5 5 3 3 3 5 5 5 5 3 5 3 5 3 5 5 5 5 5 5 3 5 5 5 5 5 5 5 5 5 5 5 5 5 5 5 5 5 5 5 5 5 5 5 5 5 5 5 5 5 5 5 5 5 5 5 5 5 5 5 5 5 5 5 5 5 5 5 5 5 3 5 5 5 3 3 5 5 5 5 5 5 5 5 5 5 5 5 5 5 5 5 5 5 5 3 5 5 5 5 5 5 5 3 5 5 3 5 5 3 5 5 3 5 3 5 5 3 5 5 5 3 5 3 5 3 3 5 5 5 3 3 5 5 3 5 5 3 5 5 5 5 5 5 5 5 5 5 5 5 3 5 5 5 5 3 5 5 5 5 3 5 5 5 5 5 5 5 5 5 3 5 3 5 5 5 5 3 5 5 5 3 5 5 5 5 5 5 3 5 5 3 5 5 5 3 5 5 5 5 5 5 5 3 5 5 5 5 5 3 5 5 5 5 5 5 5 5 5 5 5 5 5 5 5 3 5 5 5 5 5 3 5 5 3 5 3 5 5 5 5 3 3 5 5 3 5 5 5 5 5 5 5 5 5 5 5 3 5 3 5 5 5 5 5 3 5 5 5 3 5 5 5 3 5 5 5 5 5 5 5 5 5 5 5 5 5 3 5 5 5 5 5 5 5 3 5 3 5 5 5 5 5 5 5 3 3 5 5 5 5 5 5 5 5 5 3 5 5 5 5 5 5 3 3 3 5 3 5 5 5 5 5 5 3 5 3 5 3 5 3 5 5 5 5 5 5 3 5 5 3 5 5 5 5 3 5 5 5 5 5 5 5 5 5 5 5 5 5 5 5 5 5 5 5 5 5 3 5 3 5 5 5 5 5 5 5 5 5 5 5 5 5 5 5 5 5 5 5 5 5 5 5 5 5 5 5 5 5 5 5 5 5 5 5 5 5 5 5 5 5 5 5 5 5 5 5 5 5 5 5 5 5 5 5 5 5 5 3 5 5 5 5 5 5 5 5 5 5 5 5 5 5 5 5 5 5 5 5 5 5 5 3 5 5 5 3 5 3 5 5 5 5 5 5 5 5 5 5 5 5 5 5 5 5 5 5 5 5 5 5 5 5 5 5 5 5 5 5 5 5 5 5 5 5 5 5 5 3 5 3 5 5 5 5 5 5 5 5 5 5 5 5 5 5 5 5 5 5 5 5 5 5 5 5 5 3 5 5 5 5 5 5 5 5 5 5 5 5 5 5 5 5 5 5 5 5 5 5 5 5 5 5 5 5 5 5 5 5 5 5 5 5 5 5 5 5 5 5 5 5 5 5 5 5 5 5 5 5 5 5 5 5 5 5 5 5 5 5 5 5 5 5 5 5 5 3 5 5 5 5 5 5 5 3 5 5 3 5 5 5 5 5 5 5 5 5 5 5 5 5 5 5 5 5 5 5 5 3 5 5 5 5 5 5 5 5 5 5 5 5 5 5 5 5 5 5 5 5 5 5 5 5 5 5 5 5 5 5 5 5 3 5 5 5 5 3 5 3 5 5 5 5 5 5 3 5 5 3 5 5 3 3 5 3 5 5 5 3 5 5 5 5 5 5 5 5 5 5 5 5 5 5 5 3 5 5 5 5 5 5 5 5 3 5 5 5 5 5 5 5 5 5 5 5 5 5 5 5 5 5 5 5 5 5 5 5 5 5 5 5 5 5 5 5 5 5 5 5 5 3 5 5 5 5 5 5 5 3 5 5 3 5 3 5 5 5 5 5 5 5 5 5 5 5 3 3 5 5 3 5 5 3 3 5 5 5 5 3 5 3 5 5 3 5 3 3 5 3 5 3 5 5 5 5 5 5 5 3 5 3 5 5 5 5 5 3 5 5 5 3 5 5 3 5 3 5 3 3 5 5 3 5 5 5 5 5 5 3 5 5 5 5 5 5 5 5 3 3 5 5 5 3 5 5 5 5 3 3 5 3 5 5 5 3 5 5 5 5 5 5 5 5 5 5 5 5 5 5 5 5 3 5 5 5 5 5 5 3 5 3 5 5 5 3 3 5 5 3 5 3 5 5 5 5 5 5 5 5 5 5 5 5 3 3 5 5 5 5 5 3 5 5 5 5 5 5 5 3 5 5 5 3 5 3 5 5 3 5 5 5 5 5 5 5 5 5 3 5 5 3 5 5 5 5 5 5 5 5 5 5 5 3 5 5 5 5 5 5 5 5 5 5 5 5 5 5 5 5 5 5 5 5 5 5 3 5 5 5 5 5 5 5 5 5 5 5 3 5 5 5 5 3 5 5 5 5 5 5 5 5 5 5 5 3 5 5 5 5 5 3 5 3 5 5 5 5 5 5 5 5 5 3 5 5 3 5 5 3 5 5 5 5 3 5 5 5 5 5 5 5 5 5 5 5 5 5 5 5 5 5 5 5 5 5 3 5 5 3 5 3 5 5 5 5 5 5 5 5 5 3 5 5 3 3 3 5 5 5 3 5 5 5 5 5 5 3 3 5 3 5 5 3 5 5 3 5 5 5 5 3 5 5 5 5 3 5 5 5 5 5 5 5 5 5 5 5 3 5 5 3 5 3 3 5 5 3 3 3 5 5 5 5 5 5 5 5 5 5 3 5 5 5 5 5 5 5 5 5 3 5 5 5 5 5 3 5 5 5 5 5 5 5 5 5 5 3 5 5 5 5 5 5 5 5 5 5 5 5 5 5 5 5 5 5 5 5 5 5 5 5 3 3 5 5 5 5 5 5 5 5 3 5 5 5 5 5 5 5 5 5 5 5 5 5 5 5 5 3 5 5 5 5 3 5 5 5 3 3 5 5 5 5 5 5 3 5 3 5 5 5 3 5 5 5 5 5 5 5 5 3 5 3 3 5 5 5 5 5 5 5 5 5 5 5 5 3 5 5 3 5 3 5 5 5 5 5 5 5 5 5 5 5 5 5 5 5 5 5 5 5 5 5 5 5 3 5 5 5 5 5 3 5 5 5 5 5 5 5 5 5 5 3 5 5 5 3 5 5 5 5 5 5 5 5 5 5 5 3 3 5 5 5 5 5 3 5 5 5 3 5 5 5 5 5 5 5 5 5 5 3 5 5 5 5 5 5 5 3 3 5 3 5 5 5 5 3 5 5 5 5 5 3 5 5 5 5 5 5 5 5 5 5 3 5 5 5 5 5 5 5 5 5 5 3 5 5 5 5 5 5 5 3 5 5 5 5 5 5 5 5 5 5 5 5 5 5 5 5 5 5 5 5 3 5 5 5 3 5 5 5 5 5 5 5 5 5 5 5 5 5 3 5 3 3 5 3 3 5 5 5 5 5 3 5 5 5 5 5 5 5 3 5 5 3 5 5 3 5 5 3 5 5 3 3 3 3 5 5 3 3 5 5 3 5 5 3 5 5 5 5 3 3 3 3 5 5 5 3 5 3 5 3 5 3 3 5 5 5 5 5 5 5 3 5 5 3 5 3 5 5 3 3 5 5 5 5 5 5 5 5 5 5 5 5 5 5 5 5 5 3 5 5 5 5 5 5 5 5 5 5 5 5 5 5 5 5 5 3 5 5 5 5 5 5 5 5 5 5 5 5 5 5 3 3 5 5 5 5 3 5 3 5 5 5 3 3 5 3 5 5 5 5 5 5 5 5 5 5 5 5 5 5 5 5 5 5 5 3 5 3 5 5 5 5 3 5 5 5 5 5 5 5 5 5 5 5 5 5 5 5 5 5 5 5 5 3 5 5 5 5 5 5 5 5 5 5 5 5 5 5 3 5 5 5 5 5 5 5 5 5 5 5 5 5 5 5 5 5 5 5 5 5 5 5 5 5 5 5 5 5 5 5 5 5 5 5 5 5 5 5 5 5 5 5 5 5 5 5 5 5 5 5 5 5 5 5 5 5 5 5 5 5 5 3 5 5 5 3 5 5 3 5 5 5 5 5 5 5 5 5 5 5 3 5 5 5 5 3 5 5 5 5 5 5 5 5 5 5 5 5 5 5 5 5 5 5 5 5 5 5 5 5 5 5 5 5 5 3 5 5 5 5 3 5 5 5 5 5 5 5 5 5 5 3 5 5 3 5 5 5 5 5 5 5 5 5 5 5 5 3 5 5 5 5 5 5 5 5 3 5 5 5 5 5 5 5 5 5 5 3 5 3 5 5 5 3 5 5 5 3 5 3 5 3 3 5 5 5 5 5 3 5 5 5 5 5 5 5 5 5 5 5 5 5 5 5 5 5 5 5 5 5 5 5 3 5 5 3 5 5 5 3 5 3 5 5 5 5 5 5 5 5 5 5 5 5 3 5 5 5 5 5 5 5 5 5 5 5 5 5 5 5 5 5 5 5 3 5 5 5 5 5 5 5 5 5 5 5 5 5 5 5 5 5 5 5 5 5 5 5 5 5 5 5 3 5 5 5 5 5 5 5 5 5 5 5 5 5 5 5 5 5 5 3 5 5 5 3 5 5 5 3 3 5 5 5 5 5 3 5 5 5 5 5 5 5 3 3 5 5 5 3 5 3 5 5 5 5 5 5 3 3 5 5 3 3 5 5 5 5 5 5 5 5 5 5 3 5 5 5 5 5 5 3 5 5 5 5 5 5 5 5 5 5 5 5 5 5 5 5 5 3 5 5 5 5 3 5 5 3 5 5 5 5 5 5 5 5 5 5 5 3 5 3 5 3 5 5 5 5 5 5 5 5 5 5 5 5 5 5 5 5 5 5 5 3 5 5 3 5 5 5 3 5 5 3 5 5 5 5 3 5 5 5 5 5 5 5 3 5 5 5 5 5 5 5 5 5 5 5 5 5 5 5 5 5 5 5 5 5 5 5 5 5 5 5 5 5 3 5 5 5 5 5 5 5 5 5 5 5 5 5 5 5 5 5 5 5 5 5 5 5 5 5 5 5 5 5 5 5 5 5 5 5 5 5 3 3 3 5 5 3 5 5 5 3 5 3 5 5 5 5 5 3 5 5 5 5 5 5 5 3 5 5 5 5 5 5 5 5 5 5 5 5 5 5 3 5 5 5 3 5 3 5 5 5 5 5 5 5 5 3 5 5 5 5 5 5 5 3 5 3 5 3 5 5 5 5 5 5 5 5 3 5 5 3 3 3 5 3 5 3 5 5 5 5 5 5 5 5 5 5 5 5 5 5 5 5 5 5 5 5 5 3 5 5 3 3 5 5 5 3 5 5 5 5 5 5 5 3 5 3 5 5 5 5 3 5 5 3 5 5 5 5 5 5 5 3 5 5 3 5 5 5 3 5 5 5 5 5 5 5 5 5 3 5 5 5 5 5 5 3 5 5 3 5 5 5 5 3 5 5 5 5 5 5 3 3 3 5 5 5 3 5 3 5 3 5 5 5 5 5 5 3 5 5 5 3 5 5 5 3 5 5 5 5 5 5 5 5 5 5 5 5 3 5 5 5 3 5 5 5 5 5 3 3 5 5 3 5 3 3 3 5 5 5 3 5 5 5 5 5 3 5 5 5 5 5 5 5 5 5 5 5 5 3 5 5 5 5 5 5 3 5 5 3 5 5 3 5 5 5 5 5 3 5 5 3 5 3 5 3 5 5 5 5 5 5 3 5 5 5 5 3 5 5 5 5 5 5 5 5 5 5 3 5 5 5 5 5 3 5 5 5 5 5 5 5 5 5 5 5 5 5 5 5 3 5 5 5 5 5 3 5 3 5 5 5 5 5 3 5 5 5 5 5 3 5 5 5 5 5 3 5 5 5 5 5 5 5 5 5 5 3 5 3 5 3 5 5 3 5 5 5 5 5 5 5 5 3 5 3 5 5 5 5 5 5 5 5 5 5 3 5 5 5 5 5 5 5 5 5 5 3 5 5 5 3 5 3 3 5 5 5 3 5 5 5 3 3 5 5 5 5 5 5 5 5 5 5 3 3 5 5 5 5 5 3 5 5 5 5 5 5 5 5 5 5 3 5 3 3 3 5 5 5 5 5 5 5 5 3 5 5 5 5 5 5 5 5 5 5 5 5 5 5 5 5 5 5 5 5 5 5 5 5 5 5 5 5 5 3 5 5 5 5 3 5 5 5 5 5 5 5 5 3 5 5 5 5 5 5 5 5 3 5 5 5 5 5 5 5 5 5 5 5 5 5 5 5 5 5 5 5 5 5 5 5 5 5 5 3 5 5 5 5 5 5 3 5 3 5 5 3 5 5 5 3 5 3 5 5 5 3 5 5 5 3 5 5 5 5 5 5 3 5 5 5 5 5 5 5 5 5 5 5 5 5 5 5 5 5 5 5 5 5 5 5 5 5 5 5 3 5 3 5 5 5 5 3 5 5 5 5 5 5 5 5 5 5 5 5 5 3 5 5 3 5 5 3 5 5 5 5 5 3 5 5 5 5 5 5 5 5 3 5 3 5 5 5 5 5 3 3 5 5 3 5 5 5 3 5 5 5 5 5 5 5 3 5 5 5 5 5 5 5 5 5 5 5 5 5 5 5 5 3 5 5 5 5 5 3 5 3 5 5 5 5 5 5 5 5 5 5 5 5 3 5 3 5 5 5 5 5 5 3 3 5 5 5 5 5 5 5 5 5 5 5 5 5 5 5 5 5 5 5 5 5 3 5 5 3 5 5 5 5 5 3 5 5 5 5 5 5 3 5 5 5 5 5 5 5 5 5 5 5 5 5 5 5 5 3 5 5 3 5 5 5 5 3 5 5 5 5 5 5 5 5 5 5 5 3 5 5 5 5 5 5 5 5 5 5 5 5 5 5 5 5 5 5 5 3 5 5 5 5 5 5 5 5 5 5 5 5 3 5 5 5 5 5 5 5 5 5 5 5 5 5 3 3 5 5 5 5 5 5 3 5 5 5 5 5 5 5 5 5 5 5 5 5 5 5 5 5 5 5 5 5 5 5 5 5 5 5 5 5 5 5 5 5 5 5 3 5 5 5 5 5 5 5 5 3 5 5 5 5 5 5 5 5 5 5 5 5 3 5 5 5 5 3 5 3 5 5 5 5 5 5 5 5 3 5 5 5 5 5 5 5 5 5 5 3 5 5 5 3 5 5 3 5 5 5 5 3 5 5 3 5 5 5 5 5 5 5 5 3 5 5 5 3 5 5 5 5 5 5 5 3 5 3 5 3 5 3 3 5 5 5 3 3 3 5 5 3 5 5 5 3 5 5 5 5 3 5 5 5 5 5 5 5 5 5 5 5 5 5 5 5 5 5 5 5 5 5 5 5 5 5 5 5 5 5 5 5 5 5 5 5 5 5 5 3 5 5 5 5 5 5 5 5 3 5 5 5 5 3 5 5 3 5 5 3 5 5 5 5 3 5 5 5 5 5 3 5 5 5 5 5 5 5 5 5 5 5 5 5 3 3 5 5 5 3 5 5 5 5 5 5 5 5 5 5 5 5 5 5 3 5 5 5 5 5 5 3 5 5 3 5 5 5 5 5 5 5 5 5 5 3 5 5 5 5 5 3 5 5 5 5 5 5 5 5 5 5 3 5 5 5 5 5 5 5 5 5 5 5 5 5 5 5 3 5 5 5 5 5 5 5 5 5 5 5 5 5 5 5 5 5 5 5 5 5 5 5 3 5 3 5 5 5 3 5 5 5 5 5 5 5 5 5 3 5 5 5 3 5 5 5 5 5 5 5 5 5 5 5 5 5 5 5 5 3 5 5 5 5 5 3 5 5 5 3 5 3 5 5 5 5 5 5 3 5 5 5 5 5 5 5 5 5 5 5 5 5 5 5 5 5 5 5 5 5 5 5 5 5 5 5 3 5 5 3 5 5 5 5 5 5 5 3 5 5 5 5 3 5 5 3 5 5 5 5 5 5 3 5 5 5 3 5 5 5 3 5 5 5 5 5 3 5 5 5 5 5 3 5 5 5 5 5 5 5 5 3 5 5 3 5 5 5 5 3 5 5 5 5 3 5 5 5 5 3 5 5 5 3 5 3 5 5 5 5 5 5 5 5 5 5 3 5 5 5 5 5 5 5 3 3 5 5 5 5 5 3 5 5 5 5 5 3 5 5 5 3 5 5 3 5 5 3 5 5 5 3 5 5 5 5 5 5 3 5 5 5 5 5 3 5 5 5 5 5 3 5 5 5 5 5 5 3 5 5 5 5 3 5 5 5 5 5 3 5 5 5 5 5 5 5 5 5 5 3 5 5 5 5 5 5 5 3 5 5 5 5 3 3 5 5 3 5 5 5 5 5 5 5 3 5 5 5 5 5 5 5 3 5 3 5 5 3 5 5 5 5 3 5 3 5 5 5 5 5 5 5 5 5 5 3 5 5 5 5 5 3 5 5 5 3 5 5 5 5 3 5 5 3 5 5 5 5 5 3 5 3 5 3 3 5 5 5 5 3 3 5 5 5 5 5 5 5 5 5 5 5 5 5 3 5 5 5 5 5 5 3 3 5 5 5 5 5 5 5 5 5 5 5 5 5 3 5 5 5 5 5 5 5 5 5 5 5 5 5 5 5 5 5 5 5 5 5 5 5 5 5 5 5 5 5 5 5 5 5 3 5 5 3 5 5 5 5 5 5 5 3 5 5 5 3 5 5 3 5 5 5 3 3 5 5 5 5 3 3 5 5 5 5 5 5 5 5 5 5 5 5 5 5 3 5 5 3 5 5 5 3 5 5 5 5 3 5 5 3 5 5 5 5 5 5 5 5 5 5 5 3 5 5 5 5 5 5 5 3 5 5 5 5 5 5 5 5 5 5 5 5 5 5 5 5 5 5 3 5 5 5 5 5 5 3 5 3 5 5 5 5 5 3 5 5 3 5 5 5 3 5 5 5 3 5 5 5 5 5 5 5 5 5 5 5 5 5 5 3 5 5 5 5 3 3 5 5 5 5 5 5 5 5 5 5 5 5 5 5 5 5 5 5 5 3 5 5 5 5 5 5 5 5 3 5 3 5 5 5 5 5 5 5 3 5 3 5 5 5 5 5 3 5 5 5 5 5 5 3 5 5 5 5 5 3 3 5 5 5 3 3 3 5 5 5 5 5 3 5 5 5 5 5 3 5 5 5 5 3 5 3 3 5 3 3 5 5 5 3 5 5 5 3 5 5 5 3 5 5 5 3 5 5 5 5 5 5 5 5 3 5 5 5 3 5 5 5 5 5 5 3 5 5 5 5 5 5 3 5 5 5 5 5 5 5 5 5 5 5 5 5 5 3 5 3 5 5 5 3 5 5 3 5 3 5 3 5 5 3 5 5 5 5 5 5 3 5 5 5 5 3 5 5 5 5 5 5 3 5 5 5 5 5 5 5 5 5 5 3 5 5 5 5 5 5 5 5 5 5 5 5 5 5 5 5 5 5 5 3 3 5 5 5 3 5 5 3 5 5 3 5 5 3 5 5 3 3 5 5 5 5 3 5 5 5 5 5 5 5 5 5 5 5 3 3 5 5 5 3 5 3 5 3 5 5 5 5 5 3 5 5 3 5 3 5 5 3 3 3 5 5 5 5 3 5 5 3 5 3 5 5 3 5 5 5 5 5 5 5 5 3 5 3 3 5 5 5 5 5 3 3 5 5 5 3 3 5 5 5 5 5 5 5 5 3 5 3 5 5 5 5 5 5 5 5 5 5 5 5 5 5 5 5 5 5 5 5 5 5 5 5 5 5 5 5 5 3 5 5 5 5 5 5 5 5 5 5 5 5 5 5 5 3 5 5 3 5 5 5 5 5 3 5 5 5 5 5 5 5 5 5 5 5 5 5 3 5 5 5 5 5 5 5 5 5 3 5 5 3 5 5 5 5 3 3 3 5 5 5 5 5 3 5 5 5 
</DataArray>
</Cells>
<PointData Scalars="" Vectors="displacement," Tensors="">
<DataArray type="Float64" Name="displacement" NumberOfComponents="3" format="ascii">
-0.024341104678393018 -0.024999585674321811 0 -0.024998684182846481 -0.024999899800422543 0 -0.025197437399993774 -0.02417454772244618 0 -0.024998684182846481 -0.024999899800422543 0 -0.025197437399993774 -0.02417454772244618 0 -0.02500037487949831 -0.023129896591074599 0 -0.024339877082625774 -0.024998279738179221 0 -0.024655460468195729 -0.024046477459805937 0 -0.024336840930820839 -0.024998939717180292 0 -0.023829251509928383 -0.024196076556772965 0 -0.0239522189914546 -0.023865836192446258 0 -0.024336840930820839 -0.024998939717180292 0 -0.023829251509928383 -0.024196076556772965 0 -0.023299994539309116 -0.024999148166677296 0 -0.023829251509928383 -0.024196076556772965 0 -0.024123463107794885 -0.023411988004873662 0 -0.023742312598134144 -0.023387924208134556 0 -0.023829251509928383 -0.024196076556772965 0 -0.0239522189914546 -0.023865836192446258 0 -0.024123463107794885 -0.023411988004873662 0 -0.024655460468195729 -0.024046477459805937 0 -0.024998896452125302 -0.023130941574682002 0 -0.0239522189914546 -0.023865836192446258 0 -0.024996597878170226 -0.023128669921119588 0 -0.024123463107794885 -0.023411988004873662 0 -0.024996597878170226 -0.023128669921119588 0 -0.024123463107794885 -0.023411988004873662 0 -0.024382783481595442 -0.022803426089796672 0 -0.024123463107794885 -0.023411988004873662 0 -0.024382783481595442 -0.022803426089796672 0 -0.023742312598134144 -0.023387924208134556 0 -0.023973249059587681 -0.02276944866427974 0 -0.024382783481595442 -0.022803426089796672 0 -0.023742312598134144 -0.023387924208134556 0 -0.023973249059587681 -0.02276944866427974 0 -0.024382783481595442 -0.022803426089796672 0 -0.024401434532142843 -0.022174996911053745 0 -0.024382783481595442 -0.022803426089796672 0 -0.024999519083645116 -0.021638906807726947 0 -0.024401434532142843 -0.022174996911053745 0 -0.024996597878170226 -0.023128669921119588 0 -0.024382783481595442 -0.022803426089796672 0 -0.024999519083645116 -0.021638906807726947 0 -0.023534827037398596 -0.023025285385724292 0 -0.022677241463497547 -0.02338131361978759 0 -0.02317780267505308 -0.022885796044895691 0 -0.023973249059587681 -0.02276944866427974 0 -0.023534827037398596 -0.023025285385724292 0 -0.023742312598134144 -0.023387924208134556 0 -0.023973249059587681 -0.02276944866427974 0 -0.023534827037398596 -0.023025285385724292 0 -0.023689701522596085 -0.022510962221015913 0 -0.023534827037398596 -0.023025285385724292 0 -0.023742312598134144 -0.023387924208134556 0 -0.023603369254586882 -0.023636810930307117 0 -0.023534827037398596 -0.023025285385724292 0 -0.023603369254586882 -0.023636810930307117 0 -0.022677241463497547 -0.02338131361978759 0 -0.022451186663428716 -0.024386859454777504 0 -0.022511121141493434 -0.024166591775741524 0 -0.023742312598134144 -0.023387924208134556 0 -0.023603369254586882 -0.023636810930307117 0 -0.023325105013738082 -0.024335770002815151 0 -0.023829251509928383 -0.024196076556772965 0 -0.023742312598134144 -0.023387924208134556 0 -0.023325105013738082 -0.024335770002815151 0 -0.023829251509928383 -0.024196076556772965 0 -0.023325105013738082 -0.024335770002815151 0 -0.023299994539309116 -0.024999148166677296 0 -0.023325105013738082 -0.024335770002815151 0 -0.023299994539309116 -0.024999148166677296 0 -0.022263905447969294 -0.024999172294900587 0 -0.022451186663428716 -0.024386859454777504 0 -0.022261022589149533 -0.024999048562663981 0 -0.021565160236516466 -0.02513318429931467 0 -0.022259227989594756 -0.024999830525242104 0 -0.021500031140428179 -0.025173095886306226 0 -0.023603369254586882 -0.023636810930307117 0 -0.023325105013738082 -0.024335770002815151 0 -0.022263905447969294 -0.024999172294900587 0 -0.022259227989594756 -0.024999830525242104 0 -0.021500031140428179 -0.025173095886306226 0 -0.020796973959127388 -0.024999508448873681 0 -0.021500031140428179 -0.025173095886306226 0 -0.020796973959127388 -0.024999508448873681 0 -0.0214024926243334 -0.02517334177602076 0 -0.020796973959127388 -0.024999508448873681 0 -0.0214024926243334 -0.02517334177602076 0 -0.020473868378904397 -0.025171018209859692 0 -0.021565160236516466 -0.02513318429931467 0 -0.021500031140428179 -0.025173095886306226 0 -0.0214024926243334 -0.02517334177602076 0 -0.019332171471312203 -0.024999620340446071 0 -0.020262865922772762 -0.025471550558833548 0 -0.018788738722438424 -0.025205784655761555 0 -0.020209433341240358 -0.025032935148076769 0 -0.019796116751055245 -0.024904378647695055 0 -0.019332171471312203 -0.024999620340446071 0 -0.020473868378904397 -0.025171018209859692 0 -0.020262865922772762 -0.025471550558833548 0 -0.020796973959127388 -0.024999508448873681 0 -0.019332171471312203 -0.024999620340446071 0 -0.020473868378904397 -0.025171018209859692 0 -0.0214024926243334 -0.02517334177602076 0 -0.020473868378904397 -0.025171018209859692 0 -0.020262865922772762 -0.025471550558833548 0 -0.0214024926243334 -0.02517334177602076 0 -0.020262865922772762 -0.025471550558833548 0 -0.021734138024939637 -0.024895373786572902 0 -0.019734516300768837 -0.026041225883057278 0 -0.018927039464414323 -0.025805405385970474 0 -0.01926529433384333 -0.026265387389751638 0 -0.019734516300768837 -0.026041225883057278 0 -0.018788738722438424 -0.025205784655761555 0 -0.018927039464414323 -0.025805405385970474 0 -0.019743365117393476 -0.026560741931595199 0 -0.01926529433384333 -0.026265387389751638 0 -0.019418857570853893 -0.026554521133093218 0 -0.019734516300768837 -0.026041225883057278 0 -0.019743365117393476 -0.026560741931595199 0 -0.01926529433384333 -0.026265387389751638 0 -0.020209433341240358 -0.025032935148076769 0 -0.020920985118106555 -0.024959030890574021 0 -0.019734516300768837 -0.026041225883057278 0 -0.019743365117393476 -0.026560741931595199 0 -0.019928789695024929 -0.026554738473659516 0 -0.019877032522745173 -0.026630487870655094 0 -0.01977091951881018 -0.026668861477785976 0 -0.019863360687490977 -0.026512300125869758 0 -0.019743365117393476 -0.026560741931595199 0 -0.019877032522745173 -0.026630487870655094 0 -0.019978818410172128 -0.026616395845954606 0 -0.019743365117393476 -0.026560741931595199 0 -0.019877032522745173 -0.026630487870655094 0 -0.019928789695024929 -0.026554738473659516 0 -0.019743365117393476 -0.026560741931595199 0 -0.020005494142641075 -0.026686057186407819 0 -0.019978818410172128 -0.026616395845954606 0 -0.019743365117393476 -0.026560741931595199 0 -0.020005494142641075 -0.026686057186407819 0 -0.019418857570853893 -0.026554521133093218 0 -0.021565160236516466 -0.02513318429931467 0 -0.022140738441216317 -0.024459327638964672 0 -0.022677241463497547 -0.02338131361978759 0 -0.021565160236516466 -0.02513318429931467 0 -0.0214024926243334 -0.02517334177602076 0 -0.022140738441216317 -0.024459327638964672 0 -0.022140738441216317 -0.024459327638964672 0 -0.021734138024939637 -0.024895373786572902 0 -0.022339043357096005 -0.024162202077911712 0 -0.0214024926243334 -0.02517334177602076 0 -0.022140738441216317 -0.024459327638964672 0 -0.021734138024939637 -0.024895373786572902 0 -0.019877032522745173 -0.026630487870655094 0 -0.019928789695024929 -0.026554738473659516 0 -0.01977091951881018 -0.026668861477785976 0 -0.020920985118106555 -0.024959030890574021 0 -0.021392250623568494 -0.024832315584283823 0 -0.021392250623568494 -0.024832315584283823 0 -0.02139961976417969 -0.024688290881961797 0 -0.022140738441216317 -0.024459327638964672 0 -0.022724401403846239 -0.023384912783868301 0 -0.022677241463497547 -0.02338131361978759 0 -0.022140738441216317 -0.024459327638964672 0 -0.022339043357096005 -0.024162202077911712 0 -0.022724401403846239 -0.023384912783868301 0 -0.022724401403846239 -0.023384912783868301 0 -0.022677241463497547 -0.02338131361978759 0 -0.022809986808986969 -0.023028704477169044 0 -0.022809986808986969 -0.023028704477169044 0 -0.022813475009769078 -0.022922520178650509 0 -0.022929889241624382 -0.022691457962356096 0 -0.022724401403846239 -0.023384912783868301 0 -0.022809986808986969 -0.023028704477169044 0 -0.022813475009769078 -0.022922520178650509 0 -0.01977091951881018 -0.026668861477785976 0 -0.019448617011073779 -0.026195584641098311 0 -0.019863360687490977 -0.026512300125869758 0 -0.023030079130124712 -0.023655976757630426 0 -0.022724401403846239 -0.023384912783868301 0 -0.022813475009769078 -0.022922520178650509 0 -0.023030079130124712 -0.023655976757630426 0 -0.022813475009769078 -0.022922520178650509 0 -0.022961690007225012 -0.022642524427926233 0 -0.021392250623568494 -0.024832315584283823 0 -0.02122041752205394 -0.024357169736773349 0 -0.022813475009769078 -0.022922520178650509 0 -0.022961690007225012 -0.022642524427926233 0 -0.022801253061295112 -0.022638413246796232 0 -0.022961690007225012 -0.022642524427926233 0 -0.022801253061295112 -0.022638413246796232 0 -0.022669893706894928 -0.02245063203959894 0 -0.022801253061295112 -0.022638413246796232 0 -0.022669893706894928 -0.02245063203959894 0 -0.022929889241624382 -0.022691457962356096 0 -0.022813475009769078 -0.022922520178650509 0 -0.022801253061295112 -0.022638413246796232 0 -0.022929889241624382 -0.022691457962356096 0 -0.020005494142641075 -0.026686057186407819 0 -0.020193292238497567 -0.02648771849285949 0 -0.020563772423476356 -0.026421573666807092 0 -0.020005494142641075 -0.026686057186407819 0 -0.020193292238497567 -0.02648771849285949 0 -0.019978818410172128 -0.026616395845954606 0 -0.020193292238497567 -0.02648771849285949 0 -0.019978818410172128 -0.026616395845954606 0 -0.019863360687490977 -0.026512300125869758 0 -0.019877032522745173 -0.026630487870655094 0 -0.019978818410172128 -0.026616395845954606 0 -0.019863360687490977 -0.026512300125869758 0 -0.019448617011073779 -0.026195584641098311 0 -0.020339926593505277 -0.025914728203066568 0 -0.020272469046679068 -0.024891521197227116 0 -0.020193292238497567 -0.02648771849285949 0 -0.019863360687490977 -0.026512300125869758 0 -0.020339926593505277 -0.025914728203066568 0 -0.019448617011073779 -0.026195584641098311 0 -0.019863360687490977 -0.026512300125869758 0 -0.020339926593505277 -0.025914728203066568 0 -0.020193292238497567 -0.02648771849285949 0 -0.020339926593505277 -0.025914728203066568 0 -0.020563772423476356 -0.026421573666807092 0 -0.020339926593505277 -0.025914728203066568 0 -0.020563772423476356 -0.026421573666807092 0 -0.020981111813819571 -0.025755966684198325 0 -0.021054767307660999 -0.024933748102238116 0 -0.020981111813819571 -0.025755966684198325 0 -0.021716240914237666 -0.025197864149130101 0 -0.020339926593505277 -0.025914728203066568 0 -0.021054767307660999 -0.024933748102238116 0 -0.020981111813819571 -0.025755966684198325 0 -0.020339926593505277 -0.025914728203066568 0 -0.021054767307660999 -0.024933748102238116 0 -0.020272469046679068 -0.024891521197227116 0 -0.020272469046679068 -0.024891521197227116 0 -0.019539622476628007 -0.024273896272945787 0 -0.020632180982073197 -0.023325315801629089 0 -0.020272469046679068 -0.024891521197227116 0 -0.02141995707078841 -0.023328857014220966 0 -0.020632180982073197 -0.023325315801629089 0 -0.021054767307660999 -0.024933748102238116 0 -0.020272469046679068 -0.024891521197227116 0 -0.02141995707078841 -0.023328857014220966 0 -0.021054767307660999 -0.024933748102238116 0 -0.02141995707078841 -0.023328857014220966 0 -0.02196674730559697 -0.02420109978825255 0 -0.022961690007225012 -0.022642524427926233 0 -0.022669893706894928 -0.02245063203959894 0 -0.022344580563919449 -0.022335173936419844 0 -0.019448617011073779 -0.026195584641098311 0 -0.020272469046679068 -0.024891521197227116 0 -0.019539622476628007 -0.024273896272945787 0 -0.02122041752205394 -0.024357169736773349 0 -0.021098637435777855 -0.023731197645918078 0 -0.022344580563919449 -0.022335173936419844 0 -0.022407196716586864 -0.022423207894556391 0 -0.021829077792986314 -0.022456289865110814 0 -0.022407196716586864 -0.022423207894556391 0 -0.022830211524259438 -0.022512533203924691 0 -0.022351892987428516 -0.022548944681384683 0 -0.022669893706894928 -0.02245063203959894 0 -0.022407196716586864 -0.022423207894556391 0 -0.022830211524259438 -0.022512533203924691 0 -0.022669893706894928 -0.02245063203959894 0 -0.022344580563919449 -0.022335173936419844 0 -0.022407196716586864 -0.022423207894556391 0 -0.022830211524259438 -0.022512533203924691 0 -0.023129493535143358 -0.022448788360373319 0 -0.023425185446989252 -0.022519205444708767 0 -0.022669893706894928 -0.02245063203959894 0 -0.022830211524259438 -0.022512533203924691 0 -0.023129493535143358 -0.022448788360373319 0 -0.023129493535143358 -0.022448788360373319 0 -0.023425185446989252 -0.022519205444708767 0 -0.023741629872381147 -0.022272204249206548 0 -0.022830211524259438 -0.022512533203924691 0 -0.023425185446989252 -0.022519205444708767 0 -0.023263350233648315 -0.022759241431702517 0 -0.023425185446989252 -0.022519205444708767 0 -0.023859972590953824 -0.022735782528493863 0 -0.023263350233648315 -0.022759241431702517 0 -0.023859972590953824 -0.022735782528493863 0 -0.024512645987029773 -0.022512629251774077 0 -0.023921524901916996 -0.022421500264691162 0 -0.023425185446989252 -0.022519205444708767 0 -0.023859972590953824 -0.022735782528493863 0 -0.023921524901916996 -0.022421500264691162 0 -0.024773669481789565 -0.020352563554104308 0 -0.024642100023585002 -0.019123570926703051 0 -0.025383093390014714 -0.019569555191106248 0 -0.024999227352457968 -0.020147324795485727 0 -0.025000449522820399 -0.018653352606275576 0 -0.025383093390014714 -0.019569555191106248 0 -0.025281277268192355 -0.018529567364689008 0 -0.025000449522820399 -0.018653352606275576 0 -0.023859972590953824 -0.022735782528493863 0 -0.024512645987029773 -0.022512629251774077 0 -0.024363825952926143 -0.023010346632760435 0 -0.024773669481789565 -0.020352563554104308 0 -0.024807329709252177 -0.02059559094578705 0 -0.024512645987029773 -0.022512629251774077 0 -0.023921524901916996 -0.022421500264691162 0 -0.024194861931503962 -0.022024382181149091 0 -0.025383093390014714 -0.019569555191106248 0 -0.024999227352457968 -0.020147324795485727 0 -0.02493910948604924 -0.021186514582638462 0 -0.024512645987029773 -0.022512629251774077 0 -0.024194861931503962 -0.022024382181149091 0 -0.02493910948604924 -0.021186514582638462 0 -0.023425185446989252 -0.022519205444708767 0 -0.023921524901916996 -0.022421500264691162 0 -0.023741629872381147 -0.022272204249206548 0 -0.023921524901916996 -0.022421500264691162 0 -0.024194861931503962 -0.022024382181149091 0 -0.023741629872381147 -0.022272204249206548 0 -0.023741629872381147 -0.022272204249206548 0 -0.024098841173933443 -0.021958684410959283 0 -0.02354389773901305 -0.022325182139494484 0 -0.024194861931503962 -0.022024382181149091 0 -0.024098841173933443 -0.021958684410959283 0 -0.02493910948604924 -0.021186514582638462 0 -0.024194861931503962 -0.022024382181149091 0 -0.023741629872381147 -0.022272204249206548 0 -0.024098841173933443 -0.021958684410959283 0 -0.024098841173933443 -0.021958684410959283 0 -0.02493910948604924 -0.021186514582638462 0 -0.024652295665202439 -0.021721607777308947 0 -0.024999227352457968 -0.020147324795485727 0 -0.02493910948604924 -0.021186514582638462 0 -0.024999519083645116 -0.021638906807726947 0 -0.02493910948604924 -0.021186514582638462 0 -0.024652295665202439 -0.021721607777308947 0 -0.024999519083645116 -0.021638906807726947 0 -0.024652295665202439 -0.021721607777308947 0 -0.024999519083645116 -0.021638906807726947 0 -0.024401434532142843 -0.022174996911053745 0 -0.023973249059587681 -0.02276944866427974 0 -0.024401434532142843 -0.022174996911053745 0 -0.023689701522596085 -0.022510962221015913 0 -0.024098841173933443 -0.021958684410959283 0 -0.024401434532142843 -0.022174996911053745 0 -0.023689701522596085 -0.022510962221015913 0 -0.024098841173933443 -0.021958684410959283 0 -0.024652295665202439 -0.021721607777308947 0 -0.024401434532142843 -0.022174996911053745 0 -0.023534827037398596 -0.023025285385724292 0 -0.023689701522596085 -0.022510962221015913 0 -0.02317780267505308 -0.022885796044895691 0 -0.023689701522596085 -0.022510962221015913 0 -0.023259387849679014 -0.022562368108988283 0 -0.02354389773901305 -0.022325182139494484 0 -0.023689701522596085 -0.022510962221015913 0 -0.02317780267505308 -0.022885796044895691 0 -0.023259387849679014 -0.022562368108988283 0 -0.022677241463497547 -0.02338131361978759 0 -0.022809986808986969 -0.023028704477169044 0 -0.02317780267505308 -0.022885796044895691 0 -0.022809986808986969 -0.023028704477169044 0 -0.02317780267505308 -0.022885796044895691 0 -0.022929889241624382 -0.022691457962356096 0 -0.02317780267505308 -0.022885796044895691 0 -0.023259387849679014 -0.022562368108988283 0 -0.022929889241624382 -0.022691457962356096 0 -0.022669893706894928 -0.02245063203959894 0 -0.023129493535143358 -0.022448788360373319 0 -0.022929889241624382 -0.022691457962356096 0 -0.023129493535143358 -0.022448788360373319 0 -0.023259387849679014 -0.022562368108988283 0 -0.022929889241624382 -0.022691457962356096 0 -0.023129493535143358 -0.022448788360373319 0 -0.023259387849679014 -0.022562368108988283 0 -0.02354389773901305 -0.022325182139494484 0 -0.023129493535143358 -0.022448788360373319 0 -0.023741629872381147 -0.022272204249206548 0 -0.02354389773901305 -0.022325182139494484 0 -0.024098841173933443 -0.021958684410959283 0 -0.023689701522596085 -0.022510962221015913 0 -0.02354389773901305 -0.022325182139494484 0 -0.012751466600238293 -0.027564579277024034 0 -0.013021711956372419 -0.02866729259040288 0 -0.012228830755845237 -0.028337186655238884 0 -0.012751466600238293 -0.027564579277024034 0 -0.013728658582191014 -0.028239510545185247 0 -0.013021711956372419 -0.02866729259040288 0 -0.012751466600238293 -0.027564579277024034 0 -0.012228830755845237 -0.028337186655238884 0 -0.012213683975177331 -0.027511561162777903 0 -0.012751466600238293 -0.027564579277024034 0 -0.013728658582191014 -0.028239510545185247 0 -0.013581932195157105 -0.026900910218925038 0 -0.013728658582191014 -0.028239510545185247 0 -0.013581932195157105 -0.026900910218925038 0 -0.014746909160216037 -0.027672742643663508 0 -0.013581932195157105 -0.026900910218925038 0 -0.012695899887424675 -0.025903176515847934 0 -0.012282432587115833 -0.02688043537529778 0 -0.012751466600238293 -0.027564579277024034 0 -0.013581932195157105 -0.026900910218925038 0 -0.012282432587115833 -0.02688043537529778 0 -0.012751466600238293 -0.027564579277024034 0 -0.012282432587115833 -0.02688043537529778 0 -0.012213683975177331 -0.027511561162777903 0 -0.012695899887424675 -0.025903176515847934 0 -0.013472511681171369 -0.025000008957313011 0 -0.012007186494738181 -0.024999684160031344 0 -0.012695899887424675 -0.025903176515847934 0 -0.013472511681171369 -0.025000008957313011 0 -0.014056809882674094 -0.025825984656883003 0 -0.013581932195157105 -0.026900910218925038 0 -0.012695899887424675 -0.025903176515847934 0 -0.014056809882674094 -0.025825984656883003 0 -0.013581932195157105 -0.026900910218925038 0 -0.014056809882674094 -0.025825984656883003 0 -0.015024297572522209 -0.026451740591089821 0 -0.014056809882674094 -0.025825984656883003 0 -0.014937235353047586 -0.024999860991810421 0 -0.015024297572522209 -0.026451740591089821 0 -0.013472511681171369 -0.025000008957313011 0 -0.014056809882674094 -0.025825984656883003 0 -0.014937235353047586 -0.024999860991810421 0 -0.014937235353047586 -0.024999860991810421 0 -0.015024297572522209 -0.026451740591089821 0 -0.016380775610193674 -0.025999901843323032 0 -0.015024297572522209 -0.026451740591089821 0 -0.014746909160216037 -0.027672742643663508 0 -0.016484737898392027 -0.02748179707984293 0 -0.013581932195157105 -0.026900910218925038 0 -0.015024297572522209 -0.026451740591089821 0 -0.014746909160216037 -0.027672742643663508 0 -0.013728658582191014 -0.028239510545185247 0 -0.014746909160216037 -0.027672742643663508 0 -0.014599958295223783 -0.028534033719961584 0 -0.014746909160216037 -0.027672742643663508 0 -0.016484737898392027 -0.02748179707984293 0 -0.015452886357461764 -0.028596006750476959 0 -0.015308127347876758 -0.027053383841808526 0 -0.015086828606628959 -0.026812932104855008 0 -0.016484737898392027 -0.02748179707984293 0 -0.017967869074556511 -0.026586600546121716 0 -0.017607679083834187 -0.028463694142357013 0 -0.019241364675962921 -0.026845928097575411 0 -0.019594944102010452 -0.026933301318224922 0 -0.016484737898392027 -0.02748179707984293 0 -0.017967869074556511 -0.026586600546121716 0 -0.016380775610193674 -0.025999901843323032 0 -0.015024297572522209 -0.026451740591089821 0 -0.016484737898392027 -0.02748179707984293 0 -0.016380775610193674 -0.025999901843323032 0 -0.014937235353047586 -0.024999860991810421 0 -0.016380775610193674 -0.025999901843323032 0 -0.016402369401881684 -0.024999792080674831 0 -0.016380775610193674 -0.025999901843323032 0 -0.016402369401881684 -0.024999792080674831 0 -0.017504596164639025 -0.025574249234173983 0 -0.016402369401881684 -0.024999792080674831 0 -0.0178671499240892 -0.024999933718255575 0 -0.017504596164639025 -0.025574249234173983 0 -0.017967869074556511 -0.026586600546121716 0 -0.016380775610193674 -0.025999901843323032 0 -0.017504596164639025 -0.025574249234173983 0 -0.017967869074556511 -0.026586600546121716 0 -0.018455778788517611 -0.025969357481818962 0 -0.017504596164639025 -0.025574249234173983 0 -0.018455778788517611 -0.025969357481818962 0 -0.017504596164639025 -0.025574249234173983 0 -0.018324261223047464 -0.025506028212750689 0 -0.0178671499240892 -0.024999933718255575 0 -0.017504596164639025 -0.025574249234173983 0 -0.018324261223047464 -0.025506028212750689 0 -0.0178671499240892 -0.024999933718255575 0 -0.018788738722438424 -0.025205784655761555 0 -0.018324261223047464 -0.025506028212750689 0 -0.019332171471312203 -0.024999620340446071 0 -0.0178671499240892 -0.024999933718255575 0 -0.018788738722438424 -0.025205784655761555 0 -0.018788738722438424 -0.025205784655761555 0 -0.018324261223047464 -0.025506028212750689 0 -0.018927039464414323 -0.025805405385970474 0 -0.018455778788517611 -0.025969357481818962 0 -0.018927039464414323 -0.025805405385970474 0 -0.01926529433384333 -0.026265387389751638 0 -0.018455778788517611 -0.025969357481818962 0 -0.018324261223047464 -0.025506028212750689 0 -0.018927039464414323 -0.025805405385970474 0 -0.01926529433384333 -0.026265387389751638 0 -0.018838242344031756 -0.026452208141262413 0 -0.019418857570853893 -0.026554521133093218 0 -0.018455778788517611 -0.025969357481818962 0 -0.01926529433384333 -0.026265387389751638 0 -0.018838242344031756 -0.026452208141262413 0 -0.017967869074556511 -0.026586600546121716 0 -0.018455778788517611 -0.025969357481818962 0 -0.018838242344031756 -0.026452208141262413 0 -0.017967869074556511 -0.026586600546121716 0 -0.018838242344031756 -0.026452208141262413 0 -0.019280344317316969 -0.026653734354745114 0 -0.017967869074556511 -0.026586600546121716 0 -0.019280344317316969 -0.026653734354745114 0 -0.018894388909111923 -0.026721858074158666 0 -0.020005494142641075 -0.026686057186407819 0 -0.019280344317316969 -0.026653734354745114 0 -0.019418857570853893 -0.026554521133093218 0 -0.018838242344031756 -0.026452208141262413 0 -0.019280344317316969 -0.026653734354745114 0 -0.019418857570853893 -0.026554521133093218 0 -0.020005494142641075 -0.026686057186407819 0 -0.020563772423476356 -0.026421573666807092 0 -0.020289507946023667 -0.026791637512850661 0 -0.020005494142641075 -0.026686057186407819 0 -0.019280344317316969 -0.026653734354745114 0 -0.020289507946023667 -0.026791637512850661 0 -0.019280344317316969 -0.026653734354745114 0 -0.020289507946023667 -0.026791637512850661 0 -0.019373055908666989 -0.027036168191739235 0 -0.019280344317316969 -0.026653734354745114 0 -0.019373055908666989 -0.027036168191739235 0 -0.018894388909111923 -0.026721858074158666 0 -0.020289507946023667 -0.026791637512850661 0 -0.019373055908666989 -0.027036168191739235 0 -0.01987752916173105 -0.027688253988675585 0 -0.021669242273420274 -0.024767944216946461 0 -0.021100161517035892 -0.024494539690076464 0 -0.019373055908666989 -0.027036168191739235 0 -0.01987752916173105 -0.027688253988675585 0 -0.018838683815933656 -0.02748767263272019 0 -0.020289507946023667 -0.026791637512850661 0 -0.021546494314645233 -0.026120301057821104 0 -0.021435430922281423 -0.026078287814805541 0 -0.021669242273420274 -0.024767944216946461 0 -0.021675959557212434 -0.024800220295804538 0 -0.020563772423476356 -0.026421573666807092 0 -0.020289507946023667 -0.026791637512850661 0 -0.021435430922281423 -0.026078287814805541 0 -0.021419218756725797 -0.02534933253073542 0 -0.021669242273420274 -0.024767944216946461 0 -0.020563772423476356 -0.026421573666807092 0 -0.020981111813819571 -0.025755966684198325 0 -0.021435430922281423 -0.026078287814805541 0 -0.020981111813819571 -0.025755966684198325 0 -0.021435430922281423 -0.026078287814805541 0 -0.021716240914237666 -0.025197864149130101 0 -0.022658459443937452 -0.026217859562400334 0 -0.022117464454738528 -0.025516022803689802 0 -0.02274480489361062 -0.024685541800339477 0 -0.021435430922281423 -0.026078287814805541 0 -0.022117464454738528 -0.025516022803689802 0 -0.021716240914237666 -0.025197864149130101 0 -0.022658459443937452 -0.026217859562400334 0 -0.021435430922281423 -0.026078287814805541 0 -0.022117464454738528 -0.025516022803689802 0 -0.02274480489361062 -0.024685541800339477 0 -0.021716240914237666 -0.025197864149130101 0 -0.02196674730559697 -0.02420109978825255 0 -0.022117464454738528 -0.025516022803689802 0 -0.02274480489361062 -0.024685541800339477 0 -0.021716240914237666 -0.025197864149130101 0 -0.021054767307660999 -0.024933748102238116 0 -0.021716240914237666 -0.025197864149130101 0 -0.02196674730559697 -0.02420109978825255 0 -0.02274480489361062 -0.024685541800339477 0 -0.02196674730559697 -0.02420109978825255 0 -0.022655329149775645 -0.023266935387062909 0 -0.02141995707078841 -0.023328857014220966 0 -0.02196674730559697 -0.02420109978825255 0 -0.022655329149775645 -0.023266935387062909 0 -0.02274480489361062 -0.024685541800339477 0 -0.022655329149775645 -0.023266935387062909 0 -0.024339857748047204 -0.023680249783223809 0 -0.022658459443937452 -0.026217859562400334 0 -0.02274480489361062 -0.024685541800339477 0 -0.024339857748047204 -0.023680249783223809 0 -0.024065238309415406 -0.022856523704189429 0 -0.024665398032708386 -0.02114527517075163 0 -0.025017630964413305 -0.022111088114435368 0 -0.024065238309415406 -0.022856523704189429 0 -0.025017630964413305 -0.022111088114435368 0 -0.025570337704728892 -0.022978885591332019 0 -0.021669242273420274 -0.024767944216946461 0 -0.023664787006987174 -0.022184957810765571 0 -0.025017630964413305 -0.022111088114435368 0 -0.02576687020992376 -0.021468300181886748 0 -0.025570337704728892 -0.022978885591332019 0 -0.023534137266855992 -0.020856697660328376 0 -0.021100161517035892 -0.024494539690076464 0 -0.024665398032708386 -0.02114527517075163 0 -0.025017630964413305 -0.022111088114435368 0 -0.02576687020992376 -0.021468300181886748 0 -0.024665398032708386 -0.02114527517075163 0 -0.02576687020992376 -0.021468300181886748 0 -0.025413397300999192 -0.020526371473885405 0 -0.025578275309648551 -0.018919450836693049 0 -0.025775752975820552 -0.018768502151571081 0 -0.025831271345672202 -0.019035068151819719 0 -0.025775752975820552 -0.018768502151571081 0 -0.025831271345672202 -0.019035068151819719 0 -0.025966420349921394 -0.018774444612300167 0 -0.025578275309648551 -0.018919450836693049 0 -0.025831271345672202 -0.019035068151819719 0 -0.025518579392033124 -0.019292569193381754 0 -0.025831271345672202 -0.019035068151819719 0 -0.025518579392033124 -0.019292569193381754 0 -0.025875489525693927 -0.019310822393283637 0 -0.017361656024278069 -0.030083436081213322 0 -0.016583688166786806 -0.029051527628640023 0 -0.015903562009434637 -0.029946107672156816 0 -0.021100161517035892 -0.024494539690076464 0 -0.019961524562495309 -0.024209989913121469 0 -0.019373055908666989 -0.027036168191739235 0 -0.018838683815933656 -0.02748767263272019 0 -0.018894388909111923 -0.026721858074158666 0 -0.021100161517035892 -0.024494539690076464 0 -0.019594944102010452 -0.026933301318224922 0 -0.017361656024278069 -0.030083436081213322 0 -0.017607679083834187 -0.028463694142357013 0 -0.016583688166786806 -0.029051527628640023 0 -0.016583688166786806 -0.029051527628640023 0 -0.015495178135212756 -0.028673663116307035 0 -0.015903562009434637 -0.029946107672156816 0 -0.016484737898392027 -0.02748179707984293 0 -0.017607679083834187 -0.028463694142357013 0 -0.016583688166786806 -0.029051527628640023 0 -0.016484737898392027 -0.02748179707984293 0 -0.016583688166786806 -0.029051527628640023 0 -0.015495178135212756 -0.028673663116307035 0 -0.014746909160216037 -0.027672742643663508 0 -0.015452886357461764 -0.028596006750476959 0 -0.014599958295223783 -0.028534033719961584 0 -0.015452886357461764 -0.028596006750476959 0 -0.014599958295223783 -0.028534033719961584 0 -0.014483301363990017 -0.029617569823512439 0 -0.015086828606628959 -0.026812932104855008 0 -0.016452960862172329 -0.023567024656678381 0 -0.013728658582191014 -0.028239510545185247 0 -0.014599958295223783 -0.028534033719961584 0 -0.014483301363990017 -0.029617569823512439 0 -0.015495178135212756 -0.028673663116307035 0 -0.014475214530460481 -0.029805004737608377 0 -0.015903562009434637 -0.029946107672156816 0 -0.016452960862172329 -0.023567024656678381 0 -0.019961524562495309 -0.024209989913121469 0 -0.026210485595515268 -0.019333249955072549 0 -0.025875489525693927 -0.019310822393283637 0 -0.026132965717449018 -0.019021578673021049 0 -0.025831271345672202 -0.019035068151819719 0 -0.025875489525693927 -0.019310822393283637 0 -0.026132965717449018 -0.019021578673021049 0 -0.025831271345672202 -0.019035068151819719 0 -0.025966420349921394 -0.018774444612300167 0 -0.026132965717449018 -0.019021578673021049 0 -0.026132965717449018 -0.019021578673021049 0 -0.026472145672702823 -0.019029744176296184 0 -0.026325800416823052 -0.018681553786661122 0 -0.025966420349921394 -0.018774444612300167 0 -0.026132965717449018 -0.019021578673021049 0 -0.026325800416823052 -0.018681553786661122 0 -0.026210485595515268 -0.019333249955072549 0 -0.026132965717449018 -0.019021578673021049 0 -0.026472145672702823 -0.019029744176296184 0 -0.016452960862172329 -0.023567024656678381 0 -0.012252576534334614 -0.020586627470991763 0 -0.012252576534334614 -0.020586627470991763 0 -0.013669756160137072 -0.018731976282169178 0 -0.0042687329485932212 -0.019861078389462272 0 -0.0056954056647546504 -0.018265222737657062 0 -0.0031768488287237454 -0.017801820376330522 0 -0.0047549641089678152 -0.019445900307062374 0 -0.0056954056647546504 -0.018265222737657062 0 -0.0061276704969222533 -0.019877837617027324 0 -0.012252576534334614 -0.020586627470991763 0 -0.010120131166656289 -0.021104957685662212 0 -0.0047549641089678152 -0.019445900307062374 0 -0.0061276704969222533 -0.019877837617027324 0 -0.0058091003211091213 -0.021542223283659123 0 -0.012252576534334614 -0.020586627470991763 0 -0.011680781829392931 -0.023045715250860223 0 -0.0061276704969222533 -0.019877837617027324 0 -0.0058091003211091213 -0.021542223283659123 0 -0.0071829873458054182 -0.021684621974949456 0 -0.011680781829392931 -0.023045715250860223 0 -0.010763635068091713 -0.022918491451315741 0 -0.016452960862172329 -0.023567024656678381 0 -0.011680781829392931 -0.023045715250860223 0 -0.014483301363990017 -0.029617569823512439 0 -0.012829103358612698 -0.029467607483202596 0 -0.013021711956372419 -0.02866729259040288 0 -0.013558359455834158 -0.023070408489035993 0 -0.013107850697094756 -0.023558357876457273 0 -0.012815414393496042 -0.023009419026469979 0 -0.013728658582191014 -0.028239510545185247 0 -0.014483301363990017 -0.029617569823512439 0 -0.013021711956372419 -0.02866729259040288 0 -0.011680781829392931 -0.023045715250860223 0 -0.011071925050510262 -0.024619607673826545 0 -0.012829103358612698 -0.029467607483202596 0 -0.013021711956372419 -0.02866729259040288 0 -0.012228830755845237 -0.028337186655238884 0 -0.0063459870488647369 -0.021616860157047387 0 -0.0074319339939286902 -0.023142477498525636 0 -0.0071829873458054182 -0.021684621974949456 0 -0.0050739488525265225 -0.013341445096826101 0 -0.0054563522117393598 -0.014820460760522123 0 -0.0061684854559916789 -0.013566498523092873 0 -0.0050739488525265225 -0.013341445096826101 0 -0.0038556143858245718 -0.012779230493532103 0 -0.004892201847048778 -0.012119581630728968 0 -0.0050739488525265225 -0.013341445096826101 0 -0.0038556143858245718 -0.012779230493532103 0 -0.0039775350101355703 -0.014457080792512796 0 -0.0038556143858245718 -0.012779230493532103 0 -0.0039775350101355703 -0.014457080792512796 0 -0.0027199325348644019 -0.013522672874232778 0 -0.0039775350101355703 -0.014457080792512796 0 -0.0054563522117393598 -0.014820460760522123 0 -0.004608423507550888 -0.016298057537118469 0 -0.0050739488525265225 -0.013341445096826101 0 -0.0039775350101355703 -0.014457080792512796 0 -0.0054563522117393598 -0.014820460760522123 0 -0.0054563522117393598 -0.014820460760522123 0 -0.004608423507550888 -0.016298057537118469 0 -0.0062174340556001937 -0.016367109918329403 0 -0.0056954056647546504 -0.018265222737657062 0 -0.004608423507550888 -0.016298057537118469 0 -0.0062174340556001937 -0.016367109918329403 0 -0.0056954056647546504 -0.018265222737657062 0 -0.004608423507550888 -0.016298057537118469 0 -0.0031768488287237454 -0.017801820376330522 0 -0.004608423507550888 -0.016298057537118469 0 -0.0021824785766016153 -0.015786836409943827 0 -0.0031768488287237454 -0.017801820376330522 0 -0.0039775350101355703 -0.014457080792512796 0 -0.004608423507550888 -0.016298057537118469 0 -0.0021824785766016153 -0.015786836409943827 0 -0.014392125156756877 -0.016988683079822882 0 -0.013669756160137072 -0.018731976282169178 0 -0.025966420349921394 -0.018774444612300167 0 -0.026325800416823052 -0.018681553786661122 0 -0.026065596576588908 -0.018552140051683493 0 -0.026194124500153446 -0.018323256228271689 0 -0.026325800416823052 -0.018681553786661122 0 -0.026065596576588908 -0.018552140051683493 0 -0.025966420349921394 -0.018774444612300167 0 -0.026065596576588908 -0.018552140051683493 0 -0.025869899778249085 -0.018594543386795864 0 -0.026065596576588908 -0.018552140051683493 0 -0.025921499009324084 -0.018385821561075544 0 -0.025869899778249085 -0.018594543386795864 0 -0.026194124500153446 -0.018323256228271689 0 -0.025963015663289467 -0.018172182548422879 0 -0.025921499009324084 -0.018385821561075544 0 -0.026194124500153446 -0.018323256228271689 0 -0.026065596576588908 -0.018552140051683493 0 -0.025921499009324084 -0.018385821561075544 0 -0.026194124500153446 -0.018323256228271689 0 -0.026100989537949579 -0.0179642250576133 0 -0.025963015663289467 -0.018172182548422879 0 -0.014392125156756877 -0.016988683079822882 0 -0.015245690930211869 -0.015250952169596836 0 -0.026100989537949579 -0.0179642250576133 0 -0.025942923057111586 -0.018015308205914037 0 -0.025963015663289467 -0.018172182548422879 0 -0.0039775350101355703 -0.014457080792512796 0 -0.0021824785766016153 -0.015786836409943827 0 -0.0027199325348644019 -0.013522672874232778 0 -0.0021824785766016153 -0.015786836409943827 0 -0.0027199325348644019 -0.013522672874232778 0 -0.0012889748564187992 -0.013824578374376287 0 -0.0027199325348644019 -0.013522672874232778 0 -0.0018144605167026936 -0.012710237518185763 0 -0.0027210828682635055 -0.012087241708699323 0 -0.0038556143858245718 -0.012779230493532103 0 -0.0027199325348644019 -0.013522672874232778 0 -0.0027210828682635055 -0.012087241708699323 0 -0.0012889748564187992 -0.013824578374376287 0 -0.00046841907635183596 -0.011961693480641087 0 -0.0018144605167026936 -0.012710237518185763 0 -0.0027199325348644019 -0.013522672874232778 0 -0.0012889748564187992 -0.013824578374376287 0 -0.0018144605167026936 -0.012710237518185763 0 -0.015245690930211869 -0.015250952169596836 0 -0.017132194576476596 -0.013478505681577702 0 -0.025940247858402134 -0.017775161001535464 0 -0.025840284819140157 -0.01823386275161596 0 -0.026077612660820943 -0.018731883076498122 0 -0.026100989537949579 -0.0179642250576133 0 -0.025940247858402134 -0.017775161001535464 0 -0.026053730932639109 -0.017520450022853667 0 -0.025940247858402134 -0.017775161001535464 0 -0.025755836304258008 -0.018161246639424734 0 -0.025942923057111586 -0.018015308205914037 0 -0.026100989537949579 -0.0179642250576133 0 -0.025940247858402134 -0.017775161001535464 0 -0.025942923057111586 -0.018015308205914037 0 -0.025390986972464807 -0.018310249810054056 0 -0.025226220493777502 -0.018644600670945921 0 -0.025940247858402134 -0.017775161001535464 0 -0.025591496928387178 -0.017769637017302848 0 -0.025840284819140157 -0.01823386275161596 0 -0.025840284819140157 -0.01823386275161596 0 -0.024905434215373237 -0.018306427053706199 0 -0.025201740322370918 -0.017883868312094587 0 -0.025591496928387178 -0.017769637017302848 0 -0.025840284819140157 -0.01823386275161596 0 -0.025201740322370918 -0.017883868312094587 0 -0.025591496928387178 -0.017769637017302848 0 -0.025201740322370918 -0.017883868312094587 0 -0.025232312649661682 -0.01762687594327399 0 -0.025840284819140157 -0.01823386275161596 0 -0.026077612660820943 -0.018731883076498122 0 -0.0252955523050176 -0.019522517304822972 0 -0.025840284819140157 -0.01823386275161596 0 -0.025747317646828912 -0.020480790896918233 0 -0.025182971846169886 -0.0189996287587774 0 -0.025246110160883573 -0.019320785679484417 0 -0.024816623646405488 -0.020252391386285457 0 -0.025840284819140157 -0.01823386275161596 0 -0.025182971846169886 -0.0189996287587774 0 -0.024905434215373237 -0.018306427053706199 0 -0.025755836304258008 -0.018161246639424734 0 -0.025942923057111586 -0.018015308205914037 0 -0.025963015663289467 -0.018172182548422879 0 -0.025755836304258008 -0.018161246639424734 0 -0.025963015663289467 -0.018172182548422879 0 -0.025921499009324084 -0.018385821561075544 0 -0.025226220493777502 -0.018644600670945921 0 -0.024685693919878089 -0.01943627504507673 0 -0.025755836304258008 -0.018161246639424734 0 -0.025921499009324084 -0.018385821561075544 0 -0.02565332293589449 -0.018542195558296084 0 -0.025578275309648551 -0.018919450836693049 0 -0.025775752975820552 -0.018768502151571081 0 -0.02565332293589449 -0.018542195558296084 0 -0.025921499009324084 -0.018385821561075544 0 -0.025869899778249085 -0.018594543386795864 0 -0.02565332293589449 -0.018542195558296084 0 -0.025775752975820552 -0.018768502151571081 0 -0.025869899778249085 -0.018594543386795864 0 -0.02565332293589449 -0.018542195558296084 0 -0.025775752975820552 -0.018768502151571081 0 -0.025966420349921394 -0.018774444612300167 0 -0.025869899778249085 -0.018594543386795864 0 -0.02576687020992376 -0.021468300181886748 0 -0.025413397300999192 -0.020526371473885405 0 -0.025938753140527831 -0.020000074097346623 0 -0.025413397300999192 -0.020526371473885405 0 -0.025938753140527831 -0.020000074097346623 0 -0.0252955523050176 -0.019522517304822972 0 -0.023534137266855992 -0.020856697660328376 0 -0.024685693919878089 -0.01943627504507673 0 -0.024665398032708386 -0.02114527517075163 0 -0.025413397300999192 -0.020526371473885405 0 -0.0252955523050176 -0.019522517304822972 0 -0.026077612660820943 -0.018731883076498122 0 -0.025938753140527831 -0.020000074097346623 0 -0.0252955523050176 -0.019522517304822972 0 -0.025747317646828912 -0.020480790896918233 0 -0.023769345219306078 -0.021779720512806348 0 -0.024175004548018811 -0.019168134516968426 0 -0.025747317646828912 -0.020480790896918233 0 -0.024175004548018811 -0.019168134516968426 0 -0.025182971846169886 -0.0189996287587774 0 -0.022655329149775645 -0.023266935387062909 0 -0.024339857748047204 -0.023680249783223809 0 -0.023769345219306078 -0.021779720512806348 0 -0.024339857748047204 -0.023680249783223809 0 -0.025747317646828912 -0.020480790896918233 0 -0.023769345219306078 -0.021779720512806348 0 -0.023664787006987174 -0.022184957810765571 0 -0.024816623646405488 -0.020252391386285457 0 -0.02141995707078841 -0.023328857014220966 0 -0.022655329149775645 -0.023266935387062909 0 -0.022121614194352057 -0.021914311508432163 0 -0.022655329149775645 -0.023266935387062909 0 -0.023769345219306078 -0.021779720512806348 0 -0.022121614194352057 -0.021914311508432163 0 -0.023769345219306078 -0.021779720512806348 0 -0.022121614194352057 -0.021914311508432163 0 -0.024175004548018811 -0.019168134516968426 0 -0.022121614194352057 -0.021914311508432163 0 -0.024175004548018811 -0.019168134516968426 0 -0.021424372362566051 -0.020823864578202126 0 -0.024175004548018811 -0.019168134516968426 0 -0.024905434215373237 -0.018306427053706199 0 -0.024613950614915097 -0.017898632748744571 0 -0.024175004548018811 -0.019168134516968426 0 -0.024613950614915097 -0.017898632748744571 0 -0.024950536277313404 -0.017410884394275954 0 -0.024564708892654438 -0.018995629347145482 0 -0.024330429600098725 -0.018954356821092366 0 -0.024175004548018811 -0.019168134516968426 0 -0.025182971846169886 -0.0189996287587774 0 -0.024905434215373237 -0.018306427053706199 0 -0.024905434215373237 -0.018306427053706199 0 -0.024852592833935056 -0.017873714278751365 0 -0.024613950614915097 -0.017898632748744571 0 -0.024905434215373237 -0.018306427053706199 0 -0.025201740322370918 -0.017883868312094587 0 -0.024852592833935056 -0.017873714278751365 0 -0.025201740322370918 -0.017883868312094587 0 -0.024852592833935056 -0.017873714278751365 0 -0.024989445514247852 -0.017648508771529063 0 -0.024852592833935056 -0.017873714278751365 0 -0.024613950614915097 -0.017898632748744571 0 -0.024778501994664109 -0.017620592559630419 0 -0.024613950614915097 -0.017898632748744571 0 -0.024623548486643842 -0.017352369193121334 0 -0.024778501994664109 -0.017620592559630419 0 -0.024613950614915097 -0.017898632748744571 0 -0.024767617477669507 -0.018250982011730518 0 -0.024950351261837179 -0.017992558640002751 0 -0.025277292631832586 -0.017595024318753594 0 -0.025567684714632014 -0.017085068636199113 0 -0.024623548486643842 -0.017352369193121334 0 -0.024801955524360285 -0.01739520328730006 0 -0.024778501994664109 -0.017620592559630419 0 -0.024767617477669507 -0.018250982011730518 0 -0.024944660758940588 -0.01828379115957245 0 -0.024950351261837179 -0.017992558640002751 0 -0.024852592833935056 -0.017873714278751365 0 -0.024778501994664109 -0.017620592559630419 0 -0.024989445514247852 -0.017648508771529063 0 -0.024778501994664109 -0.017620592559630419 0 -0.024989445514247852 -0.017648508771529063 0 -0.024922120318092978 -0.017478578231368998 0 -0.025201740322370918 -0.017883868312094587 0 -0.024989445514247852 -0.017648508771529063 0 -0.025232312649661682 -0.01762687594327399 0 -0.024989445514247852 -0.017648508771529063 0 -0.025232312649661682 -0.01762687594327399 0 -0.02515599492364173 -0.017410258428903175 0 -0.025232312649661682 -0.01762687594327399 0 -0.02515599492364173 -0.017410258428903175 0 -0.025421397413020234 -0.017496701149539388 0 -0.024989445514247852 -0.017648508771529063 0 -0.02515599492364173 -0.017410258428903175 0 -0.024922120318092978 -0.017478578231368998 0 -0.024801955524360285 -0.01739520328730006 0 -0.024778501994664109 -0.017620592559630419 0 -0.024922120318092978 -0.017478578231368998 0 -0.02515599492364173 -0.017410258428903175 0 -0.024922120318092978 -0.017478578231368998 0 -0.024995286903455961 -0.017315140806721623 0 -0.024801955524360285 -0.01739520328730006 0 -0.024922120318092978 -0.017478578231368998 0 -0.024995286903455961 -0.017315140806721623 0 -0.024801955524360285 -0.01739520328730006 0 -0.024995286903455961 -0.017315140806721623 0 -0.024897577495481542 -0.017111403967953649 0 -0.024897577495481542 -0.017111403967953649 0 -0.025079500934376671 -0.016873163043675671 0 -0.024777362152988074 -0.016516840929009426 0 -0.024995286903455961 -0.017315140806721623 0 -0.024897577495481542 -0.017111403967953649 0 -0.025114538001978166 -0.017173429753880799 0 -0.025114538001978166 -0.017173429753880799 0 -0.025318463050557419 -0.01697047560225674 0 -0.025392850277080489 -0.017273269593147272 0 -0.02515599492364173 -0.017410258428903175 0 -0.024995286903455961 -0.017315140806721623 0 -0.025114538001978166 -0.017173429753880799 0 -0.02515599492364173 -0.017410258428903175 0 -0.025114538001978166 -0.017173429753880799 0 -0.025392850277080489 -0.017273269593147272 0 -0.025114538001978166 -0.017173429753880799 0 -0.025079500934376671 -0.016873163043675671 0 -0.025318463050557419 -0.01697047560225674 0 -0.025079500934376671 -0.016873163043675671 0 -0.025225403972869511 -0.016677568565408852 0 -0.025318463050557419 -0.01697047560225674 0 -0.024897577495481542 -0.017111403967953649 0 -0.025114538001978166 -0.017173429753880799 0 -0.025079500934376671 -0.016873163043675671 0 -0.024775047591613562 -0.018340875437080361 0 -0.024666223392332227 -0.01867180509996735 0 -0.025046556288949456 -0.018481800430869035 0 -0.025567684714632014 -0.017085068636199113 0 -0.02691660218931163 -0.013864563974723288 0 -0.026559705347773237 -0.015635072301409841 0 -0.026819834189677306 -0.015249623369458455 0 -0.024775047591613562 -0.018340875437080361 0 -0.024944660758940588 -0.01828379115957245 0 -0.025177663584293197 -0.018712555028381511 0 -0.024623548486643842 -0.017352369193121334 0 -0.024897577495481542 -0.017111403967953649 0 -0.024777362152988074 -0.016516840929009426 0 -0.024767617477669507 -0.018250982011730518 0 -0.024775047591613562 -0.018340875437080361 0 -0.024666223392332227 -0.01867180509996735 0 -0.024623548486643842 -0.017352369193121334 0 -0.024801955524360285 -0.01739520328730006 0 -0.024897577495481542 -0.017111403967953649 0 -0.024767617477669507 -0.018250982011730518 0 -0.024775047591613562 -0.018340875437080361 0 -0.024944660758940588 -0.01828379115957245 0 -0.02691660218931163 -0.013864563974723288 0 -0.026819834189677306 -0.015249623369458455 0 -0.029502136186147453 -0.012061535254170258 0 -0.028873585737886842 -0.012368604448297137 0 -0.028943897382465909 -0.011748030294685062 0 -0.029502136186147453 -0.012061535254170258 0 -0.029335794136257191 -0.011653963865340733 0 -0.028943897382465909 -0.011748030294685062 0 -0.029502136186147453 -0.012061535254170258 0 -0.029335794136257191 -0.011653963865340733 0 -0.029669952610487708 -0.011404399776755407 0 -0.029335794136257191 -0.011653963865340733 0 -0.029233524463952026 -0.011397891856443789 0 -0.029669952610487708 -0.011404399776755407 0 -0.029335794136257191 -0.011653963865340733 0 -0.028943897382465909 -0.011748030294685062 0 -0.029233524463952026 -0.011397891856443789 0 -0.02944472272626859 -0.0095778582126941122 0 -0.02956790442944407 -0.009440908601865524 0 -0.029498604466819581 -0.0094107376733058214 0 -0.02944472272626859 -0.0095778582126941122 0 -0.029592836901047331 -0.0094936926922548105 0 -0.02956790442944407 -0.009440908601865524 0 -0.02691660218931163 -0.013864563974723288 0 -0.028491980817771313 -0.0110055768457584 0 -0.024777362152988074 -0.016516840929009426 0 -0.025225403972869511 -0.016677568565408852 0 -0.025432805348359861 -0.016182521272513038 0 -0.02691660218931163 -0.013864563974723288 0 -0.026382718325112044 -0.012125514918708401 0 -0.025079500934376671 -0.016873163043675671 0 -0.024777362152988074 -0.016516840929009426 0 -0.025225403972869511 -0.016677568565408852 0 -0.025225403972869511 -0.016677568565408852 0 -0.025463683699975648 -0.016732432484725061 0 -0.025318463050557419 -0.01697047560225674 0 -0.025225403972869511 -0.016677568565408852 0 -0.025463683699975648 -0.016732432484725061 0 -0.025432805348359861 -0.016182521272513038 0 -0.02203746644175934 -0.012606543542011418 0 -0.026382718325112044 -0.012125514918708401 0 -0.028528137411984181 -0.01115726770042671 0 -0.028027479504548425 -0.010180561992267471 0 -0.02862978190267388 -0.010479871501969362 0 -0.025463683699975648 -0.016732432484725061 0 -0.025748085932791948 -0.016802405349944254 0 -0.025432805348359861 -0.016182521272513038 0 -0.028027479504548425 -0.010180561992267471 0 -0.028834112805729339 -0.010149969250951515 0 -0.02862978190267388 -0.010479871501969362 0 -0.026382718325112044 -0.012125514918708401 0 -0.028405395977552993 -0.010787225416069197 0 -0.029577430882222384 -0.0094530316872831373 0 -0.029593210475597088 -0.0094174685327380412 0 -0.029617109677765818 -0.0094022832222443384 0 -0.026382718325112044 -0.012125514918708401 0 -0.026429095773651594 -0.012013493906357942 0 -0.029593210475597088 -0.0094174685327380412 0 -0.02956790442944407 -0.009440908601865524 0 -0.029585832370532392 -0.0093990012846101537 0 -0.029577430882222384 -0.0094530316872831373 0 -0.029593210475597088 -0.0094174685327380412 0 -0.02956790442944407 -0.009440908601865524 0 -0.028872918588013784 -0.0097892481049019955 0 -0.029207450573213063 -0.010128457144825612 0 -0.02958919766892202 -0.0094767945966994852 0 -0.028027479504548425 -0.010180561992267471 0 -0.028872918588013784 -0.0097892481049019955 0 -0.028834112805729339 -0.010149969250951515 0 -0.028834112805729339 -0.010149969250951515 0 -0.029207450573213063 -0.010128457144825612 0 -0.02862978190267388 -0.010479871501969362 0 -0.028872918588013784 -0.0097892481049019955 0 -0.028834112805729339 -0.010149969250951515 0 -0.029207450573213063 -0.010128457144825612 0 0.00037639009513238894 -0.010189806225993532 0 -0.00072962766156600158 -0.0085888124700813692 0 -0.00059379438883375006 -0.0096826398142458685 0 -0.02203746644175934 -0.012606543542011418 0 -0.018054981995997532 -0.01087197913830641 0 -0.00072962766156600158 -0.0085888124700813692 0 -0.00059379438883375006 -0.0096826398142458685 0 -0.0010958073514408932 -0.0091703206762911542 0 -0.028528137411984181 -0.01115726770042671 0 -0.029207450573213063 -0.010128457144825612 0 -0.02862978190267388 -0.010479871501969362 0 0.00037639009513238894 -0.010189806225993532 0 -0.00059379438883375006 -0.0096826398142458685 0 -0.00031519205276650037 -0.010217184301534408 0 -0.00059379438883375006 -0.0096826398142458685 0 -0.00086697678121905265 -0.010314485673481311 0 -0.00031519205276650037 -0.010217184301534408 0 -0.00086697678121905265 -0.010314485673481311 0 -0.00050077386735110168 -0.010768999872065702 0 -0.0011285494608503661 -0.011165780845164359 0 0.00037639009513238894 -0.010189806225993532 0 -0.00050077386735110168 -0.010768999872065702 0 -0.00046841907635183596 -0.011961693480641087 0 -0.025741669815836386 -0.016807777781386937 0 -0.025695889508084439 -0.017233319899527158 0 -0.026053730932639109 -0.017520450022853667 0 -0.02203746644175934 -0.012606543542011418 0 -0.017132194576476596 -0.013478505681577702 0 -0.00086697678121905265 -0.010314485673481311 0 -0.00031519205276650037 -0.010217184301534408 0 -0.00050077386735110168 -0.010768999872065702 0 -0.00050077386735110168 -0.010768999872065702 0 -0.00046841907635183596 -0.011961693480641087 0 -0.0011285494608503661 -0.011165780845164359 0 0.00037639009513238894 -0.010189806225993532 0 -0.00031519205276650037 -0.010217184301534408 0 -0.00050077386735110168 -0.010768999872065702 0 -0.02203746644175934 -0.012606543542011418 0 -0.022070433170267238 -0.012832823662002935 0 -0.025463683699975648 -0.016732432484725061 0 -0.025748085932791948 -0.016802405349944254 0 -0.02559345868112646 -0.017025892306826218 0 -0.025741669815836386 -0.016807777781386937 0 -0.02559345868112646 -0.017025892306826218 0 -0.025695889508084439 -0.017233319899527158 0 -0.025463683699975648 -0.016732432484725061 0 -0.02559345868112646 -0.017025892306826218 0 -0.025318463050557419 -0.01697047560225674 0 -0.02559345868112646 -0.017025892306826218 0 -0.025318463050557419 -0.01697047560225674 0 -0.025392850277080489 -0.017273269593147272 0 -0.02559345868112646 -0.017025892306826218 0 -0.025392850277080489 -0.017273269593147272 0 -0.025695889508084439 -0.017233319899527158 0 -0.025392850277080489 -0.017273269593147272 0 -0.025695889508084439 -0.017233319899527158 0 -0.025682715770078544 -0.017520007574328682 0 -0.02515599492364173 -0.017410258428903175 0 -0.025392850277080489 -0.017273269593147272 0 -0.025421397413020234 -0.017496701149539388 0 -0.025392850277080489 -0.017273269593147272 0 -0.025682715770078544 -0.017520007574328682 0 -0.025421397413020234 -0.017496701149539388 0 -0.025591496928387178 -0.017769637017302848 0 -0.025232312649661682 -0.01762687594327399 0 -0.025421397413020234 -0.017496701149539388 0 -0.025940247858402134 -0.017775161001535464 0 -0.025591496928387178 -0.017769637017302848 0 -0.025682715770078544 -0.017520007574328682 0 -0.025591496928387178 -0.017769637017302848 0 -0.025682715770078544 -0.017520007574328682 0 -0.025421397413020234 -0.017496701149539388 0 -0.025940247858402134 -0.017775161001535464 0 -0.025682715770078544 -0.017520007574328682 0 -0.026053730932639109 -0.017520450022853667 0 -0.025695889508084439 -0.017233319899527158 0 -0.025682715770078544 -0.017520007574328682 0 -0.026053730932639109 -0.017520450022853667 0 -0.00046841907635183596 -0.011961693480641087 0 -0.0016976713112504115 -0.01175911374411877 0 -0.0018144605167026936 -0.012710237518185763 0 -0.00046841907635183596 -0.011961693480641087 0 -0.0016976713112504115 -0.01175911374411877 0 -0.0011285494608503661 -0.011165780845164359 0 -0.0016976713112504115 -0.01175911374411877 0 -0.0027210828682635055 -0.012087241708699323 0 -0.0022113536044595572 -0.010799721256317469 0 -0.0016976713112504115 -0.01175911374411877 0 -0.0018144605167026936 -0.012710237518185763 0 -0.0027210828682635055 -0.012087241708699323 0 -0.0022113536044595572 -0.010799721256317469 0 -0.0031580046208638402 -0.01013339910333985 0 -0.003769178770558791 -0.011214255021189964 0 -0.0027210828682635055 -0.012087241708699323 0 -0.0022113536044595572 -0.010799721256317469 0 -0.003769178770558791 -0.011214255021189964 0 -0.0022113536044595572 -0.010799721256317469 0 -0.0015345088953332871 -0.010341907548262639 0 -0.002238763658985005 -0.0096179492393384854 0 -0.0022113536044595572 -0.010799721256317469 0 -0.0015345088953332871 -0.010341907548262639 0 -0.0011285494608503661 -0.011165780845164359 0 -0.0016976713112504115 -0.01175911374411877 0 -0.0022113536044595572 -0.010799721256317469 0 -0.0011285494608503661 -0.011165780845164359 0 -0.00086697678121905265 -0.010314485673481311 0 -0.0015345088953332871 -0.010341907548262639 0 -0.0011285494608503661 -0.011165780845164359 0 -0.00059379438883375006 -0.0096826398142458685 0 -0.00086697678121905265 -0.010314485673481311 0 -0.0012148985088726669 -0.0097394557856045807 0 -0.00086697678121905265 -0.010314485673481311 0 -0.0015345088953332871 -0.010341907548262639 0 -0.0012148985088726669 -0.0097394557856045807 0 -0.0015345088953332871 -0.010341907548262639 0 -0.0012148985088726669 -0.0097394557856045807 0 -0.002238763658985005 -0.0096179492393384854 0 -0.0015941061601019628 -0.0091777418220411952 0 -0.0020735723659300901 -0.0087436217248102552 0 -0.002238763658985005 -0.0096179492393384854 0 -0.0012148985088726669 -0.0097394557856045807 0 -0.0015941061601019628 -0.0091777418220411952 0 -0.002238763658985005 -0.0096179492393384854 0 -0.00059379438883375006 -0.0096826398142458685 0 -0.0012148985088726669 -0.0097394557856045807 0 -0.0010958073514408932 -0.0091703206762911542 0 -0.0012148985088726669 -0.0097394557856045807 0 -0.0015941061601019628 -0.0091777418220411952 0 -0.0010958073514408932 -0.0091703206762911542 0 -0.0015941061601019628 -0.0091777418220411952 0 -0.0010958073514408932 -0.0091703206762911542 0 -0.0014610828408525903 -0.0087676568371718392 0 -0.00072962766156600158 -0.0085888124700813692 0 -0.0018061378259369826 -0.0081596983163775786 0 -0.0018642757860389476 -0.0070408444035214074 0 -0.018054981995997532 -0.01087197913830641 0 -0.01640526392709684 -0.0089045225083674972 0 -0.00072962766156600158 -0.0085888124700813692 0 -0.0014610828408525903 -0.0087676568371718392 0 -0.0018061378259369826 -0.0081596983163775786 0 -0.00072962766156600158 -0.0085888124700813692 0 -0.0010958073514408932 -0.0091703206762911542 0 -0.0014610828408525903 -0.0087676568371718392 0 -0.0014610828408525903 -0.0087676568371718392 0 -0.0020735723659300901 -0.0087436217248102552 0 -0.0018061378259369826 -0.0081596983163775786 0 -0.0020735723659300901 -0.0087436217248102552 0 -0.0018061378259369826 -0.0081596983163775786 0 -0.0025034932057705008 -0.0082973462003204778 0 -0.0015941061601019628 -0.0091777418220411952 0 -0.0014610828408525903 -0.0087676568371718392 0 -0.0020735723659300901 -0.0087436217248102552 0 -0.0032217299489668999 -0.0082425659430414005 0 -0.0025034932057705008 -0.0082973462003204778 0 -0.0026702826114063149 -0.0075894724115427069 0 -0.0018061378259369826 -0.0081596983163775786 0 -0.0025034932057705008 -0.0082973462003204778 0 -0.0026702826114063149 -0.0075894724115427069 0 -0.0020735723659300901 -0.0087436217248102552 0 -0.0025034932057705008 -0.0082973462003204778 0 -0.0027315203915534488 -0.0088107874744704096 0 -0.0032217299489668999 -0.0082425659430414005 0 -0.0027315203915534488 -0.0088107874744704096 0 -0.0033855800473406327 -0.009221662066965253 0 -0.0032217299489668999 -0.0082425659430414005 0 -0.0025034932057705008 -0.0082973462003204778 0 -0.0027315203915534488 -0.0088107874744704096 0 -0.0027315203915534488 -0.0088107874744704096 0 -0.002238763658985005 -0.0096179492393384854 0 -0.0033855800473406327 -0.009221662066965253 0 -0.0020735723659300901 -0.0087436217248102552 0 -0.0027315203915534488 -0.0088107874744704096 0 -0.002238763658985005 -0.0096179492393384854 0 -0.0022113536044595572 -0.010799721256317469 0 -0.002238763658985005 -0.0096179492393384854 0 -0.0031580046208638402 -0.01013339910333985 0 -0.002238763658985005 -0.0096179492393384854 0 -0.0031580046208638402 -0.01013339910333985 0 -0.0033855800473406327 -0.009221662066965253 0 -0.0043481327721786945 -0.0098391515787611961 0 -0.0033855800473406327 -0.009221662066965253 0 -0.004135659428587601 -0.0084882867616529918 0 -0.0031580046208638402 -0.01013339910333985 0 -0.0043481327721786945 -0.0098391515787611961 0 -0.0033855800473406327 -0.009221662066965253 0 -0.0032217299489668999 -0.0082425659430414005 0 -0.0033855800473406327 -0.009221662066965253 0 -0.004135659428587601 -0.0084882867616529918 0 -0.0032217299489668999 -0.0082425659430414005 0 -0.004135659428587601 -0.0084882867616529918 0 -0.0038204425534363157 -0.0073859752078662098 0 -0.0052251868372574619 -0.0087643905204517324 0 -0.0054669578570472836 -0.0074396332680845322 0 -0.0063826261815198501 -0.0084068662800728042 0 -0.004135659428587601 -0.0084882867616529918 0 -0.0052251868372574619 -0.0087643905204517324 0 -0.0054669578570472836 -0.0074396332680845322 0 -0.0043481327721786945 -0.0098391515787611961 0 -0.0052251868372574619 -0.0087643905204517324 0 -0.0057474197719633857 -0.0096820382281988734 0 -0.0043481327721786945 -0.0098391515787611961 0 -0.004135659428587601 -0.0084882867616529918 0 -0.0052251868372574619 -0.0087643905204517324 0 -0.0043481327721786945 -0.0098391515787611961 0 -0.00515696708492155 -0.010886059745643205 0 -0.0057474197719633857 -0.0096820382281988734 0 -0.0031580046208638402 -0.01013339910333985 0 -0.0043481327721786945 -0.0098391515787611961 0 -0.003769178770558791 -0.011214255021189964 0 -0.0043481327721786945 -0.0098391515787611961 0 -0.00515696708492155 -0.010886059745643205 0 -0.003769178770558791 -0.011214255021189964 0 -0.0038556143858245718 -0.012779230493532103 0 -0.003769178770558791 -0.011214255021189964 0 -0.004892201847048778 -0.012119581630728968 0 -0.0038556143858245718 -0.012779230493532103 0 -0.0027210828682635055 -0.012087241708699323 0 -0.003769178770558791 -0.011214255021189964 0 -0.00515696708492155 -0.010886059745643205 0 -0.003769178770558791 -0.011214255021189964 0 -0.004892201847048778 -0.012119581630728968 0 -0.00515696708492155 -0.010886059745643205 0 -0.004892201847048778 -0.012119581630728968 0 -0.0060131901728346536 -0.012267459555604489 0 -0.0050739488525265225 -0.013341445096826101 0 -0.004892201847048778 -0.012119581630728968 0 -0.0060131901728346536 -0.012267459555604489 0 -0.026505271416486873 -0.016920570351353359 0 -0.026669524917389491 -0.016647309404305675 0 -0.026423734172544351 -0.016449899556037952 0 -0.026505271416486873 -0.016920570351353359 0 -0.026423734172544351 -0.016449899556037952 0 -0.025979848428389983 -0.016613233299377677 0 -0.025995393228304846 -0.017581206972546715 0 -0.025282581705293076 -0.018262621655969584 0 -0.026505271416486873 -0.016920570351353359 0 -0.026853863678662777 -0.016694635969785841 0 -0.026669524917389491 -0.016647309404305675 0 -0.026505271416486873 -0.016920570351353359 0 -0.026853863678662777 -0.016694635969785841 0 -0.027010001028412872 -0.016721412077204616 0 -0.026853863678662777 -0.016694635969785841 0 -0.026669524917389491 -0.016647309404305675 0 -0.02678461539218524 -0.016505889575466483 0 -0.026853863678662777 -0.016694635969785841 0 -0.02678461539218524 -0.016505889575466483 0 -0.026976755254608586 -0.016666197119992003 0 -0.02678461539218524 -0.016505889575466483 0 -0.02690746445780888 -0.016368566254252023 0 -0.026976755254608586 -0.016666197119992003 0 -0.02678461539218524 -0.016505889575466483 0 -0.02690746445780888 -0.016368566254252023 0 -0.026635399053887406 -0.016048543229949773 0 -0.026423734172544351 -0.016449899556037952 0 -0.026205369799604264 -0.015948464796331802 0 -0.026635399053887406 -0.016048543229949773 0 -0.026423734172544351 -0.016449899556037952 0 -0.026205369799604264 -0.015948464796331802 0 -0.025894673861126209 -0.01622191400306338 0 -0.02678461539218524 -0.016505889575466483 0 -0.026423734172544351 -0.016449899556037952 0 -0.026635399053887406 -0.016048543229949773 0 -0.026669524917389491 -0.016647309404305675 0 -0.02678461539218524 -0.016505889575466483 0 -0.026423734172544351 -0.016449899556037952 0 -0.026205369799604264 -0.015948464796331802 0 -0.025894673861126209 -0.01622191400306338 0 -0.025675229300066639 -0.01541810255256177 0 -0.025894673861126209 -0.01622191400306338 0 -0.025475813258304884 -0.016185931607140006 0 -0.025675229300066639 -0.01541810255256177 0 -0.026423734172544351 -0.016449899556037952 0 -0.025894673861126209 -0.01622191400306338 0 -0.025979848428389983 -0.016613233299377677 0 -0.025894673861126209 -0.01622191400306338 0 -0.025475813258304884 -0.016185931607140006 0 -0.025601592695231375 -0.01654985414763999 0 -0.024999918950584999 -0.016003177738265921 0 -0.025475813258304884 -0.016185931607140006 0 -0.025675229300066639 -0.01541810255256177 0 -0.024999918950584999 -0.016003177738265921 0 -0.025475813258304884 -0.016185931607140006 0 -0.025182546366776186 -0.016767306925282152 0 -0.024999918950584999 -0.016003177738265921 0 -0.025182546366776186 -0.016767306925282152 0 -0.02499999203795027 -0.017328569176517893 0 -0.025182546366776186 -0.016767306925282152 0 -0.025398418470461526 -0.016964535223242174 0 -0.02525733802941834 -0.017252242519730395 0 -0.025475813258304884 -0.016185931607140006 0 -0.025182546366776186 -0.016767306925282152 0 -0.025601592695231375 -0.01654985414763999 0 -0.025182546366776186 -0.016767306925282152 0 -0.025601592695231375 -0.01654985414763999 0 -0.025398418470461526 -0.016964535223242174 0 -0.025995393228304846 -0.017581206972546715 0 -0.02575167191743347 -0.017403009473165938 0 -0.026505271416486873 -0.016920570351353359 0 -0.025398418470461526 -0.016964535223242174 0 -0.025979848428389983 -0.016613233299377677 0 -0.025601592695231375 -0.01654985414763999 0 -0.025398418470461526 -0.016964535223242174 0 -0.025979848428389983 -0.016613233299377677 0 -0.025894673861126209 -0.01622191400306338 0 -0.025601592695231375 -0.01654985414763999 0 -0.025979848428389983 -0.016613233299377677 0 -0.025398418470461526 -0.016964535223242174 0 -0.025784641430188101 -0.017176117421287728 0 -0.025531834055651102 -0.017244342992220222 0 -0.026021226767238486 -0.01702324390282775 0 -0.025398418470461526 -0.016964535223242174 0 -0.025784641430188101 -0.017176117421287728 0 -0.025531834055651102 -0.017244342992220222 0 -0.025458559725475963 -0.017387831562727371 0 -0.02575595525642476 -0.017413484028198756 0 -0.025784641430188101 -0.017176117421287728 0 -0.025531834055651102 -0.017244342992220222 0 -0.02575595525642476 -0.017413484028198756 0 -0.024805282364662097 -0.017659619075769125 0 -0.024770130484436104 -0.01804602793260059 0 -0.025182546366776186 -0.016767306925282152 0 -0.02499999203795027 -0.017328569176517893 0 -0.025241890280792344 -0.017654741445970755 0 -0.02499999203795027 -0.017328569176517893 0 -0.025241890280792344 -0.017654741445970755 0 -0.025000004003724832 -0.018654224942816048 0 -0.025398418470461526 -0.016964535223242174 0 -0.025531834055651102 -0.017244342992220222 0 -0.02525733802941834 -0.017252242519730395 0 -0.025531834055651102 -0.017244342992220222 0 -0.02525733802941834 -0.017252242519730395 0 -0.025458559725475963 -0.017387831562727371 0 -0.02525733802941834 -0.017252242519730395 0 -0.025458559725475963 -0.017387831562727371 0 -0.025283967444972012 -0.01763718975309311 0 -0.024770130484436104 -0.01804602793260059 0 -0.024642100023585002 -0.019123570926703051 0 -0.025458559725475963 -0.017387831562727371 0 -0.025283967444972012 -0.01763718975309311 0 -0.02575595525642476 -0.017413484028198756 0 -0.025241890280792344 -0.017654741445970755 0 -0.025286396188772986 -0.018528316813221257 0 -0.025000004003724832 -0.018654224942816048 0 -0.024642100023585002 -0.019123570926703051 0 -0.024999090945700835 -0.018657034691366738 0 -0.023859972590953824 -0.022735782528493863 0 -0.024363825952926143 -0.023010346632760435 0 -0.023674719932376829 -0.023139024189825892 0 -0.024642100023585002 -0.019123570926703051 0 -0.024542421711210845 -0.019418835796824532 0 -0.023859972590953824 -0.022735782528493863 0 -0.023674719932376829 -0.023139024189825892 0 -0.023263350233648315 -0.022759241431702517 0 -0.023263350233648315 -0.022759241431702517 0 -0.023176204440555424 -0.022961984382066803 0 -0.022786615192539824 -0.022805060924894819 0 -0.023674719932376829 -0.023139024189825892 0 -0.023263350233648315 -0.022759241431702517 0 -0.023176204440555424 -0.022961984382066803 0 -0.023674719932376829 -0.023139024189825892 0 -0.023176204440555424 -0.022961984382066803 0 -0.022968132659627886 -0.023175449516961062 0 -0.024542421711210845 -0.019418835796824532 0 -0.024596548542178558 -0.019208719457570082 0 -0.025784641430188101 -0.017176117421287728 0 -0.02575595525642476 -0.017413484028198756 0 -0.026180521412706059 -0.017208797370556268 0 -0.026021226767238486 -0.01702324390282775 0 -0.025784641430188101 -0.017176117421287728 0 -0.026180521412706059 -0.017208797370556268 0 -0.024596548542178558 -0.019208719457570082 0 -0.025282581705293076 -0.018262621655969584 0 -0.022968132659627886 -0.023175449516961062 0 -0.022786615192539824 -0.022805060924894819 0 -0.022126508563802827 -0.023178959849232413 0 -0.026021226767238486 -0.01702324390282775 0 -0.026180521412706059 -0.017208797370556268 0 -0.026572388144060398 -0.017038556912808103 0 -0.022830211524259438 -0.022512533203924691 0 -0.022786615192539824 -0.022805060924894819 0 -0.022351892987428516 -0.022548944681384683 0 -0.022830211524259438 -0.022512533203924691 0 -0.023263350233648315 -0.022759241431702517 0 -0.022786615192539824 -0.022805060924894819 0 -0.023176204440555424 -0.022961984382066803 0 -0.022968132659627886 -0.023175449516961062 0 -0.022786615192539824 -0.022805060924894819 0 -0.022407196716586864 -0.022423207894556391 0 -0.022351892987428516 -0.022548944681384683 0 -0.021829077792986314 -0.022456289865110814 0 -0.021098637435777855 -0.023731197645918078 0 -0.021065883913238288 -0.023384714426296256 0 -0.022344580563919449 -0.022335173936419844 0 -0.021829077792986314 -0.022456289865110814 0 -0.02097672222975518 -0.02239384734378639 0 -0.021508167039936819 -0.022690567422759166 0 -0.021016257647372343 -0.022508282640744896 0 -0.022126508563802827 -0.023178959849232413 0 -0.021829077792986314 -0.022456289865110814 0 -0.02097672222975518 -0.02239384734378639 0 -0.021508167039936819 -0.022690567422759166 0 -0.02097672222975518 -0.02239384734378639 0 -0.021508167039936819 -0.022690567422759166 0 -0.021016257647372343 -0.022508282640744896 0 -0.022786615192539824 -0.022805060924894819 0 -0.022351892987428516 -0.022548944681384683 0 -0.022126508563802827 -0.023178959849232413 0 -0.022351892987428516 -0.022548944681384683 0 -0.021829077792986314 -0.022456289865110814 0 -0.022126508563802827 -0.023178959849232413 0 -0.021829077792986314 -0.022456289865110814 0 -0.021508167039936819 -0.022690567422759166 0 -0.022126508563802827 -0.023178959849232413 0 -0.02141995707078841 -0.023328857014220966 0 -0.020632180982073197 -0.023325315801629089 0 -0.021116178492163375 -0.022215554406157204 0 -0.02141995707078841 -0.023328857014220966 0 -0.022121614194352057 -0.021914311508432163 0 -0.021116178492163375 -0.022215554406157204 0 -0.019539622476628007 -0.024273896272945787 0 -0.02097672222975518 -0.02239384734378639 0 -0.020632180982073197 -0.023325315801629089 0 -0.02097672222975518 -0.02239384734378639 0 -0.020632180982073197 -0.023325315801629089 0 -0.021116178492163375 -0.022215554406157204 0 -0.02097672222975518 -0.02239384734378639 0 -0.021041345273087732 -0.022032798806891272 0 -0.021116178492163375 -0.022215554406157204 0 -0.021041345273087732 -0.022032798806891272 0 -0.021424372362566051 -0.020823864578202126 0 -0.021016257647372343 -0.022508282640744896 0 -0.02097672222975518 -0.02239384734378639 0 -0.021041345273087732 -0.022032798806891272 0 -0.021016257647372343 -0.022508282640744896 0 -0.022121614194352057 -0.021914311508432163 0 -0.021116178492163375 -0.022215554406157204 0 -0.021424372362566051 -0.020823864578202126 0 -0.021041345273087732 -0.022032798806891272 0 -0.021116178492163375 -0.022215554406157204 0 -0.021424372362566051 -0.020823864578202126 0 -0.024613950614915097 -0.017898632748744571 0 -0.024950536277313404 -0.017410884394275954 0 -0.025166741574044763 -0.01761053682240929 0 -0.024950536277313404 -0.017410884394275954 0 -0.025643850197121162 -0.017230372793191024 0 -0.025166741574044763 -0.01761053682240929 0 -0.024950536277313404 -0.017410884394275954 0 -0.025643850197121162 -0.017230372793191024 0 -0.026265397508584878 -0.016579906314063118 0 -0.024330429600098725 -0.018954356821092366 0 -0.024430294729696826 -0.018791326645370858 0 -0.025643850197121162 -0.017230372793191024 0 -0.026101234558232812 -0.017162543874097876 0 -0.026452177818335566 -0.016861989723053045 0 -0.025643850197121162 -0.017230372793191024 0 -0.026265397508584878 -0.016579906314063118 0 -0.026452177818335566 -0.016861989723053045 0 -0.026101234558232812 -0.017162543874097876 0 -0.025672768920483025 -0.017521098641805129 0 -0.026331747982313941 -0.017203981760668553 0 -0.025672768920483025 -0.017521098641805129 0 -0.026331747982313941 -0.017203981760668553 0 -0.026174529824669286 -0.017539015030533792 0 -0.025643850197121162 -0.017230372793191024 0 -0.026101234558232812 -0.017162543874097876 0 -0.025672768920483025 -0.017521098641805129 0 -0.025643850197121162 -0.017230372793191024 0 -0.025672768920483025 -0.017521098641805129 0 -0.025166741574044763 -0.01761053682240929 0 -0.025672768920483025 -0.017521098641805129 0 -0.025166741574044763 -0.01761053682240929 0 -0.024950351261837179 -0.017992558640002751 0 -0.024613950614915097 -0.017898632748744571 0 -0.025166741574044763 -0.01761053682240929 0 -0.024950351261837179 -0.017992558640002751 0 -0.027010001028412872 -0.016721412077204616 0 -0.026988190468513636 -0.016819659456156062 0 -0.026976755254608586 -0.016666197119992003 0 -0.026853863678662777 -0.016694635969785841 0 -0.027010001028412872 -0.016721412077204616 0 -0.026976755254608586 -0.016666197119992003 0 -0.027010001028412872 -0.016721412077204616 0 -0.026706482278512987 -0.01692290403221864 0 -0.026988190468513636 -0.016819659456156062 0 -0.025282581705293076 -0.018262621655969584 0 -0.026095281979606765 -0.017752076899307644 0 -0.024430294729696826 -0.018791326645370858 0 -0.025282581705293076 -0.018262621655969584 0 -0.027010001028412872 -0.016721412077204616 0 -0.026452177818335566 -0.016861989723053045 0 -0.026706482278512987 -0.01692290403221864 0 -0.026265397508584878 -0.016579906314063118 0 -0.027105805901598629 -0.016579609413737956 0 -0.026452177818335566 -0.016861989723053045 0 -0.026101234558232812 -0.017162543874097876 0 -0.026452177818335566 -0.016861989723053045 0 -0.026706482278512987 -0.01692290403221864 0 -0.026706482278512987 -0.01692290403221864 0 -0.026798469956681052 -0.017040481153817455 0 -0.026988190468513636 -0.016819659456156062 0 -0.026101234558232812 -0.017162543874097876 0 -0.026706482278512987 -0.01692290403221864 0 -0.026331747982313941 -0.017203981760668553 0 -0.026706482278512987 -0.01692290403221864 0 -0.026331747982313941 -0.017203981760668553 0 -0.026798469956681052 -0.017040481153817455 0 -0.026331747982313941 -0.017203981760668553 0 -0.026798469956681052 -0.017040481153817455 0 -0.026174529824669286 -0.017539015030533792 0 -0.026798469956681052 -0.017040481153817455 0 -0.026988190468513636 -0.016819659456156062 0 -0.027154701427224866 -0.016852856303960159 0 -0.026988190468513636 -0.016819659456156062 0 -0.027123952442307957 -0.016560379478153402 0 -0.027154701427224866 -0.016852856303960159 0 -0.026988190468513636 -0.016819659456156062 0 -0.026976755254608586 -0.016666197119992003 0 -0.027123952442307957 -0.016560379478153402 0 -0.02690746445780888 -0.016368566254252023 0 -0.026976755254608586 -0.016666197119992003 0 -0.027123952442307957 -0.016560379478153402 0 -0.027123952442307957 -0.016560379478153402 0 -0.027229102980065652 -0.015957106669207154 0 -0.026923174756331728 -0.015953730879817895 0 -0.027123952442307957 -0.016560379478153402 0 -0.027229102980065652 -0.015957106669207154 0 -0.027455239648125872 -0.016664899397314723 0 -0.027229102980065652 -0.015957106669207154 0 -0.027455239648125872 -0.016664899397314723 0 -0.027783297832633683 -0.015407513275686232 0 -0.027123952442307957 -0.016560379478153402 0 -0.027455239648125872 -0.016664899397314723 0 -0.027154701427224866 -0.016852856303960159 0 -0.026798469956681052 -0.017040481153817455 0 -0.027154701427224866 -0.016852856303960159 0 -0.026940063707472674 -0.017212540076434166 0 -0.027455239648125872 -0.016664899397314723 0 -0.027154701427224866 -0.016852856303960159 0 -0.026940063707472674 -0.017212540076434166 0 -0.026798469956681052 -0.017040481153817455 0 -0.026940063707472674 -0.017212540076434166 0 -0.026174529824669286 -0.017539015030533792 0 -0.026940063707472674 -0.017212540076434166 0 -0.026174529824669286 -0.017539015030533792 0 -0.02631593831454954 -0.017873001053659601 0 -0.026940063707472674 -0.017212540076434166 0 -0.026926638661964139 -0.017957289383446439 0 -0.02631593831454954 -0.017873001053659601 0 -0.027455239648125872 -0.016664899397314723 0 -0.028470719276208801 -0.016179462251622648 0 -0.027783297832633683 -0.015407513275686232 0 -0.026822530384825741 -0.015706099201217284 0 -0.026808755223715036 -0.015665735419912927 0 -0.027455239648125872 -0.016664899397314723 0 -0.026940063707472674 -0.017212540076434166 0 -0.026976959421031281 -0.017331356106395215 0 -0.026809259231924853 -0.015778666719481211 0 -0.026808755223715036 -0.015665735419912927 0 -0.026808755223715036 -0.015665735419912927 0 -0.026596887971462001 -0.015691212868398655 0 -0.027080851347635826 -0.014977892054577422 0 -0.027082086034977734 -0.014939209242511159 0 -0.027115758648685987 -0.014958854306614996 0 -0.028470719276208801 -0.016179462251622648 0 -0.028551115109794082 -0.014807045378880879 0 -0.027783297832633683 -0.015407513275686232 0 -0.026808755223715036 -0.015665735419912927 0 -0.027107340257058968 -0.014742761858054581 0 -0.028551115109794082 -0.014807045378880879 0 -0.027783297832633683 -0.015407513275686232 0 -0.027756978999766493 -0.014327283699072265 0 -0.027783297832633683 -0.015407513275686232 0 -0.027756978999766493 -0.014327283699072265 0 -0.027032796091457693 -0.014991743169345668 0 -0.027229102980065652 -0.015957106669207154 0 -0.027783297832633683 -0.015407513275686232 0 -0.027032796091457693 -0.014991743169345668 0 -0.025672768920483025 -0.017521098641805129 0 -0.024950351261837179 -0.017992558640002751 0 -0.025498965174497044 -0.017966118482817754 0 -0.024944660758940588 -0.01828379115957245 0 -0.025147808940104967 -0.018255043078736276 0 -0.024950351261837179 -0.017992558640002751 0 -0.025147808940104967 -0.018255043078736276 0 -0.025498965174497044 -0.017966118482817754 0 -0.025434149098231013 -0.018351189025896619 0 -0.025147808940104967 -0.018255043078736276 0 -0.024950351261837179 -0.017992558640002751 0 -0.025498965174497044 -0.017966118482817754 0 -0.025861280699093169 -0.018032812587774234 0 -0.025498965174497044 -0.017966118482817754 0 -0.026174529824669286 -0.017539015030533792 0 -0.025861280699093169 -0.018032812587774234 0 -0.025498965174497044 -0.017966118482817754 0 -0.025434149098231013 -0.018351189025896619 0 -0.025672768920483025 -0.017521098641805129 0 -0.025498965174497044 -0.017966118482817754 0 -0.026174529824669286 -0.017539015030533792 0 -0.025861280699093169 -0.018032812587774234 0 -0.02631593831454954 -0.017873001053659601 0 -0.025844293148567659 -0.018512119221245012 0 -0.025861280699093169 -0.018032812587774234 0 -0.026174529824669286 -0.017539015030533792 0 -0.02631593831454954 -0.017873001053659601 0 -0.026926638661964139 -0.017957289383446439 0 -0.02631593831454954 -0.017873001053659601 0 -0.025844293148567659 -0.018512119221245012 0 -0.026596887971462001 -0.015691212868398655 0 -0.026819834189677306 -0.015249623369458455 0 -0.027115758648685987 -0.014958854306614996 0 -0.027149622280763841 -0.014941087738383874 0 -0.027116892605562399 -0.014921530252129268 0 -0.027082086034977734 -0.014939209242511159 0 -0.027115758648685987 -0.014958854306614996 0 -0.027116892605562399 -0.014921530252129268 0 -0.025861280699093169 -0.018032812587774234 0 -0.025844293148567659 -0.018512119221245012 0 -0.025434149098231013 -0.018351189025896619 0 -0.025844293148567659 -0.018512119221245012 0 -0.025434149098231013 -0.018351189025896619 0 -0.025177663584293197 -0.018712555028381511 0 -0.025147808940104967 -0.018255043078736276 0 -0.025434149098231013 -0.018351189025896619 0 -0.025177663584293197 -0.018712555028381511 0 -0.024944660758940588 -0.01828379115957245 0 -0.025147808940104967 -0.018255043078736276 0 -0.025177663584293197 -0.018712555028381511 0 -0.028873585737886842 -0.012368604448297137 0 -0.028462451336807928 -0.012130489102381261 0 -0.028943897382465909 -0.011748030294685062 0 -0.026819834189677306 -0.015249623369458455 0 -0.027167977748180569 -0.014384793562417959 0 -0.027167977748180569 -0.014384793562417959 0 -0.027252116826938001 -0.013680594697958029 0 -0.028462451336807928 -0.012130489102381261 0 -0.028396246685414864 -0.011759024263039488 0 -0.028064707476347452 -0.011897762391563961 0 -0.028396246685414864 -0.011759024263039488 0 -0.028943897382465909 -0.011748030294685062 0 -0.028531072977338742 -0.011436624282450307 0 -0.028462451336807928 -0.012130489102381261 0 -0.028396246685414864 -0.011759024263039488 0 -0.028943897382465909 -0.011748030294685062 0 -0.028396246685414864 -0.011759024263039488 0 -0.028091066686506908 -0.011394743090227673 0 -0.028531072977338742 -0.011436624282450307 0 -0.027756978999766493 -0.014327283699072265 0 -0.027436488412048626 -0.013029202164024705 0 -0.027222656171478603 -0.013995095399831032 0 -0.027756978999766493 -0.014327283699072265 0 -0.027222656171478603 -0.013995095399831032 0 -0.027032796091457693 -0.014991743169345668 0 -0.028551115109794082 -0.014807045378880879 0 -0.027756978999766493 -0.014327283699072265 0 -0.028582426397305072 -0.013829952886250333 0 -0.027082086034977734 -0.014939209242511159 0 -0.027116892605562399 -0.014921530252129268 0 -0.02708318884215985 -0.01490048301852335 0 -0.027107340257058968 -0.014742761858054581 0 -0.027252116826938001 -0.013680594697958029 0 -0.027252116826938001 -0.013680594697958029 0 -0.027530118138835147 -0.012298418399350997 0 -0.028108421136545991 -0.012691026695605241 0 -0.027184344704006817 -0.012182405000150821 0 -0.028126637439870879 -0.01193478558161799 0 -0.028396246685414864 -0.011759024263039488 0 -0.028064707476347452 -0.011897762391563961 0 -0.028091066686506908 -0.011394743090227673 0 -0.027756978999766493 -0.014327283699072265 0 -0.028582426397305072 -0.013829952886250333 0 -0.027436488412048626 -0.013029202164024705 0 -0.027252116826938001 -0.013680594697958029 0 -0.02700699593645144 -0.013013699946096845 0 -0.027436488412048626 -0.013029202164024705 0 -0.026315376492892353 -0.013140241049146035 0 -0.026656685196644356 -0.013975721301410083 0 -0.027436488412048626 -0.013029202164024705 0 -0.026656685196644356 -0.013975721301410083 0 -0.027222656171478603 -0.013995095399831032 0 -0.027436488412048626 -0.013029202164024705 0 -0.026315376492892353 -0.013140241049146035 0 -0.026385062925898747 -0.011999338126931955 0 -0.026656685196644356 -0.013975721301410083 0 -0.026426791177365801 -0.01479389802774381 0 -0.026064685664567218 -0.014031391907610487 0 -0.026315376492892353 -0.013140241049146035 0 -0.026656685196644356 -0.013975721301410083 0 -0.026064685664567218 -0.014031391907610487 0 -0.026656685196644356 -0.013975721301410083 0 -0.027222656171478603 -0.013995095399831032 0 -0.027032796091457693 -0.014991743169345668 0 -0.027032796091457693 -0.014991743169345668 0 -0.026638353929537433 -0.015433890063138568 0 -0.026426791177365801 -0.01479389802774381 0 -0.027032796091457693 -0.014991743169345668 0 -0.026638353929537433 -0.015433890063138568 0 -0.026923174756331728 -0.015953730879817895 0 -0.026656685196644356 -0.013975721301410083 0 -0.027032796091457693 -0.014991743169345668 0 -0.026426791177365801 -0.01479389802774381 0 -0.027229102980065652 -0.015957106669207154 0 -0.027032796091457693 -0.014991743169345668 0 -0.026923174756331728 -0.015953730879817895 0 -0.026426791177365801 -0.01479389802774381 0 -0.025973525409659654 -0.014759133321778733 0 -0.026064685664567218 -0.014031391907610487 0 -0.026426791177365801 -0.01479389802774381 0 -0.026270755157565929 -0.015418684536481783 0 -0.025973525409659654 -0.014759133321778733 0 -0.026638353929537433 -0.015433890063138568 0 -0.026426791177365801 -0.01479389802774381 0 -0.026270755157565929 -0.015418684536481783 0 -0.026638353929537433 -0.015433890063138568 0 -0.026270755157565929 -0.015418684536481783 0 -0.026635399053887406 -0.016048543229949773 0 -0.026205369799604264 -0.015948464796331802 0 -0.026270755157565929 -0.015418684536481783 0 -0.026635399053887406 -0.016048543229949773 0 -0.02690746445780888 -0.016368566254252023 0 -0.026635399053887406 -0.016048543229949773 0 -0.026923174756331728 -0.015953730879817895 0 -0.02690746445780888 -0.016368566254252023 0 -0.027123952442307957 -0.016560379478153402 0 -0.026923174756331728 -0.015953730879817895 0 -0.026638353929537433 -0.015433890063138568 0 -0.026635399053887406 -0.016048543229949773 0 -0.026923174756331728 -0.015953730879817895 0 -0.024999918950584999 -0.016003177738265921 0 -0.025675229300066639 -0.01541810255256177 0 -0.024999796351179646 -0.014677851364788032 0 -0.026270755157565929 -0.015418684536481783 0 -0.025675229300066639 -0.01541810255256177 0 -0.025973525409659654 -0.014759133321778733 0 -0.026205369799604264 -0.015948464796331802 0 -0.026270755157565929 -0.015418684536481783 0 -0.025675229300066639 -0.01541810255256177 0 -0.025675229300066639 -0.01541810255256177 0 -0.025973525409659654 -0.014759133321778733 0 -0.025446809385090776 -0.014094750075974669 0 -0.025675229300066639 -0.01541810255256177 0 -0.024999796351179646 -0.014677851364788032 0 -0.025446809385090776 -0.014094750075974669 0 -0.024999788266760067 -0.013352264213847272 0 -0.025446809385090776 -0.014094750075974669 0 -0.025632847760411526 -0.013314675242598752 0 -0.024999796351179646 -0.014677851364788032 0 -0.024999788266760067 -0.013352264213847272 0 -0.025446809385090776 -0.014094750075974669 0 -0.025446809385090776 -0.014094750075974669 0 -0.026064685664567218 -0.014031391907610487 0 -0.025632847760411526 -0.013314675242598752 0 -0.025973525409659654 -0.014759133321778733 0 -0.025446809385090776 -0.014094750075974669 0 -0.026064685664567218 -0.014031391907610487 0 -0.026315376492892353 -0.013140241049146035 0 -0.026064685664567218 -0.014031391907610487 0 -0.025632847760411526 -0.013314675242598752 0 -0.026315376492892353 -0.013140241049146035 0 -0.025632847760411526 -0.013314675242598752 0 -0.025802613911419196 -0.01247262057527989 0 -0.024999788266760067 -0.013352264213847272 0 -0.025632847760411526 -0.013314675242598752 0 -0.024999780909515646 -0.012026529741693253 0 -0.025632847760411526 -0.013314675242598752 0 -0.024999780909515646 -0.012026529741693253 0 -0.025802613911419196 -0.01247262057527989 0 -0.024999780909515646 -0.012026529741693253 0 -0.025802613911419196 -0.01247262057527989 0 -0.025847422811982226 -0.011213595193685954 0 -0.025802613911419196 -0.01247262057527989 0 -0.025847422811982226 -0.011213595193685954 0 -0.026800508200696911 -0.011243301029653338 0 -0.024999780909515646 -0.012026529741693253 0 -0.025847422811982226 -0.011213595193685954 0 -0.024999899604936669 -0.010701219402203312 0 -0.027184344704006817 -0.012182405000150821 0 -0.026954350589422763 -0.011633427455498654 0 -0.026385062925898747 -0.011999338126931955 0 -0.02700699593645144 -0.013013699946096845 0 -0.026607223380144467 -0.012635668112831408 0 -0.026315376492892353 -0.013140241049146035 0 -0.025802613911419196 -0.01247262057527989 0 -0.026385062925898747 -0.011999338126931955 0 -0.025802613911419196 -0.01247262057527989 0 -0.026385062925898747 -0.011999338126931955 0 -0.026419015591435842 -0.011243346180977404 0 -0.026178688225738992 -0.011734969590051299 0 -0.02661597363972959 -0.01116417557261061 0 -0.025847422811982226 -0.011213595193685954 0 -0.026800508200696911 -0.011243301029653338 0 -0.026624269625970472 -0.010544506193043533 0 -0.026954350589422763 -0.011633427455498654 0 -0.026385062925898747 -0.011999338126931955 0 -0.026419015591435842 -0.011243346180977404 0 -0.026954350589422763 -0.011633427455498654 0 -0.026419015591435842 -0.011243346180977404 0 -0.027269859916170217 -0.011111952881327663 0 -0.026800508200696911 -0.011243301029653338 0 -0.026624269625970472 -0.010544506193043533 0 -0.027476904422090175 -0.01013748332174917 0 -0.02661597363972959 -0.01116417557261061 0 -0.027266308033464748 -0.010297027723630062 0 -0.026624269625970472 -0.010544506193043533 0 -0.026974865457626174 -0.0099759427638340253 0 -0.027476904422090175 -0.01013748332174917 0 -0.026419015591435842 -0.011243346180977404 0 -0.027140273103636373 -0.010141498669768646 0 -0.027269859916170217 -0.011111952881327663 0 -0.026624269625970472 -0.010544506193043533 0 -0.026974865457626174 -0.0099759427638340253 0 -0.025977451821671119 -0.010381910430160428 0 -0.026821056866226305 -0.0099644935880258429 0 -0.025958748693459072 -0.010312468580535529 0 -0.0264004034055631 -0.0095779851150119104 0 -0.026948864389540299 -0.0097480898880362293 0 -0.026075953799887398 -0.010183667823299896 0 -0.0264004034055631 -0.0095779851150119104 0 -0.026948864389540299 -0.0097480898880362293 0 -0.026799503234931077 -0.0093150917617833423 0 -0.026974865457626174 -0.0099759427638340253 0 -0.027476904422090175 -0.01013748332174917 0 -0.027689407130011608 -0.0095541747225011339 0 -0.026821056866226305 -0.0099644935880258429 0 -0.02724869985536613 -0.0097951562630640508 0 -0.026948864389540299 -0.0097480898880362293 0 -0.027176993611090289 -0.0094248071671897173 0 -0.027689407130011608 -0.0095541747225011339 0 -0.026948864389540299 -0.0097480898880362293 0 -0.026799503234931077 -0.0093150917617833423 0 -0.027176993611090289 -0.0094248071671897173 0 -0.025000908027054757 -0.010700536222459332 0 -0.025958748693459072 -0.010312468580535529 0 -0.024999986662015344 -0.0107007458820975 0 -0.026075953799887398 -0.010183667823299896 0 -0.025780785741235809 -0.0095665113920567792 0 -0.025847422811982226 -0.011213595193685954 0 -0.024999899604936669 -0.010701219402203312 0 -0.025977451821671119 -0.010381910430160428 0 -0.025847422811982226 -0.011213595193685954 0 -0.026624269625970472 -0.010544506193043533 0 -0.025977451821671119 -0.010381910430160428 0 -0.0264004034055631 -0.0095779851150119104 0 -0.026075953799887398 -0.010183667823299896 0 -0.025780785741235809 -0.0095665113920567792 0 -0.0264004034055631 -0.0095779851150119104 0 -0.025780785741235809 -0.0095665113920567792 0 -0.026320536793633716 -0.0090841684920028188 0 -0.024999986662015344 -0.0107007458820975 0 -0.025780785741235809 -0.0095665113920567792 0 -0.024999940990127586 -0.0092098264499398484 0 -0.025780785741235809 -0.0095665113920567792 0 -0.024999940990127586 -0.0092098264499398484 0 -0.025726872645011542 -0.0087105351681056771 0 -0.024999940990127586 -0.0092098264499398484 0 -0.025726872645011542 -0.0087105351681056771 0 -0.024999980280507917 -0.007718982680861684 0 -0.026012607549209098 -0.0080577149362137807 0 -0.025726872645011542 -0.0087105351681056771 0 -0.024999980280507917 -0.007718982680861684 0 -0.026012607549209098 -0.0080577149362137807 0 -0.025726872645011542 -0.0087105351681056771 0 -0.026351986958025955 -0.0086050713356239789 0 -0.025726872645011542 -0.0087105351681056771 0 -0.026320536793633716 -0.0090841684920028188 0 -0.026351986958025955 -0.0086050713356239789 0 -0.025780785741235809 -0.0095665113920567792 0 -0.025726872645011542 -0.0087105351681056771 0 -0.026320536793633716 -0.0090841684920028188 0 -0.0264004034055631 -0.0095779851150119104 0 -0.026320536793633716 -0.0090841684920028188 0 -0.026799503234931077 -0.0093150917617833423 0 -0.026320536793633716 -0.0090841684920028188 0 -0.026799503234931077 -0.0093150917617833423 0 -0.026764044377535153 -0.0088301702229540459 0 -0.026320536793633716 -0.0090841684920028188 0 -0.026764044377535153 -0.0088301702229540459 0 -0.026351986958025955 -0.0086050713356239789 0 -0.027176993611090289 -0.0094248071671897173 0 -0.027136269812100513 -0.0091101480555565613 0 -0.027399611041891068 -0.0092790851846368556 0 -0.026799503234931077 -0.0093150917617833423 0 -0.027176993611090289 -0.0094248071671897173 0 -0.027136269812100513 -0.0091101480555565613 0 -0.026764044377535153 -0.0088301702229540459 0 -0.027136269812100513 -0.0091101480555565613 0 -0.027193471269762924 -0.008788052733815846 0 -0.026799503234931077 -0.0093150917617833423 0 -0.026764044377535153 -0.0088301702229540459 0 -0.027136269812100513 -0.0091101480555565613 0 -0.027136269812100513 -0.0091101480555565613 0 -0.027193471269762924 -0.008788052733815846 0 -0.027602043400296799 -0.0090320725033378284 0 -0.027140892176930206 -0.0081720358412780865 0 -0.027397624453699258 -0.0079835214486528409 0 -0.027636923946349198 -0.0083921424068790045 0 -0.026842202758517262 -0.0081851901221658262 0 -0.027489529437593651 -0.0083492107384175989 0 -0.027193471269762924 -0.008788052733815846 0 -0.026860135126834026 -0.0083688092547829288 0 -0.027559255790067003 -0.008593377493239733 0 -0.026764044377535153 -0.0088301702229540459 0 -0.027193471269762924 -0.008788052733815846 0 -0.026860135126834026 -0.0083688092547829288 0 -0.026012607549209098 -0.0080577149362137807 0 -0.026351986958025955 -0.0086050713356239789 0 -0.026860135126834026 -0.0083688092547829288 0 -0.025978054929374588 -0.0079670369470946426 0 -0.026842202758517262 -0.0081851901221658262 0 -0.026764044377535153 -0.0088301702229540459 0 -0.026351986958025955 -0.0086050713356239789 0 -0.026860135126834026 -0.0083688092547829288 0 -0.026146929225024169 -0.0079933399058680996 0 -0.027140892176930206 -0.0081720358412780865 0 -0.026933707575453776 -0.0076761422546184213 0 -0.027140892176930206 -0.0081720358412780865 0 -0.026933707575453776 -0.0076761422546184213 0 -0.027397624453699258 -0.0079835214486528409 0 -0.026933707575453776 -0.0076761422546184213 0 -0.027397624453699258 -0.0079835214486528409 0 -0.02747710686742813 -0.0077122829693159929 0 -0.028100324839820192 -0.0067304459170790384 0 -0.026954697288850818 -0.0066750267955778672 0 -0.027468908068767426 -0.0058842131469113912 0 -0.027115720082034736 -0.0070859500305804684 0 -0.027427368495308507 -0.0067055725010961202 0 -0.026933707575453776 -0.0076761422546184213 0 -0.026954697288850818 -0.0066750267955778672 0 -0.025970826645905613 -0.0069757579246002878 0 -0.026933707575453776 -0.0076761422546184213 0 -0.028100324839820192 -0.0067304459170790384 0 -0.026954697288850818 -0.0066750267955778672 0 -0.025970826645905613 -0.0069757579246002878 0 -0.026374881412771466 -0.0061239686517998897 0 -0.025660765304751625 -0.0060686950204482124 0 -0.026954697288850818 -0.0066750267955778672 0 -0.025970826645905613 -0.0069757579246002878 0 -0.026374881412771466 -0.0061239686517998897 0 -0.025970826645905613 -0.0069757579246002878 0 -0.024999964756972328 -0.0065559911367667131 0 -0.025660765304751625 -0.0060686950204482124 0 -0.026146929225024169 -0.0079933399058680996 0 -0.025970826645905613 -0.0069757579246002878 0 -0.024999978791512698 -0.0077187888256674813 0 -0.025978054929374588 -0.0079670369470946426 0 -0.02500105989710134 -0.0077190429583514205 0 -0.025970826645905613 -0.0069757579246002878 0 -0.024999964756972328 -0.0065559911367667131 0 -0.024999978791512698 -0.0077187888256674813 0 -0.026146929225024169 -0.0079933399058680996 0 -0.026933707575453776 -0.0076761422546184213 0 -0.025970826645905613 -0.0069757579246002878 0 -0.028451487792016849 -0.0079657455475726675 0 -0.028125021547433977 -0.0082437035659860772 0 -0.028716903833378559 -0.0085616274777774014 0 -0.02885592527149777 -0.0080151393822750303 0 -0.028451487792016849 -0.0079657455475726675 0 -0.028716903833378559 -0.0085616274777774014 0 -0.02885592527149777 -0.0080151393822750303 0 -0.028716903833378559 -0.0085616274777774014 0 -0.029239172273411961 -0.0083351227212781643 0 -0.02885592527149777 -0.0080151393822750303 0 -0.028598701989985782 -0.0076914087723558618 0 -0.028451487792016849 -0.0079657455475726675 0 -0.02885592527149777 -0.0080151393822750303 0 -0.029237402669268192 -0.0078920700765030046 0 -0.028903918943194412 -0.0076337743160787355 0 -0.02885592527149777 -0.0080151393822750303 0 -0.028598701989985782 -0.0076914087723558618 0 -0.028903918943194412 -0.0076337743160787355 0 -0.028598701989985782 -0.0076914087723558618 0 -0.028451487792016849 -0.0079657455475726675 0 -0.028276156329921955 -0.0076807548589093453 0 -0.028451487792016849 -0.0079657455475726675 0 -0.028276156329921955 -0.0076807548589093453 0 -0.028006614994359993 -0.0078490039097764159 0 -0.028451487792016849 -0.0079657455475726675 0 -0.028006614994359993 -0.0078490039097764159 0 -0.028125021547433977 -0.0082437035659860772 0 -0.028276156329921955 -0.0076807548589093453 0 -0.028006614994359993 -0.0078490039097764159 0 -0.027941142270588682 -0.0074530042176137431 0 -0.02747710686742813 -0.0077122829693159929 0 -0.028006614994359993 -0.0078490039097764159 0 -0.027704439033267584 -0.0080149821118856088 0 -0.02747710686742813 -0.0077122829693159929 0 -0.028006614994359993 -0.0078490039097764159 0 -0.027941142270588682 -0.0074530042176137431 0 -0.027397624453699258 -0.0079835214486528409 0 -0.027704439033267584 -0.0080149821118856088 0 -0.027636923946349198 -0.0083921424068790045 0 -0.027397624453699258 -0.0079835214486528409 0 -0.02747710686742813 -0.0077122829693159929 0 -0.027704439033267584 -0.0080149821118856088 0 -0.027704439033267584 -0.0080149821118856088 0 -0.028125021547433977 -0.0082437035659860772 0 -0.027636923946349198 -0.0083921424068790045 0 -0.028006614994359993 -0.0078490039097764159 0 -0.027704439033267584 -0.0080149821118856088 0 -0.028125021547433977 -0.0082437035659860772 0 -0.027794485583048961 -0.0084207497956887631 0 -0.027489529437593651 -0.0083492107384175989 0 -0.028125021547433977 -0.0082437035659860772 0 -0.028176749425751123 -0.0086821638629969895 0 -0.027636923946349198 -0.0083921424068790045 0 -0.028176749425751123 -0.0086821638629969895 0 -0.027559255790067003 -0.008593377493239733 0 -0.027602043400296799 -0.0090320725033378284 0 -0.027193471269762924 -0.008788052733815846 0 -0.027559255790067003 -0.008593377493239733 0 -0.027602043400296799 -0.0090320725033378284 0 -0.027176993611090289 -0.0094248071671897173 0 -0.027399611041891068 -0.0092790851846368556 0 -0.027689407130011608 -0.0095541747225011339 0 -0.027136269812100513 -0.0091101480555565613 0 -0.027602043400296799 -0.0090320725033378284 0 -0.027399611041891068 -0.0092790851846368556 0 -0.027602043400296799 -0.0090320725033378284 0 -0.027941834414136665 -0.0092320755377699737 0 -0.027689407130011608 -0.0095541747225011339 0 -0.027602043400296799 -0.0090320725033378284 0 -0.027399611041891068 -0.0092790851846368556 0 -0.027689407130011608 -0.0095541747225011339 0 -0.027941834414136665 -0.0092320755377699737 0 -0.028529804139331427 -0.0093315940477770275 0 -0.02819076648137795 -0.0096743904087526911 0 -0.028176749425751123 -0.0086821638629969895 0 -0.027602043400296799 -0.0090320725033378284 0 -0.027941834414136665 -0.0092320755377699737 0 -0.028176749425751123 -0.0086821638629969895 0 -0.027941834414136665 -0.0092320755377699737 0 -0.028529804139331427 -0.0093315940477770275 0 -0.028176749425751123 -0.0086821638629969895 0 -0.028529804139331427 -0.0093315940477770275 0 -0.028716903833378559 -0.0085616274777774014 0 -0.028125021547433977 -0.0082437035659860772 0 -0.028176749425751123 -0.0086821638629969895 0 -0.028716903833378559 -0.0085616274777774014 0 -0.028716903833378559 -0.0085616274777774014 0 -0.029045810479257413 -0.009391548400264977 0 -0.029234711871191411 -0.0088610281412275903 0 -0.028529804139331427 -0.0093315940477770275 0 -0.028716903833378559 -0.0085616274777774014 0 -0.029045810479257413 -0.009391548400264977 0 -0.028529804139331427 -0.0093315940477770275 0 -0.029045810479257413 -0.009391548400264977 0 -0.028886840363958863 -0.0099991863077817308 0 -0.028529804139331427 -0.0093315940477770275 0 -0.028441971150866326 -0.010075283738063072 0 -0.02819076648137795 -0.0096743904087526911 0 -0.028529804139331427 -0.0093315940477770275 0 -0.028886840363958863 -0.0099991863077817308 0 -0.028441971150866326 -0.010075283738063072 0 -0.028441971150866326 -0.010075283738063072 0 -0.02818483663936459 -0.01046910190768394 0 -0.02859797367006946 -0.010634620052934579 0 -0.028886840363958863 -0.0099991863077817308 0 -0.028441971150866326 -0.010075283738063072 0 -0.02859797367006946 -0.010634620052934579 0 -0.028886840363958863 -0.0099991863077817308 0 -0.02859797367006946 -0.010634620052934579 0 -0.029198619009273345 -0.010522872877347876 0 -0.027941834414136665 -0.0092320755377699737 0 -0.027476904422090175 -0.01013748332174917 0 -0.027689407130011608 -0.0095541747225011339 0 -0.027637898071287512 -0.0098129491326657756 0 -0.027266308033464748 -0.010297027723630062 0 -0.027140273103636373 -0.010141498669768646 0 -0.027849326418331325 -0.0097457687816840041 0 -0.027677878937512057 -0.010124752252159913 0 -0.027941834414136665 -0.0092320755377699737 0 -0.027140273103636373 -0.010141498669768646 0 -0.027849326418331325 -0.0097457687816840041 0 -0.027849326418331325 -0.0097457687816840041 0 -0.028016463808814812 -0.01009224388062707 0 -0.027677878937512057 -0.010124752252159913 0 -0.027941834414136665 -0.0092320755377699737 0 -0.027849326418331325 -0.0097457687816840041 0 -0.02819076648137795 -0.0096743904087526911 0 -0.027849326418331325 -0.0097457687816840041 0 -0.02819076648137795 -0.0096743904087526911 0 -0.028016463808814812 -0.01009224388062707 0 -0.028441971150866326 -0.010075283738063072 0 -0.02819076648137795 -0.0096743904087526911 0 -0.028016463808814812 -0.01009224388062707 0 -0.028441971150866326 -0.010075283738063072 0 -0.028016463808814812 -0.01009224388062707 0 -0.02818483663936459 -0.01046910190768394 0 -0.02818483663936459 -0.01046910190768394 0 -0.027677567373950031 -0.01051686241857379 0 -0.028103417702546329 -0.011008189316963011 0 -0.028016463808814812 -0.01009224388062707 0 -0.027677878937512057 -0.010124752252159913 0 -0.027677567373950031 -0.01051686241857379 0 -0.028016463808814812 -0.01009224388062707 0 -0.02818483663936459 -0.01046910190768394 0 -0.027677567373950031 -0.01051686241857379 0 -0.027140273103636373 -0.010141498669768646 0 -0.027677567373950031 -0.01051686241857379 0 -0.027269859916170217 -0.011111952881327663 0 -0.027140273103636373 -0.010141498669768646 0 -0.027677878937512057 -0.010124752252159913 0 -0.027677567373950031 -0.01051686241857379 0 -0.026954350589422763 -0.011633427455498654 0 -0.027269859916170217 -0.011111952881327663 0 -0.027589064652367497 -0.011546229140352068 0 -0.027269859916170217 -0.011111952881327663 0 -0.028103417702546329 -0.011008189316963011 0 -0.027589064652367497 -0.011546229140352068 0 -0.027677567373950031 -0.01051686241857379 0 -0.027269859916170217 -0.011111952881327663 0 -0.028103417702546329 -0.011008189316963011 0 -0.027614026988088233 -0.011848998465587287 0 -0.027530118138835147 -0.012298418399350997 0 -0.028103417702546329 -0.011008189316963011 0 -0.028126637439870879 -0.01193478558161799 0 -0.027589064652367497 -0.011546229140352068 0 -0.028103417702546329 -0.011008189316963011 0 -0.028091066686506908 -0.011394743090227673 0 -0.028431485506786206 -0.011120481534891851 0 -0.027184344704006817 -0.012182405000150821 0 -0.028126637439870879 -0.01193478558161799 0 -0.027589064652367497 -0.011546229140352068 0 -0.027184344704006817 -0.012182405000150821 0 -0.026954350589422763 -0.011633427455498654 0 -0.027589064652367497 -0.011546229140352068 0 -0.02859797367006946 -0.010634620052934579 0 -0.028853521187995272 -0.011126948468166181 0 -0.029198619009273345 -0.010522872877347876 0 -0.02859797367006946 -0.010634620052934579 0 -0.028431485506786206 -0.011120481534891851 0 -0.028853521187995272 -0.011126948468166181 0 -0.02818483663936459 -0.01046910190768394 0 -0.028103417702546329 -0.011008189316963011 0 -0.02859797367006946 -0.010634620052934579 0 -0.028103417702546329 -0.011008189316963011 0 -0.02859797367006946 -0.010634620052934579 0 -0.028431485506786206 -0.011120481534891851 0 -0.028431485506786206 -0.011120481534891851 0 -0.028531072977338742 -0.011436624282450307 0 -0.028853521187995272 -0.011126948468166181 0 -0.028091066686506908 -0.011394743090227673 0 -0.028431485506786206 -0.011120481534891851 0 -0.028531072977338742 -0.011436624282450307 0 -0.028943897382465909 -0.011748030294685062 0 -0.028531072977338742 -0.011436624282450307 0 -0.028853521187995272 -0.011126948468166181 0 -0.028943897382465909 -0.011748030294685062 0 -0.028853521187995272 -0.011126948468166181 0 -0.029233524463952026 -0.011397891856443789 0 -0.028853521187995272 -0.011126948468166181 0 -0.029233524463952026 -0.011397891856443789 0 -0.029352568176016391 -0.011028416934208495 0 -0.029233524463952026 -0.011397891856443789 0 -0.029352568176016391 -0.011028416934208495 0 -0.029669952610487708 -0.011404399776755407 0 -0.029352568176016391 -0.011028416934208495 0 -0.029198619009273345 -0.010522872877347876 0 -0.029821845087079378 -0.010685895378760916 0 -0.028853521187995272 -0.011126948468166181 0 -0.029352568176016391 -0.011028416934208495 0 -0.029198619009273345 -0.010522872877347876 0 -0.029561693935420529 -0.0093125074170141865 0 -0.029498604466819581 -0.0094107376733058214 0 -0.029560056547765747 -0.0093821313861132422 0 -0.029352568176016391 -0.011028416934208495 0 -0.029821845087079378 -0.010685895378760916 0 -0.029669952610487708 -0.011404399776755407 0 -0.029145933323804843 -0.010118987175098085 0 -0.028491980817771313 -0.0110055768457584 0 -0.02956790442944407 -0.009440908601865524 0 -0.029498604466819581 -0.0094107376733058214 0 -0.029560056547765747 -0.0093821313861132422 0 -0.02956790442944407 -0.009440908601865524 0 -0.029560056547765747 -0.0093821313861132422 0 -0.029585832370532392 -0.0093990012846101537 0 -0.029593210475597088 -0.0094174685327380412 0 -0.029585832370532392 -0.0093990012846101537 0 -0.0296091794479857 -0.0093892247564715987 0 -0.02959410377515628 -0.0093532705032897904 0 -0.0296091794479857 -0.0093892247564715987 0 -0.029620119392478123 -0.0093407770314010378 0 -0.029585832370532392 -0.0093990012846101537 0 -0.02959410377515628 -0.0093532705032897904 0 -0.0296091794479857 -0.0093892247564715987 0 -0.029560056547765747 -0.0093821313861132422 0 -0.029585832370532392 -0.0093990012846101537 0 -0.02959410377515628 -0.0093532705032897904 0 -0.029617109677765818 -0.0094022832222443384 0 -0.029606066329078411 -0.0094189358183861729 0 -0.02958919766892202 -0.0094767945966994852 0 -0.028405395977552993 -0.010787225416069197 0 -0.028933243404194932 -0.010426766781200372 0 -0.029617109677765818 -0.0094022832222443384 0 -0.029606066329078411 -0.0094189358183861729 0 -0.029613223881193567 -0.0094004646563062722 0 -0.029617109677765818 -0.0094022832222443384 0 -0.0296091794479857 -0.0093892247564715987 0 -0.029613223881193567 -0.0094004646563062722 0 -0.029593210475597088 -0.0094174685327380412 0 -0.029617109677765818 -0.0094022832222443384 0 -0.0296091794479857 -0.0093892247564715987 0 -0.0296091794479857 -0.0093892247564715987 0 -0.029613223881193567 -0.0094004646563062722 0 -0.02961959481831037 -0.0093670772597962988 0 -0.0296091794479857 -0.0093892247564715987 0 -0.02961959481831037 -0.0093670772597962988 0 -0.029620119392478123 -0.0093407770314010378 0 -0.029606066329078411 -0.0094189358183861729 0 -0.02961959481831037 -0.0093670772597962988 0 -0.029627807988820636 -0.0093677186090480487 0 -0.029606066329078411 -0.0094189358183861729 0 -0.029613223881193567 -0.0094004646563062722 0 -0.02961959481831037 -0.0093670772597962988 0 -0.029649054267440217 -0.0092945818369938819 0 -0.029666167633086198 -0.009300811506517459 0 -0.029680304467045639 -0.0092565545483167602 0 -0.02961959481831037 -0.0093670772597962988 0 -0.029649054267440217 -0.0092945818369938819 0 -0.029666167633086198 -0.009300811506517459 0 -0.02961959481831037 -0.0093670772597962988 0 -0.029620119392478123 -0.0093407770314010378 0 -0.029649054267440217 -0.0092945818369938819 0 -0.029620119392478123 -0.0093407770314010378 0 -0.029649054267440217 -0.0092945818369938819 0 -0.029626089808332954 -0.0092948481370608953 0 -0.029561693935420529 -0.0093125074170141865 0 -0.02959410377515628 -0.0093532705032897904 0 -0.029626089808332954 -0.0092948481370608953 0 -0.029561693935420529 -0.0093125074170141865 0 -0.029560056547765747 -0.0093821313861132422 0 -0.02959410377515628 -0.0093532705032897904 0 -0.02959410377515628 -0.0093532705032897904 0 -0.029620119392478123 -0.0093407770314010378 0 -0.029626089808332954 -0.0092948481370608953 0 -0.029626089808332954 -0.0092948481370608953 0 -0.029671368200298708 -0.009255411009478607 0 -0.029650304624156427 -0.0092383482586282442 0 -0.029561693935420529 -0.0093125074170141865 0 -0.029626089808332954 -0.0092948481370608953 0 -0.029650304624156427 -0.0092383482586282442 0 -0.029649054267440217 -0.0092945818369938819 0 -0.029671368200298708 -0.009255411009478607 0 -0.029680304467045639 -0.0092565545483167602 0 -0.029649054267440217 -0.0092945818369938819 0 -0.029626089808332954 -0.0092948481370608953 0 -0.029671368200298708 -0.009255411009478607 0 -0.029671368200298708 -0.009255411009478607 0 -0.029694917125221609 -0.0092328219772090971 0 -0.029680304467045639 -0.0092565545483167602 0 -0.029671368200298708 -0.009255411009478607 0 -0.029694917125221609 -0.0092328219772090971 0 -0.029696108047666796 -0.0092303876462601613 0 -0.029694917125221609 -0.0092328219772090971 0 -0.029696108047666796 -0.0092303876462601613 0 -0.029721811897012038 -0.0092272014239840622 0 -0.029438482010167126 -0.009709747096688242 0 -0.029528465505134955 -0.0095469326974298632 0 -0.029696108047666796 -0.0092303876462601613 0 -0.029650304624156427 -0.0092383482586282442 0 -0.02979287309570736 -0.0092476673252591523 0 -0.029671368200298708 -0.009255411009478607 0 -0.029696108047666796 -0.0092303876462601613 0 -0.029650304624156427 -0.0092383482586282442 0 -0.029894715466716092 -0.0099253495975759054 0 -0.029425783872415397 -0.010011119811504765 0 -0.02947066493068138 -0.0094752769552914912 0 -0.029894715466716092 -0.0099253495975759054 0 -0.02947066493068138 -0.0094752769552914912 0 -0.02979287309570736 -0.0092476673252591523 0 -0.029045810479257413 -0.009391548400264977 0 -0.028886840363958863 -0.0099991863077817308 0 -0.029425783872415397 -0.010011119811504765 0 -0.029045810479257413 -0.009391548400264977 0 -0.029425783872415397 -0.010011119811504765 0 -0.02947066493068138 -0.0094752769552914912 0 -0.029198619009273345 -0.010522872877347876 0 -0.029821845087079378 -0.010685895378760916 0 -0.029425783872415397 -0.010011119811504765 0 -0.028886840363958863 -0.0099991863077817308 0 -0.029198619009273345 -0.010522872877347876 0 -0.029425783872415397 -0.010011119811504765 0 -0.029821845087079378 -0.010685895378760916 0 -0.029894715466716092 -0.0099253495975759054 0 -0.029425783872415397 -0.010011119811504765 0 -0.029145933323804843 -0.010118987175098085 0 -0.029438482010167126 -0.009709747096688242 0 -0.0054669578570472836 -0.0074396332680845322 0 -0.0044703552706642433 -0.0064706247430705351 0 -0.0055748031889109248 -0.0054854661326365741 0 -0.0044703552706642433 -0.0064706247430705351 0 -0.0041324592482212662 -0.0054724240184521209 0 -0.0055748031889109248 -0.0054854661326365741 0 -0.0054669578570472836 -0.0074396332680845322 0 -0.0038204425534363157 -0.0073859752078662098 0 -0.0044703552706642433 -0.0064706247430705351 0 -0.004135659428587601 -0.0084882867616529918 0 -0.0054669578570472836 -0.0074396332680845322 0 -0.0038204425534363157 -0.0073859752078662098 0 -0.0038204425534363157 -0.0073859752078662098 0 -0.0044703552706642433 -0.0064706247430705351 0 -0.0033596814070495961 -0.006579079945783336 0 -0.0029505253268965999 -0.0055425169244500182 0 -0.0033596814070495961 -0.006579079945783336 0 -0.0041324592482212662 -0.0054724240184521209 0 -0.0044703552706642433 -0.0064706247430705351 0 -0.0033596814070495961 -0.006579079945783336 0 -0.0041324592482212662 -0.0054724240184521209 0 -0.0029505253268965999 -0.0055425169244500182 0 -0.0033596814070495961 -0.006579079945783336 0 -0.0018642757860389476 -0.0070408444035214074 0 -0.014918631563042725 -0.0075562924141288198 0 -0.01640526392709684 -0.0089045225083674972 0 -0.029679976325581843 -0.0092634208959370759 0 -0.029738157549175186 -0.0093207859608885751 0 -0.029686961808879152 -0.009271813135495308 0 -0.0038204425534363157 -0.0073859752078662098 0 -0.0033596814070495961 -0.006579079945783336 0 -0.0026702826114063149 -0.0075894724115427069 0 -0.0033596814070495961 -0.006579079945783336 0 -0.0026702826114063149 -0.0075894724115427069 0 -0.0018642757860389476 -0.0070408444035214074 0 -0.0032217299489668999 -0.0082425659430414005 0 -0.0038204425534363157 -0.0073859752078662098 0 -0.0026702826114063149 -0.0075894724115427069 0 -0.029207450573213063 -0.010128457144825612 0 -0.029738157549175186 -0.0093207859608885751 0 -0.02958919766892202 -0.0094767945966994852 0 -0.0018061378259369826 -0.0081596983163775786 0 -0.0026702826114063149 -0.0075894724115427069 0 -0.0018642757860389476 -0.0070408444035214074 0 -0.029738157549175186 -0.0093207859608885751 0 -0.029627807988820636 -0.0093677186090480487 0 -0.029666167633086198 -0.009300811506517459 0 -0.029606066329078411 -0.0094189358183861729 0 -0.02958919766892202 -0.0094767945966994852 0 -0.029627807988820636 -0.0093677186090480487 0 -0.029738157549175186 -0.0093207859608885751 0 -0.02958919766892202 -0.0094767945966994852 0 -0.029627807988820636 -0.0093677186090480487 0 -0.02961959481831037 -0.0093670772597962988 0 -0.029627807988820636 -0.0093677186090480487 0 -0.029666167633086198 -0.009300811506517459 0 -0.029666167633086198 -0.009300811506517459 0 -0.029686961808879152 -0.009271813135495308 0 -0.029680304467045639 -0.0092565545483167602 0 -0.029738157549175186 -0.0093207859608885751 0 -0.029666167633086198 -0.009300811506517459 0 -0.029686961808879152 -0.009271813135495308 0 -0.029686961808879152 -0.009271813135495308 0 -0.029680304467045639 -0.0092565545483167602 0 -0.029680873708833596 -0.0092418824809885631 0 -0.029680304467045639 -0.0092565545483167602 0 -0.029686574409340714 -0.0092405183001051626 0 -0.029680873708833596 -0.0092418824809885631 0 -0.029694917125221609 -0.0092328219772090971 0 -0.029680304467045639 -0.0092565545483167602 0 -0.029686574409340714 -0.0092405183001051626 0 -0.029691036385483073 -0.0092309574751465034 0 -0.029680873708833596 -0.0092418824809885631 0 -0.02967584438320079 -0.0092315551991343139 0 -0.029694917125221609 -0.0092328219772090971 0 -0.029686574409340714 -0.0092405183001051626 0 -0.029691036385483073 -0.0092309574751465034 0 -0.029694917125221609 -0.0092328219772090971 0 -0.029691036385483073 -0.0092309574751465034 0 -0.029713979247306378 -0.0092238500612377376 0 -0.029686574409340714 -0.0092405183001051626 0 -0.029691036385483073 -0.0092309574751465034 0 -0.029680873708833596 -0.0092418824809885631 0 -0.011529397392503681 -0.0080003569430277376 0 -0.018142556579857486 -0.0086327003155524749 0 -0.029680873708833596 -0.0092418824809885631 0 -0.0296523184671812 -0.0092407389259762211 0 -0.02967584438320079 -0.0092315551991343139 0 -0.029679976325581843 -0.0092634208959370759 0 -0.029680873708833596 -0.0092418824809885631 0 -0.0296523184671812 -0.0092407389259762211 0 -0.029679976325581843 -0.0092634208959370759 0 -0.029686961808879152 -0.009271813135495308 0 -0.029680873708833596 -0.0092418824809885631 0 -0.0041324592482212662 -0.0054724240184521209 0 -0.0040056008958856953 -0.0040239030593046078 0 -0.0055748031889109248 -0.0054854661326365741 0 -0.0029505253268965999 -0.0055425169244500182 0 -0.0041324592482212662 -0.0054724240184521209 0 -0.0040056008958856953 -0.0040239030593046078 0 -0.014918631563042725 -0.0075562924141288198 0 -0.011529397392503681 -0.0080003569430277376 0 -0.0071119917440682296 -0.0063904451754969961 0 -0.0068889832523039247 -0.0063809070318684782 0 -0.0076770102024209834 -0.0072747906382681473 0 -0.0071119917440682296 -0.0063904451754969961 0 -0.007193364256768627 -0.0062623243872999253 0 -0.0076770102024209834 -0.0072747906382681473 0 -0.0071119917440682296 -0.0063904451754969961 0 -0.0070698695384379083 -0.0063365236607419804 0 -0.0068889832523039247 -0.0063809070318684782 0 -0.011503269856985956 -0.0080063750953224509 0 -0.011529397392503681 -0.0080003569430277376 0 -0.0070698695384379083 -0.0063365236607419804 0 -0.0068889832523039247 -0.0063809070318684782 0 -0.0069483246375241408 -0.0064438515795489561 0 -0.0068889832523039247 -0.0063809070318684782 0 -0.0070133677137095198 -0.00626758459096915 0 -0.0069457149926693707 -0.006083018898004426 0 -0.0068889832523039247 -0.0063809070318684782 0 -0.0070133677137095198 -0.00626758459096915 0 -0.0069483246375241408 -0.0064438515795489561 0 -0.0070133677137095198 -0.00626758459096915 0 -0.0069483246375241408 -0.0064438515795489561 0 -0.0071523729109372654 -0.0063939251470732398 0 -0.0070698695384379083 -0.0063365236607419804 0 -0.0069483246375241408 -0.0064438515795489561 0 -0.0069237047321296548 -0.0066554788303369201 0 -0.0069483246375241408 -0.0064438515795489561 0 -0.0069237047321296548 -0.0066554788303369201 0 -0.0071523729109372654 -0.0063939251470732398 0 -0.011529397392503681 -0.0080003569430277376 0 -0.0076977324000748609 -0.0059575952987498968 0 -0.0068069017714904711 -0.0057069713840662978 0 -0.0069742885239517001 -0.0058206380543127404 0 -0.0071840553295633817 -0.0054519452820263091 0 -0.0068069017714904711 -0.0057069713840662978 0 -0.0066502532256667232 -0.0055996764421664142 0 -0.0071840553295633817 -0.0054519452820263091 0 -0.0068069017714904711 -0.0057069713840662978 0 -0.0069742885239517001 -0.0058206380543127404 0 -0.0068082776915623228 -0.005903056311556419 0 -0.0069742885239517001 -0.0058206380543127404 0 -0.0069457149926693707 -0.006083018898004426 0 -0.0071462955236261992 -0.0059331942075251907 0 -0.0070133677137095198 -0.00626758459096915 0 -0.0069457149926693707 -0.006083018898004426 0 -0.0071462955236261992 -0.0059331942075251907 0 -0.0068889832523039247 -0.0063809070318684782 0 -0.0069457149926693707 -0.006083018898004426 0 -0.0067611920209656243 -0.0060994078389532977 0 -0.0069742885239517001 -0.0058206380543127404 0 -0.0069457149926693707 -0.006083018898004426 0 -0.0068082776915623228 -0.005903056311556419 0 -0.0069457149926693707 -0.006083018898004426 0 -0.0068082776915623228 -0.005903056311556419 0 -0.0067611920209656243 -0.0060994078389532977 0 -0.0068889832523039247 -0.0063809070318684782 0 -0.0067611920209656243 -0.0060994078389532977 0 -0.0064805983254722054 -0.0059742221763576598 0 -0.0068082776915623228 -0.005903056311556419 0 -0.0066676090200308178 -0.005945333663654441 0 -0.0066177275329857921 -0.0058114881378211825 0 -0.0087414458849401251 -0.0052232752226529112 0 -0.0098791435093581927 -0.0053105847361107576 0 -0.0068082776915623228 -0.005903056311556419 0 -0.0066676090200308178 -0.005945333663654441 0 -0.0067611920209656243 -0.0060994078389532977 0 -0.0066676090200308178 -0.005945333663654441 0 -0.0067611920209656243 -0.0060994078389532977 0 -0.0064805983254722054 -0.0059742221763576598 0 -0.0066676090200308178 -0.005945333663654441 0 -0.0066177275329857921 -0.0058114881378211825 0 -0.0064805983254722054 -0.0059742221763576598 0 -0.0066177275329857921 -0.0058114881378211825 0 -0.0064999204567642759 -0.0058159542722874208 0 -0.0064805983254722054 -0.0059742221763576598 0 -0.0066177275329857921 -0.0058114881378211825 0 -0.0065021112340819306 -0.0057122588756317637 0 -0.0064999204567642759 -0.0058159542722874208 0 -0.0068069017714904711 -0.0057069713840662978 0 -0.0068082776915623228 -0.005903056311556419 0 -0.0066177275329857921 -0.0058114881378211825 0 -0.0068069017714904711 -0.0057069713840662978 0 -0.0066177275329857921 -0.0058114881378211825 0 -0.0066259383830498848 -0.0057008807790165797 0 -0.0068069017714904711 -0.0057069713840662978 0 -0.0066259383830498848 -0.0057008807790165797 0 -0.0066502532256667232 -0.0055996764421664142 0 -0.0066259383830498848 -0.0057008807790165797 0 -0.0065021112340819306 -0.0057122588756317637 0 -0.0066502532256667232 -0.0055996764421664142 0 -0.0066177275329857921 -0.0058114881378211825 0 -0.0066259383830498848 -0.0057008807790165797 0 -0.0065021112340819306 -0.0057122588756317637 0 -0.0065021112340819306 -0.0057122588756317637 0 -0.0064024021189383927 -0.005765744556689302 0 -0.0061898471178842562 -0.0056688159436994031 0 -0.0065021112340819306 -0.0057122588756317637 0 -0.0061898471178842562 -0.0056688159436994031 0 -0.0066502532256667232 -0.0055996764421664142 0 -0.015543913437934194 -0.0069667820560216755 0 -0.0095153308251405555 -0.0060360045942145094 0 -0.0064024021189383927 -0.005765744556689302 0 -0.0064805983254722054 -0.0059742221763576598 0 -0.0061898471178842562 -0.0056688159436994031 0 -0.0098791435093581927 -0.0053105847361107576 0 -0.015543913437934194 -0.0069667820560216755 0 -0.0064024021189383927 -0.005765744556689302 0 -0.0064999204567642759 -0.0058159542722874208 0 -0.0064805983254722054 -0.0059742221763576598 0 -0.0065021112340819306 -0.0057122588756317637 0 -0.0064024021189383927 -0.005765744556689302 0 -0.0064999204567642759 -0.0058159542722874208 0 -0.0076770102024209834 -0.0072747906382681473 0 -0.0083379440800547423 -0.0071335465740175377 0 -0.0089044889028812683 -0.0083844908795940171 0 -0.007193364256768627 -0.0062623243872999253 0 -0.0076770102024209834 -0.0072747906382681473 0 -0.0083379440800547423 -0.0071335465740175377 0 -0.02967584438320079 -0.0092315551991343139 0 -0.029703079590099133 -0.0092268608053413907 0 -0.029732304735081861 -0.0092247121190039416 0 -0.029691036385483073 -0.0092309574751465034 0 -0.02967584438320079 -0.0092315551991343139 0 -0.029703079590099133 -0.0092268608053413907 0 -0.029691036385483073 -0.0092309574751465034 0 -0.029703079590099133 -0.0092268608053413907 0 -0.029713979247306378 -0.0092238500612377376 0 -0.018142556579857486 -0.0086327003155524749 0 -0.022955789497261788 -0.0085418325212777649 0 -0.0083379440800547423 -0.0071335465740175377 0 -0.0089044889028812683 -0.0083844908795940171 0 -0.0097125269882580734 -0.0082941664005424902 0 -0.015543913437934194 -0.0069667820560216755 0 -0.022955789497261788 -0.0085418325212777649 0 -0.013461342807079196 -0.0050644127954119081 0 -0.013693611856114873 -0.0057676708434332832 0 -0.015302821245530767 -0.0056608275260364143 0 -0.013242357364090941 -0.00381712143778322 0 -0.013461342807079196 -0.0050644127954119081 0 -0.015302821245530767 -0.0056608275260364143 0 -0.013242357364090941 -0.00381712143778322 0 -0.013461342807079196 -0.0050644127954119081 0 -0.012436741263984264 -0.0046728817788264567 0 -0.012629781863955008 -0.0054057643949615777 0 -0.013461342807079196 -0.0050644127954119081 0 -0.012436741263984264 -0.0046728817788264567 0 -0.012629781863955008 -0.0054057643949615777 0 -0.013461342807079196 -0.0050644127954119081 0 -0.013693611856114873 -0.0057676708434332832 0 -0.013693611856114873 -0.0057676708434332832 0 -0.012899951639879116 -0.0063778232075993686 0 -0.014253803897747244 -0.0067958068042046254 0 -0.012899951639879116 -0.0063778232075993686 0 -0.014253803897747244 -0.0067958068042046254 0 -0.012845155340561104 -0.0075392880929328818 0 -0.012629781863955008 -0.0054057643949615777 0 -0.013693611856114873 -0.0057676708434332832 0 -0.012899951639879116 -0.0063778232075993686 0 -0.012629781863955008 -0.0054057643949615777 0 -0.012899951639879116 -0.0063778232075993686 0 -0.011806824702555611 -0.0057961671497357686 0 -0.012899951639879116 -0.0063778232075993686 0 -0.011806824702555611 -0.0057961671497357686 0 -0.011869838175582252 -0.0068269030809610526 0 -0.012899951639879116 -0.0063778232075993686 0 -0.011869838175582252 -0.0068269030809610526 0 -0.012845155340561104 -0.0075392880929328818 0 -0.011869838175582252 -0.0068269030809610526 0 -0.010835049595376808 -0.0061174478912916618 0 -0.010900009446630046 -0.0072383309905179041 0 -0.011869838175582252 -0.0068269030809610526 0 -0.010900009446630046 -0.0072383309905179041 0 -0.011623444647801051 -0.0078930244897162279 0 -0.011806824702555611 -0.0057961671497357686 0 -0.011869838175582252 -0.0068269030809610526 0 -0.010835049595376808 -0.0061174478912916618 0 -0.013242357364090941 -0.00381712143778322 0 -0.011496940070276086 -0.0046407447150930816 0 -0.010078970161870864 -0.0042715731389701798 0 -0.011806824702555611 -0.0057961671497357686 0 -0.011050415250206481 -0.0052165472119672599 0 -0.010835049595376808 -0.0061174478912916618 0 -0.013242357364090941 -0.00381712143778322 0 -0.012436741263984264 -0.0046728817788264567 0 -0.011496940070276086 -0.0046407447150930816 0 -0.011050415250206481 -0.0052165472119672599 0 -0.011759277641034752 -0.0051124614740656587 0 -0.011496940070276086 -0.0046407447150930816 0 -0.011806824702555611 -0.0057961671497357686 0 -0.011050415250206481 -0.0052165472119672599 0 -0.011759277641034752 -0.0051124614740656587 0 -0.012629781863955008 -0.0054057643949615777 0 -0.011759277641034752 -0.0051124614740656587 0 -0.012436741263984264 -0.0046728817788264567 0 -0.012629781863955008 -0.0054057643949615777 0 -0.011806824702555611 -0.0057961671497357686 0 -0.011759277641034752 -0.0051124614740656587 0 -0.011759277641034752 -0.0051124614740656587 0 -0.012436741263984264 -0.0046728817788264567 0 -0.011496940070276086 -0.0046407447150930816 0 -0.011050415250206481 -0.0052165472119672599 0 -0.011496940070276086 -0.0046407447150930816 0 -0.010452468578572304 -0.0047120002375031387 0 -0.011496940070276086 -0.0046407447150930816 0 -0.010452468578572304 -0.0047120002375031387 0 -0.010078970161870864 -0.0042715731389701798 0 -0.010452468578572304 -0.0047120002375031387 0 -0.010157654956538625 -0.0045777971277954676 0 -0.010157770716784189 -0.0048926620376757062 0 -0.010452468578572304 -0.0047120002375031387 0 -0.010157654956538625 -0.0045777971277954676 0 -0.010078970161870864 -0.0042715731389701798 0 -0.010157770716784189 -0.0048926620376757062 0 -0.0099401550881234244 -0.0044668109864434997 0 -0.0097888266879413207 -0.0054125692015950504 0 -0.010157654956538625 -0.0045777971277954676 0 -0.010078970161870864 -0.0042715731389701798 0 -0.0099401550881234244 -0.0044668109864434997 0 -0.010157654956538625 -0.0045777971277954676 0 -0.010157770716784189 -0.0048926620376757062 0 -0.0099401550881234244 -0.0044668109864434997 0 -0.010157770716784189 -0.0048926620376757062 0 -0.0097888266879413207 -0.0054125692015950504 0 -0.010385600146343887 -0.0053716426477466283 0 -0.0097888266879413207 -0.0054125692015950504 0 -0.010385600146343887 -0.0053716426477466283 0 -0.010079920718569864 -0.0059642844248937654 0 -0.011050415250206481 -0.0052165472119672599 0 -0.010385600146343887 -0.0053716426477466283 0 -0.010835049595376808 -0.0061174478912916618 0 -0.010452468578572304 -0.0047120002375031387 0 -0.010157770716784189 -0.0048926620376757062 0 -0.010385600146343887 -0.0053716426477466283 0 -0.011050415250206481 -0.0052165472119672599 0 -0.010452468578572304 -0.0047120002375031387 0 -0.010385600146343887 -0.0053716426477466283 0 -0.010835049595376808 -0.0061174478912916618 0 -0.010023812597117255 -0.0068293115648262615 0 -0.010079920718569864 -0.0059642844248937654 0 -0.010385600146343887 -0.0053716426477466283 0 -0.010835049595376808 -0.0061174478912916618 0 -0.010079920718569864 -0.0059642844248937654 0 -0.010835049595376808 -0.0061174478912916618 0 -0.010900009446630046 -0.0072383309905179041 0 -0.010023812597117255 -0.0068293115648262615 0 -0.010023812597117255 -0.0068293115648262615 0 -0.009376094205765434 -0.0062287055619858252 0 -0.0089713362529806103 -0.0069206165723807601 0 -0.0097888266879413207 -0.0054125692015950504 0 -0.010079920718569864 -0.0059642844248937654 0 -0.009376094205765434 -0.0062287055619858252 0 -0.010023812597117255 -0.0068293115648262615 0 -0.010079920718569864 -0.0059642844248937654 0 -0.009376094205765434 -0.0062287055619858252 0 -0.009376094205765434 -0.0062287055619858252 0 -0.0089713362529806103 -0.0069206165723807601 0 -0.0084617159315665894 -0.0060429872513995866 0 -0.0097888266879413207 -0.0054125692015950504 0 -0.009376094205765434 -0.0062287055619858252 0 -0.0084617159315665894 -0.0060429872513995866 0 -0.0089713362529806103 -0.0069206165723807601 0 -0.0084617159315665894 -0.0060429872513995866 0 -0.0070610223573139893 -0.0074799005765965624 0 -0.0099401550881234244 -0.0044668109864434997 0 -0.0089868976078243869 -0.0052211798645363907 0 -0.0084297395901191015 -0.0046647391658173132 0 -0.010078970161870864 -0.0042715731389701798 0 -0.0099401550881234244 -0.0044668109864434997 0 -0.0084297395901191015 -0.0046647391658173132 0 -0.0095153308251405555 -0.0060360045942145094 0 -0.008261125047836387 -0.0055886184670236351 0 -0.010140456799983587 -0.0053209856203472634 0 -0.010276058676228515 -0.0054016300174626547 0 -0.0099401550881234244 -0.0044668109864434997 0 -0.0097888266879413207 -0.0054125692015950504 0 -0.0084617159315665894 -0.0060429872513995866 0 -0.029234711871191411 -0.0088610281412275903 0 -0.029708462811289162 -0.0085961731687757732 0 -0.029500688990889465 -0.0084756552543406964 0 -0.028902603659195166 -0.0085052153294798826 0 -0.028272973119360337 -0.0084458959100664321 0 -0.029234711871191411 -0.0088610281412275903 0 -0.029593480815826745 -0.0091771797608966397 0 -0.029753117687684485 -0.0091011127522515646 0 -0.029234711871191411 -0.0088610281412275903 0 -0.029500688990889465 -0.0084756552543406964 0 -0.029239172273411961 -0.0083351227212781643 0 -0.028716903833378559 -0.0085616274777774014 0 -0.029234711871191411 -0.0088610281412275903 0 -0.029239172273411961 -0.0083351227212781643 0 -0.029045810479257413 -0.009391548400264977 0 -0.029234711871191411 -0.0088610281412275903 0 -0.02947066493068138 -0.0094752769552914912 0 -0.029234711871191411 -0.0088610281412275903 0 -0.02947066493068138 -0.0094752769552914912 0 -0.029593480815826745 -0.0091771797608966397 0 -0.02947066493068138 -0.0094752769552914912 0 -0.029593480815826745 -0.0091771797608966397 0 -0.02979287309570736 -0.0092476673252591523 0 -0.029593480815826745 -0.0091771797608966397 0 -0.02979287309570736 -0.0092476673252591523 0 -0.029753117687684485 -0.0091011127522515646 0 -0.029696108047666796 -0.0092303876462601613 0 -0.02979287309570736 -0.0092476673252591523 0 -0.029721811897012038 -0.0092272014239840622 0 -0.02979287309570736 -0.0092476673252591523 0 -0.029721811897012038 -0.0092272014239840622 0 -0.029755337179636365 -0.0092165405053091613 0 -0.02979287309570736 -0.0092476673252591523 0 -0.029755337179636365 -0.0092165405053091613 0 -0.029753117687684485 -0.0091011127522515646 0 -0.029703079590099133 -0.0092268608053413907 0 -0.029713979247306378 -0.0092238500612377376 0 -0.029732304735081861 -0.0092247121190039416 0 -0.029694917125221609 -0.0092328219772090971 0 -0.029713979247306378 -0.0092238500612377376 0 -0.029721811897012038 -0.0092272014239840622 0 -0.029713979247306378 -0.0092238500612377376 0 -0.029721811897012038 -0.0092272014239840622 0 -0.029755337179636365 -0.0092165405053091613 0 -0.029713979247306378 -0.0092238500612377376 0 -0.029755337179636365 -0.0092165405053091613 0 -0.029732304735081861 -0.0092247121190039416 0 -0.029755337179636365 -0.0092165405053091613 0 -0.029732304735081861 -0.0092247121190039416 0 -0.029753117687684485 -0.0091011127522515646 0 -0.030105680086494814 -0.0085072221171508082 0 -0.029708462811289162 -0.0085961731687757732 0 -0.029882367524696942 -0.0082859056668358969 0 -0.022955789497261788 -0.0085418325212777649 0 -0.028272973119360337 -0.0084458959100664321 0 -0.029708462811289162 -0.0085961731687757732 0 -0.029696193732343817 -0.0083632822561679442 0 -0.029882367524696942 -0.0082859056668358969 0 -0.029882367524696942 -0.0082859056668358969 0 -0.029895668988479396 -0.0082592654563263101 0 -0.029834614993161826 -0.0081916893424823223 0 -0.029882367524696942 -0.0082859056668358969 0 -0.029748073459824848 -0.0081965477626176394 0 -0.029834614993161826 -0.0081916893424823223 0 -0.029696193732343817 -0.0083632822561679442 0 -0.029882367524696942 -0.0082859056668358969 0 -0.029748073459824848 -0.0081965477626176394 0 -0.015543913437934194 -0.0069667820560216755 0 -0.021090425329306162 -0.0074411310018092734 0 -0.029825631734208324 -0.0082249342270247425 0 -0.029882367524696942 -0.0082859056668358969 0 -0.029895668988479396 -0.0082592654563263101 0 -0.029750666031727262 -0.0082343883301558007 0 -0.029825631734208324 -0.0082249342270247425 0 -0.029895668988479396 -0.0082592654563263101 0 -0.022955789497261788 -0.0085418325212777649 0 -0.024907414978871792 -0.0094641886953265759 0 -0.015302821245530767 -0.0056608275260364143 0 -0.01551026577159114 -0.0070725158255213281 0 -0.014253803897747244 -0.0067958068042046254 0 -0.013693611856114873 -0.0057676708434332832 0 -0.015302821245530767 -0.0056608275260364143 0 -0.014253803897747244 -0.0067958068042046254 0 -0.015302821245530767 -0.0056608275260364143 0 -0.01551026577159114 -0.0070725158255213281 0 -0.016737423511121761 -0.0069298545638964721 0 -0.01551026577159114 -0.0070725158255213281 0 -0.016737423511121761 -0.0069298545638964721 0 -0.017438541281796349 -0.007559673705548566 0 -0.029748073459824848 -0.0081965477626176394 0 -0.029800110744845048 -0.0079940854844368376 0 -0.029611303833913347 -0.0080444299934176733 0 -0.029748073459824848 -0.0081965477626176394 0 -0.029834614993161826 -0.0081916893424823223 0 -0.029800110744845048 -0.0079940854844368376 0 -0.021090425329306162 -0.0074411310018092734 0 -0.023271260009903962 -0.0070725649330701853 0 -0.029895668988479396 -0.0082592654563263101 0 -0.029834614993161826 -0.0081916893424823223 0 -0.029800110744845048 -0.0079940854844368376 0 -0.023271260009903962 -0.0070725649330701853 0 -0.024240901108749387 -0.0068049299097413798 0 -0.029800110744845048 -0.0079940854844368376 0 -0.029611303833913347 -0.0080444299934176733 0 -0.029689313965905205 -0.0078619090637418142 0 -0.029611303833913347 -0.0080444299934176733 0 -0.029237402669268192 -0.0078920700765030046 0 -0.029689313965905205 -0.0078619090637418142 0 -0.026978603705391551 -0.0065067392068971809 0 -0.024240901108749387 -0.0068049299097413798 0 -0.029611303833913347 -0.0080444299934176733 0 -0.029543823903730906 -0.0082364610429554921 0 -0.029237402669268192 -0.0078920700765030046 0 -0.029748073459824848 -0.0081965477626176394 0 -0.029611303833913347 -0.0080444299934176733 0 -0.029543823903730906 -0.0082364610429554921 0 -0.029696193732343817 -0.0083632822561679442 0 -0.029748073459824848 -0.0081965477626176394 0 -0.029543823903730906 -0.0082364610429554921 0 -0.029543823903730906 -0.0082364610429554921 0 -0.029500688990889465 -0.0084756552543406964 0 -0.029239172273411961 -0.0083351227212781643 0 -0.029708462811289162 -0.0085961731687757732 0 -0.029696193732343817 -0.0083632822561679442 0 -0.029500688990889465 -0.0084756552543406964 0 -0.029696193732343817 -0.0083632822561679442 0 -0.029543823903730906 -0.0082364610429554921 0 -0.029500688990889465 -0.0084756552543406964 0 -0.029543823903730906 -0.0082364610429554921 0 -0.029239172273411961 -0.0083351227212781643 0 -0.029237402669268192 -0.0078920700765030046 0 -0.02885592527149777 -0.0080151393822750303 0 -0.029239172273411961 -0.0083351227212781643 0 -0.029237402669268192 -0.0078920700765030046 0 -0.029237402669268192 -0.0078920700765030046 0 -0.029227419253988855 -0.0074842824584609368 0 -0.02975802233569735 -0.0075672009236091168 0 -0.029237402669268192 -0.0078920700765030046 0 -0.029227419253988855 -0.0074842824584609368 0 -0.028903918943194412 -0.0076337743160787355 0 -0.02585991297381799 -0.0054214689496384482 0 -0.026567928164075688 -0.0049142143178730309 0 -0.029227419253988855 -0.0074842824584609368 0 -0.02935090111131617 -0.0071198660897029836 0 -0.028903999995155579 -0.0073023856767485571 0 -0.025906147792006749 -0.0050416450481655063 0 -0.026183569286750794 -0.0050491670117885712 0 -0.02609641438395147 -0.005124256426628301 0 -0.025906147792006749 -0.0050416450481655063 0 -0.026042362903480522 -0.0051877604130970544 0 -0.02609641438395147 -0.005124256426628301 0 -0.024960013773189415 -0.0049647302799751694 0 -0.025109989393462692 -0.0055827381356835168 0 -0.025786048871413544 -0.0058586480142712527 0 -0.024960013773189415 -0.0049647302799751694 0 -0.025109989393462692 -0.0055827381356835168 0 -0.024523400872117344 -0.0054629565376284467 0 -0.02585991297381799 -0.0054214689496384482 0 -0.025842336951478757 -0.0044392832976159089 0 -0.02585991297381799 -0.0054214689496384482 0 -0.024528428411960724 -0.0052745299631702458 0 -0.025012963365148588 -0.0049802091999633508 0 -0.02376278981064887 -0.0049382913618471859 0 -0.023855952199795291 -0.0037277461582288134 0 -0.024960013773189415 -0.0049647302799751694 0 -0.024523400872117344 -0.0054629565376284467 0 -0.023748669509277346 -0.0049264386434756955 0 -0.024523400872117344 -0.0054629565376284467 0 -0.023748669509277346 -0.0049264386434756955 0 -0.023430707891859828 -0.0056497559299383176 0 -0.029227419253988855 -0.0074842824584609368 0 -0.02935090111131617 -0.0071198660897029836 0 -0.02975802233569735 -0.0075672009236091168 0 -0.02585991297381799 -0.0054214689496384482 0 -0.024743804474273368 -0.0066004279038467395 0 -0.029237402669268192 -0.0078920700765030046 0 -0.02975802233569735 -0.0075672009236091168 0 -0.029855974587648916 -0.0076758386645661555 0 -0.02376278981064887 -0.0049382913618471859 0 -0.023855952199795291 -0.0037277461582288134 0 -0.023571004121688346 -0.0034192886650996584 0 -0.024743804474273368 -0.0066004279038467395 0 -0.024240901108749387 -0.0068049299097413798 0 -0.02376278981064887 -0.0049382913618471859 0 -0.02297280410619075 -0.0041154600524304814 0 -0.023571004121688346 -0.0034192886650996584 0 -0.024240901108749387 -0.0068049299097413798 0 -0.018985920466936854 -0.005994029210123303 0 -0.02297280410619075 -0.0041154600524304814 0 -0.023571004121688346 -0.0034192886650996584 0 -0.021490118792747044 -0.0039469301148565179 0 -0.01551026577159114 -0.0070725158255213281 0 -0.017438541281796349 -0.007559673705548566 0 -0.014550133389239557 -0.0082836394143798869 0 -0.02297280410619075 -0.0041154600524304814 0 -0.021490118792747044 -0.0039469301148565179 0 -0.022511873855765176 -0.0048912510475304753 0 -0.01551026577159114 -0.0070725158255213281 0 -0.014253803897747244 -0.0067958068042046254 0 -0.014550133389239557 -0.0082836394143798869 0 -0.021490118792747044 -0.0039469301148565179 0 -0.021444533281761866 -0.0050985166085734416 0 -0.022511873855765176 -0.0048912510475304753 0 -0.021159148610674756 -0.0039508892767888141 0 -0.023152135956238825 -0.0038727683505055443 0 -0.02201253664059118 -0.0012721690079151842 0 -0.023039573459410764 -0.0015773502923017249 0 -0.022567608226499048 -0.0017985622084183393 0 -0.021444533281761866 -0.0050985166085734416 0 -0.022511873855765176 -0.0048912510475304753 0 -0.023430707891859828 -0.0056497559299383176 0 -0.024528428411960724 -0.0052745299631702458 0 -0.023988409165056249 -0.0052247972847090166 0 -0.023748669509277346 -0.0049264386434756955 0 -0.022511873855765176 -0.0048912510475304753 0 -0.023430707891859828 -0.0056497559299383176 0 -0.02376278981064887 -0.0049382913618471859 0 -0.02297280410619075 -0.0041154600524304814 0 -0.022511873855765176 -0.0048912510475304753 0 -0.023039573459410764 -0.0015773502923017249 0 -0.022567608226499048 -0.0017985622084183393 0 -0.022949476974539484 -0.0020452323667293033 0 -0.022567608226499048 -0.0017985622084183393 0 -0.022949476974539484 -0.0020452323667293033 0 -0.022603288856234291 -0.0021736407803491743 0 -0.023039573459410764 -0.0015773502923017249 0 -0.022949476974539484 -0.0020452323667293033 0 -0.023368266167737031 -0.0020683929238586277 0 -0.02201253664059118 -0.0012721690079151842 0 -0.022196086929870452 -0.0018784552483352916 0 -0.021860678583176491 -0.0016236953401900667 0 -0.02201253664059118 -0.0012721690079151842 0 -0.022567608226499048 -0.0017985622084183393 0 -0.022196086929870452 -0.0018784552483352916 0 -0.022196086929870452 -0.0018784552483352916 0 -0.022251623070048961 -0.0022007397403060219 0 -0.022603288856234291 -0.0021736407803491743 0 -0.022567608226499048 -0.0017985622084183393 0 -0.022196086929870452 -0.0018784552483352916 0 -0.022603288856234291 -0.0021736407803491743 0 -0.022196086929870452 -0.0018784552483352916 0 -0.022251623070048961 -0.0022007397403060219 0 -0.021835503380464569 -0.0021417640214332419 0 -0.022196086929870452 -0.0018784552483352916 0 -0.021860678583176491 -0.0016236953401900667 0 -0.021835503380464569 -0.0021417640214332419 0 -0.02241716719443735 -0.0025679570217163874 0 -0.021835503380464569 -0.0021417640214332419 0 -0.022235569586817005 -0.0030321788142610617 0 -0.021668564299775216 -0.0019073278727911092 0 -0.021458092875744308 -0.0014305041436387012 0 -0.022251623070048961 -0.0022007397403060219 0 -0.02241716719443735 -0.0025679570217163874 0 -0.021835503380464569 -0.0021417640214332419 0 -0.022251623070048961 -0.0022007397403060219 0 -0.02241716719443735 -0.0025679570217163874 0 -0.022603288856234291 -0.0021736407803491743 0 -0.02241716719443735 -0.0025679570217163874 0 -0.023026732246445962 -0.002445165014464339 0 -0.023009410150939026 -0.0030170337699217879 0 -0.02241716719443735 -0.0025679570217163874 0 -0.022603288856234291 -0.0021736407803491743 0 -0.023026732246445962 -0.002445165014464339 0 -0.022949476974539484 -0.0020452323667293033 0 -0.022603288856234291 -0.0021736407803491743 0 -0.023026732246445962 -0.002445165014464339 0 -0.022949476974539484 -0.0020452323667293033 0 -0.023026732246445962 -0.002445165014464339 0 -0.023368266167737031 -0.0020683929238586277 0 -0.023026732246445962 -0.002445165014464339 0 -0.023617041803662822 -0.0025782906075639579 0 -0.023009410150939026 -0.0030170337699217879 0 -0.023026732246445962 -0.002445165014464339 0 -0.023617041803662822 -0.0025782906075639579 0 -0.023368266167737031 -0.0020683929238586277 0 -0.023617041803662822 -0.0025782906075639579 0 -0.023749562668504334 -0.0022104938119073391 0 -0.023368266167737031 -0.0020683929238586277 0 -0.023617041803662822 -0.0025782906075639579 0 -0.023999578971367404 -0.0023134017765040964 0 -0.024090147673207659 -0.0028753153385051265 0 -0.023999578971367404 -0.0023134017765040964 0 -0.024090147673207659 -0.0028753153385051265 0 -0.024507581380357166 -0.0020275734531416041 0 -0.023617041803662822 -0.0025782906075639579 0 -0.023999578971367404 -0.0023134017765040964 0 -0.023749562668504334 -0.0022104938119073391 0 -0.023999578971367404 -0.0023134017765040964 0 -0.023749562668504334 -0.0022104938119073391 0 -0.024012672840517349 -0.0018828156179438813 0 -0.025771167912506974 -0.0038452204831766869 0 -0.0257906671665637 -0.003839225422651818 0 -0.025805100493178506 -0.0038536770140175963 0 -0.023999578971367404 -0.0023134017765040964 0 -0.024012672840517349 -0.0018828156179438813 0 -0.024507581380357166 -0.0020275734531416041 0 -0.025117829138934372 -0.0039743375220569754 0 -0.025838105242178441 -0.0039267404855756003 0 -0.025109989393462692 -0.0055827381356835168 0 -0.025364244993343263 -0.0061882286275606159 0 -0.025785423427984493 -0.0058576686485471421 0 -0.02582285455325287 -0.0044873663835020656 0 -0.025842336951478757 -0.0044392832976159089 0 -0.025364244993343263 -0.0061882286275606159 0 -0.025785423427984493 -0.0058576686485471421 0 -0.025931728823878078 -0.0060160829318814573 0 -0.025117829138934372 -0.0039743375220569754 0 -0.025775925428557417 -0.0042846578184047969 0 -0.025842336951478757 -0.0044392832976159089 0 -0.025775925428557417 -0.0042846578184047969 0 -0.025109989393462692 -0.0055827381356835168 0 -0.024523400872117344 -0.0054629565376284467 0 -0.025364244993343263 -0.0061882286275606159 0 -0.023152135956238825 -0.0038727683505055443 0 -0.025117829138934372 -0.0039743375220569754 0 -0.023749562668504334 -0.0022104938119073391 0 -0.024012672840517349 -0.0018828156179438813 0 -0.023368266167737031 -0.0020683929238586277 0 -0.023039573459410764 -0.0015773502923017249 0 -0.02403808589037008 -0.0018760076567560647 0 -0.023368266167737031 -0.0020683929238586277 0 -0.025117829138934372 -0.0039743375220569754 0 -0.024694402746593815 -0.0038022527335198892 0 -0.024523400872117344 -0.0054629565376284467 0 -0.023430707891859828 -0.0056497559299383176 0 -0.025364244993343263 -0.0061882286275606159 0 -0.017044872444271716 -0.00039324764838249098 0 -0.017150014415228561 -0.00074011271259852578 0 -0.016612160413681177 -0.00049478767672318466 0 -0.017044872444271716 -0.00039324764838249098 0 -0.016946494462732203 -8.6822217064284424e-05 0 -0.016612160413681177 -0.00049478767672318466 0 -0.0089713362529806103 -0.0069206165723807601 0 -0.0085954852881937101 -0.0079259957447963148 0 -0.010137963644118168 -0.0083577924991056797 0 -0.0089713362529806103 -0.0069206165723807601 0 -0.0085954852881937101 -0.0079259957447963148 0 -0.0070610223573139893 -0.0074799005765965624 0 -0.017044872444271716 -0.00039324764838249098 0 -0.016946494462732203 -8.6822217064284424e-05 0 -0.017351892146082133 -0.00020166147497832903 0 -0.013522594565619385 -0.0038522156591329001 0 -0.015522500513980297 -0.0036842427459097523 0 -0.010900009446630046 -0.0072383309905179041 0 -0.010023812597117255 -0.0068293115648262615 0 -0.010209605410737432 -0.0085556052508221434 0 -0.014469365315732544 -0.0040294845124050739 0 -0.015522500513980297 -0.0036842427459097523 0 -0.010023812597117255 -0.0068293115648262615 0 -0.0089713362529806103 -0.0069206165723807601 0 -0.010209605410737432 -0.0085556052508221434 0 -0.010900009446630046 -0.0072383309905179041 0 -0.010209605410737432 -0.0085556052508221434 0 -0.011623444647801051 -0.0078930244897162279 0 -0.015522500513980297 -0.0036842427459097523 0 -0.017767200884925859 -0.0042411117038538481 0 -0.017351892146082133 -0.00020166147497832903 0 -0.01773157875270142 -0.00066507673080098929 0 -0.017150014415228561 -0.00074011271259852578 0 -0.017044872444271716 -0.00039324764838249098 0 -0.017351892146082133 -0.00020166147497832903 0 -0.017150014415228561 -0.00074011271259852578 0 -0.020270125493482814 -0.0008011106527695403 0 -0.020660041470833796 -0.0010423362775454968 0 -0.020929338848552723 -0.0015786730098866961 0 -0.015522500513980297 -0.0036842427459097523 0 -0.017920350010773665 -0.0023395674849390475 0 -0.020908439111860116 -0.00097146747291341009 0 -0.02139045401195613 -0.001195706487422102 0 -0.020929338848552723 -0.0015786730098866961 0 -0.020270125493482814 -0.0008011106527695403 0 -0.02090545240902417 -0.00097346249994871787 0 -0.020660041470833796 -0.0010423362775454968 0 -0.017767200884925859 -0.0042411117038538481 0 -0.017970891594311846 -0.0041472735262920246 0 -0.020908439111860116 -0.00097146747291341009 0 -0.020660041470833796 -0.0010423362775454968 0 -0.020929338848552723 -0.0015786730098866961 0 -0.010209605410737432 -0.0085556052508221434 0 -0.011766589867130306 -0.0090268389233847928 0 -0.011623444647801051 -0.0078930244897162279 0 -0.011869838175582252 -0.0068269030809610526 0 -0.011623444647801051 -0.0078930244897162279 0 -0.012845155340561104 -0.0075392880929328818 0 -0.011766589867130306 -0.0090268389233847928 0 -0.011623444647801051 -0.0078930244897162279 0 -0.012845155340561104 -0.0075392880929328818 0 -0.014550133389239557 -0.0082836394143798869 0 -0.011766589867130306 -0.0090268389233847928 0 -0.012845155340561104 -0.0075392880929328818 0 -0.018985920466936854 -0.005994029210123303 0 -0.017767200884925859 -0.0042411117038538481 0 -0.014253803897747244 -0.0067958068042046254 0 -0.014550133389239557 -0.0082836394143798869 0 -0.012845155340561104 -0.0075392880929328818 0 -0.021490118792747044 -0.0039469301148565179 0 -0.021444533281761866 -0.0050985166085734416 0 -0.019430458649516456 -0.004518201072087267 0 -0.021159148610674756 -0.0039508892767888141 0 -0.017767200884925859 -0.0042411117038538481 0 -0.02201253664059118 -0.0012721690079151842 0 -0.020908439111860116 -0.00097146747291341009 0 -0.02139045401195613 -0.001195706487422102 0 -0.02201253664059118 -0.0012721690079151842 0 -0.02139045401195613 -0.001195706487422102 0 -0.021860678583176491 -0.0016236953401900667 0 -0.021741403734469075 -0.002135916327590946 0 -0.021530884495012184 -0.0023109083178990226 0 -0.020929338848552723 -0.0015786730098866961 0 -0.02139045401195613 -0.001195706487422102 0 -0.021741403734469075 -0.002135916327590946 0 -0.020929338848552723 -0.0015786730098866961 0 -0.02139045401195613 -0.001195706487422102 0 -0.021860678583176491 -0.0016236953401900667 0 -0.021835503380464569 -0.0021417640214332419 0 -0.021566893569344589 -0.0016456510250131013 0 -0.021668564299775216 -0.0019073278727911092 0 -0.021741403734469075 -0.002135916327590946 0 -0.021530884495012184 -0.0023109083178990226 0 -0.022081743931745022 -0.0029997938850806578 0 -0.01970205418377274 -0.0018311342864867366 0 -0.021458092875744308 -0.0014305041436387012 0 -0.018107890202286283 -0.0011241090690004632 0 -0.017645914313485184 -0.001186854721945967 0 -0.018050953403870501 -0.0015430872432555911 0 -0.018107890202286283 -0.0011241090690004632 0 -0.017645914313485184 -0.001186854721945967 0 -0.01773157875270142 -0.00066507673080098929 0 -0.01970205418377274 -0.0018311342864867366 0 -0.017920350010773665 -0.0023395674849390475 0 -0.017645914313485184 -0.001186854721945967 0 -0.01773157875270142 -0.00066507673080098929 0 -0.017150014415228561 -0.00074011271259852578 0 -0.017645914313485184 -0.001186854721945967 0 -0.017138146990955092 -0.0013742947703341869 0 -0.017150014415228561 -0.00074011271259852578 0 -0.019327732555079007 0.0016167712574676428 0 -0.018288293334719256 0.00093324273273871132 0 -0.017138146990955092 -0.0013742947703341869 0 -0.017150014415228561 -0.00074011271259852578 0 -0.016584984232553186 -0.0010753000619234785 0 -0.022481361042021215 0.0063759491202635219 0 -0.022355172301252189 0.0062481553324489902 0 -0.022389887328186864 0.0065237553190510087 0 -0.022694439198304054 0.0063638707735720682 0 -0.022593771482131875 0.0063741843895784439 0 -0.022621510672249233 0.0064594721945500123 0 -0.022593771482131875 0.0063741843895784439 0 -0.022543832841822362 0.006447021544532295 0 -0.022621510672249233 0.0064594721945500123 0 -0.022593771482131875 0.0063741843895784439 0 -0.022678774971140712 0.0062922742639819063 0 -0.022515191218982419 0.0062709662591159225 0 -0.022694439198304054 0.0063638707735720682 0 -0.022593771482131875 0.0063741843895784439 0 -0.022678774971140712 0.0062922742639819063 0 -0.022574271621950911 0.0061155667015307487 0 -0.022678774971140712 0.0062922742639819063 0 -0.022841302853954661 0.0062120993737630791 0 -0.022574271621950911 0.0061155667015307487 0 -0.022678774971140712 0.0062922742639819063 0 -0.022515191218982419 0.0062709662591159225 0 -0.019327732555079007 0.0016167712574676428 0 -0.019859545621218621 0.0019700557764153206 0 -0.017645914313485184 -0.001186854721945967 0 -0.017138146990955092 -0.0013742947703341869 0 -0.017687746494383889 -0.0016660932078011031 0 -0.022574271621950911 0.0061155667015307487 0 -0.022515191218982419 0.0062709662591159225 0 -0.022355172301252189 0.0062481553324489902 0 -0.022515191218982419 0.0062709662591159225 0 -0.022481361042021215 0.0063759491202635219 0 -0.022355172301252189 0.0062481553324489902 0 -0.022593771482131875 0.0063741843895784439 0 -0.022515191218982419 0.0062709662591159225 0 -0.022481361042021215 0.0063759491202635219 0 -0.022593771482131875 0.0063741843895784439 0 -0.022481361042021215 0.0063759491202635219 0 -0.022543832841822362 0.006447021544532295 0 -0.022355172301252189 0.0062481553324489902 0 -0.022172116241359903 0.0063493695879339928 0 -0.022389887328186864 0.0065237553190510087 0 -0.017645914313485184 -0.001186854721945967 0 -0.017687746494383889 -0.0016660932078011031 0 -0.018050953403870501 -0.0015430872432555911 0 -0.018107890202286283 -0.0011241090690004632 0 -0.018050953403870501 -0.0015430872432555911 0 -0.018476652112817338 -0.0015742315144099269 0 -0.018050953403870501 -0.0015430872432555911 0 -0.018229174528974164 -0.0019490678762316359 0 -0.018476652112817338 -0.0015742315144099269 0 -0.017687746494383889 -0.0016660932078011031 0 -0.018050953403870501 -0.0015430872432555911 0 -0.018229174528974164 -0.0019490678762316359 0 -0.019859545621218621 0.0019700557764153206 0 -0.020344744334348387 0.0021080794287907071 0 -0.022172116241359903 0.0063493695879339928 0 -0.022164764420080554 0.0065367633667990765 0 -0.022389887328186864 0.0065237553190510087 0 -0.021293616100348446 0.0076641384710891764 0 -0.021107297205336547 0.0079411902433902237 0 -0.021461829958703098 0.0079520003695068876 0 -0.021293616100348446 0.0076641384710891764 0 -0.021782198866282305 0.0075587515971450919 0 -0.021461829958703098 0.0079520003695068876 0 -0.021782198866282305 0.0075587515971450919 0 -0.021830087418130473 0.0078729958559139879 0 -0.021461829958703098 0.0079520003695068876 0 -0.021710813355734736 0.0061694372920548255 0 -0.022056692422656836 0.0066905901940405594 0 -0.022481361042021215 0.0063759491202635219 0 -0.022389887328186864 0.0065237553190510087 0 -0.022543832841822362 0.006447021544532295 0 -0.022389887328186864 0.0065237553190510087 0 -0.02261005661061849 0.0065030222488943823 0 -0.022543832841822362 0.006447021544532295 0 -0.022056692422656836 0.0066905901940405594 0 -0.022409797341619356 0.0069738687291722211 0 -0.021782198866282305 0.0075587515971450919 0 -0.022029861298670662 0.0077298830010682894 0 -0.022324013624138456 0.0074611413081405713 0 -0.021782198866282305 0.0075587515971450919 0 -0.021830087418130473 0.0078729958559139879 0 -0.022029861298670662 0.0077298830010682894 0 -0.021830087418130473 0.0078729958559139879 0 -0.022029861298670662 0.0077298830010682894 0 -0.022135141958436636 0.008029391087274098 0 -0.02250094608990761 0.0069747737919604686 0 -0.022436482219979063 0.0066903037099646234 0 -0.022134658346255023 0.007642753307429734 0 -0.022029861298670662 0.0077298830010682894 0 -0.022324013624138456 0.0074611413081405713 0 -0.022135141958436636 0.008029391087274098 0 -0.022409797341619356 0.0069738687291722211 0 -0.022142478178344686 0.007820875902748067 0 -0.02250094608990761 0.0069747737919604686 0 -0.02268013847442809 0.0071679849804283779 0 -0.022134658346255023 0.007642753307429734 0 -0.02250094608990761 0.0069747737919604686 0 -0.022675536457080966 0.0068075003938962986 0 -0.02268013847442809 0.0071679849804283779 0 -0.02250094608990761 0.0069747737919604686 0 -0.022436482219979063 0.0066903037099646234 0 -0.022495727059456471 0.0066816787649175789 0 -0.02250094608990761 0.0069747737919604686 0 -0.022495727059456471 0.0066816787649175789 0 -0.022675536457080966 0.0068075003938962986 0 -0.022495727059456471 0.0066816787649175789 0 -0.022685270773639122 0.0065826711639955316 0 -0.022675536457080966 0.0068075003938962986 0 -0.022409797341619356 0.0069738687291722211 0 -0.022410167412385624 0.0069735636846424958 0 -0.02261005661061849 0.0065030222488943823 0 -0.022543832841822362 0.006447021544532295 0 -0.022621510672249233 0.0064594721945500123 0 -0.022409797341619356 0.0069738687291722211 0 -0.02242635838179162 0.0069295903077127158 0 -0.02244568220984575 0.0066876188487217363 0 -0.022495727059456471 0.0066816787649175789 0 -0.022621510672249233 0.0064594721945500123 0 -0.022495727059456471 0.0066816787649175789 0 -0.022621510672249233 0.0064594721945500123 0 -0.022685270773639122 0.0065826711639955316 0 -0.023299577513926036 -0.0035123913014436137 0 -0.023686132223298215 -0.0037182601379376679 0 -0.02353113092340451 -0.0031304309568326505 0 -0.023299577513926036 -0.0035123913014436137 0 -0.022850259569790789 -0.0037653501514947085 0 -0.023422352182178023 -0.003927574357011617 0 -0.023299577513926036 -0.0035123913014436137 0 -0.023686132223298215 -0.0037182601379376679 0 -0.023422352182178023 -0.003927574357011617 0 -0.023686132223298215 -0.0037182601379376679 0 -0.024153020056642265 -0.0035567523212318348 0 -0.023886792699648333 -0.0041911841798996981 0 -0.024670528056660364 -0.0036689695994945887 0 -0.025034483641672701 -0.0035017001313417035 0 -0.023686132223298215 -0.0037182601379376679 0 -0.024153020056642265 -0.0035567523212318348 0 -0.024082666617675191 -0.0029628430350267438 0 -0.024153020056642265 -0.0035567523212318348 0 -0.024082666617675191 -0.0029628430350267438 0 -0.024429020218819757 -0.0029592912111786308 0 -0.023686132223298215 -0.0037182601379376679 0 -0.024090147673207659 -0.0028753153385051265 0 -0.02353113092340451 -0.0031304309568326505 0 -0.023617041803662822 -0.0025782906075639579 0 -0.024090147673207659 -0.0028753153385051265 0 -0.02353113092340451 -0.0031304309568326505 0 -0.023617041803662822 -0.0025782906075639579 0 -0.02353113092340451 -0.0031304309568326505 0 -0.023009410150939026 -0.0030170337699217879 0 -0.023299577513926036 -0.0035123913014436137 0 -0.02353113092340451 -0.0031304309568326505 0 -0.023009410150939026 -0.0030170337699217879 0 -0.02241716719443735 -0.0025679570217163874 0 -0.023009410150939026 -0.0030170337699217879 0 -0.022235569586817005 -0.0030321788142610617 0 -0.023009410150939026 -0.0030170337699217879 0 -0.022235569586817005 -0.0030321788142610617 0 -0.022850259569790789 -0.0037653501514947085 0 -0.021458092875744308 -0.0014305041436387012 0 -0.021362582967143769 -2.3460415738299197e-05 0 -0.021458092875744308 -0.0014305041436387012 0 -0.022568326530307565 -0.0011986236146759399 0 -0.020344744334348387 0.0021080794287907071 0 -0.0213351547778283 0.0019519570212463814 0 -0.022101990719984765 -0.0003952834962297015 0 -0.022022521993599376 -0.00017208628910443774 0 -0.021875195123282728 -8.1418039864447069e-05 0 -0.018229174528974164 -0.0019490678762316359 0 -0.018476652112817338 -0.0015742315144099269 0 -0.018614444831398413 -0.0019018523322188964 0 -0.018229174528974164 -0.0019490678762316359 0 -0.018614444831398413 -0.0019018523322188964 0 -0.018754600715951194 -0.0022233650899801316 0 -0.023299577513926036 -0.0035123913014436137 0 -0.023009410150939026 -0.0030170337699217879 0 -0.022850259569790789 -0.0037653501514947085 0 -0.021362582967143769 -2.3460415738299197e-05 0 -0.0213351547778283 0.0019519570212463814 0 -0.022022521993599376 -0.00017208628910443774 0 -0.021875195123282728 -8.1418039864447069e-05 0 -0.02194036335204207 4.6508816941998549e-05 0 -0.0213351547778283 0.0019519570212463814 0 -0.023036351812522393 0.00043671385154174909 0 -0.021875195123282728 -8.1418039864447069e-05 0 -0.02194036335204207 4.6508816941998549e-05 0 -0.02165591523125281 0.00022074491931010142 0 -0.02153965659923622 0.0034645840585825764 0 -0.021726655478479375 0.0030102819375679986 0 -0.022515325479806239 0.0029236419681414739 0 -0.022006866072848515 0.0064449853794120203 0 -0.022035934507360536 0.0064628864210394751 0 -0.021987860163426295 0.0065029413153081953 0 -0.0213351547778283 0.0019519570212463814 0 -0.021631226538825623 0.0043445595516546165 0 -0.021543699979281173 0.0045407609260972575 0 -0.021631226538825623 0.0043445595516546165 0 -0.022172116241359903 0.0063493695879339928 0 -0.022164764420080554 0.0065367633667990765 0 -0.022035934507360536 0.0064628864210394751 0 -0.022172116241359903 0.0063493695879339928 0 -0.022006866072848515 0.0064449853794120203 0 -0.022035934507360536 0.0064628864210394751 0 -0.022164764420080554 0.0065367633667990765 0 -0.022035934507360536 0.0064628864210394751 0 -0.021974390504748927 0.0065178230244586459 0 -0.021710813355734736 0.0061694372920548255 0 -0.021691703199938572 0.0049775406260774303 0 -0.022164764420080554 0.0065367633667990765 0 -0.02195901442759722 0.0065548345487709764 0 -0.021974390504748927 0.0065178230244586459 0 -0.021293616100348446 0.0076641384710891764 0 -0.02086571046617031 0.0077425280972919976 0 -0.021107297205336547 0.0079411902433902237 0 -0.022300107733506398 0.0051311079653240978 0 -0.022279724078718904 0.0051345223821605097 0 -0.022266905958148796 0.0052232973070692763 0 -0.021691703199938572 0.0049775406260774303 0 -0.021972804944861944 0.0063825519234272602 0 -0.022020646089320813 0.002745452153328607 0 -0.021726655478479375 0.0030102819375679986 0 -0.022515325479806239 0.0029236419681414739 0 -0.021691703199938572 0.0049775406260774303 0 -0.021916493705457472 0.0046426787384670157 0 -0.021282815691674839 0.0044924162044724467 0 -0.021400257795736427 0.0044750408257400011 0 -0.021225539144935079 0.0046333347213178477 0 -0.021916493705457472 0.0046426787384670157 0 -0.021631226538825623 0.0043445595516546165 0 -0.021691703199938572 0.0049775406260774303 0 -0.021631226538825623 0.0043445595516546165 0 -0.02086571046617031 0.0077425280972919976 0 -0.020927418395521969 0.0079657677417709107 0 -0.021107297205336547 0.0079411902433902237 0 -0.021916493705457472 0.0046426787384670157 0 -0.022222835432104033 0.0043862190796310875 0 -0.022020646089320813 0.002745452153328607 0 -0.022833992342665803 0.0026300625376136891 0 -0.022515325479806239 0.0029236419681414739 0 -0.02203113105381926 0.0027569826060778843 0 -0.022833992342665803 0.0026300625376136891 0 -0.023029212456742283 0.001841026505052925 0 -0.022850259569790789 -0.0037653501514947085 0 -0.023442214012151418 -0.0045031082391451035 0 -0.023422352182178023 -0.003927574357011617 0 -0.023442214012151418 -0.0045031082391451035 0 -0.023422352182178023 -0.003927574357011617 0 -0.023886792699648333 -0.0041911841798996981 0 -0.022568326530307565 -0.0011986236146759399 0 -0.023036351812522393 0.00043671385154174909 0 -0.023686132223298215 -0.0037182601379376679 0 -0.023422352182178023 -0.003927574357011617 0 -0.023886792699648333 -0.0041911841798996981 0 -0.024252922164601426 -0.003411709192756828 0 -0.023886792699648333 -0.0041911841798996981 0 -0.024471751650308463 -0.0039878012980189117 0 -0.023886792699648333 -0.0041911841798996981 0 -0.024217451441631479 -0.0049598792572976853 0 -0.024471751650308463 -0.0039878012980189117 0 -0.024967957638226939 -0.0037312792072565415 0 -0.024739710461094036 -0.0039422017952010606 0 -0.023442214012151418 -0.0045031082391451035 0 -0.023886792699648333 -0.0041911841798996981 0 -0.024217451441631479 -0.0049598792572976853 0 -0.023036351812522393 0.00043671385154174909 0 -0.024356144162020563 0.0014113356701002493 0 -0.022833992342665803 0.0026300625376136891 0 -0.022515325479806239 0.0029236419681414739 0 -0.023439664243748458 0.0024055723779089731 0 -0.024356144162020563 0.0014113356701002493 0 -0.026088976655766143 -0.0013710285538168236 0 -0.03090238648361646 -6.0039788995812991e-05 0 -0.030000299780756169 -0.00027138597319407959 0 -0.030107654758873996 -0.0011882445177770508 0 -0.030000299780756169 -0.00027138597319407959 0 -0.029341871112057341 -3.2934695922458386e-05 0 -0.029576855614446652 -0.00079364206401094477 0 -0.030000299780756169 -0.00027138597319407959 0 -0.029576855614446652 -0.00079364206401094477 0 -0.030107654758873996 -0.0011882445177770508 0 -0.029576855614446652 -0.00079364206401094477 0 -0.030107654758873996 -0.0011882445177770508 0 -0.029433412837432182 -0.0015071691325826617 0 -0.024217451441631479 -0.0049598792572976853 0 -0.024960064262214185 -0.0039805477843259333 0 -0.024471751650308463 -0.0039878012980189117 0 -0.024960064262214185 -0.0039805477843259333 0 -0.024471751650308463 -0.0039878012980189117 0 -0.024748990450072578 -0.0036823247191818008 0 -0.024471751650308463 -0.0039878012980189117 0 -0.024550344614168655 -0.0033114811734413895 0 -0.024748990450072578 -0.0036823247191818008 0 -0.025199064068074678 -0.0035928589333500808 0 -0.025285570178367158 -0.0034809879920433473 0 -0.024252922164601426 -0.003411709192756828 0 -0.024471751650308463 -0.0039878012980189117 0 -0.024539912480337517 -0.00331457175406405 0 -0.024550344614168655 -0.0033114811734413895 0 -0.025013419171242553 -0.0034505079452668945 0 -0.024907168009996487 -0.0030347252351598524 0 -0.024550344614168655 -0.0033114811734413895 0 -0.025013419171242553 -0.0034505079452668945 0 -0.024748990450072578 -0.0036823247191818008 0 -0.024960064262214185 -0.0039805477843259333 0 -0.025013419171242553 -0.0034505079452668945 0 -0.024748990450072578 -0.0036823247191818008 0 -0.026088976655766143 -0.0013710285538168236 0 -0.027008075948978232 -0.002695102789244795 0 -0.025013419171242553 -0.0034505079452668945 0 -0.025291196122042843 -0.0030691793858525838 0 -0.025702727624170637 -0.0029725283596417221 0 -0.024960064262214185 -0.0039805477843259333 0 -0.025013419171242553 -0.0034505079452668945 0 -0.025702727624170637 -0.0029725283596417221 0 -0.030107654758873996 -0.0011882445177770508 0 -0.029433412837432182 -0.0015071691325826617 0 -0.02931872437600001 -0.0022808166933920185 0 -0.025013419171242553 -0.0034505079452668945 0 -0.025291196122042843 -0.0030691793858525838 0 -0.024907168009996487 -0.0030347252351598524 0 -0.025291196122042843 -0.0030691793858525838 0 -0.025199536824290197 -0.0027677107181089382 0 -0.024907168009996487 -0.0030347252351598524 0 -0.025199536824290197 -0.0027677107181089382 0 -0.025752721861565065 -0.002891021755622422 0 -0.024926392248451303 -0.0019969299005820327 0 -0.025291196122042843 -0.0030691793858525838 0 -0.025199536824290197 -0.0027677107181089382 0 -0.025692742586279672 -0.0029740962057970455 0 -0.025199536824290197 -0.0027677107181089382 0 -0.025752721861565065 -0.002891021755622422 0 -0.025692742586279672 -0.0029740962057970455 0 -0.026780302522409344 -0.0027479401426255918 0 -0.027008075948978232 -0.002695102789244795 0 -0.024252922164601426 -0.003411709192756828 0 -0.024539912480337517 -0.00331457175406405 0 -0.024611881646766167 -0.002652412409065556 0 -0.025285570178367158 -0.0034809879920433473 0 -0.0255278674533309 -0.0034733583248145712 0 -0.024967957638226939 -0.0037312792072565415 0 -0.0255278674533309 -0.0034733583248145712 0 -0.024550344614168655 -0.0033114811734413895 0 -0.024625278675206405 -0.0026424702233133817 0 -0.024907168009996487 -0.0030347252351598524 0 -0.025199536824290197 -0.0027677107181089382 0 -0.024625278675206405 -0.0026424702233133817 0 -0.024907168009996487 -0.0030347252351598524 0 -0.027193905160925898 -0.0030347936015943677 0 -0.027273887764518136 -0.0030164442208053168 0 -0.027175821172030941 -0.0029756091633831392 0 -0.027428421060621971 -0.0029146469996457992 0 -0.027166047175066571 -0.0031676923833246443 0 -0.02840719632678022 -0.0026296288240077298 0 -0.02812417250839928 -0.0019672867593148783 0 -0.027714292190203608 -0.002307940615722954 0 -0.027193905160925898 -0.0030347936015943677 0 -0.027150987229509826 -0.0030164342527079454 0 -0.027175821172030941 -0.0029756091633831392 0 -0.027193905160925898 -0.0030347936015943677 0 -0.027150987229509826 -0.0030164342527079454 0 -0.027108267999384573 -0.0030468788793745743 0 -0.02840719632678022 -0.0026296288240077298 0 -0.029333840438437529 -0.0024853366522254788 0 -0.028743237634871292 -0.0018352976206348853 0 -0.027428421060621971 -0.0029146469996457992 0 -0.027128736573023761 -0.0027635560456067683 0 -0.027128736573023761 -0.0027635560456067683 0 -0.027194110470387597 -0.0035469842416486321 0 -0.027150987229509826 -0.0030164342527079454 0 -0.027108267999384573 -0.0030468788793745743 0 -0.027163307016589554 -0.0029720540113539794 0 -0.029253104199454705 -0.0023702284163043472 0 -0.02931872437600001 -0.0022808166933920185 0 -0.02916221153158274 -0.0018755983145598409 0 -0.027128736573023761 -0.0027635560456067683 0 -0.027008075948978232 -0.002695102789244795 0 -0.027128736573023761 -0.0027635560456067683 0 -0.027627597504230064 -0.0025288299428534583 0 -0.029433412837432182 -0.0015071691325826617 0 -0.02931872437600001 -0.0022808166933920185 0 -0.02916221153158274 -0.0018755983145598409 0 -0.029253104199454705 -0.0023702284163043472 0 -0.02916221153158274 -0.0018755983145598409 0 -0.028694246570038558 -0.0017486743582657708 0 -0.029433412837432182 -0.0015071691325826617 0 -0.02916221153158274 -0.0018755983145598409 0 -0.028925764284036239 -0.0012719755998690599 0 -0.02916221153158274 -0.0018755983145598409 0 -0.028694246570038558 -0.0017486743582657708 0 -0.028925764284036239 -0.0012719755998690599 0 -0.02840719632678022 -0.0026296288240077298 0 -0.028743237634871292 -0.0018352976206348853 0 -0.02812417250839928 -0.0019672867593148783 0 -0.027627597504230064 -0.0025288299428534583 0 -0.027653136254825472 -0.0023502395821667667 0 -0.028743237634871292 -0.0018352976206348853 0 -0.02812417250839928 -0.0019672867593148783 0 -0.028198528573836291 -0.0012294785139095982 0 -0.02812417250839928 -0.0019672867593148783 0 -0.028198528573836291 -0.0012294785139095982 0 -0.027638766580636701 -0.0016988851621643312 0 -0.028198528573836291 -0.0012294785139095982 0 -0.028925764284036239 -0.0012719755998690599 0 -0.028512695461088155 -0.00048016636621042805 0 -0.028198528573836291 -0.0012294785139095982 0 -0.028512695461088155 -0.00048016636621042805 0 -0.02760228754398459 -0.00094977691986426337 0 -0.028694246570038558 -0.0017486743582657708 0 -0.028198528573836291 -0.0012294785139095982 0 -0.028925764284036239 -0.0012719755998690599 0 -0.029576855614446652 -0.00079364206401094477 0 -0.028925764284036239 -0.0012719755998690599 0 -0.028512695461088155 -0.00048016636621042805 0 -0.029576855614446652 -0.00079364206401094477 0 -0.029433412837432182 -0.0015071691325826617 0 -0.028925764284036239 -0.0012719755998690599 0 -0.029341871112057341 -3.2934695922458386e-05 0 -0.029576855614446652 -0.00079364206401094477 0 -0.028485113784215529 -0.00037280337745145372 0 -0.028911007926709198 -0.00056021570863489043 0 -0.028371787215665096 -0.00037650545522001388 0 -0.029341871112057341 -3.2934695922458386e-05 0 -0.028485113784215529 -0.00037280337745145372 0 -0.028954324983710058 0.00043087746093881248 0 -0.028371787215665096 -0.00037650545522001388 0 -0.027385822388928043 -3.9029751472986663e-05 0 -0.028485113784215529 -0.00037280337745145372 0 -0.027387679688050757 1.1334318104319956e-05 0 -0.028345565729517474 0.00054290880199259152 0 -0.028512695461088155 -0.00048016636621042805 0 -0.02741474223431856 -0.00010178838977654308 0 -0.02760228754398459 -0.00094977691986426337 0 -0.02741474223431856 -0.00010178838977654308 0 -0.02685261161489081 -0.00072172565921530755 0 -0.02760228754398459 -0.00094977691986426337 0 -0.02741474223431856 -0.00010178838977654308 0 -0.02685261161489081 -0.00072172565921530755 0 -0.026276851551458275 0.00031298606867895029 0 -0.02685261161489081 -0.00072172565921530755 0 -0.026575677322345458 -0.0013885039054684827 0 -0.027130690399827826 -0.0014817235897566026 0 -0.02685261161489081 -0.00072172565921530755 0 -0.027130690399827826 -0.0014817235897566026 0 -0.02760228754398459 -0.00094977691986426337 0 -0.027130690399827826 -0.0014817235897566026 0 -0.02760228754398459 -0.00094977691986426337 0 -0.027638766580636701 -0.0016988851621643312 0 -0.028198528573836291 -0.0012294785139095982 0 -0.02760228754398459 -0.00094977691986426337 0 -0.027638766580636701 -0.0016988851621643312 0 -0.025000001451201827 -0.00076089585667459241 0 -0.026084177341697035 -0.00070328533600290128 0 -0.025544859307904122 0.00011177087117181414 0 -0.026084177341697035 -0.00070328533600290128 0 -0.026276851551458275 0.00031298606867895029 0 -0.025544859307904122 0.00011177087117181414 0 -0.02685261161489081 -0.00072172565921530755 0 -0.026084177341697035 -0.00070328533600290128 0 -0.026276851551458275 0.00031298606867895029 0 -0.02685261161489081 -0.00072172565921530755 0 -0.026575677322345458 -0.0013885039054684827 0 -0.026084177341697035 -0.00070328533600290128 0 -0.026575677322345458 -0.0013885039054684827 0 -0.026084177341697035 -0.00070328533600290128 0 -0.026106369510774025 -0.001362926106136047 0 -0.025000001451201827 -0.00076089585667459241 0 -0.026106369510774025 -0.001362926106136047 0 -0.025851480845853272 -0.0018808478568227648 0 -0.025000001451201827 -0.00076089585667459241 0 -0.026084177341697035 -0.00070328533600290128 0 -0.026106369510774025 -0.001362926106136047 0 -0.025000001451201827 -0.00076089585667459241 0 -0.024999984878446076 -0.0021985914299831985 0 -0.025851480845853272 -0.0018808478568227648 0 -0.024999984878446076 -0.0021985914299831985 0 -0.025851480845853272 -0.0018808478568227648 0 -0.025905385900417868 -0.002482708977793238 0 -0.026340656995125205 -0.0025630228099593404 0 -0.026530031577860352 -0.0027570385661917821 0 -0.025851480845853272 -0.0018808478568227648 0 -0.026458485496551755 -0.0024244138473677331 0 -0.025905385900417868 -0.002482708977793238 0 -0.026106369510774025 -0.001362926106136047 0 -0.025851480845853272 -0.0018808478568227648 0 -0.026425060899122017 -0.0018775103663072907 0 -0.026575677322345458 -0.0013885039054684827 0 -0.026106369510774025 -0.001362926106136047 0 -0.026425060899122017 -0.0018775103663072907 0 -0.026425060899122017 -0.0018775103663072907 0 -0.02641362370568923 -0.0023255757457706951 0 -0.026652112088114348 -0.0021703327935171267 0 -0.025851480845853272 -0.0018808478568227648 0 -0.026425060899122017 -0.0018775103663072907 0 -0.02641362370568923 -0.0023255757457706951 0 -0.026458485496551755 -0.0024244138473677331 0 -0.026439392629446352 -0.0027501344900686146 0 -0.025905385900417868 -0.002482708977793238 0 -0.026458485496551755 -0.0024244138473677331 0 -0.026439392629446352 -0.0027501344900686146 0 -0.026742515830471776 -0.0028646052490746842 0 -0.026439392629446352 -0.0027501344900686146 0 -0.026111950058671177 -0.0029531111735581123 0 -0.026750996629562158 -0.0032174857014684302 0 -0.026111950058671177 -0.0029531111735581123 0 -0.025905385900417868 -0.002482708977793238 0 -0.025576798247781602 -0.0029392292580811964 0 -0.026439392629446352 -0.0027501344900686146 0 -0.026111950058671177 -0.0029531111735581123 0 -0.025905385900417868 -0.002482708977793238 0 -0.026111950058671177 -0.0029531111735581123 0 -0.025576798247781602 -0.0029392292580811964 0 -0.025872526445548119 -0.0034262922359596607 0 -0.024999984878446076 -0.0021985914299831985 0 -0.025576798247781602 -0.0029392292580811964 0 -0.025000003230846727 -0.0036363991172912646 0 -0.024999984878446076 -0.0021985914299831985 0 -0.025905385900417868 -0.002482708977793238 0 -0.025576798247781602 -0.0029392292580811964 0 -0.027274340918502983 -0.0021494642734792612 0 -0.027638766580636701 -0.0016988851621643312 0 -0.027714292190203608 -0.002307940615722954 0 -0.02812417250839928 -0.0019672867593148783 0 -0.027638766580636701 -0.0016988851621643312 0 -0.027714292190203608 -0.002307940615722954 0 -0.027130690399827826 -0.0014817235897566026 0 -0.027274340918502983 -0.0021494642734792612 0 -0.027638766580636701 -0.0016988851621643312 0 -0.027130690399827826 -0.0014817235897566026 0 -0.027274340918502983 -0.0021494642734792612 0 -0.026836877300226773 -0.0019243888720647036 0 -0.026575677322345458 -0.0013885039054684827 0 -0.027130690399827826 -0.0014817235897566026 0 -0.026836877300226773 -0.0019243888720647036 0 -0.026575677322345458 -0.0013885039054684827 0 -0.026425060899122017 -0.0018775103663072907 0 -0.026836877300226773 -0.0019243888720647036 0 -0.026425060899122017 -0.0018775103663072907 0 -0.026836877300226773 -0.0019243888720647036 0 -0.026652112088114348 -0.0021703327935171267 0 -0.026836877300226773 -0.0019243888720647036 0 -0.026652112088114348 -0.0021703327935171267 0 -0.02695681607067699 -0.0022530418049720169 0 -0.027274340918502983 -0.0021494642734792612 0 -0.026836877300226773 -0.0019243888720647036 0 -0.02695681607067699 -0.0022530418049720169 0 -0.027274340918502983 -0.0021494642734792612 0 -0.027223201365742515 -0.0024039108957920712 0 -0.02695681607067699 -0.0022530418049720169 0 -0.027223201365742515 -0.0024039108957920712 0 -0.02695681607067699 -0.0022530418049720169 0 -0.026632386490173739 -0.0024708623008997291 0 -0.026632386490173739 -0.0024708623008997291 0 -0.026953505507086108 -0.0027987685769972834 0 -0.027521388565962927 -0.0028361159402988385 0 -0.02699612495055519 -0.0030206104067298069 0 -0.027166047175066571 -0.0031676923833246443 0 -0.027223201365742515 -0.0024039108957920712 0 -0.026632386490173739 -0.0024708623008997291 0 -0.027539780575249657 -0.0028375147602813771 0 -0.026530031577860352 -0.0027570385661917821 0 -0.0269226095833476 -0.0031919661770111732 0 -0.02641362370568923 -0.0023255757457706951 0 -0.026632386490173739 -0.0024708623008997291 0 -0.026953505507086108 -0.0027987685769972834 0 -0.02641362370568923 -0.0023255757457706951 0 -0.026652112088114348 -0.0021703327935171267 0 -0.026632386490173739 -0.0024708623008997291 0 -0.026652112088114348 -0.0021703327935171267 0 -0.02695681607067699 -0.0022530418049720169 0 -0.026632386490173739 -0.0024708623008997291 0 -0.026439392629446352 -0.0027501344900686146 0 -0.026742515830471776 -0.0028646052490746842 0 -0.026750996629562158 -0.0032174857014684302 0 -0.026458485496551755 -0.0024244138473677331 0 -0.026742515830471776 -0.0028646052490746842 0 -0.027053298719906523 -0.0029561795802262856 0 -0.0269142489165131 -0.0031850122891912314 0 -0.0269226095833476 -0.0031919661770111732 0 -0.026542724869465992 -0.0034099942611938486 0 -0.026519390429627684 -0.0034378661127280855 0 -0.026742515830471776 -0.0028646052490746842 0 -0.026958250968374411 -0.0029574412893038481 0 -0.026750996629562158 -0.0032174857014684302 0 -0.026742515830471776 -0.0028646052490746842 0 -0.026958250968374411 -0.0029574412893038481 0 -0.027050407799795392 -0.0029547010433364712 0 -0.026958250968374411 -0.0029574412893038481 0 -0.027218419125598275 -0.003103009038286495 0 -0.026751564624677 -0.0032137403964176271 0 -0.026958250968374411 -0.0029574412893038481 0 -0.027050407799795392 -0.0029547010433364712 0 -0.027218419125598275 -0.003103009038286495 0 -0.0269226095833476 -0.0031919661770111732 0 -0.026985551620558931 -0.0032993397908204578 0 -0.0269226095833476 -0.0031919661770111732 0 -0.027073880946173808 -0.0032538342551799758 0 -0.027149040747033355 -0.0032478957622281163 0 -0.027014443205386301 -0.0031290191947940379 0 -0.026862758970495944 -0.0031651628718188641 0 -0.026985551620558931 -0.0032993397908204578 0 -0.027073880946173808 -0.0032538342551799758 0 -0.02840719632678022 -0.0026296288240077298 0 -0.027539780575249657 -0.0028375147602813771 0 -0.027714292190203608 -0.002307940615722954 0 -0.026953505507086108 -0.0027987685769972834 0 -0.027280509646431889 -0.0028933365929608669 0 -0.027521388565962927 -0.0028361159402988385 0 -0.027073880946173808 -0.0032538342551799758 0 -0.027166047175066571 -0.0031676923833246443 0 -0.027223201365742515 -0.0024039108957920712 0 -0.027539780575249657 -0.0028375147602813771 0 -0.027714292190203608 -0.002307940615722954 0 -0.027274340918502983 -0.0021494642734792612 0 -0.027223201365742515 -0.0024039108957920712 0 -0.027714292190203608 -0.002307940615722954 0 -0.027073880946173808 -0.0032538342551799758 0 -0.027234114116627149 -0.0034956927289867775 0 -0.027208491186855525 -0.003534785005380093 0 -0.027351715559157226 -0.0035009620688652389 0 -0.027840704524071974 -0.0040933897050285878 0 -0.02711901325227967 -0.0033454511246142279 0 -0.02784071552775327 -0.0040219366752455117 0 -0.026951868862134073 -0.0038514774356068074 0 -0.027351715559157226 -0.0035009620688652389 0 -0.027840704524071974 -0.0040933897050285878 0 -0.028402219464230046 -0.0038068010810741468 0 -0.027113092488135496 -0.0033535040007883765 0 -0.027135317193464563 -0.0033483215658792575 0 -0.027230589082832365 -0.0033880061488920886 0 -0.026985551620558931 -0.0032993397908204578 0 -0.027662355670096516 -0.0038998255815769819 0 -0.026985551620558931 -0.0032993397908204578 0 -0.026519390429627684 -0.0034378661127280855 0 -0.02711901325227967 -0.0033454511246142279 0 -0.026702413933250586 -0.0034345334013757187 0 -0.026951868862134073 -0.0038514774356068074 0 -0.027043515886430562 -0.0043265430604820104 0 -0.025885327504234706 -0.0043846499839202508 0 -0.026905823556644899 -0.0049836145298183367 0 -0.026951868862134073 -0.0038514774356068074 0 -0.027043515886430562 -0.0043265430604820104 0 -0.025885327504234706 -0.0043846499839202508 0 -0.027043515886430562 -0.0043265430604820104 0 -0.027500782427386891 -0.0045455148776300421 0 -0.026905823556644899 -0.0049836145298183367 0 -0.02784071552775327 -0.0040219366752455117 0 -0.027043515886430562 -0.0043265430604820104 0 -0.027500782427386891 -0.0045455148776300421 0 -0.02784071552775327 -0.0040219366752455117 0 -0.026951868862134073 -0.0038514774356068074 0 -0.027043515886430562 -0.0043265430604820104 0 -0.027500782427386891 -0.0045455148776300421 0 -0.027806958794899663 -0.0049518475340449815 0 -0.027907734832340599 -0.0045369123134254789 0 -0.02784071552775327 -0.0040219366752455117 0 -0.027500782427386891 -0.0045455148776300421 0 -0.027907734832340599 -0.0045369123134254789 0 -0.025001159573014933 -0.003636301277238194 0 -0.025806961789557652 -0.003516377267388732 0 -0.025576798247781602 -0.0029392292580811964 0 -0.025000003230846727 -0.0036363991172912646 0 -0.025872526445548119 -0.0034262922359596607 0 -0.025000002698277971 -0.0036363976157645938 0 -0.025867992606229108 -0.0034339752995750194 0 -0.025869059441258883 -0.0043058139772528883 0 -0.026519390429627684 -0.0034378661127280855 0 -0.025806961789557652 -0.003516377267388732 0 -0.026111950058671177 -0.0029531111735581123 0 -0.026750996629562158 -0.0032174857014684302 0 -0.025872526445548119 -0.0034262922359596607 0 -0.026702413933250586 -0.0034345334013757187 0 -0.026951868862134073 -0.0038514774356068074 0 -0.025885327504234706 -0.0043846499839202508 0 -0.026731808628631153 -0.0032283872147220076 0 -0.025867992606229108 -0.0034339752995750194 0 -0.025869059441258883 -0.0043058139772528883 0 -0.026519390429627684 -0.0034378661127280855 0 -0.025815163801631853 -0.0043655600439581697 0 -0.025000002698277971 -0.0036363976157645938 0 -0.025869059441258883 -0.0043058139772528883 0 -0.024999995863338863 -0.0045148089348504023 0 -0.025869059441258883 -0.0043058139772528883 0 -0.024999995863338863 -0.0045148089348504023 0 -0.025000001221318017 -0.0053932395696857814 0 -0.025815163801631853 -0.0043655600439581697 0 -0.025000732042472777 -0.0053923163928150291 0 -0.025885327504234706 -0.0043846499839202508 0 -0.025000009454050783 -0.005393357422800304 0 -0.025984792853727307 -0.0053162922472958013 0 -0.025885327504234706 -0.0043846499839202508 0 -0.025984792853727307 -0.0053162922472958013 0 -0.026905823556644899 -0.0049836145298183367 0 -0.025984792853727307 -0.0053162922472958013 0 -0.026374881412771466 -0.0061239686517998897 0 -0.026905823556644899 -0.0049836145298183367 0 -0.025984792853727307 -0.0053162922472958013 0 -0.026374881412771466 -0.0061239686517998897 0 -0.025660765304751625 -0.0060686950204482124 0 -0.024999964756972328 -0.0065559911367667131 0 -0.025000009454050783 -0.005393357422800304 0 -0.025660765304751625 -0.0060686950204482124 0 -0.025000009454050783 -0.005393357422800304 0 -0.025984792853727307 -0.0053162922472958013 0 -0.025660765304751625 -0.0060686950204482124 0 -0.027822020299470996 -0.004734623683852906 0 -0.027528011369962722 -0.0047705330690946835 0 -0.028086598486332635 -0.0050262654950748945 0 -0.026905823556644899 -0.0049836145298183367 0 -0.027468908068767426 -0.0058842131469113912 0 -0.027500782427386891 -0.0045455148776300421 0 -0.027806958794899663 -0.0049518475340449815 0 -0.026905823556644899 -0.0049836145298183367 0 -0.026374881412771466 -0.0061239686517998897 0 -0.026905823556644899 -0.0049836145298183367 0 -0.027468908068767426 -0.0058842131469113912 0 -0.026954697288850818 -0.0066750267955778672 0 -0.026374881412771466 -0.0061239686517998897 0 -0.027468908068767426 -0.0058842131469113912 0 -0.028100324839820192 -0.0067304459170790384 0 -0.027468908068767426 -0.0058842131469113912 0 -0.028437731197353277 -0.0057162252847085095 0 -0.028086598486332635 -0.0050262654950748945 0 -0.027468908068767426 -0.0058842131469113912 0 -0.028437731197353277 -0.0057162252847085095 0 -0.027427368495308507 -0.0067055725010961202 0 -0.027739526086929121 -0.0058727084550966252 0 -0.028100324839820192 -0.0067304459170790384 0 -0.028437731197353277 -0.0057162252847085095 0 -0.029171431739957645 -0.0058977394298491371 0 -0.028437731197353277 -0.0057162252847085095 0 -0.029145457279353144 -0.0054565733928091994 0 -0.029171431739957645 -0.0058977394298491371 0 -0.027806958794899663 -0.0049518475340449815 0 -0.028628648426872377 -0.0049536738762558834 0 -0.028474092061394458 -0.0046392585614751809 0 -0.027806958794899663 -0.0049518475340449815 0 -0.027907734832340599 -0.0045369123134254789 0 -0.028474092061394458 -0.0046392585614751809 0 -0.028086598486332635 -0.0050262654950748945 0 -0.028437731197353277 -0.0057162252847085095 0 -0.028831379752361712 -0.0051936819283104913 0 -0.027822020299470996 -0.004734623683852906 0 -0.027900796586859879 -0.0045881558070861236 0 -0.028086598486332635 -0.0050262654950748945 0 -0.028831379752361712 -0.0051936819283104913 0 -0.02922227928418198 -0.005082171282807706 0 -0.028437731197353277 -0.0057162252847085095 0 -0.028831379752361712 -0.0051936819283104913 0 -0.029145457279353144 -0.0054565733928091994 0 -0.027900796586859879 -0.0045881558070861236 0 -0.027161933106583058 -0.0048485949295933714 0 -0.027739526086929121 -0.0058727084550966252 0 -0.027161933106583058 -0.0048485949295933714 0 -0.028628648426872377 -0.0049536738762558834 0 -0.029349308886762873 -0.0047244292645861911 0 -0.028893710133550781 -0.0045156279199829686 0 -0.02921003223420535 -0.0050889470751289715 0 -0.029145457279353144 -0.0054565733928091994 0 -0.030212233339233521 -0.0051196636858787418 0 -0.027900796586859879 -0.0045881558070861236 0 -0.0268630510383909 -0.0042237898477393062 0 -0.029145457279353144 -0.0054565733928091994 0 -0.029171431739957645 -0.0058977394298491371 0 -0.030212233339233521 -0.0051196636858787418 0 -0.028831379752361712 -0.0051936819283104913 0 -0.02921003223420535 -0.0050889470751289715 0 -0.029145457279353144 -0.0054565733928091994 0 -0.027981747159767239 -0.0045853823619901504 0 -0.027900796586859879 -0.0045881558070861236 0 -0.028276156329921955 -0.0076807548589093453 0 -0.027941142270588682 -0.0074530042176137431 0 -0.028407408958346789 -0.007431934044375893 0 -0.027941142270588682 -0.0074530042176137431 0 -0.028407408958346789 -0.007431934044375893 0 -0.028446099810431513 -0.0070941183637524656 0 -0.028598701989985782 -0.0076914087723558618 0 -0.028276156329921955 -0.0076807548589093453 0 -0.028407408958346789 -0.007431934044375893 0 -0.028598701989985782 -0.0076914087723558618 0 -0.028407408958346789 -0.007431934044375893 0 -0.028671453560876969 -0.0074311727370630883 0 -0.028407408958346789 -0.007431934044375893 0 -0.028671453560876969 -0.0074311727370630883 0 -0.028532826282875762 -0.0072519541985540175 0 -0.028598701989985782 -0.0076914087723558618 0 -0.028903918943194412 -0.0076337743160787355 0 -0.028671453560876969 -0.0074311727370630883 0 -0.028671453560876969 -0.0074311727370630883 0 -0.028903999995155579 -0.0073023856767485571 0 -0.02868980463221316 -0.0072430248957716849 0 -0.028671453560876969 -0.0074311727370630883 0 -0.02868980463221316 -0.0072430248957716849 0 -0.028532826282875762 -0.0072519541985540175 0 -0.028903918943194412 -0.0076337743160787355 0 -0.028671453560876969 -0.0074311727370630883 0 -0.028903999995155579 -0.0073023856767485571 0 -0.029227419253988855 -0.0074842824584609368 0 -0.028903918943194412 -0.0076337743160787355 0 -0.028903999995155579 -0.0073023856767485571 0 -0.02935090111131617 -0.0071198660897029836 0 -0.028903999995155579 -0.0073023856767485571 0 -0.028753349233065932 -0.0070973207454042252 0 -0.028903999995155579 -0.0073023856767485571 0 -0.028753349233065932 -0.0070973207454042252 0 -0.02868980463221316 -0.0072430248957716849 0 -0.026567928164075688 -0.0049142143178730309 0 -0.026728182453602839 -0.0048617582906183955 0 -0.028753349233065932 -0.0070973207454042252 0 -0.02868980463221316 -0.0072430248957716849 0 -0.028608579372068191 -0.0070923452781921819 0 -0.026567928164075688 -0.0049142143178730309 0 -0.026318775659462019 -0.0044380422114317286 0 -0.026350614324334019 -0.0047618165375456663 0 -0.026324443249832019 -0.0047610396336993082 0 -0.026341449499041596 -0.0047247598926837744 0 -0.026350614324334019 -0.0047618165375456663 0 -0.026354929586095182 -0.0047146624746185343 0 -0.026341449499041596 -0.0047247598926837744 0 -0.026728182453602839 -0.0048617582906183955 0 -0.02647606386254335 -0.0045326993631815355 0 -0.026183569286750794 -0.0050491670117885712 0 -0.02609641438395147 -0.005124256426628301 0 -0.026171149426764878 -0.0051699843724330521 0 -0.02756706107093335 -0.004300856895333504 0 -0.026984525745867568 -0.0042813146687168142 0 -0.027047811194935871 -0.0043318571285217867 0 -0.02756706107093335 -0.004300856895333504 0 -0.026981758961563469 -0.004474530046060121 0 -0.027047811194935871 -0.0043318571285217867 0 -0.028407408958346789 -0.007431934044375893 0 -0.028532826282875762 -0.0072519541985540175 0 -0.028446099810431513 -0.0070941183637524656 0 -0.02868980463221316 -0.0072430248957716849 0 -0.028532826282875762 -0.0072519541985540175 0 -0.028608579372068191 -0.0070923452781921819 0 -0.028532826282875762 -0.0072519541985540175 0 -0.028446099810431513 -0.0070941183637524656 0 -0.028605679813083214 -0.0070977327542053091 0 -0.026732152963860303 -0.004971616992429124 0 -0.026728182453602839 -0.0048617582906183955 0 -0.026984525745867568 -0.0042813146687168142 0 -0.026981602511094889 -0.0044739403726387116 0 -0.027047811194935871 -0.0043318571285217867 0 -0.026984525745867568 -0.0042813146687168142 0 -0.026981602511094889 -0.0044739403726387116 0 -0.026687426934838519 -0.0044956279542844244 0 -0.026494216204823402 -0.0047777309675678262 0 -0.026609469363734987 -0.0047812484077824884 0 -0.026674787715447922 -0.0046450133196583318 0 -0.027161933106583058 -0.0048485949295933714 0 -0.02647606386254335 -0.0045326993631815355 0 -0.027161933106583058 -0.0048485949295933714 0 -0.026728182453602839 -0.0048617582906183955 0 -0.0268630510383909 -0.0042237898477393062 0 -0.026863941406034531 -0.0042279443449146897 0 -0.029349308886762873 -0.0047244292645861911 0 -0.029203069096979905 -0.0044050365417253341 0 -0.028893710133550781 -0.0045156279199829686 0 -0.029349308886762873 -0.0047244292645861911 0 -0.029542906338101704 -0.0042983738553420085 0 -0.029203069096979905 -0.0044050365417253341 0 -0.026466773662055781 -0.0043793380722819053 0 -0.02654777747073065 -0.0042018339187480701 0 -0.026638116487997781 -0.004327786368980408 0 -0.0268630510383909 -0.0042237898477393062 0 -0.026449469553088918 -0.0040658207002040661 0 -0.0268630510383909 -0.0042237898477393062 0 -0.026365408621714641 -0.0044115220202215807 0 -0.026550551999543655 -0.0035632580492123492 0 -0.026516290034547082 -0.0036375171412512432 0 -0.026846160665453103 -0.0037308038541903608 0 -0.026449469553088918 -0.0040658207002040661 0 -0.026312069714548574 -0.0038647080040305403 0 -0.026449469553088918 -0.0040658207002040661 0 -0.027142437084676205 -0.0039021540344874096 0 -0.029542906338101704 -0.0042983738553420085 0 -0.029203069096979905 -0.0044050365417253341 0 -0.029025307037770946 -0.0040806777642528377 0 -0.029203069096979905 -0.0044050365417253341 0 -0.029025307037770946 -0.0040806777642528377 0 -0.028893710133550781 -0.0045156279199829686 0 -0.025842336951478757 -0.0044392832976159089 0 -0.025919980194177773 -0.0043212552439113169 0 -0.025858991175547758 -0.0045401878091536159 0 -0.025878998769702583 -0.0045342184069965792 0 -0.025818688870433388 -0.0044681810869621509 0 -0.025660209532895183 -0.0044687975375800881 0 -0.02551812300286781 -0.0044097580213633466 0 -0.025587329493969638 -0.0043891803611323648 0 -0.025919980194177773 -0.0043212552439113169 0 -0.025775925428557417 -0.0042846578184047969 0 -0.026042362903480522 -0.0051877604130970544 0 -0.02609641438395147 -0.005124256426628301 0 -0.026089609303965179 -0.0052068467329059107 0 -0.025919980194177773 -0.0043212552439113169 0 -0.026318775659462019 -0.0044380422114317286 0 -0.02609641438395147 -0.005124256426628301 0 -0.026089609303965179 -0.0052068467329059107 0 -0.026171149426764878 -0.0051699843724330521 0 -0.025919980194177773 -0.0043212552439113169 0 -0.026141191996963613 -0.0041915965116074913 0 -0.026379263431569513 -0.0044753531650440787 0 -0.026454771204519816 -0.0044980333084746835 0 -0.026460855394136167 -0.0044386052071463929 0 -0.02654777747073065 -0.0042018339187480701 0 -0.026669743320414319 -0.0042623300730139655 0 -0.026638116487997781 -0.004327786368980408 0 -0.026981602511094889 -0.0044739403726387116 0 -0.026649771846038492 -0.0045724182790850823 0 -0.026687426934838519 -0.0044956279542844244 0 -0.026141191996963613 -0.0041915965116074913 0 -0.026318775659462019 -0.0044380422114317286 0 -0.026141191996963613 -0.0041915965116074913 0 -0.026365408621714641 -0.0044115220202215807 0 -0.026014371928763512 -0.0043749567567554302 0 -0.026016064809017928 -0.004359105098355469 0 -0.026021451364384877 -0.0043608999721072876 0 -0.026668376173417049 -0.0045885759822459063 0 -0.026620351397552311 -0.0045724353272954413 0 -0.026582084652980207 -0.0046513632171245678 0 -0.026365408621714641 -0.0044115220202215807 0 -0.02647606386254335 -0.0045326993631815355 0 -0.026318775659462019 -0.0044380422114317286 0 -0.02647606386254335 -0.0045326993631815355 0 -0.026318775659462019 -0.0044380422114317286 0 -0.026365408621714641 -0.0044115220202215807 0 -0.026449469553088918 -0.0040658207002040661 0 -0.026141191996963613 -0.0041915965116074913 0 -0.026260326536468311 -0.0039663043015148074 0 -0.026002486776303742 -0.003839052252518421 0 -0.025985463696858294 -0.0040094701297721065 0 -0.026260326536468311 -0.0039663043015148074 0 -0.026210496491297502 -0.0040744088943736791 0 -0.025985463696858294 -0.0040094701297721065 0 -0.025985131916404457 -0.0041133640530815561 0 -0.026066768216985926 -0.0041371559778932143 0 -0.026010412421125839 -0.0040582908411385945 0 -0.026312069714548574 -0.0038647080040305403 0 -0.025971420347828372 -0.0038716116762679423 0 -0.026141191996963613 -0.0041915965116074913 0 -0.025971420347828372 -0.0038716116762679423 0 -0.025858991175547758 -0.0045401878091536159 0 -0.025793516848799554 -0.004520095046413799 0 -0.025818688870433388 -0.0044681810869621509 0 -0.026300473828036963 -0.0040832785281229118 0 -0.026330518217710489 -0.0037819011830505906 0 -0.026432815502197306 -0.0038112828967344055 0 -0.026141191996963613 -0.0041915965116074913 0 -0.025838105242178441 -0.0039267404855756003 0 -0.025971420347828372 -0.0038716116762679423 0 -0.025838105242178441 -0.0039267404855756003 0 -0.025775925428557417 -0.0042846578184047969 0 -0.025838105242178441 -0.0039267404855756003 0 -0.025199536824290197 -0.0027677107181089382 0 -0.024625278675206405 -0.0026424702233133817 0 -0.024926392248451303 -0.0019969299005820327 0 -0.0255278674533309 -0.0034733583248145712 0 -0.026110563327364021 -0.0036735578514152374 0 -0.025034483641672701 -0.0035017001313417035 0 -0.025838105242178441 -0.0039267404855756003 0 -0.024082666617675191 -0.0029628430350267438 0 -0.024505018963958746 -0.0022606594356130261 0 -0.024447258396385153 -0.0022441876020017452 0 -0.025708558510770429 -0.0035425458683065836 0 -0.025692410926506648 -0.0037155315671178776 0 -0.025654285987412598 -0.0036627904367158644 0 -0.0255278674533309 -0.0034733583248145712 0 -0.025971420347828372 -0.0038716116762679423 0 -0.024082666617675191 -0.0029628430350267438 0 -0.024429020218819757 -0.0029592912111786308 0 -0.024505018963958746 -0.0022606594356130261 0 -0.025971420347828372 -0.0038716116762679423 0 -0.026110563327364021 -0.0036735578514152374 0 -0.026312069714548574 -0.0038647080040305403 0 -0.026110563327364021 -0.0036735578514152374 0 -0.026675762925952126 -0.0034236899417122929 0 -0.026653469090003375 -0.0034720898282107186 0 -0.026830870076938514 -0.0034679093328383939 0 -0.027128736573023761 -0.0027635560456067683 0 -0.026110563327364021 -0.0036735578514152374 0 -0.026856788437740368 -0.0036899583915111518 0 -0.026653469090003375 -0.0034720898282107186 0 -0.026830870076938514 -0.0034679093328383939 0 -0.026550551999543655 -0.0035632580492123492 0 -0.026846160665453103 -0.0037308038541903608 0 -0.026865375183162329 -0.0036908062087555654 0 -0.026312069714548574 -0.0038647080040305403 0 -0.026772100158913383 -0.0036988441659727353 0 -0.026856788437740368 -0.0036899583915111518 0 -0.026830870076938514 -0.0034679093328383939 0 -0.026985706029922802 -0.0035123438610773399 0 -0.027142437084676205 -0.0039021540344874096 0 -0.027194110470387597 -0.0035469842416486321 0 -0.026772100158913383 -0.0036988441659727353 0 -0.027194110470387597 -0.0035469842416486321 0 -0.026846160665453103 -0.0037308038541903608 0 -0.026865375183162329 -0.0036908062087555654 0 -0.027174530988773888 -0.0038204323901880181 0 -0.02850628722741344 -0.003848733774785393 0 -0.028322826220939595 -0.0040993400428308308 0 -0.02858281811457471 -0.0041367402584891596 0 -0.029025307037770946 -0.0040806777642528377 0 -0.02850628722741344 -0.003848733774785393 0 -0.02858281811457471 -0.0041367402584891596 0 -0.027150987229509826 -0.0030164342527079454 0 -0.027163307016589554 -0.0029720540113539794 0 -0.027175821172030941 -0.0029756091633831392 0 -0.027166047175066571 -0.0031676923833246443 0 -0.027234114116627149 -0.0034956927289867775 0 -0.027194110470387597 -0.0035469842416486321 0 -0.027234114116627149 -0.0034956927289867775 0 -0.027840704524071974 -0.0040933897050285878 0 -0.028402219464230046 -0.0038068010810741468 0 -0.028322826220939595 -0.0040993400428308308 0 -0.028510069629009174 -0.003838029815678462 0 -0.028402219464230046 -0.0038068010810741468 0 -0.028322826220939595 -0.0040993400428308308 0 -0.027194110470387597 -0.0035469842416486321 0 -0.027243842592755176 -0.0035398998158635026 0 -0.028322826220939595 -0.0040993400428308308 0 -0.028390647994829599 -0.0043081689263905253 0 -0.02858281811457471 -0.0041367402584891596 0 -0.027840704524071974 -0.0040933897050285878 0 -0.028390647994829599 -0.0043081689263905253 0 -0.028474092061394458 -0.0046392585614751809 0 -0.02784071552775327 -0.0040219366752455117 0 -0.027907734832340599 -0.0045369123134254789 0 -0.028474092061394458 -0.0046392585614751809 0 -0.027662355670096516 -0.0038998255815769819 0 -0.027975866307876174 -0.0041793007120290403 0 -0.027840704524071974 -0.0040933897050285878 0 -0.028322826220939595 -0.0040993400428308308 0 -0.028390647994829599 -0.0043081689263905253 0 -0.028628648426872377 -0.0049536738762558834 0 -0.028474092061394458 -0.0046392585614751809 0 -0.028893710133550781 -0.0045156279199829686 0 -0.028390647994829599 -0.0043081689263905253 0 -0.028474092061394458 -0.0046392585614751809 0 -0.028672198926482213 -0.0043379313280732306 0 -0.028474092061394458 -0.0046392585614751809 0 -0.028893710133550781 -0.0045156279199829686 0 -0.028672198926482213 -0.0043379313280732306 0 -0.029025307037770946 -0.0040806777642528377 0 -0.028893710133550781 -0.0045156279199829686 0 -0.028672198926482213 -0.0043379313280732306 0 -0.029025307037770946 -0.0040806777642528377 0 -0.02858281811457471 -0.0041367402584891596 0 -0.028672198926482213 -0.0043379313280732306 0 -0.028390647994829599 -0.0043081689263905253 0 -0.02858281811457471 -0.0041367402584891596 0 -0.028672198926482213 -0.0043379313280732306 0 -0.0083881260059990529 -0.003827707194599145 0 -0.0084280461181835808 -0.0037711199834473425 0 -0.0084219991850045927 -0.0038344830763091561 0 -0.0083881260059990529 -0.003827707194599145 0 -0.0084219991850045927 -0.0038344830763091561 0 -0.008411050380753583 -0.0038836934232450936 0 -0.0083881260059990529 -0.003827707194599145 0 -0.008411050380753583 -0.0038836934232450936 0 -0.0084027415992899181 -0.003924470628217676 0 -0.0083881260059990529 -0.003827707194599145 0 -0.0083917036650713022 -0.0039072987597780079 0 -0.0083684345614169972 -0.0038209903739896797 0 -0.0083881260059990529 -0.003827707194599145 0 -0.0083917036650713022 -0.0039072987597780079 0 -0.0084027415992899181 -0.003924470628217676 0 -0.0083917036650713022 -0.0039072987597780079 0 -0.0084027415992899181 -0.003924470628217676 0 -0.0084139993736547167 -0.0039798601014601276 0 -0.0083917036650713022 -0.0039072987597780079 0 -0.0083684345614169972 -0.0038209903739896797 0 -0.0083922102750253365 -0.0038787371039166181 0 -0.0083881260059990529 -0.003827707194599145 0 -0.0083684345614169972 -0.0038209903739896797 0 -0.0083518832633576456 -0.0037455565145484942 0 -0.0083518832633576456 -0.0037455565145484942 0 -0.0083427890330995454 -0.0037447159662382383 0 -0.0083204869126778432 -0.003659626415122629 0 -0.0083684345614169972 -0.0038209903739896797 0 -0.0083518832633576456 -0.0037455565145484942 0 -0.0083427890330995454 -0.0037447159662382383 0 -0.0083518832633576456 -0.0037455565145484942 0 -0.0083772157873715589 -0.0037301056663783727 0 -0.0083204869126778432 -0.003659626415122629 0 -0.0083881260059990529 -0.003827707194599145 0 -0.0083772157873715589 -0.0037301056663783727 0 -0.0084280461181835808 -0.0037711199834473425 0 -0.0083881260059990529 -0.003827707194599145 0 -0.0083518832633576456 -0.0037455565145484942 0 -0.0083772157873715589 -0.0037301056663783727 0 -0.0083772157873715589 -0.0037301056663783727 0 -0.0084280461181835808 -0.0037711199834473425 0 -0.0084405383491771135 -0.00369947947585509 0 -0.0084280461181835808 -0.0037711199834473425 0 -0.0084858103998783768 -0.003735394351964039 0 -0.0084405383491771135 -0.00369947947585509 0 -0.0084280461181835808 -0.0037711199834473425 0 -0.0084858103998783768 -0.003735394351964039 0 -0.0084741559620520879 -0.0037910372332383823 0 -0.0084858103998783768 -0.003735394351964039 0 -0.0085387999250485774 -0.0037257648865354908 0 -0.0085110799799062963 -0.0037719486552496686 0 -0.0084741559620520879 -0.0037910372332383823 0 -0.0084991512698003747 -0.0038232154694612633 0 -0.0085110799799062963 -0.0037719486552496686 0 -0.0084858103998783768 -0.003735394351964039 0 -0.0084741559620520879 -0.0037910372332383823 0 -0.0085110799799062963 -0.0037719486552496686 0 -0.0084741559620520879 -0.0037910372332383823 0 -0.0084991512698003747 -0.0038232154694612633 0 -0.0084532165092980078 -0.0038313953121300185 0 -0.0084991512698003747 -0.0038232154694612633 0 -0.0084532165092980078 -0.0038313953121300185 0 -0.0084757224802536751 -0.003862162982726547 0 -0.0084991512698003747 -0.0038232154694612633 0 -0.0084757224802536751 -0.003862162982726547 0 -0.008510893215706564 -0.003878243458059811 0 -0.0084219991850045927 -0.0038344830763091561 0 -0.0084532165092980078 -0.0038313953121300185 0 -0.0084372367606450008 -0.0038852606322900751 0 -0.0084280461181835808 -0.0037711199834473425 0 -0.0084219991850045927 -0.0038344830763091561 0 -0.0084532165092980078 -0.0038313953121300185 0 -0.0084280461181835808 -0.0037711199834473425 0 -0.0084741559620520879 -0.0037910372332383823 0 -0.0084532165092980078 -0.0038313953121300185 0 -0.0084219991850045927 -0.0038344830763091561 0 -0.0084372367606450008 -0.0038852606322900751 0 -0.008411050380753583 -0.0038836934232450936 0 -0.0084532165092980078 -0.0038313953121300185 0 -0.0084372367606450008 -0.0038852606322900751 0 -0.0084757224802536751 -0.003862162982726547 0 -0.0084372367606450008 -0.0038852606322900751 0 -0.0084757224802536751 -0.003862162982726547 0 -0.0084719893212093205 -0.0038840220657659556 0 -0.0084757224802536751 -0.003862162982726547 0 -0.0084719893212093205 -0.0038840220657659556 0 -0.008510893215706564 -0.003878243458059811 0 -0.0084719893212093205 -0.0038840220657659556 0 -0.0084439137679071987 -0.003903277593988994 0 -0.008468135631312549 -0.0038722763192052508 0 -0.0084372367606450008 -0.0038852606322900751 0 -0.0084439137679071987 -0.003903277593988994 0 -0.0084261085458990515 -0.0039425580051108697 0 -0.0084372367606450008 -0.0038852606322900751 0 -0.0084719893212093205 -0.0038840220657659556 0 -0.0084439137679071987 -0.003903277593988994 0 -0.0084261085458990515 -0.0039425580051108697 0 -0.0084140396344317969 -0.0039384809588069222 0 -0.0084224285146215876 -0.0039978681632109126 0 -0.0084372367606450008 -0.0038852606322900751 0 -0.0084261085458990515 -0.0039425580051108697 0 -0.0084140396344317969 -0.0039384809588069222 0 -0.0084372367606450008 -0.0038852606322900751 0 -0.0084140396344317969 -0.0039384809588069222 0 -0.008411050380753583 -0.0038836934232450936 0 -0.0084140396344317969 -0.0039384809588069222 0 -0.008411050380753583 -0.0038836934232450936 0 -0.0084027415992899181 -0.003924470628217676 0 -0.0084027415992899181 -0.003924470628217676 0 -0.0084148083357557021 -0.0039770879670052725 0 -0.0084139993736547167 -0.0039798601014601276 0 -0.0084140396344317969 -0.0039384809588069222 0 -0.0084148083357557021 -0.0039770879670052725 0 -0.0084224285146215876 -0.0039978681632109126 0 -0.0084140396344317969 -0.0039384809588069222 0 -0.0084027415992899181 -0.003924470628217676 0 -0.0084148083357557021 -0.0039770879670052725 0 -0.0084148083357557021 -0.0039770879670052725 0 -0.0084139993736547167 -0.0039798601014601276 0 -0.0084342833898536848 -0.004040505816687771 0 -0.0084148083357557021 -0.0039770879670052725 0 -0.0084224285146215876 -0.0039978681632109126 0 -0.0084342833898536848 -0.004040505816687771 0 -0.0084261085458990515 -0.0039425580051108697 0 -0.0084224285146215876 -0.0039978681632109126 0 -0.0084230095921749536 -0.0039895981955599099 0 -0.0084224285146215876 -0.0039978681632109126 0 -0.0084425946292225277 -0.0040650425243179446 0 -0.0084230095921749536 -0.0039895981955599099 0 -0.0084425946292225277 -0.0040650425243179446 0 -0.008461597962224697 -0.0041253239709948021 0 -0.0084230095921749536 -0.0039895981955599099 0 -0.0058760265168760328 -0.0076966338872700704 0 -0.0058798872492428255 -0.0075179689717193082 0 -0.0062845068604417634 -0.0079350333630177246 0 -0.0084425946292225277 -0.0040650425243179446 0 -0.0084607358387579316 -0.0041049364626200542 0 -0.0084342833898536848 -0.004040505816687771 0 -0.0084224285146215876 -0.0039978681632109126 0 -0.0084425946292225277 -0.0040650425243179446 0 -0.0084342833898536848 -0.004040505816687771 0 -0.0084425946292225277 -0.0040650425243179446 0 -0.0084607358387579316 -0.0041049364626200542 0 -0.0084627387132398951 -0.0041170858550150513 0 -0.0084425946292225277 -0.0040650425243179446 0 -0.0084627387132398951 -0.0041170858550150513 0 -0.008461597962224697 -0.0041253239709948021 0 -0.0058760265168760328 -0.0076966338872700704 0 -0.0058798872492428255 -0.0075179689717193082 0 -0.0067971043955633243 -0.006948502494440241 0 -0.0084973875914877098 -0.0041714213874431893 0 -0.0085389791133553845 -0.0042202831091005307 0 -0.00861155077720154 -0.0043454203330149333 0 -0.0076758976399249595 -0.0056140997595140445 0 -0.0081658217212454576 -0.0052873234775692498 0 -0.008461597962224697 -0.0041253239709948021 0 -0.0084973875914877098 -0.0041714213874431893 0 -0.00861155077720154 -0.0043454203330149333 0 -0.0055304717627749963 -0.0075511074610406601 0 -0.0054907230166804421 -0.007524044576571247 0 -0.0084627387132398951 -0.0041170858550150513 0 -0.008461597962224697 -0.0041253239709948021 0 -0.0084973875914877098 -0.0041714213874431893 0 -0.0084607358387579316 -0.0041049364626200542 0 -0.0084627387132398951 -0.0041170858550150513 0 -0.0084973875914877098 -0.0041714213874431893 0 -0.0084607358387579316 -0.0041049364626200542 0 -0.0084973875914877098 -0.0041714213874431893 0 -0.0084987907943889565 -0.0041516804032132757 0 -0.0084607358387579316 -0.0041049364626200542 0 -0.0084987907943889565 -0.0041516804032132757 0 -0.008452570329662585 -0.004066110863227188 0 -0.0084987907943889565 -0.0041516804032132757 0 -0.0085389791133553845 -0.0042202831091005307 0 -0.0085663377595510907 -0.0042265750666331207 0 -0.0084973875914877098 -0.0041714213874431893 0 -0.0084987907943889565 -0.0041516804032132757 0 -0.0085389791133553845 -0.0042202831091005307 0 -0.0084994061554952965 -0.004112775635206521 0 -0.0085663377595510907 -0.0042265750666331207 0 -0.0085426219550923509 -0.0041171147603527936 0 -0.0084987907943889565 -0.0041516804032132757 0 -0.0084994061554952965 -0.004112775635206521 0 -0.0085663377595510907 -0.0042265750666331207 0 -0.0084987907943889565 -0.0041516804032132757 0 -0.0084994061554952965 -0.004112775635206521 0 -0.008452570329662585 -0.004066110863227188 0 -0.0084994061554952965 -0.004112775635206521 0 -0.008452570329662585 -0.004066110863227188 0 -0.0084635395998817215 -0.0040024993666458253 0 -0.008452570329662585 -0.004066110863227188 0 -0.0084139993736547167 -0.0039798601014601276 0 -0.0084342833898536848 -0.004040505816687771 0 -0.008452570329662585 -0.004066110863227188 0 -0.0084139993736547167 -0.0039798601014601276 0 -0.0084210473810938137 -0.0039702194621790048 0 -0.0084607358387579316 -0.0041049364626200542 0 -0.008452570329662585 -0.004066110863227188 0 -0.0084342833898536848 -0.004040505816687771 0 -0.0086632557550462112 -0.0065473072777869051 0 -0.0069796721550103311 -0.0059758746781201355 0 -0.0089104569703488384 -0.0047948880925235832 0 -0.0048210011681525475 -0.0074791746189526911 0 -0.0054907230166804421 -0.007524044576571247 0 -0.0086632557550462112 -0.0065473072777869051 0 -0.0069796721550103311 -0.0059758746781201355 0 -0.0067971043955633243 -0.006948502494440241 0 -0.0058798872492428255 -0.0075179689717193082 0 -0.0069796721550103311 -0.0059758746781201355 0 -0.0067971043955633243 -0.006948502494440241 0 -0.0085389791133553845 -0.0042202831091005307 0 -0.00861155077720154 -0.0043454203330149333 0 -0.0085663377595510907 -0.0042265750666331207 0 -0.0085663377595510907 -0.0042265750666331207 0 -0.0086291772606563229 -0.0041831834169492339 0 -0.0085426219550923509 -0.0041171147603527936 0 -0.0085663377595510907 -0.0042265750666331207 0 -0.0086805753317116541 -0.004369482817424589 0 -0.0086291772606563229 -0.0041831834169492339 0 -0.0086805753317116541 -0.004369482817424589 0 -0.0087848634973957621 -0.004314768350657399 0 -0.0086291772606563229 -0.0041831834169492339 0 -0.00861155077720154 -0.0043454203330149333 0 -0.0085663377595510907 -0.0042265750666331207 0 -0.0086805753317116541 -0.004369482817424589 0 -0.0086805753317116541 -0.004369482817424589 0 -0.0087848634973957621 -0.004314768350657399 0 -0.0089104569703488384 -0.0047948880925235832 0 -0.00861155077720154 -0.0043454203330149333 0 -0.0086805753317116541 -0.004369482817424589 0 -0.0089104569703488384 -0.0047948880925235832 0 -0.0087848634973957621 -0.004314768350657399 0 -0.0089104569703488384 -0.0047948880925235832 0 -0.0090509565942694901 -0.0042178202577799308 0 -0.0081658217212454576 -0.0052873234775692498 0 -0.008564102746013694 -0.0050941163806578144 0 -0.0087848634973957621 -0.004314768350657399 0 -0.0087911025063155384 -0.0040163539363137334 0 -0.0090509565942694901 -0.0042178202577799308 0 -0.0087848634973957621 -0.004314768350657399 0 -0.0086291772606563229 -0.0041831834169492339 0 -0.0087911025063155384 -0.0040163539363137334 0 -0.0086291772606563229 -0.0041831834169492339 0 -0.0086249993287579423 -0.0039157625106833972 0 -0.0087911025063155384 -0.0040163539363137334 0 -0.0086291772606563229 -0.0041831834169492339 0 -0.0086249993287579423 -0.0039157625106833972 0 -0.0085262252794082311 -0.0039970252787809172 0 -0.0086291772606563229 -0.0041831834169492339 0 -0.0085426219550923509 -0.0041171147603527936 0 -0.0085262252794082311 -0.0039970252787809172 0 -0.0086249993287579423 -0.0039157625106833972 0 -0.0087911025063155384 -0.0040163539363137334 0 -0.008797775436861081 -0.0037005517321944937 0 -0.0086249993287579423 -0.0039157625106833972 0 -0.008797775436861081 -0.0037005517321944937 0 -0.0085658308273245058 -0.0037113240279757621 0 -0.0087911025063155384 -0.0040163539363137334 0 -0.0090509565942694901 -0.0042178202577799308 0 -0.0090974823573431868 -0.0037861777447051113 0 -0.0087911025063155384 -0.0040163539363137334 0 -0.008797775436861081 -0.0037005517321944937 0 -0.0090974823573431868 -0.0037861777447051113 0 -0.0083922102750253365 -0.0038787371039166181 0 -0.0084635395998817215 -0.0040024993666458253 0 -0.0084264227789050145 -0.0038646719063539911 0 -0.0083922102750253365 -0.0038787371039166181 0 -0.0084210473810938137 -0.0039702194621790048 0 -0.0084635395998817215 -0.0040024993666458253 0 -0.0083917036650713022 -0.0039072987597780079 0 -0.0083922102750253365 -0.0038787371039166181 0 -0.0084210473810938137 -0.0039702194621790048 0 -0.0083917036650713022 -0.0039072987597780079 0 -0.0084139993736547167 -0.0039798601014601276 0 -0.0084210473810938137 -0.0039702194621790048 0 -0.008452570329662585 -0.004066110863227188 0 -0.0084210473810938137 -0.0039702194621790048 0 -0.0084635395998817215 -0.0040024993666458253 0 -0.0084994061554952965 -0.004112775635206521 0 -0.0084635395998817215 -0.0040024993666458253 0 -0.0085426219550923509 -0.0041171147603527936 0 -0.0084635395998817215 -0.0040024993666458253 0 -0.0085426219550923509 -0.0041171147603527936 0 -0.0085262252794082311 -0.0039970252787809172 0 -0.0084635395998817215 -0.0040024993666458253 0 -0.0085262252794082311 -0.0039970252787809172 0 -0.0084264227789050145 -0.0038646719063539911 0 -0.0085262252794082311 -0.0039970252787809172 0 -0.008502725383232268 -0.0038492536421361528 0 -0.0084264227789050145 -0.0038646719063539911 0 -0.0086249993287579423 -0.0039157625106833972 0 -0.0085262252794082311 -0.0039970252787809172 0 -0.008502725383232268 -0.0038492536421361528 0 -0.0086249993287579423 -0.0039157625106833972 0 -0.008502725383232268 -0.0038492536421361528 0 -0.0085658308273245058 -0.0037113240279757621 0 -0.008502725383232268 -0.0038492536421361528 0 -0.008420932780776531 -0.0037239582758785568 0 -0.0085658308273245058 -0.0037113240279757621 0 -0.008502725383232268 -0.0038492536421361528 0 -0.0084264227789050145 -0.0038646719063539911 0 -0.008420932780776531 -0.0037239582758785568 0 -0.0084264227789050145 -0.0038646719063539911 0 -0.0083427890330995454 -0.0037447159662382383 0 -0.008420932780776531 -0.0037239582758785568 0 -0.0083922102750253365 -0.0038787371039166181 0 -0.0084264227789050145 -0.0038646719063539911 0 -0.0083427890330995454 -0.0037447159662382383 0 -0.0083684345614169972 -0.0038209903739896797 0 -0.0083922102750253365 -0.0038787371039166181 0 -0.0083427890330995454 -0.0037447159662382383 0 -0.0083427890330995454 -0.0037447159662382383 0 -0.0083246134454976212 -0.0036021414342088448 0 -0.0082994138386044726 -0.0036401551532159993 0 -0.0083427890330995454 -0.0037447159662382383 0 -0.0083246134454976212 -0.0036021414342088448 0 -0.008420932780776531 -0.0037239582758785568 0 -0.0083246134454976212 -0.0036021414342088448 0 -0.0082382115083991497 -0.0035441664601261998 0 -0.0082994138386044726 -0.0036401551532159993 0 -0.008420932780776531 -0.0037239582758785568 0 -0.0084420408148117437 -0.0035367606619094078 0 -0.0085658308273245058 -0.0037113240279757621 0 -0.0083246134454976212 -0.0036021414342088448 0 -0.008420932780776531 -0.0037239582758785568 0 -0.0084420408148117437 -0.0035367606619094078 0 -0.0084420408148117437 -0.0035367606619094078 0 -0.0082375215034804789 -0.0034602077034621014 0 -0.0084691550521456965 -0.0032028236543048621 0 -0.0082375215034804789 -0.0034602077034621014 0 -0.0081786039485853505 -0.0031133024192948728 0 -0.0084691550521456965 -0.0032028236543048621 0 -0.0084420408148117437 -0.0035367606619094078 0 -0.0087418674287480808 -0.0034203660672013857 0 -0.0084691550521456965 -0.0032028236543048621 0 -0.0082375215034804789 -0.0034602077034621014 0 -0.0080906498404937615 -0.0033959959234295873 0 -0.0081786039485853505 -0.0031133024192948728 0 -0.0082375215034804789 -0.0034602077034621014 0 -0.0080906498404937615 -0.0033959959234295873 0 -0.0082382115083991497 -0.0035441664601261998 0 -0.0083246134454976212 -0.0036021414342088448 0 -0.0082375215034804789 -0.0034602077034621014 0 -0.0082382115083991497 -0.0035441664601261998 0 -0.0083246134454976212 -0.0036021414342088448 0 -0.0084420408148117437 -0.0035367606619094078 0 -0.0082375215034804789 -0.0034602077034621014 0 -0.008797775436861081 -0.0037005517321944937 0 -0.0087418674287480808 -0.0034203660672013857 0 -0.0090968233816278929 -0.003384196984956359 0 -0.008797775436861081 -0.0037005517321944937 0 -0.0090968233816278929 -0.003384196984956359 0 -0.0090974823573431868 -0.0037861777447051113 0 -0.0084420408148117437 -0.0035367606619094078 0 -0.0085658308273245058 -0.0037113240279757621 0 -0.0087418674287480808 -0.0034203660672013857 0 -0.008797775436861081 -0.0037005517321944937 0 -0.0085658308273245058 -0.0037113240279757621 0 -0.0087418674287480808 -0.0034203660672013857 0 -0.0087418674287480808 -0.0034203660672013857 0 -0.0089817966271060288 -0.0030570623834898919 0 -0.0084691550521456965 -0.0032028236543048621 0 -0.0087418674287480808 -0.0034203660672013857 0 -0.0090968233816278929 -0.003384196984956359 0 -0.0089817966271060288 -0.0030570623834898919 0 -0.0089817966271060288 -0.0030570623834898919 0 -0.0087504725967190167 -0.0027751514750773763 0 -0.0090787051441702949 -0.00271492599435869 0 -0.0089817966271060288 -0.0030570623834898919 0 -0.0090787051441702949 -0.00271492599435869 0 -0.0093322830678079262 -0.0028114214146257219 0 -0.0089817966271060288 -0.0030570623834898919 0 -0.0087504725967190167 -0.0027751514750773763 0 -0.0084691550521456965 -0.0032028236543048621 0 -0.0086594255734123177 -0.0025087509501951558 0 -0.0085188820745707161 -0.0027639223244166158 0 -0.0087336898921574931 -0.0026052174392052923 0 -0.0091520846131608428 -0.0019138256192436777 0 -0.008443251882350138 -0.0021198656556612036 0 -0.0087336898921574931 -0.0026052174392052923 0 -0.0082503406228040168 -0.0026056775840139724 0 -0.008443251882350138 -0.0021198656556612036 0 -0.0087504725967190167 -0.0027751514750773763 0 -0.0090787051441702949 -0.00271492599435869 0 -0.0090428798886277029 -0.0024281262586847044 0 -0.0086594255734123177 -0.0025087509501951558 0 -0.0089126302865133664 -0.0019625315160477427 0 -0.0081786039485853505 -0.0031133024192948728 0 -0.0082503406228040168 -0.0026056775840139724 0 -0.0078063628563953017 -0.0027985491534889741 0 -0.0077682436680186224 -0.003077408935733749 0 -0.0077396374818017944 -0.0030085941873061088 0 -0.0080906498404937615 -0.0033959959234295873 0 -0.0081786039485853505 -0.0031133024192948728 0 -0.0078063628563953017 -0.0027985491534889741 0 -0.0081786039485853505 -0.0031133024192948728 0 -0.0084691550521456965 -0.0032028236543048621 0 -0.0082503406228040168 -0.0026056775840139724 0 -0.0087336898921574931 -0.0026052174392052923 0 -0.0084691550521456965 -0.0032028236543048621 0 -0.0082503406228040168 -0.0026056775840139724 0 -0.0082503406228040168 -0.0026056775840139724 0 -0.008096717381247228 -0.0019750937094477807 0 -0.0077111987463206995 -0.0023181444668641778 0 -0.0082503406228040168 -0.0026056775840139724 0 -0.0078063628563953017 -0.0027985491534889741 0 -0.0077111987463206995 -0.0023181444668641778 0 -0.0077396374818017944 -0.0030085941873061088 0 -0.0076623996782019263 -0.0028040975241650419 0 -0.0081864237529047784 -0.0037501168752706892 0 -0.0081469699498595474 -0.0039307290260638785 0 -0.008043300994367222 -0.0039808964474992107 0 -0.0079984029449516672 -0.0031853632399423066 0 -0.0076623996782019263 -0.0028040975241650419 0 -0.0081099843367702217 -0.0036619683358173586 0 -0.0083559215429252903 -0.0037009073934257896 0 -0.0081151871977576725 -0.0038214131968823391 0 -0.0081864237529047784 -0.0037501168752706892 0 -0.0083490423782623963 -0.0038540368965039942 0 -0.0081469699498595474 -0.0039307290260638785 0 -0.0083559215429252903 -0.0037009073934257896 0 -0.0083930616077499236 -0.0035994604677708638 0 -0.0084996179914225284 -0.0036149738030267476 0 -0.0083559215429252903 -0.0037009073934257896 0 -0.0083930616077499236 -0.0035994604677708638 0 -0.00828203129767386 -0.0035679516395673238 0 -0.0081099843367702217 -0.0036619683358173586 0 -0.0083559215429252903 -0.0037009073934257896 0 -0.00828203129767386 -0.0035679516395673238 0 -0.0080906498404937615 -0.0033959959234295873 0 -0.0081099843367702217 -0.0036619683358173586 0 -0.00828203129767386 -0.0035679516395673238 0 -0.0080906498404937615 -0.0033959959234295873 0 -0.00828203129767386 -0.0035679516395673238 0 -0.0083134595857394886 -0.0035688779837509191 0 -0.0080906498404937615 -0.0033959959234295873 0 -0.0082382115083991497 -0.0035441664601261998 0 -0.0083134595857394886 -0.0035688779837509191 0 -0.0083930616077499236 -0.0035994604677708638 0 -0.00828203129767386 -0.0035679516395673238 0 -0.0083134595857394886 -0.0035688779837509191 0 -0.0083930616077499236 -0.0035994604677708638 0 -0.0083134595857394886 -0.0035688779837509191 0 -0.0084230871919599281 -0.0036408099768322636 0 -0.0083134595857394886 -0.0035688779837509191 0 -0.0083662098020698475 -0.0036523962763667017 0 -0.0083204869126778432 -0.003659626415122629 0 -0.0083134595857394886 -0.0035688779837509191 0 -0.0083662098020698475 -0.0036523962763667017 0 -0.0084230871919599281 -0.0036408099768322636 0 -0.0083772157873715589 -0.0037301056663783727 0 -0.0083662098020698475 -0.0036523962763667017 0 -0.0084405383491771135 -0.00369947947585509 0 -0.0083772157873715589 -0.0037301056663783727 0 -0.0083662098020698475 -0.0036523962763667017 0 -0.0083204869126778432 -0.003659626415122629 0 -0.0082382115083991497 -0.0035441664601261998 0 -0.0083134595857394886 -0.0035688779837509191 0 -0.0083204869126778432 -0.003659626415122629 0 -0.0083427890330995454 -0.0037447159662382383 0 -0.0083204869126778432 -0.003659626415122629 0 -0.0082994138386044726 -0.0036401551532159993 0 -0.0082382115083991497 -0.0035441664601261998 0 -0.0083204869126778432 -0.003659626415122629 0 -0.0082994138386044726 -0.0036401551532159993 0 -0.0084858103998783768 -0.003735394351964039 0 -0.0085174180425967756 -0.0036641983142031939 0 -0.0084405383491771135 -0.00369947947585509 0 -0.0084858103998783768 -0.003735394351964039 0 -0.0085174180425967756 -0.0036641983142031939 0 -0.0085387999250485774 -0.0037257648865354908 0 -0.0085174180425967756 -0.0036641983142031939 0 -0.0084405383491771135 -0.00369947947585509 0 -0.0084230871919599281 -0.0036408099768322636 0 -0.0083662098020698475 -0.0036523962763667017 0 -0.0084405383491771135 -0.00369947947585509 0 -0.0084230871919599281 -0.0036408099768322636 0 -0.0085174180425967756 -0.0036641983142031939 0 -0.0084230871919599281 -0.0036408099768322636 0 -0.0084996179914225284 -0.0036149738030267476 0 -0.0083930616077499236 -0.0035994604677708638 0 -0.0084230871919599281 -0.0036408099768322636 0 -0.0084996179914225284 -0.0036149738030267476 0 -0.0085174180425967756 -0.0036641983142031939 0 -0.0084996179914225284 -0.0036149738030267476 0 -0.0086472222246204815 -0.0036314289035823837 0 -0.0084996179914225284 -0.0036149738030267476 0 -0.0087380327120690944 -0.0036156704810994447 0 -0.0086472222246204815 -0.0036314289035823837 0 -0.0079984029449516672 -0.0031853632399423066 0 -0.0081465542348979712 -0.0032625067466849835 0 -0.0084996179914225284 -0.0036149738030267476 0 -0.0086236084484513677 -0.0037532141723786777 0 -0.0083490423782623963 -0.0038540368965039942 0 -0.0081864237529047784 -0.0037501168752706892 0 -0.0084996179914225284 -0.0036149738030267476 0 -0.0083490423782623963 -0.0038540368965039942 0 -0.0084996179914225284 -0.0036149738030267476 0 -0.0087380327120690944 -0.0036156704810994447 0 -0.0086236084484513677 -0.0037532141723786777 0 -0.0087380327120690944 -0.0036156704810994447 0 -0.0087311358019251176 -0.0036055711551138876 0 -0.0091577396991360353 -0.0035499757345657046 0 -0.0087380327120690944 -0.0036156704810994447 0 -0.0091577396991360353 -0.0035499757345657046 0 -0.0086236084484513677 -0.0037532141723786777 0 -0.0087380327120690944 -0.0036156704810994447 0 -0.0086472222246204815 -0.0036314289035823837 0 -0.0087311358019251176 -0.0036055711551138876 0 -0.0098751279343450831 -0.0014737132877224407 0 -0.010610587423512306 -5.3778295235145471e-06 0 -0.0086472222246204815 -0.0036314289035823837 0 -0.0087311358019251176 -0.0036055711551138876 0 -0.008577960049498793 -0.0036438992079711806 0 -0.0098751279343450831 -0.0014737132877224407 0 -0.0095478240497101439 -0.002285007755536644 0 -0.010118477793828851 0.00027473963848477121 0 -0.011302217582200336 -0.0024027458270948691 0 -0.0091577396991360353 -0.0035499757345657046 0 -0.010118477793828851 0.00027473963848477121 0 -0.015117507578438914 -0.001813091590573454 0 -0.011302217582200336 -0.0024027458270948691 0 -0.010118477793828851 0.00027473963848477121 0 -0.015117507578438914 -0.001813091590573454 0 -0.015479536372639609 0.0033356068880926715 0 -0.019732336982290658 0.0034630000054602377 0 -0.021343224459406146 0.0044991485645449018 0 -0.015117507578438914 -0.001813091590573454 0 -0.015479536372639609 0.0033356068880926715 0 -0.019283834536486216 0.0018593034202438958 0 -0.010118477793828851 0.00027473963848477121 0 -0.015479536372639609 0.0033356068880926715 0 -0.011648816263339292 0.0043446794818966308 0 -0.010610587423512306 -5.3778295235145471e-06 0 -0.011483276786962177 0.0010273863970302211 0 -0.015479536372639609 0.0033356068880926715 0 -0.011648816263339292 0.0043446794818966308 0 -0.013225683801001935 0.0084357856835366903 0 -0.015479536372639609 0.0033356068880926715 0 -0.017338398287088018 0.0067837082210623536 0 -0.018075413889815903 0.0042241064946170644 0 -0.015479536372639609 0.0033356068880926715 0 -0.017338398287088018 0.0067837082210623536 0 -0.013225683801001935 0.0084357856835366903 0 -0.017338398287088018 0.0067837082210623536 0 -0.013225683801001935 0.0084357856835366903 0 -0.016130453751027063 0.0095727589085067531 0 -0.008577960049498793 -0.0036438992079711806 0 -0.0084965630205454667 -0.0037197225403072581 0 -0.0085449765725406652 -0.0037332912432108878 0 -0.008577960049498793 -0.0036438992079711806 0 -0.0085449765725406652 -0.0037332912432108878 0 -0.0085819362633842867 -0.0036829716930266406 0 -0.0085174180425967756 -0.0036641983142031939 0 -0.0085819362633842867 -0.0036829716930266406 0 -0.0085387999250485774 -0.0037257648865354908 0 -0.0085449765725406652 -0.0037332912432108878 0 -0.0085819362633842867 -0.0036829716930266406 0 -0.0085387999250485774 -0.0037257648865354908 0 -0.0085174180425967756 -0.0036641983142031939 0 -0.0086472222246204815 -0.0036314289035823837 0 -0.0085819362633842867 -0.0036829716930266406 0 -0.0086472222246204815 -0.0036314289035823837 0 -0.008577960049498793 -0.0036438992079711806 0 -0.0085819362633842867 -0.0036829716930266406 0 -0.022621510672249233 0.0064594721945500123 0 -0.022685270773639122 0.0065826711639955316 0 -0.022777883847853363 0.0064111224141755827 0 -0.022685270773639122 0.0065826711639955316 0 -0.022814874824715087 0.0066231869986582799 0 -0.022777883847853363 0.0064111224141755827 0 -0.022922475727243992 0.006471598645254947 0 -0.022814874824715087 0.0066231869986582799 0 -0.023043469073274467 0.0067360066054140003 0 -0.022922475727243992 0.006471598645254947 0 -0.022814874824715087 0.0066231869986582799 0 -0.022777883847853363 0.0064111224141755827 0 -0.022814874824715087 0.0066231869986582799 0 -0.022869714776528317 0.0068751077260324131 0 -0.023043469073274467 0.0067360066054140003 0 -0.022814874824715087 0.0066231869986582799 0 -0.022869714776528317 0.0068751077260324131 0 -0.022675536457080966 0.0068075003938962986 0 -0.022685270773639122 0.0065826711639955316 0 -0.022814874824715087 0.0066231869986582799 0 -0.022675536457080966 0.0068075003938962986 0 -0.022869714776528317 0.0068751077260324131 0 -0.022675536457080966 0.0068075003938962986 0 -0.02268013847442809 0.0071679849804283779 0 -0.02268013847442809 0.0071679849804283779 0 -0.022987279792744664 0.0071509291397199165 0 -0.022848353039228442 0.0076324813896217203 0 -0.022869714776528317 0.0068751077260324131 0 -0.022987279792744664 0.0071509291397199165 0 -0.023043469073274467 0.0067360066054140003 0 -0.022869714776528317 0.0068751077260324131 0 -0.02268013847442809 0.0071679849804283779 0 -0.022987279792744664 0.0071509291397199165 0 -0.022987279792744664 0.0071509291397199165 0 -0.023500851984705723 0.0072005831402384242 0 -0.023227279034961974 0.0075578293509605717 0 -0.022987279792744664 0.0071509291397199165 0 -0.023500851984705723 0.0072005831402384242 0 -0.023043469073274467 0.0067360066054140003 0 -0.023500851984705723 0.0072005831402384242 0 -0.023043469073274467 0.0067360066054140003 0 -0.023359810878562218 0.0065932263672750331 0 -0.022922475727243992 0.006471598645254947 0 -0.023043469073274467 0.0067360066054140003 0 -0.023073896054759076 0.0063684436860271011 0 -0.023043469073274467 0.0067360066054140003 0 -0.023359810878562218 0.0065932263672750331 0 -0.023073896054759076 0.0063684436860271011 0 -0.023500851984705723 0.0072005831402384242 0 -0.023359810878562218 0.0065932263672750331 0 -0.024237400523541439 0.0066941597324226138 0 -0.023359810878562218 0.0065932263672750331 0 -0.024237400523541439 0.0066941597324226138 0 -0.023086122951137 0.0059457150699015245 0 -0.023500851984705723 0.0072005831402384242 0 -0.024237400523541439 0.0066941597324226138 0 -0.024234155530200193 0.0075915410166861597 0 -0.025015570928699271 0.0074198216570344573 0 -0.024237400523541439 0.0066941597324226138 0 -0.024234155530200193 0.0075915410166861597 0 -0.015479536372639609 0.0033356068880926715 0 -0.019283834536486216 0.0018593034202438958 0 -0.018075413889815903 0.0042241064946170644 0 -0.019283834536486216 0.0018593034202438958 0 -0.018075413889815903 0.0042241064946170644 0 -0.020076424278054041 0.0056331903115980067 0 -0.017338398287088018 0.0067837082210623536 0 -0.018075413889815903 0.0042241064946170644 0 -0.020076424278054041 0.0056331903115980067 0 -0.017338398287088018 0.0067837082210623536 0 -0.019976645948736223 0.0085562693981431608 0 -0.016130453751027063 0.0095727589085067531 0 -0.017338398287088018 0.0067837082210623536 0 -0.020076424278054041 0.0056331903115980067 0 -0.019976645948736223 0.0085562693981431608 0 -0.019976645948736223 0.0085562693981431608 0 -0.022300605154832322 0.0065120458382686699 0 -0.022756647217822008 0.0099950711131612524 0 -0.020076424278054041 0.0056331903115980067 0 -0.019976645948736223 0.0085562693981431608 0 -0.022300605154832322 0.0065120458382686699 0 -0.016923422549612398 0.0044019182826686171 0 -0.015909757751435567 0.0023711426643011121 0 -0.022300605154832322 0.0065120458382686699 0 -0.022832357350754017 0.0063844230242696004 0 -0.022774747213116966 0.0066100699555581548 0 -0.021343224459406146 0.0044991485645449018 0 -0.022195037464627681 0.0052190205879042171 0 -0.019283834536486216 0.0018593034202438958 0 -0.020076424278054041 0.0056331903115980067 0 -0.023086122951137 0.0059457150699015245 0 -0.020076424278054041 0.0056331903115980067 0 -0.022300605154832322 0.0065120458382686699 0 -0.023086122951137 0.0059457150699015245 0 -0.022300605154832322 0.0065120458382686699 0 -0.023086122951137 0.0059457150699015245 0 -0.022832357350754017 0.0063844230242696004 0 -0.023359810878562218 0.0065932263672750331 0 -0.023073896054759076 0.0063684436860271011 0 -0.023086122951137 0.0059457150699015245 0 -0.023073896054759076 0.0063684436860271011 0 -0.023086122951137 0.0059457150699015245 0 -0.022996851203274989 0.0061611285062999959 0 -0.023073896054759076 0.0063684436860271011 0 -0.022996851203274989 0.0061611285062999959 0 -0.022919900652225315 0.0062769797659418917 0 -0.022922475727243992 0.006471598645254947 0 -0.023073896054759076 0.0063684436860271011 0 -0.022919900652225315 0.0062769797659418917 0 -0.022996851203274989 0.0061611285062999959 0 -0.022881290325085527 0.0063222155601118674 0 -0.022919900652225315 0.0062769797659418917 0 -0.023086122951137 0.0059457150699015245 0 -0.022996851203274989 0.0061611285062999959 0 -0.022832357350754017 0.0063844230242696004 0 -0.022996851203274989 0.0061611285062999959 0 -0.022832357350754017 0.0063844230242696004 0 -0.022881290325085527 0.0063222155601118674 0 -0.020053044312660077 0.0027426481998594808 0 -0.015909757751435567 0.0023711426643011121 0 -0.022832357350754017 0.0063844230242696004 0 -0.022881290325085527 0.0063222155601118674 0 -0.022774747213116966 0.0066100699555581548 0 -0.022881290325085527 0.0063222155601118674 0 -0.022841302853954661 0.0062120993737630791 0 -0.022774747213116966 0.0066100699555581548 0 -0.022881290325085527 0.0063222155601118674 0 -0.022841302853954661 0.0062120993737630791 0 -0.022833830686864419 0.0062846294774152349 0 -0.022678774971140712 0.0062922742639819063 0 -0.022841302853954661 0.0062120993737630791 0 -0.022833830686864419 0.0062846294774152349 0 -0.022694439198304054 0.0063638707735720682 0 -0.022678774971140712 0.0062922742639819063 0 -0.022833830686864419 0.0062846294774152349 0 -0.022881290325085527 0.0063222155601118674 0 -0.022833830686864419 0.0062846294774152349 0 -0.022919900652225315 0.0062769797659418917 0 -0.022922475727243992 0.006471598645254947 0 -0.022919900652225315 0.0062769797659418917 0 -0.022777883847853363 0.0064111224141755827 0 -0.022833830686864419 0.0062846294774152349 0 -0.022919900652225315 0.0062769797659418917 0 -0.022777883847853363 0.0064111224141755827 0 -0.022694439198304054 0.0063638707735720682 0 -0.022621510672249233 0.0064594721945500123 0 -0.022777883847853363 0.0064111224141755827 0 -0.022694439198304054 0.0063638707735720682 0 -0.022833830686864419 0.0062846294774152349 0 -0.022777883847853363 0.0064111224141755827 0 -0.016584984232553186 -0.0010753000619234785 0 -0.016324948548237437 -0.00063884692071043637 0 -0.016612160413681177 -0.00049478767672318466 0 -0.017150014415228561 -0.00074011271259852578 0 -0.016584984232553186 -0.0010753000619234785 0 -0.016612160413681177 -0.00049478767672318466 0 -0.022574271621950911 0.0061155667015307487 0 -0.022841302853954661 0.0062120993737630791 0 -0.022842526869209959 0.0059798390825117273 0 -0.022841302853954661 0.0062120993737630791 0 -0.022842526869209959 0.0059798390825117273 0 -0.022977926923460672 0.0059790707219556432 0 -0.022841302853954661 0.0062120993737630791 0 -0.022977926923460672 0.0059790707219556432 0 -0.023073809994348861 0.0060740855832606706 0 -0.022977926923460672 0.0059790707219556432 0 -0.023037050460411806 0.005851548948546113 0 -0.023073809994348861 0.0060740855832606706 0 -0.022842526869209959 0.0059798390825117273 0 -0.022977926923460672 0.0059790707219556432 0 -0.023037050460411806 0.005851548948546113 0 -0.018288293334719256 0.00093324273273871132 0 -0.015289107402040335 2.5804193305829962e-06 0 -0.016584984232553186 -0.0010753000619234785 0 -0.016030083791406968 -0.00077103103597232737 0 -0.016324948548237437 -0.00063884692071043637 0 -0.0081667025731631798 -0.0048533706322187523 0 -0.0080636747114239075 -0.004878298497000568 0 -0.0081334240953331947 -0.004948889951171793 0 -0.0081667025731631798 -0.0048533706322187523 0 -0.0081415333596709868 -0.0048340890358069492 0 -0.0080636747114239075 -0.004878298497000568 0 -0.015289107402040335 2.5804193305829962e-06 0 -0.015105484488217007 9.7598904340635437e-06 0 -0.015289107402040335 2.5804193305829962e-06 0 -0.015909757751435567 0.0023711426643011121 0 -0.019976645948736223 0.0085562693981431608 0 -0.022756647217822008 0.0099950711131612524 0 -0.018753853908581579 0.011282450242724019 0 -0.015909757751435567 0.0023711426643011121 0 -0.013438295708277561 0.0014218096151523384 0 -0.0080636747114239075 -0.004878298497000568 0 -0.0081334240953331947 -0.004948889951171793 0 -0.0080466169182229728 -0.0049123103497677126 0 -0.019976645948736223 0.0085562693981431608 0 -0.018753853908581579 0.011282450242724019 0 -0.016130453751027063 0.0095727589085067531 0 -0.0080636747114239075 -0.004878298497000568 0 -0.0080466169182229728 -0.0049123103497677126 0 -0.0080364095338046095 -0.0048994129810954416 0 -0.0080636747114239075 -0.004878298497000568 0 -0.0080364095338046095 -0.0048994129810954416 0 -0.0080361319442470019 -0.0049077968238011313 0 -0.0080364095338046095 -0.0048994129810954416 0 -0.0080361319442470019 -0.0049077968238011313 0 -0.0080197094806494489 -0.0049127604859474008 0 -0.0080636747114239075 -0.004878298497000568 0 -0.0080361319442470019 -0.0049077968238011313 0 -0.0080399302861365995 -0.0049232958923559472 0 -0.0080361319442470019 -0.0049077968238011313 0 -0.0080167442412163864 -0.0049143227280736505 0 -0.0080399302861365995 -0.0049232958923559472 0 -0.0080361319442470019 -0.0049077968238011313 0 -0.0080167442412163864 -0.0049143227280736505 0 -0.0080197094806494489 -0.0049127604859474008 0 -0.0095349713119354407 -0.0040136506155539348 0 -0.0090233787029584747 -0.0045996951926023412 0 -0.0080167442412163864 -0.0049143227280736505 0 -0.0079911385088554769 -0.004922107412581189 0 -0.0079689571589158792 -0.0048297945250591143 0 -0.0080167442412163864 -0.0049143227280736505 0 -0.0080197094806494489 -0.0049127604859474008 0 -0.0079689571589158792 -0.0048297945250591143 0 -0.0080167442412163864 -0.0049143227280736505 0 -0.0080288699066438044 -0.004964577889234289 0 -0.0079911385088554769 -0.004922107412581189 0 -0.0079911385088554769 -0.004922107412581189 0 -0.0080387275988611905 -0.0050287353998279289 0 -0.0079269779062903587 -0.0048788094626934083 0 -0.0079673163606243207 -0.0051032958393654069 0 -0.0079832841802141702 -0.0051797473491398058 0 -0.0080387275988611905 -0.0050287353998279289 0 -0.0080187149973973137 -0.0052405753214516682 0 -0.0080144434140768349 -0.0052007005501388997 0 -0.0080288699066438044 -0.004964577889234289 0 -0.0079911385088554769 -0.004922107412581189 0 -0.0080387275988611905 -0.0050287353998279289 0 -0.0080288699066438044 -0.004964577889234289 0 -0.0080020004639494123 -0.0049310878660306012 0 -0.0080387275988611905 -0.0050287353998279289 0 -0.0080288699066438044 -0.004964577889234289 0 -0.0080399302861365995 -0.0049232958923559472 0 -0.0080020004639494123 -0.0049310878660306012 0 -0.0080167442412163864 -0.0049143227280736505 0 -0.0080288699066438044 -0.004964577889234289 0 -0.0080399302861365995 -0.0049232958923559472 0 -0.0081415333596709868 -0.0048340890358069492 0 -0.0080636747114239075 -0.004878298497000568 0 -0.0082123216867004134 -0.0047089125888101742 0 -0.0081967973230715665 -0.0048614591475482838 0 -0.0081415333596709868 -0.0048340890358069492 0 -0.0082123216867004134 -0.0047089125888101742 0 -0.010722619458658557 -0.0043693865157491433 0 -0.012464040722059803 -0.0030500302548744571 0 -0.0080636747114239075 -0.004878298497000568 0 -0.0080399302861365995 -0.0049232958923559472 0 -0.0080020004639494123 -0.0049310878660306012 0 -0.016324948548237437 -0.00063884692071043637 0 -0.016077279901480397 -0.00043300054932410634 0 -0.016612160413681177 -0.00049478767672318466 0 -0.015289107402040335 2.5804193305829962e-06 0 -0.012464040722059803 -0.0030500302548744571 0 -0.016030083791406968 -0.00077103103597232737 0 -0.016324948548237437 -0.00063884692071043637 0 -0.016077279901480397 -0.00043300054932410634 0 -0.012464040722059803 -0.0030500302548744571 0 -0.01228592820081151 -0.0041490963616578561 0 -0.007988902394298409 -0.0056443040203558292 0 -0.0080187149973973137 -0.0052405753214516682 0 -0.0082499551709244046 -0.0053397071164120284 0 -0.007988902394298409 -0.0056443040203558292 0 -0.0083353776244855741 -0.0053642921334057818 0 -0.0082499551709244046 -0.0053397071164120284 0 -0.012464040722059803 -0.0030500302548744571 0 -0.011626464284860232 -0.0042925877802306722 0 -0.0080020004639494123 -0.0049310878660306012 0 -0.0080387275988611905 -0.0050287353998279289 0 -0.0080187149973973137 -0.0052405753214516682 0 -0.016946494462732203 -8.6822217064284424e-05 0 -0.016540748973354624 2.6526178824480085e-05 0 -0.016612160413681177 -0.00049478767672318466 0 -0.013522594565619385 -0.0038522156591329001 0 -0.01228592820081151 -0.0041490963616578561 0 -0.01228592820081151 -0.0041490963616578561 0 -0.012138182139100668 -0.0041322075446188853 0 -0.016077279901480397 -0.00043300054932410634 0 -0.016540748973354624 2.6526178824480085e-05 0 -0.016612160413681177 -0.00049478767672318466 0 -0.0085592652187572258 -0.0038711960884182904 0 -0.0085337395766788664 -0.0038476888729540681 0 -0.0085408824299119199 -0.0038100199662768099 0 -0.0085592652187572258 -0.0038711960884182904 0 -0.0085408824299119199 -0.0038100199662768099 0 -0.0085175185534721535 -0.0037850601304350358 0 -0.0085592652187572258 -0.0038711960884182904 0 -0.0084668298198152803 -0.0039358240173653037 0 -0.0085857829855306225 -0.003965839773284705 0 -0.0085592652187572258 -0.0038711960884182904 0 -0.0085337395766788664 -0.0038476888729540681 0 -0.0085480795737275465 -0.0039037966739270298 0 -0.0085337395766788664 -0.0038476888729540681 0 -0.008510893215706564 -0.003878243458059811 0 -0.0085480795737275465 -0.0039037966739270298 0 -0.0084991512698003747 -0.0038232154694612633 0 -0.0085337395766788664 -0.0038476888729540681 0 -0.008510893215706564 -0.003878243458059811 0 -0.0084991512698003747 -0.0038232154694612633 0 -0.0085337395766788664 -0.0038476888729540681 0 -0.0085339992901235871 -0.0037899740090237034 0 -0.0085337395766788664 -0.0038476888729540681 0 -0.0085339992901235871 -0.0037899740090237034 0 -0.0085408824299119199 -0.0038100199662768099 0 -0.0085449765725406652 -0.0037332912432108878 0 -0.0085387999250485774 -0.0037257648865354908 0 -0.0085339992901235871 -0.0037899740090237034 0 -0.0084991512698003747 -0.0038232154694612633 0 -0.0085339992901235871 -0.0037899740090237034 0 -0.0085110799799062963 -0.0037719486552496686 0 -0.0085387999250485774 -0.0037257648865354908 0 -0.0085339992901235871 -0.0037899740090237034 0 -0.0085110799799062963 -0.0037719486552496686 0 -0.0085449765725406652 -0.0037332912432108878 0 -0.0085339992901235871 -0.0037899740090237034 0 -0.0085408824299119199 -0.0038100199662768099 0 -0.0084965630205454667 -0.0037197225403072581 0 -0.0085449765725406652 -0.0037332912432108878 0 -0.0085175185534721535 -0.0037850601304350358 0 -0.0085449765725406652 -0.0037332912432108878 0 -0.0085408824299119199 -0.0038100199662768099 0 -0.0085175185534721535 -0.0037850601304350358 0 -0.011483276786962177 0.0010273863970302211 0 -0.011892283226130927 -0.0005721563601135426 0 -0.0084965630205454667 -0.0037197225403072581 0 -0.0085175185534721535 -0.0037850601304350358 0 -0.008449215027676947 -0.0038078705191881292 0 -0.013438295708277561 0.0014218096151523384 0 -0.011892283226130927 -0.0005721563601135426 0 -0.013225683801001935 0.0084357856835366903 0 -0.016130453751027063 0.0095727589085067531 0 -0.014817331986856733 0.012546163144423101 0 -0.018753853908581579 0.011282450242724019 0 -0.016130453751027063 0.0095727589085067531 0 -0.014817331986856733 0.012546163144423101 0 -0.0080466169182229728 -0.0049123103497677126 0 -0.0080364095338046095 -0.0048994129810954416 0 -0.0080430143978414866 -0.0048923168309463715 0 -0.011892283226130927 -0.0005721563601135426 0 -0.0095349713119354407 -0.0040136506155539348 0 -0.0080364095338046095 -0.0048994129810954416 0 -0.0080430143978414866 -0.0048923168309463715 0 -0.0080197094806494489 -0.0049127604859474008 0 -0.010169211780895648 -0.0011028776923744522 0 -0.011892283226130927 -0.0005721563601135426 0 -0.0082977656657133043 -0.0037514282349874382 0 -0.0084668298198152803 -0.0039358240173653037 0 -0.0083762843172934549 -0.004019997445465856 0 -0.0085592652187572258 -0.0038711960884182904 0 -0.0082977656657133043 -0.0037514282349874382 0 -0.0084668298198152803 -0.0039358240173653037 0 -0.0085592652187572258 -0.0038711960884182904 0 -0.0085175185534721535 -0.0037850601304350358 0 -0.008449215027676947 -0.0038078705191881292 0 -0.0084668298198152803 -0.0039358240173653037 0 -0.0083762843172934549 -0.004019997445465856 0 -0.0084967713841219202 -0.004079857631283248 0 -0.0083762843172934549 -0.004019997445465856 0 -0.0080970915116344577 -0.0041497606711085409 0 -0.0084951814690804525 -0.0042909937640388867 0 -0.0083762843172934549 -0.004019997445465856 0 -0.0084967713841219202 -0.004079857631283248 0 -0.0084951814690804525 -0.0042909937640388867 0 -0.0082977656657133043 -0.0037514282349874382 0 -0.0083762843172934549 -0.004019997445465856 0 -0.0080970915116344577 -0.0041497606711085409 0 -0.0080970915116344577 -0.0041497606711085409 0 -0.0082612271032038338 -0.0045080504140246926 0 -0.0084951814690804525 -0.0042909937640388867 0 -0.0080970915116344577 -0.0041497606711085409 0 -0.0082612271032038338 -0.0045080504140246926 0 -0.0079689571589158792 -0.0048297945250591143 0 -0.0084967713841219202 -0.004079857631283248 0 -0.0084951814690804525 -0.0042909937640388867 0 -0.0086734468848260124 -0.0043343747326311131 0 -0.0082612271032038338 -0.0045080504140246926 0 -0.0084951814690804525 -0.0042909937640388867 0 -0.0085394261568357381 -0.0046655386860421913 0 -0.0084951814690804525 -0.0042909937640388867 0 -0.0088621864917626456 -0.0044374913856462389 0 -0.0085394261568357381 -0.0046655386860421913 0 -0.0082747543898110763 -0.0048039009231575476 0 -0.0082220213470306676 -0.0048332978587145303 0 -0.0084967713841219202 -0.004079857631283248 0 -0.0086734468848260124 -0.0043343747326311131 0 -0.0085857829855306225 -0.003965839773284705 0 -0.0082220213470306676 -0.0048332978587145303 0 -0.0082619942615750237 -0.0045300827099997772 0 -0.0085619361288446529 -0.0038612555312368966 0 -0.0085857829855306225 -0.003965839773284705 0 -0.0085234362805004845 -0.003892483609606829 0 -0.0085592652187572258 -0.0038711960884182904 0 -0.0085857829855306225 -0.003965839773284705 0 -0.0085480795737275465 -0.0039037966739270298 0 -0.0085857829855306225 -0.003965839773284705 0 -0.0085480795737275465 -0.0039037966739270298 0 -0.0085234362805004845 -0.003892483609606829 0 -0.0084668298198152803 -0.0039358240173653037 0 -0.0084967713841219202 -0.004079857631283248 0 -0.0085857829855306225 -0.003965839773284705 0 -0.0084719893212093205 -0.0038840220657659556 0 -0.008510893215706564 -0.003878243458059811 0 -0.0085234362805004845 -0.003892483609606829 0 -0.008510893215706564 -0.003878243458059811 0 -0.0085480795737275465 -0.0039037966739270298 0 -0.0085234362805004845 -0.003892483609606829 0 -0.0084719893212093205 -0.0038840220657659556 0 -0.0085234362805004845 -0.003892483609606829 0 -0.008468135631312549 -0.0038722763192052508 0 -0.0085619361288446529 -0.0038612555312368966 0 -0.0085234362805004845 -0.003892483609606829 0 -0.008468135631312549 -0.0038722763192052508 0 -0.0082220213470306676 -0.0048332978587145303 0 -0.0081511317863705128 -0.005165009987810559 0 -0.0081698143905923459 -0.0055626571810350753 0 -0.0081528909800854289 -0.0055753940251375422 0 -0.0081521006421496379 -0.0055505976135281293 0 -0.0081877459791382928 -0.0055860345702352359 0 -0.0081698143905923459 -0.0055626571810350753 0 -0.0081528909800854289 -0.0055753940251375422 0 -0.0082758739392723539 -0.0059640080139631603 0 -0.007959289172169046 -0.0060996212611970713 0 -0.0081698143905923459 -0.0055626571810350753 0 -0.0081868370608054117 -0.0055395598201551559 0 -0.0081521006421496379 -0.0055505976135281293 0 -0.0088681872284398899 -0.0049222484390444811 0 -0.0086823100459246343 -0.0052540493934304083 0 -0.0088722056679736618 -0.0053433638148125701 0 -0.0081698143905923459 -0.0055626571810350753 0 -0.0081870424604500672 -0.0055629443653332855 0 -0.0081868370608054117 -0.0055395598201551559 0 -0.0082880857927188703 -0.0053274305818136825 0 -0.0082758739392723539 -0.0059640080139631603 0 -0.0082220213470306676 -0.0048332978587145303 0 -0.0082880857927188703 -0.0053274305818136825 0 -0.0088621864917626456 -0.0044374913856462389 0 -0.0088681872284398899 -0.0049222484390444811 0 -0.0085394261568357381 -0.0046655386860421913 0 -0.0081877459791382928 -0.0055860345702352359 0 -0.0081698143905923459 -0.0055626571810350753 0 -0.0081870424604500672 -0.0055629443653332855 0 -0.0082612271032038338 -0.0045080504140246926 0 -0.0085394261568357381 -0.0046655386860421913 0 -0.0082847975075165045 -0.004813505640859219 0 -0.0085394261568357381 -0.0046655386860421913 0 -0.0082847975075165045 -0.004813505640859219 0 -0.0085399300918890166 -0.0050088547327455067 0 -0.0082847975075165045 -0.004813505640859219 0 -0.0083551735264309531 -0.0050927410833036544 0 -0.0085399300918890166 -0.0050088547327455067 0 -0.0088681872284398899 -0.0049222484390444811 0 -0.0085394261568357381 -0.0046655386860421913 0 -0.0085399300918890166 -0.0050088547327455067 0 -0.0082612271032038338 -0.0045080504140246926 0 -0.0082847975075165045 -0.004813505640859219 0 -0.0079689571589158792 -0.0048297945250591143 0 -0.0082847975075165045 -0.004813505640859219 0 -0.0081368447955719736 -0.0049869817416552309 0 -0.0079689571589158792 -0.0048297945250591143 0 -0.0082847975075165045 -0.004813505640859219 0 -0.0081368447955719736 -0.0049869817416552309 0 -0.0083551735264309531 -0.0050927410833036544 0 -0.0081368447955719736 -0.0049869817416552309 0 -0.0082136358204105992 -0.0051466112144683777 0 -0.0080761633967503226 -0.005166118878930797 0 -0.0081368447955719736 -0.0049869817416552309 0 -0.0082136358204105992 -0.0051466112144683777 0 -0.0083551735264309531 -0.0050927410833036544 0 -0.0082136358204105992 -0.0051466112144683777 0 -0.0083551735264309531 -0.0050927410833036544 0 -0.008330090227042215 -0.005333309373166905 0 -0.0082136358204105992 -0.0051466112144683777 0 -0.0081947599668518046 -0.0053096904408350114 0 -0.008330090227042215 -0.005333309373166905 0 -0.0083551735264309531 -0.0050927410833036544 0 -0.0084756022560833148 -0.0052508369980222647 0 -0.008330090227042215 -0.005333309373166905 0 -0.0082136358204105992 -0.0051466112144683777 0 -0.0081947599668518046 -0.0053096904408350114 0 -0.0080761633967503226 -0.005166118878930797 0 -0.0081947599668518046 -0.0053096904408350114 0 -0.0080827513962121959 -0.0054098561564403912 0 -0.0080761633967503226 -0.005166118878930797 0 -0.0088681872284398899 -0.0049222484390444811 0 -0.0085399300918890166 -0.0050088547327455067 0 -0.0086823100459246343 -0.0052540493934304083 0 -0.0083551735264309531 -0.0050927410833036544 0 -0.0085399300918890166 -0.0050088547327455067 0 -0.0084756022560833148 -0.0052508369980222647 0 -0.0084756022560833148 -0.0052508369980222647 0 -0.0086823100459246343 -0.0052540493934304083 0 -0.0085044340480505565 -0.0054328045136467981 0 -0.0085399300918890166 -0.0050088547327455067 0 -0.0084756022560833148 -0.0052508369980222647 0 -0.0086823100459246343 -0.0052540493934304083 0 -0.0086823100459246343 -0.0052540493934304083 0 -0.0085044340480505565 -0.0054328045136467981 0 -0.0085167161378750522 -0.0054691212172292497 0 -0.0083974393469047736 -0.0059708187598915491 0 -0.0082758739392723539 -0.0059640080139631603 0 -0.0086823100459246343 -0.0052540493934304083 0 -0.0085167161378750522 -0.0054691212172292497 0 -0.0088722056679736618 -0.0053433638148125701 0 -0.0084148270074877116 -0.0053930430982986116 0 -0.0085044340480505565 -0.0054328045136467981 0 -0.0083474442864176369 -0.005565769391194385 0 -0.0084756022560833148 -0.0052508369980222647 0 -0.0084148270074877116 -0.0053930430982986116 0 -0.0085044340480505565 -0.0054328045136467981 0 -0.0085044340480505565 -0.0054328045136467981 0 -0.0085177722732268438 -0.0054686700092193476 0 -0.0083474442864176369 -0.005565769391194385 0 -0.0084756022560833148 -0.0052508369980222647 0 -0.0084148270074877116 -0.0053930430982986116 0 -0.008330090227042215 -0.005333309373166905 0 -0.0083969010638611733 -0.0059680855911934567 0 -0.0083974393469047736 -0.0059708187598915491 0 -0.0086353219535848826 -0.0054814497087782776 0 -0.0083474442864176369 -0.005565769391194385 0 -0.0084414558964279827 -0.005907260780602424 0 -0.0083974393469047736 -0.0059708187598915491 0 -0.008412524160982664 -0.0059471549351045351 0 -0.0081947599668518046 -0.0053096904408350114 0 -0.0080827513962121959 -0.0054098561564403912 0 -0.0083474442864176369 -0.005565769391194385 0 -0.0081947599668518046 -0.0053096904408350114 0 -0.008330090227042215 -0.005333309373166905 0 -0.0083474442864176369 -0.005565769391194385 0 -0.0084148270074877116 -0.0053930430982986116 0 -0.008330090227042215 -0.005333309373166905 0 -0.0083474442864176369 -0.005565769391194385 0 -0.0080827513962121959 -0.0054098561564403912 0 -0.0083474442864176369 -0.005565769391194385 0 -0.0080278124601940309 -0.0058016024805202845 0 -0.0081734401013581447 -0.0057730525496030626 0 -0.0082549170605884983 -0.0059890355573382157 0 -0.0084414558964279827 -0.005907260780602424 0 -0.0080278124601940309 -0.0058016024805202845 0 -0.0083443445680146406 -0.0064060920125274465 0 -0.0083474442864176369 -0.005565769391194385 0 -0.0084414558964279827 -0.005907260780602424 0 -0.0080278124601940309 -0.0058016024805202845 0 -0.0083974393469047736 -0.0059708187598915491 0 -0.0084951980097813101 -0.0062781172666110932 0 -0.0082838303613453571 -0.006061571519893099 0 -0.0084611467341754541 -0.00628277854715117 0 -0.0083760840139977238 -0.0063128514782192667 0 -0.0086353219535848826 -0.0054814497087782776 0 -0.0084414558964279827 -0.005907260780602424 0 -0.0088458116365845788 -0.006238400903003114 0 -0.008407277286156525 -0.0066214901258177744 0 -0.0081073524689703972 -0.0070192953424243172 0 -0.0079905418386861642 -0.0066942735831244885 0 -0.0081073524689703972 -0.0070192953424243172 0 -0.0084733761959275844 -0.0072015894785640248 0 -0.0079300395859502569 -0.0074425564091307244 0 -0.008407277286156525 -0.0066214901258177744 0 -0.0081073524689703972 -0.0070192953424243172 0 -0.0084733761959275844 -0.0072015894785640248 0 -0.0084113932954744623 -0.0064507154859064792 0 -0.0082758739392723539 -0.0059640080139631603 0 -0.0082838303613453571 -0.006061571519893099 0 -0.0084611467341754541 -0.00628277854715117 0 -0.0084535710323216003 -0.0060015531044165134 0 -0.0089868976078243869 -0.0052211798645363907 0 -0.0084297395901191015 -0.0046647391658173132 0 -0.0083547402161130869 -0.0052056391816604555 0 -0.0084297395901191015 -0.0046647391658173132 0 -0.0083547402161130869 -0.0052056391816604555 0 -0.008139546032658939 -0.0051124529415913925 0 -0.0089868976078243869 -0.0052211798645363907 0 -0.0083656269239898596 -0.0054373850881234949 0 -0.0083547402161130869 -0.0052056391816604555 0 -0.010276058676228515 -0.0054016300174626547 0 -0.01228592820081151 -0.0041490963616578561 0 -0.0082499551709244046 -0.0053397071164120284 0 -0.0083547402161130869 -0.0052056391816604555 0 -0.0081320429075797535 -0.0052223097290097402 0 -0.0083656269239898596 -0.0054373850881234949 0 -0.0082499551709244046 -0.0053397071164120284 0 -0.0083547402161130869 -0.0052056391816604555 0 -0.0083547402161130869 -0.0052056391816604555 0 -0.008139546032658939 -0.0051124529415913925 0 -0.0081320429075797535 -0.0052223097290097402 0 -0.0080187149973973137 -0.0052405753214516682 0 -0.0082499551709244046 -0.0053397071164120284 0 -0.0081320429075797535 -0.0052223097290097402 0 -0.0080187149973973137 -0.0052405753214516682 0 -0.0081320429075797535 -0.0052223097290097402 0 -0.0080132841302613424 -0.0052073807762655494 0 -0.008139546032658939 -0.0051124529415913925 0 -0.0081320429075797535 -0.0052223097290097402 0 -0.0080132841302613424 -0.0052073807762655494 0 -0.008139546032658939 -0.0051124529415913925 0 -0.0080132841302613424 -0.0052073807762655494 0 -0.0079019476435145501 -0.0052532224767521214 0 -0.008261125047836387 -0.0055886184670236351 0 -0.0080937095897222859 -0.0054782264103602225 0 -0.0071840553295633817 -0.0054519452820263091 0 -0.0079019476435145501 -0.0052532224767521214 0 -0.0075408231603636064 -0.0057201698822868102 0 -0.0084297395901191015 -0.0046647391658173132 0 -0.008139546032658939 -0.0051124529415913925 0 -0.0079019476435145501 -0.0052532224767521214 0 -0.0079019476435145501 -0.0052532224767521214 0 -0.0080144434140768349 -0.0052007005501388997 0 -0.0081261114867492764 -0.0053753784652958245 0 -0.0079832841802141702 -0.0051797473491398058 0 -0.0080526392941621464 -0.0054210763325836658 0 -0.0080132841302613424 -0.0052073807762655494 0 -0.0079019476435145501 -0.0052532224767521214 0 -0.0080144434140768349 -0.0052007005501388997 0 -0.0080187149973973137 -0.0052405753214516682 0 -0.0080132841302613424 -0.0052073807762655494 0 -0.0080144434140768349 -0.0052007005501388997 0 -0.0079911385088554769 -0.004922107412581189 0 -0.0079269779062903587 -0.0048788094626934083 0 -0.0079689571589158792 -0.0048297945250591143 0 -0.0079269779062903587 -0.0048788094626934083 0 -0.0079689571589158792 -0.0048297945250591143 0 -0.007976811938759187 -0.0049939746769724624 0 -0.0081368447955719736 -0.0049869817416552309 0 -0.0079689571589158792 -0.0048297945250591143 0 -0.007976811938759187 -0.0049939746769724624 0 -0.0079269779062903587 -0.0048788094626934083 0 -0.007976811938759187 -0.0049939746769724624 0 -0.00786847869554432 -0.0052183786838232464 0 -0.007976811938759187 -0.0049939746769724624 0 -0.00786847869554432 -0.0052183786838232464 0 -0.0080761633967503226 -0.005166118878930797 0 -0.0081368447955719736 -0.0049869817416552309 0 -0.007976811938759187 -0.0049939746769724624 0 -0.0080761633967503226 -0.005166118878930797 0 -0.0080827513962121959 -0.0054098561564403912 0 -0.00786847869554432 -0.0052183786838232464 0 -0.0080761633967503226 -0.005166118878930797 0 -0.0080827513962121959 -0.0054098561564403912 0 -0.00786847869554432 -0.0052183786838232464 0 -0.0080278124601940309 -0.0058016024805202845 0 -0.0081261114867492764 -0.0053753784652958245 0 -0.0082940644429510789 -0.0059303868045296453 0 -0.007915758450898978 -0.0057390255768441202 0 -0.0080526392941621464 -0.0054210763325836658 0 -0.0081734401013581447 -0.0057730525496030626 0 -0.0082940644429510789 -0.0059303868045296453 0 -0.0080072472755208426 -0.0060750307942661593 0 -0.007915758450898978 -0.0057390255768441202 0 -0.0082940644429510789 -0.0059303868045296453 0 -0.0080072472755208426 -0.0060750307942661593 0 -0.0081744542641757206 -0.0062442361811372972 0 -0.0080072472755208426 -0.0060750307942661593 0 -0.007915758450898978 -0.0057390255768441202 0 -0.0075728297772172659 -0.0061440769252202408 0 -0.0079019476435145501 -0.0052532224767521214 0 -0.0081261114867492764 -0.0053753784652958245 0 -0.007915758450898978 -0.0057390255768441202 0 -0.0079019476435145501 -0.0052532224767521214 0 -0.007915758450898978 -0.0057390255768441202 0 -0.0075408231603636064 -0.0057201698822868102 0 -0.007915758450898978 -0.0057390255768441202 0 -0.0075408231603636064 -0.0057201698822868102 0 -0.0075728297772172659 -0.0061440769252202408 0 -0.0075408231603636064 -0.0057201698822868102 0 -0.0075728297772172659 -0.0061440769252202408 0 -0.0071462955236261992 -0.0059331942075251907 0 -0.0074528544911206208 -0.0061393761870487222 0 -0.0071462955236261992 -0.0059331942075251907 0 -0.0071523729109372654 -0.0063939251470732398 0 -0.0075713360067481373 -0.0061998510169951433 0 -0.0073914273705958967 -0.0060920257098839763 0 -0.0071840553295633817 -0.0054519452820263091 0 -0.0075408231603636064 -0.0057201698822868102 0 -0.0071462955236261992 -0.0059331942075251907 0 -0.0069742885239517001 -0.0058206380543127404 0 -0.0071840553295633817 -0.0054519452820263091 0 -0.0071462955236261992 -0.0059331942075251907 0 -0.0069237047321296548 -0.0066554788303369201 0 -0.0071523729109372654 -0.0063939251470732398 0 -0.0074605183913807379 -0.0066784937880160176 0 -0.0070133677137095198 -0.00626758459096915 0 -0.0071462955236261992 -0.0059331942075251907 0 -0.0071523729109372654 -0.0063939251470732398 0 -0.0074528544911206208 -0.0061393761870487222 0 -0.0071523729109372654 -0.0063939251470732398 0 -0.0074605183913807379 -0.0066784937880160176 0 -0.0074605183913807379 -0.0066784937880160176 0 -0.00788665004546984 -0.0063607237960905108 0 -0.0079993141052499984 -0.006775929442785278 0 -0.0075713360067481373 -0.0061998510169951433 0 -0.0079093193752326277 -0.0064105203822143689 0 -0.0080072472755208426 -0.0060750307942661593 0 -0.0075728297772172659 -0.0061440769252202408 0 -0.0079523521782299059 -0.0063791403401769605 0 -0.0074528544911206208 -0.0061393761870487222 0 -0.0074605183913807379 -0.0066784937880160176 0 -0.00788665004546984 -0.0063607237960905108 0 -0.0079523521782299059 -0.0063791403401769605 0 -0.0081744542641757206 -0.0062442361811372972 0 -0.0082419740379650469 -0.0066543415500906426 0 -0.0080072472755208426 -0.0060750307942661593 0 -0.0079523521782299059 -0.0063791403401769605 0 -0.0081744542641757206 -0.0062442361811372972 0 -0.0079993141052499984 -0.006775929442785278 0 -0.008357776024280273 -0.0067063848723635557 0 -0.0084017054246004561 -0.0071553624339605578 0 -0.00788665004546984 -0.0063607237960905108 0 -0.0079993141052499984 -0.006775929442785278 0 -0.008357776024280273 -0.0067063848723635557 0 -0.0079093193752326277 -0.0064105203822143689 0 -0.0082395368939859361 -0.0066312435233119972 0 -0.0079993141052499984 -0.006775929442785278 0 -0.0080030551331863181 -0.0071942838746025571 0 -0.0084017054246004561 -0.0071553624339605578 0 -0.008291412134903961 -0.0074697705057146981 0 -0.0082068666481112072 -0.0079351185968875599 0 -0.0084704056180060043 -0.0075972872224131767 0 -0.008291412134903961 -0.0074697705057146981 0 -0.0080030551331863181 -0.0071942838746025571 0 -0.0082068666481112072 -0.0079351185968875599 0 -0.008291412134903961 -0.0074697705057146981 0 -0.0080030551331863181 -0.0071942838746025571 0 -0.0084017054246004561 -0.0071553624339605578 0 -0.0080030551331863181 -0.0071942838746025571 0 -0.007154651228203553 -0.0071123615462753143 0 -0.0076110516636732463 -0.0080524286145875965 0 -0.0080030551331863181 -0.0071942838746025571 0 -0.0076110516636732463 -0.0080524286145875965 0 -0.0082068666481112072 -0.0079351185968875599 0 -0.0074605183913807379 -0.0066784937880160176 0 -0.0079993141052499984 -0.006775929442785278 0 -0.0080030551331863181 -0.0071942838746025571 0 -0.0074605183913807379 -0.0066784937880160176 0 -0.0080030551331863181 -0.0071942838746025571 0 -0.007154651228203553 -0.0071123615462753143 0 -0.0054669578570472836 -0.0074396332680845322 0 -0.007154651228203553 -0.0071123615462753143 0 -0.0063826261815198501 -0.0084068662800728042 0 -0.0054669578570472836 -0.0074396332680845322 0 -0.0055748031889109248 -0.0054854661326365741 0 -0.007154651228203553 -0.0071123615462753143 0 -0.0069237047321296548 -0.0066554788303369201 0 -0.0074605183913807379 -0.0066784937880160176 0 -0.007154651228203553 -0.0071123615462753143 0 -0.0076977324000748609 -0.0059575952987498968 0 -0.0074531569930043652 -0.0061547812923234534 0 -0.0088992544162777975 -0.0069160086322094137 0 -0.0088458116365845788 -0.006238400903003114 0 -0.0087586070490334091 -0.0067742911540896022 0 -0.0087586070490334091 -0.0067742911540896022 0 -0.0086335989916872784 -0.0070091144233663631 0 -0.0088432588901733063 -0.00704520982252968 0 -0.0088992544162777975 -0.0069160086322094137 0 -0.0087586070490334091 -0.0067742911540896022 0 -0.0088432588901733063 -0.00704520982252968 0 -0.008528994555244921 -0.0066123264211905087 0 -0.0085322718003001362 -0.0066266504831467175 0 -0.0082589663003386216 -0.0064582491389061393 0 -0.0084506877551752575 -0.0066636601371858643 0 -0.0082221492263792901 -0.0063531184358987134 0 -0.0082311096866368276 -0.0064947184917943726 0 -0.0082589663003386216 -0.0064582491389061393 0 -0.0084506877551752575 -0.0066636601371858643 0 -0.008407277286156525 -0.0066214901258177744 0 -0.0082589663003386216 -0.0064582491389061393 0 -0.0079905418386861642 -0.0066942735831244885 0 -0.008528994555244921 -0.0066123264211905087 0 -0.0084951980097813101 -0.0062781172666110932 0 -0.0084611467341754541 -0.00628277854715117 0 -0.0084691394916062319 -0.0065647312764520495 0 -0.0083760840139977238 -0.0063128514782192667 0 -0.0084113932954744623 -0.0064507154859064792 0 -0.008528994555244921 -0.0066123264211905087 0 -0.008407277286156525 -0.0066214901258177744 0 -0.0082311096866368276 -0.0064947184917943726 0 -0.0082589663003386216 -0.0064582491389061393 0 -0.0084414558964279827 -0.005907260780602424 0 -0.0088458116365845788 -0.006238400903003114 0 -0.0083443445680146406 -0.0064060920125274465 0 -0.0088458116365845788 -0.006238400903003114 0 -0.0083443445680146406 -0.0064060920125274465 0 -0.0085490957990487053 -0.0066273280699864889 0 -0.0088458116365845788 -0.006238400903003114 0 -0.0085490957990487053 -0.0066273280699864889 0 -0.0087586070490334091 -0.0067742911540896022 0 -0.0081744542641757206 -0.0062442361811372972 0 -0.0083443445680146406 -0.0064060920125274465 0 -0.0082419740379650469 -0.0066543415500906426 0 -0.0082940644429510789 -0.0059303868045296453 0 -0.0081744542641757206 -0.0062442361811372972 0 -0.0083443445680146406 -0.0064060920125274465 0 -0.0082395368939859361 -0.0066312435233119972 0 -0.008412519147067133 -0.0067510967469551842 0 -0.0082419740379650469 -0.0066543415500906426 0 -0.0085490957990487053 -0.0066273280699864889 0 -0.0086335989916872784 -0.0070091144233663631 0 -0.0083443445680146406 -0.0064060920125274465 0 -0.0082419740379650469 -0.0066543415500906426 0 -0.0085490957990487053 -0.0066273280699864889 0 -0.0085490957990487053 -0.0066273280699864889 0 -0.0087586070490334091 -0.0067742911540896022 0 -0.0086335989916872784 -0.0070091144233663631 0 -0.0086335989916872784 -0.0070091144233663631 0 -0.0085946540126246064 -0.0073429637827646284 0 -0.0087078952550322473 -0.0072106399070383503 0 -0.0086335989916872784 -0.0070091144233663631 0 -0.0084017054246004561 -0.0071553624339605578 0 -0.0085946540126246064 -0.0073429637827646284 0 -0.008357776024280273 -0.0067063848723635557 0 -0.0086335989916872784 -0.0070091144233663631 0 -0.0084017054246004561 -0.0071553624339605578 0 -0.0084017054246004561 -0.0071553624339605578 0 -0.0085946540126246064 -0.0073429637827646284 0 -0.0084704056180060043 -0.0075972872224131767 0 -0.008291412134903961 -0.0074697705057146981 0 -0.0084017054246004561 -0.0071553624339605578 0 -0.0084704056180060043 -0.0075972872224131767 0 -0.0085946540126246064 -0.0073429637827646284 0 -0.0084704056180060043 -0.0075972872224131767 0 -0.0085799120615983101 -0.0076541571316331393 0 -0.0085946540126246064 -0.0073429637827646284 0 -0.0086673362380571394 -0.0074088494328088412 0 -0.0085799120615983101 -0.0076541571316331393 0 -0.0085946540126246064 -0.0073429637827646284 0 -0.0086673362380571394 -0.0074088494328088412 0 -0.0087078952550322473 -0.0072106399070383503 0 -0.0086673362380571394 -0.0074088494328088412 0 -0.0085991376731402013 -0.0071625114430526613 0 -0.0086798108656413707 -0.007492832473252148 0 -0.0086673362380571394 -0.0074088494328088412 0 -0.0087078952550322473 -0.0072106399070383503 0 -0.0085991376731402013 -0.0071625114430526613 0 -0.0088925872353580269 -0.0070214169355954058 0 -0.0088432588901733063 -0.00704520982252968 0 -0.0085991376731402013 -0.0071625114430526613 0 -0.0086335989916872784 -0.0070091144233663631 0 -0.0087078952550322473 -0.0072106399070383503 0 -0.0088432588901733063 -0.00704520982252968 0 -0.008528994555244921 -0.0066123264211905087 0 -0.0085770231983961186 -0.0068043108941082979 0 -0.0087078952550322473 -0.0072106399070383503 0 -0.0088432588901733063 -0.00704520982252968 0 -0.0085991376731402013 -0.0071625114430526613 0 -0.0082311096866368276 -0.0064947184917943726 0 -0.0084506877551752575 -0.0066636601371858643 0 -0.0085991376731402013 -0.0071625114430526613 0 -0.0084506877551752575 -0.0066636601371858643 0 -0.0085991376731402013 -0.0071625114430526613 0 -0.0088147239541211727 -0.0069955035007632539 0 -0.0085991376731402013 -0.0071625114430526613 0 -0.0088147239541211727 -0.0069955035007632539 0 -0.0087557633319032477 -0.007321370792137123 0 -0.0082058315146286923 -0.0054775688768083563 0 -0.007780421342681608 -0.0050260550654832271 0 -0.0081749452782519383 -0.0046653783007455565 0 -0.0083465302112533755 -0.0065383801610372702 0 -0.0082886819220944121 -0.0070922777300690028 0 -0.0088147239541211727 -0.0069955035007632539 0 -0.0089244182870731222 -0.007490125716156793 0 -0.0087557633319032477 -0.007321370792137123 0 -0.0082058315146286923 -0.0054775688768083563 0 -0.007780421342681608 -0.0050260550654832271 0 -0.0077367144876805283 -0.0054526912413214558 0 -0.0073351437015056207 -0.0053409243626651726 0 -0.0077367144876805283 -0.0054526912413214558 0 -0.0076394535866588969 -0.0058952093168826835 0 -0.007780421342681608 -0.0050260550654832271 0 -0.0073351437015056207 -0.0053409243626651726 0 -0.0073392391256285145 -0.004775326520935751 0 -0.007780421342681608 -0.0050260550654832271 0 -0.0073351437015056207 -0.0053409243626651726 0 -0.0077367144876805283 -0.0054526912413214558 0 -0.0076394535866588969 -0.0058952093168826835 0 -0.0070797146315388854 -0.0057953497605003953 0 -0.0073003476657246642 -0.006260255700393247 0 -0.0073351437015056207 -0.0053409243626651726 0 -0.0076394535866588969 -0.0058952093168826835 0 -0.0070797146315388854 -0.0057953497605003953 0 -0.0084506877551752575 -0.0066636601371858643 0 -0.0088147239541211727 -0.0069955035007632539 0 -0.0082221492263792901 -0.0063531184358987134 0 -0.0083465302112533755 -0.0065383801610372702 0 -0.0083408963467087698 -0.0065062556787601001 0 -0.0082058315146286923 -0.0054775688768083563 0 -0.0077367144876805283 -0.0054526912413214558 0 -0.0076394535866588969 -0.0058952093168826835 0 -0.0082058315146286923 -0.0054775688768083563 0 -0.0076394535866588969 -0.0058952093168826835 0 -0.0082221492263792901 -0.0063531184358987134 0 -0.0063352164795506729 -0.0051324647985374235 0 -0.0064929400082542896 -0.0057341951724391264 0 -0.0059042742194352479 -0.0054125396547167835 0 -0.0063352164795506729 -0.0051324647985374235 0 -0.0068537886021670189 -0.005436819668406815 0 -0.0068777597360820467 -0.0049799154136413899 0 -0.0063352164795506729 -0.0051324647985374235 0 -0.0068537886021670189 -0.005436819668406815 0 -0.0064929400082542896 -0.0057341951724391264 0 -0.0073351437015056207 -0.0053409243626651726 0 -0.0068777597360820467 -0.0049799154136413899 0 -0.0073392391256285145 -0.004775326520935751 0 -0.0073351437015056207 -0.0053409243626651726 0 -0.0068537886021670189 -0.005436819668406815 0 -0.0068777597360820467 -0.0049799154136413899 0 -0.0073351437015056207 -0.0053409243626651726 0 -0.0068537886021670189 -0.005436819668406815 0 -0.0070797146315388854 -0.0057953497605003953 0 -0.006845842865909656 -0.0060099484230562777 0 -0.0070797146315388854 -0.0057953497605003953 0 -0.0064929400082542896 -0.0057341951724391264 0 -0.0068537886021670189 -0.005436819668406815 0 -0.0070797146315388854 -0.0057953497605003953 0 -0.0064929400082542896 -0.0057341951724391264 0 -0.006845842865909656 -0.0060099484230562777 0 -0.0070797146315388854 -0.0057953497605003953 0 -0.0073003476657246642 -0.006260255700393247 0 -0.0064929400082542896 -0.0057341951724391264 0 -0.0064938215291319608 -0.0062304939378054194 0 -0.0058424234487933222 -0.006094974792486562 0 -0.006845842865909656 -0.0060099484230562777 0 -0.0064929400082542896 -0.0057341951724391264 0 -0.0064938215291319608 -0.0062304939378054194 0 -0.0064929400082542896 -0.0057341951724391264 0 -0.0057739115574009714 -0.0058255790419290167 0 -0.0059042742194352479 -0.0054125396547167835 0 -0.0068401028848082768 -0.0062656000192131767 0 -0.0069180581990205747 -0.006128867219442594 0 -0.0069928809002842603 -0.0062835290508678971 0 -0.0069180581990205747 -0.006128867219442594 0 -0.0073003476657246642 -0.006260255700393247 0 -0.0069928809002842603 -0.0062835290508678971 0 -0.00645256057565851 -0.006111109362578606 0 -0.0067857645573749228 -0.0061780524582732005 0 -0.006845842865909656 -0.0060099484230562777 0 -0.0064938215291319608 -0.0062304939378054194 0 -0.0073003476657246642 -0.006260255700393247 0 -0.0073003476657246642 -0.006260255700393247 0 -0.0069738475918358954 -0.0063909302914400504 0 -0.0069928809002842603 -0.0062835290508678971 0 -0.0073003476657246642 -0.006260255700393247 0 -0.0069738475918358954 -0.0063909302914400504 0 -0.0074521063882913271 -0.006625524021743487 0 -0.0068401028848082768 -0.0062656000192131767 0 -0.0069738475918358954 -0.0063909302914400504 0 -0.0069928809002842603 -0.0062835290508678971 0 -0.006124621386040789 -0.0061456397956494548 0 -0.0063854673002839884 -0.0062811787548424439 0 -0.0063244453566258527 -0.005586954181988622 0 -0.0069738475918358954 -0.0063909302914400504 0 -0.0062121445851991593 -0.006335114316784401 0 -0.0076394535866588969 -0.0058952093168826835 0 -0.0082221492263792901 -0.0063531184358987134 0 -0.0077653730752462145 -0.0064874386009507309 0 -0.0082589663003386216 -0.0064582491389061393 0 -0.0082221492263792901 -0.0063531184358987134 0 -0.0077653730752462145 -0.0064874386009507309 0 -0.0076394535866588969 -0.0058952093168826835 0 -0.0073003476657246642 -0.006260255700393247 0 -0.0077653730752462145 -0.0064874386009507309 0 -0.0073003476657246642 -0.006260255700393247 0 -0.0077653730752462145 -0.0064874386009507309 0 -0.0074521063882913271 -0.006625524021743487 0 -0.0082589663003386216 -0.0064582491389061393 0 -0.0077653730752462145 -0.0064874386009507309 0 -0.0079905418386861642 -0.0066942735831244885 0 -0.0077653730752462145 -0.0064874386009507309 0 -0.0079905418386861642 -0.0066942735831244885 0 -0.0074521063882913271 -0.006625524021743487 0 -0.0081073524689703972 -0.0070192953424243172 0 -0.0079905418386861642 -0.0066942735831244885 0 -0.0076898835774953161 -0.0070079335301169044 0 -0.0079905418386861642 -0.0066942735831244885 0 -0.0076898835774953161 -0.0070079335301169044 0 -0.0074521063882913271 -0.006625524021743487 0 -0.0081073524689703972 -0.0070192953424243172 0 -0.0076898835774953161 -0.0070079335301169044 0 -0.0079300395859502569 -0.0074425564091307244 0 -0.0076898835774953161 -0.0070079335301169044 0 -0.0072681291373100417 -0.0070130939241251095 0 -0.0073144839476072029 -0.0073524435150378598 0 -0.0076898835774953161 -0.0070079335301169044 0 -0.0072681291373100417 -0.0070130939241251095 0 -0.0074521063882913271 -0.006625524021743487 0 -0.0072681291373100417 -0.0070130939241251095 0 -0.0074521063882913271 -0.006625524021743487 0 -0.006806933444215393 -0.0068038212776924071 0 -0.0069738475918358954 -0.0063909302914400504 0 -0.0074521063882913271 -0.006625524021743487 0 -0.006806933444215393 -0.0068038212776924071 0 -0.0069738475918358954 -0.0063909302914400504 0 -0.006806933444215393 -0.0068038212776924071 0 -0.0062121445851991593 -0.006335114316784401 0 -0.006806933444215393 -0.0068038212776924071 0 -0.0059968019742203654 -0.0068476875818910283 0 -0.0062121445851991593 -0.006335114316784401 0 -0.006806933444215393 -0.0068038212776924071 0 -0.0063855307337145053 -0.0072145699450740092 0 -0.0059968019742203654 -0.0068476875818910283 0 -0.006806933444215393 -0.0068038212776924071 0 -0.0069151317706064525 -0.0072590687821509339 0 -0.0063855307337145053 -0.0072145699450740092 0 -0.0072681291373100417 -0.0070130939241251095 0 -0.006806933444215393 -0.0068038212776924071 0 -0.0069151317706064525 -0.0072590687821509339 0 -0.0072681291373100417 -0.0070130939241251095 0 -0.0069151317706064525 -0.0072590687821509339 0 -0.0073144839476072029 -0.0073524435150378598 0 -0.0069151317706064525 -0.0072590687821509339 0 -0.0065570250039047023 -0.0075506296916002802 0 -0.0070989473964992713 -0.0077007563897759628 0 -0.0069151317706064525 -0.0072590687821509339 0 -0.0070989473964992713 -0.0077007563897759628 0 -0.0073144839476072029 -0.0073524435150378598 0 -0.0072083631625468958 -0.007734470425882556 0 -0.0070989473964992713 -0.0077007563897759628 0 -0.0073144839476072029 -0.0073524435150378598 0 -0.0069151317706064525 -0.0072590687821509339 0 -0.0063855307337145053 -0.0072145699450740092 0 -0.0065570250039047023 -0.0075506296916002802 0 -0.0063855307337145053 -0.0072145699450740092 0 -0.0065570250039047023 -0.0075506296916002802 0 -0.0060756514651642305 -0.0076302668485232284 0 -0.0065570250039047023 -0.0075506296916002802 0 -0.0062845068604417634 -0.0079350333630177246 0 -0.0060756514651642305 -0.0076302668485232284 0 -0.007607672824952897 -0.0057975927975707628 0 -0.0079019301788264031 -0.0058256313971211194 0 -0.0062845068604417634 -0.0079350333630177246 0 -0.0072294284143247598 -0.007760328288023562 0 -0.0070989473964992713 -0.0077007563897759628 0 -0.0084261085458990515 -0.0039425580051108697 0 -0.0084230095921749536 -0.0039895981955599099 0 -0.0084310146720183478 -0.0039211944232062229 0 -0.0065570250039047023 -0.0075506296916002802 0 -0.0062845068604417634 -0.0079350333630177246 0 -0.0070989473964992713 -0.0077007563897759628 0 -0.0079019301788264031 -0.0058256313971211194 0 -0.0078967243562527486 -0.0058349217614445661 0 -0.0084439137679071987 -0.003903277593988994 0 -0.0084310146720183478 -0.0039211944232062229 0 -0.008468135631312549 -0.0038722763192052508 0 -0.0079019301788264031 -0.0058256313971211194 0 -0.0081511317863705128 -0.005165009987810559 0 -0.0084439137679071987 -0.003903277593988994 0 -0.0084261085458990515 -0.0039425580051108697 0 -0.0084310146720183478 -0.0039211944232062229 0 -0.0081159976513031345 -0.0055632086829181318 0 -0.0081528909800854289 -0.0055753940251375422 0 -0.0081521006421496379 -0.0055505976135281293 0 -0.0076898835774953161 -0.0070079335301169044 0 -0.0079300395859502569 -0.0074425564091307244 0 -0.0073144839476072029 -0.0073524435150378598 0 -0.0072083631625468958 -0.007734470425882556 0 -0.0079300395859502569 -0.0074425564091307244 0 -0.0073144839476072029 -0.0073524435150378598 0 -0.0079019301788264031 -0.0058256313971211194 0 -0.007959289172169046 -0.0060996212611970713 0 -0.005064758084629915 -0.0072817285416297605 0 -0.0040121540845356211 -0.0074438471692026675 0 -0.0046723290920371047 -0.0070111298814997851 0 -0.0040029682181238367 -0.0071791713693380929 0 -0.003391113671336694 -0.0070804285328054054 0 -0.005064758084629915 -0.0072817285416297605 0 -0.0049600474217205192 -0.0077278609129034772 0 -0.0054017340296872865 -0.0076232237198544462 0 -0.0038461389795517963 -0.0067379179019238589 0 -0.0044131558110992609 -0.0078568638764555162 0 -0.0035263754103766472 -0.00762811376667145 0 -0.005064758084629915 -0.0072817285416297605 0 -0.0038461389795517963 -0.0067379179019238589 0 -0.0044131558110992609 -0.0078568638764555162 0 -0.0038193401437190085 -0.0082746854518691917 0 -0.0049437312320698415 -0.0081906616249793861 0 -0.0044131558110992609 -0.0078568638764555162 0 -0.0035339679274649853 -0.0084919160371378487 0 -0.0044131558110992609 -0.0078568638764555162 0 -0.0035263754103766472 -0.00762811376667145 0 -0.0048210011681525475 -0.0074791746189526911 0 -0.0045921003608172866 -0.0076477819470951369 0 -0.0049437312320698415 -0.0081906616249793861 0 -0.0044131558110992609 -0.0078568638764555162 0 -0.0049600474217205192 -0.0077278609129034772 0 -0.005064758084629915 -0.0072817285416297605 0 -0.0044131558110992609 -0.0078568638764555162 0 -0.0049600474217205192 -0.0077278609129034772 0 -0.0049437312320698415 -0.0081906616249793861 0 -0.0049600474217205192 -0.0077278609129034772 0 -0.0054017340296872865 -0.0076232237198544462 0 -0.0058760265168760328 -0.0076966338872700704 0 -0.0049437312320698415 -0.0081906616249793861 0 -0.0055273512930148838 -0.007766217159459906 0 -0.0049437312320698415 -0.0081906616249793861 0 -0.0055273512930148838 -0.007766217159459906 0 -0.0054017340296872865 -0.0076232237198544462 0 -0.0058760265168760328 -0.0076966338872700704 0 -0.0055273512930148838 -0.007766217159459906 0 -0.0057963036403102398 -0.0076347481982718046 0 -0.0055273512930148838 -0.007766217159459906 0 -0.0054017340296872865 -0.0076232237198544462 0 -0.0057963036403102398 -0.0076347481982718046 0 -0.0054017340296872865 -0.0076232237198544462 0 -0.0057963036403102398 -0.0076347481982718046 0 -0.0057979647037147298 -0.0073890314445476477 0 -0.0058760265168760328 -0.0076966338872700704 0 -0.0062845068604417634 -0.0079350333630177246 0 -0.0060756514651642305 -0.0076302668485232284 0 -0.0076758976399249595 -0.0056140997595140445 0 -0.007607672824952897 -0.0057975927975707628 0 -0.0058760265168760328 -0.0076966338872700704 0 -0.0057963036403102398 -0.0076347481982718046 0 -0.0060756514651642305 -0.0076302668485232284 0 -0.0063855307337145053 -0.0072145699450740092 0 -0.0060756514651642305 -0.0076302668485232284 0 -0.0057979647037147298 -0.0073890314445476477 0 -0.0057963036403102398 -0.0076347481982718046 0 -0.0060756514651642305 -0.0076302668485232284 0 -0.0057979647037147298 -0.0073890314445476477 0 -0.005064758084629915 -0.0072817285416297605 0 -0.0057979647037147298 -0.0073890314445476477 0 -0.0052996270386890263 -0.0069324884347564224 0 -0.005064758084629915 -0.0072817285416297605 0 -0.0054017340296872865 -0.0076232237198544462 0 -0.0057979647037147298 -0.0073890314445476477 0 -0.0057979647037147298 -0.0073890314445476477 0 -0.0052996270386890263 -0.0069324884347564224 0 -0.0059968019742203654 -0.0068476875818910283 0 -0.0052996270386890263 -0.0069324884347564224 0 -0.0059968019742203654 -0.0068476875818910283 0 -0.0055121635709615528 -0.0064337554771621477 0 -0.0063855307337145053 -0.0072145699450740092 0 -0.0057979647037147298 -0.0073890314445476477 0 -0.0059968019742203654 -0.0068476875818910283 0 -0.0059968019742203654 -0.0068476875818910283 0 -0.0062121445851991593 -0.006335114316784401 0 -0.0055121635709615528 -0.0064337554771621477 0 -0.0062121445851991593 -0.006335114316784401 0 -0.0055121635709615528 -0.0064337554771621477 0 -0.0055792419002627415 -0.0058208591035914239 0 -0.0052996270386890263 -0.0069324884347564224 0 -0.0055121635709615528 -0.0064337554771621477 0 -0.0047441241625829165 -0.00654343665870859 0 -0.0055121635709615528 -0.0064337554771621477 0 -0.0047441241625829165 -0.00654343665870859 0 -0.005016902596708484 -0.0060457856690399013 0 -0.0047441241625829165 -0.00654343665870859 0 -0.0044537022933181453 -0.0060264817680982363 0 -0.005016902596708484 -0.0060457856690399013 0 -0.005064758084629915 -0.0072817285416297605 0 -0.0052996270386890263 -0.0069324884347564224 0 -0.0046723290920371047 -0.0070111298814997851 0 -0.0052996270386890263 -0.0069324884347564224 0 -0.0047441241625829165 -0.00654343665870859 0 -0.0046723290920371047 -0.0070111298814997851 0 -0.0047441241625829165 -0.00654343665870859 0 -0.0046723290920371047 -0.0070111298814997851 0 -0.0041336707229482125 -0.0068490727779559153 0 -0.0040121540845356211 -0.0074438471692026675 0 -0.0041336707229482125 -0.0068490727779559153 0 -0.0033727541918298167 -0.0068097339963588462 0 -0.0040121540845356211 -0.0074438471692026675 0 -0.0046723290920371047 -0.0070111298814997851 0 -0.0041336707229482125 -0.0068490727779559153 0 -0.0041336707229482125 -0.0068490727779559153 0 -0.0040906789716823417 -0.0063871673893954655 0 -0.0033727541918298167 -0.0068097339963588462 0 -0.0047441241625829165 -0.00654343665870859 0 -0.0041336707229482125 -0.0068490727779559153 0 -0.0040906789716823417 -0.0063871673893954655 0 -0.0047441241625829165 -0.00654343665870859 0 -0.0040906789716823417 -0.0063871673893954655 0 -0.0044537022933181453 -0.0060264817680982363 0 -0.0040906789716823417 -0.0063871673893954655 0 -0.0044537022933181453 -0.0060264817680982363 0 -0.0038077767737469083 -0.0057892558782468538 0 -0.0043775297388177186 -0.0060529097241001492 0 -0.0040843268560922666 -0.0059864700603528284 0 -0.0040205454363359495 -0.0062409057624676972 0 -0.0044537022933181453 -0.0060264817680982363 0 -0.0047782423839023295 -0.0054069262856202829 0 -0.0038077767737469083 -0.0057892558782468538 0 -0.0046184143896442599 -0.005949516265732562 0 -0.0036996665058540959 -0.0061945577350670218 0 -0.0036661490026259247 -0.005943359989780129 0 -0.0036996665058540959 -0.0061945577350670218 0 -0.0044537022933181453 -0.0060264817680982363 0 -0.005016902596708484 -0.0060457856690399013 0 -0.0047782423839023295 -0.0054069262856202829 0 -0.0043775297388177186 -0.0060529097241001492 0 -0.00426064389284069 -0.0058904279327519045 0 -0.0044336662989348571 -0.005790673386207059 0 -0.0027844122639302123 -0.0059657128833570791 0 -0.0028530927899404167 -0.0057293850664372863 0 -0.0026315865747577527 -0.0058948987728850034 0 -0.0040843268560922666 -0.0059864700603528284 0 -0.00426064389284069 -0.0058904279327519045 0 -0.0041473029486120477 -0.005731440473160215 0 -0.0043775297388177186 -0.0060529097241001492 0 -0.0040843268560922666 -0.0059864700603528284 0 -0.00426064389284069 -0.0058904279327519045 0 -0.0036661490026259247 -0.005943359989780129 0 -0.0037077617263687876 -0.0056159873452169334 0 -0.0063244453566258527 -0.005586954181988622 0 -0.0062121445851991593 -0.006335114316784401 0 -0.0055792419002627415 -0.0058208591035914239 0 -0.0055121635709615528 -0.0064337554771621477 0 -0.005016902596708484 -0.0060457856690399013 0 -0.0055792419002627415 -0.0058208591035914239 0 -0.005016902596708484 -0.0060457856690399013 0 -0.0047782423839023295 -0.0054069262856202829 0 -0.0055792419002627415 -0.0058208591035914239 0 -0.0046184143896442599 -0.005949516265732562 0 -0.0054885216858434286 -0.0059084466513633265 0 -0.0043775297388177186 -0.0060529097241001492 0 -0.0047516713100958638 -0.0058569312163742476 0 -0.0047219235914782521 -0.005850690710315137 0 -0.0047782423839023295 -0.0054069262856202829 0 -0.0055792419002627415 -0.0058208591035914239 0 -0.0057173263628088333 -0.0049631048043488561 0 -0.0043775297388177186 -0.0060529097241001492 0 -0.0047219235914782521 -0.005850690710315137 0 -0.0044336662989348571 -0.005790673386207059 0 -0.00645256057565851 -0.006111109362578606 0 -0.0054885216858434286 -0.0059084466513633265 0 -0.0068401028848082768 -0.0062656000192131767 0 -0.0069180581990205747 -0.006128867219442594 0 -0.0066345778420288078 -0.0060725863219713702 0 -0.0063244453566258527 -0.005586954181988622 0 -0.0055792419002627415 -0.0058208591035914239 0 -0.0057173263628088333 -0.0049631048043488561 0 -0.006124621386040789 -0.0061456397956494548 0 -0.0054885216858434286 -0.0059084466513633265 0 -0.0064929400082542896 -0.0057341951724391264 0 -0.0052904143588222673 -0.0064700219349162601 0 -0.0057739115574009714 -0.0058255790419290167 0 -0.0058785204811976658 -0.0057962381001972563 0 -0.0054885216858434286 -0.0059084466513633265 0 -0.0052904143588222673 -0.0064700219349162601 0 -0.0057739115574009714 -0.0058255790419290167 0 -0.0052652302026924913 -0.0061645715716940452 0 -0.0057739115574009714 -0.0058255790419290167 0 -0.0054081799239037633 -0.0057957008929930276 0 -0.0054512936873095117 -0.0054764416872780403 0 -0.0057739115574009714 -0.0058255790419290167 0 -0.0052652302026924913 -0.0061645715716940452 0 -0.0054081799239037633 -0.0057957008929930276 0 -0.005078905372486067 -0.0063366954722008911 0 -0.0045139167935557634 -0.0058396966148652066 0 -0.0042703090030836478 -0.006170396655422474 0 -0.0053217320571695668 -0.0058923867243979959 0 -0.0044601086474949786 -0.0057780363816034765 0 -0.0052652302026924913 -0.0061645715716940452 0 -0.0054081799239037633 -0.0057957008929930276 0 -0.0049839654922498164 -0.0056537150346397183 0 -0.0052652302026924913 -0.0061645715716940452 0 -0.0045587005849034223 -0.0058770682025099377 0 -0.0049839654922498164 -0.0056537150346397183 0 -0.0052652302026924913 -0.0061645715716940452 0 -0.0051925416406718291 -0.0064445049240122679 0 -0.0045587005849034223 -0.0058770682025099377 0 -0.0052904143588222673 -0.0064700219349162601 0 -0.0052652302026924913 -0.0061645715716940452 0 -0.0051925416406718291 -0.0064445049240122679 0 -0.0054885216858434286 -0.0059084466513633265 0 -0.0053217320571695668 -0.0058923867243979959 0 -0.0053217320571695668 -0.0058923867243979959 0 -0.0048976117959075478 -0.0056971457166371479 0 -0.0045587005849034223 -0.0058770682025099377 0 -0.0049839654922498164 -0.0056537150346397183 0 -0.00445825557825511 -0.00537449243251833 0 -0.0047246423102569471 -0.0050801743111571242 0 -0.0049839654922498164 -0.0056537150346397183 0 -0.00445825557825511 -0.00537449243251833 0 -0.0047246423102569471 -0.0050801743111571242 0 -0.0051341465053372642 -0.0052727669883939274 0 -0.0049839654922498164 -0.0056537150346397183 0 -0.0047246423102569471 -0.0050801743111571242 0 -0.0051341465053372642 -0.0052727669883939274 0 -0.0054427048924567635 -0.0048722603882488981 0 -0.0051341465053372642 -0.0052727669883939274 0 -0.0049839654922498164 -0.0056537150346397183 0 -0.0054512936873095117 -0.0054764416872780403 0 -0.0063352164795506729 -0.0051324647985374235 0 -0.0059042742194352479 -0.0054125396547167835 0 -0.0054427048924567635 -0.0048722603882488981 0 -0.0054081799239037633 -0.0057957008929930276 0 -0.0049839654922498164 -0.0056537150346397183 0 -0.0054512936873095117 -0.0054764416872780403 0 -0.0054512936873095117 -0.0054764416872780403 0 -0.0059042742194352479 -0.0054125396547167835 0 -0.0054427048924567635 -0.0048722603882488981 0 -0.0051341465053372642 -0.0052727669883939274 0 -0.0054512936873095117 -0.0054764416872780403 0 -0.0054427048924567635 -0.0048722603882488981 0 -0.0057739115574009714 -0.0058255790419290167 0 -0.0054512936873095117 -0.0054764416872780403 0 -0.0059042742194352479 -0.0054125396547167835 0 -0.00426064389284069 -0.0058904279327519045 0 -0.0041473029486120477 -0.005731440473160215 0 -0.0044336662989348571 -0.005790673386207059 0 -0.0034575245469409175 -0.0060044019005224061 0 -0.0042703090030836478 -0.006170396655422474 0 -0.0040711235540426671 -0.0057698413304801402 0 -0.0037077617263687876 -0.0056159873452169334 0 -0.0044601086474949786 -0.0057780363816034765 0 -0.0045139167935557634 -0.0058396966148652066 0 -0.0042703090030836478 -0.006170396655422474 0 -0.0040711235540426671 -0.0057698413304801402 0 -0.0034575245469409175 -0.0060044019005224061 0 -0.0040711235540426671 -0.0057698413304801402 0 -0.0039468633862578244 -0.005338888134578031 0 -0.0045587005849034223 -0.0058770682025099377 0 -0.00445825557825511 -0.00537449243251833 0 -0.0039468633862578244 -0.005338888134578031 0 -0.0045139167935557634 -0.0058396966148652066 0 -0.0040711235540426671 -0.0057698413304801402 0 -0.0039468633862578244 -0.005338888134578031 0 -0.0048976117959075478 -0.0056971457166371479 0 -0.0046780074369688644 -0.0055581863805080354 0 -0.0047246423102569471 -0.0050801743111571242 0 -0.00445825557825511 -0.00537449243251833 0 -0.0041839436483418315 -0.0048254761797898432 0 -0.00445825557825511 -0.00537449243251833 0 -0.0039468633862578244 -0.005338888134578031 0 -0.0041839436483418315 -0.0048254761797898432 0 -0.0039468633862578244 -0.005338888134578031 0 -0.003679294001767816 -0.0050770993464933807 0 -0.0041839436483418315 -0.0048254761797898432 0 -0.0032664681812185526 -0.0058544866488608625 0 -0.0035201329433504707 -0.0050635274150095701 0 -0.0028239250044523774 -0.0051434562821214367 0 -0.0034575245469409175 -0.0060044019005224061 0 -0.0039468633862578244 -0.005338888134578031 0 -0.003679294001767816 -0.0050770993464933807 0 -0.0037077617263687876 -0.0056159873452169334 0 -0.0037429903796176753 -0.0051203318508937787 0 -0.0035201329433504707 -0.0050635274150095701 0 -0.0031523500152596797 -0.0045746804752375995 0 -0.0028239250044523774 -0.0051434562821214367 0 -0.0035201329433504707 -0.0050635274150095701 0 -0.0031523500152596797 -0.0045746804752375995 0 -0.003864727537791201 -0.004130177576460262 0 -0.0037429903796176753 -0.0051203318508937787 0 -0.0038086637966037997 -0.0047616610011062127 0 -0.0041839436483418315 -0.0048254761797898432 0 -0.003864727537791201 -0.004130177576460262 0 -0.0048057856372176666 -0.0044707024715728407 0 -0.003679294001767816 -0.0050770993464933807 0 -0.0041839436483418315 -0.0048254761797898432 0 -0.003864727537791201 -0.004130177576460262 0 -0.003864727537791201 -0.004130177576460262 0 -0.0046170225909983598 -0.0032138591983761271 0 -0.0048243626940009466 -0.0038546666630184727 0 -0.0031523500152596797 -0.0045746804752375995 0 -0.003864727537791201 -0.004130177576460262 0 -0.0030265760623159063 -0.0039415272064348573 0 -0.003864727537791201 -0.004130177576460262 0 -0.0030265760623159063 -0.0039415272064348573 0 -0.0033281077744330657 -0.0033767047674686536 0 -0.0033281077744330657 -0.0033767047674686536 0 -0.003995572083974234 -0.0029021799053772874 0 -0.0031170079823438874 -0.0026094016034293108 0 -0.0033281077744330657 -0.0033767047674686536 0 -0.0031170079823438874 -0.0026094016034293108 0 -0.0026168823330484058 -0.0032830709493689913 0 -0.0030265760623159063 -0.0039415272064348573 0 -0.0033281077744330657 -0.0033767047674686536 0 -0.0026168823330484058 -0.0032830709493689913 0 -0.003864727537791201 -0.004130177576460262 0 -0.0033281077744330657 -0.0033767047674686536 0 -0.003995572083974234 -0.0029021799053772874 0 -0.003864727537791201 -0.004130177576460262 0 -0.003995572083974234 -0.0029021799053772874 0 -0.0046170225909983598 -0.0032138591983761271 0 -0.003995572083974234 -0.0029021799053772874 0 -0.0046170225909983598 -0.0032138591983761271 0 -0.0047976749628981718 -0.0020171315838412116 0 -0.003995572083974234 -0.0029021799053772874 0 -0.0037176746595903617 -0.002076108345551842 0 -0.0047976749628981718 -0.0020171315838412116 0 -0.003995572083974234 -0.0029021799053772874 0 -0.0031170079823438874 -0.0026094016034293108 0 -0.0037176746595903617 -0.002076108345551842 0 -0.0057498025337299925 -0.0028777667876402672 0 -0.0057158352090792468 -0.0030683782467125181 0 -0.0066119196906906609 -0.0026183481100849298 0 -0.0057498025337299925 -0.0028777667876402672 0 -0.0053795896961509083 -0.0033101560033754552 0 -0.0054729926041079185 -0.0022422707312942281 0 -0.0057498025337299925 -0.0028777667876402672 0 -0.0057158352090792468 -0.0030683782467125181 0 -0.0053795896961509083 -0.0033101560033754552 0 -0.0076097366626907068 -0.0081616352615914 0 -0.0073711173299410978 -0.0099973260792998644 0 -0.0057498025337299925 -0.0028777667876402672 0 -0.0061419963394687502 -0.0024657708244207911 0 -0.0059502952879480452 -0.0022712682565462329 0 -0.0057498025337299925 -0.0028777667876402672 0 -0.0054729926041079185 -0.0022422707312942281 0 -0.0059318813307006916 -0.0021177241721254121 0 -0.005382172573680415 -0.0032288031938642659 0 -0.0051433936344854221 -0.0027097397077844088 0 -0.0053795896961509083 -0.0033101560033754552 0 -0.0047976749628981718 -0.0020171315838412116 0 -0.0054729926041079185 -0.0022422707312942281 0 -0.0046170225909983598 -0.0032138591983761271 0 -0.0052602256940912535 -0.0030281536586514806 0 -0.0047976749628981718 -0.0020171315838412116 0 -0.0046170225909983598 -0.0032138591983761271 0 -0.0052602256940912535 -0.0030281536586514806 0 -0.0048243626940009466 -0.0038546666630184727 0 -0.005382172573680415 -0.0032288031938642659 0 -0.0057729655575473717 -0.0040600834315374272 0 -0.0053795896961509083 -0.0033101560033754552 0 -0.0059982817809774071 -0.0035976685318616576 0 -0.0059004686459044713 -0.0042714797683563819 0 -0.0057158352090792468 -0.0030683782467125181 0 -0.0059982817809774071 -0.0035976685318616576 0 -0.0063105536396742623 -0.0032209947011998248 0 -0.0057158352090792468 -0.0030683782467125181 0 -0.0053795896961509083 -0.0033101560033754552 0 -0.0059982817809774071 -0.0035976685318616576 0 -0.0052602256940912535 -0.0030281536586514806 0 -0.005779302853512332 -0.0040675285490139315 0 -0.0048243626940009466 -0.0038546666630184727 0 -0.003864727537791201 -0.004130177576460262 0 -0.0048243626940009466 -0.0038546666630184727 0 -0.0048057856372176666 -0.0044707024715728407 0 -0.005779302853512332 -0.0040675285490139315 0 -0.0048243626940009466 -0.0038546666630184727 0 -0.0048057856372176666 -0.0044707024715728407 0 -0.0047246423102569471 -0.0050801743111571242 0 -0.0048057856372176666 -0.0044707024715728407 0 -0.0054427048924567635 -0.0048722603882488981 0 -0.0047246423102569471 -0.0050801743111571242 0 -0.0041839436483418315 -0.0048254761797898432 0 -0.0048057856372176666 -0.0044707024715728407 0 -0.005779302853512332 -0.0040675285490139315 0 -0.0048057856372176666 -0.0044707024715728407 0 -0.0054427048924567635 -0.0048722603882488981 0 -0.0063352164795506729 -0.0051324647985374235 0 -0.005779302853512332 -0.0040675285490139315 0 -0.0054427048924567635 -0.0048722603882488981 0 -0.0063352164795506729 -0.0051324647985374235 0 -0.0059004686459044713 -0.0042714797683563819 0 -0.0064924427845118714 -0.0046065970522401545 0 -0.0059988084351668266 -0.0045394014031880795 0 -0.0057729655575473717 -0.0040600834315374272 0 -0.0063352164795506729 -0.0051324647985374235 0 -0.0064924427845118714 -0.0046065970522401545 0 -0.0068777597360820467 -0.0049799154136413899 0 -0.0068777597360820467 -0.0049799154136413899 0 -0.0069031013122966374 -0.0044885811332630596 0 -0.0073392391256285145 -0.004775326520935751 0 -0.0069031013122966374 -0.0044885811332630596 0 -0.0073392391256285145 -0.004775326520935751 0 -0.007312568680997643 -0.0043138993438207179 0 -0.0064924427845118714 -0.0046065970522401545 0 -0.0068777597360820467 -0.0049799154136413899 0 -0.0069031013122966374 -0.0044885811332630596 0 -0.0069031013122966374 -0.0044885811332630596 0 -0.0069694644281393034 -0.0040263137542824994 0 -0.0064762604412112144 -0.004106411143871589 0 -0.0069031013122966374 -0.0044885811332630596 0 -0.0069694644281393034 -0.0040263137542824994 0 -0.007312568680997643 -0.0043138993438207179 0 -0.0069694644281393034 -0.0040263137542824994 0 -0.007312568680997643 -0.0043138993438207179 0 -0.0075212871444173971 -0.0037958492642169851 0 -0.0069694644281393034 -0.0040263137542824994 0 -0.0064762604412112144 -0.004106411143871589 0 -0.0065746321186044227 -0.0036103469245855114 0 -0.0059982817809774071 -0.0035976685318616576 0 -0.0059004686459044713 -0.0042714797683563819 0 -0.0064762604412112144 -0.004106411143871589 0 -0.0059004686459044713 -0.0042714797683563819 0 -0.0064924427845118714 -0.0046065970522401545 0 -0.0064762604412112144 -0.004106411143871589 0 -0.0064924427845118714 -0.0046065970522401545 0 -0.0069031013122966374 -0.0044885811332630596 0 -0.0064762604412112144 -0.004106411143871589 0 -0.007780421342681608 -0.0050260550654832271 0 -0.0081749452782519383 -0.0046653783007455565 0 -0.0077802778928385352 -0.0045050333071880912 0 -0.007780421342681608 -0.0050260550654832271 0 -0.0077802778928385352 -0.0045050333071880912 0 -0.0073392391256285145 -0.004775326520935751 0 -0.0077802778928385352 -0.0045050333071880912 0 -0.0073392391256285145 -0.004775326520935751 0 -0.007312568680997643 -0.0043138993438207179 0 -0.0077802778928385352 -0.0045050333071880912 0 -0.0078823943199309507 -0.0042347065628868426 0 -0.0076383007087892545 -0.0041193057629922971 0 -0.0077802778928385352 -0.0045050333071880912 0 -0.007312568680997643 -0.0043138993438207179 0 -0.0075212871444173971 -0.0037958492642169851 0 -0.0064799467079885952 -0.0056386441006715821 0 -0.0064550350352112571 -0.0061782817485355399 0 -0.0089244182870731222 -0.007490125716156793 0 -0.0089095632931011533 -0.007798841020530389 0 -0.0087908834145734097 -0.0075851958804908732 0 -0.0081749452782519383 -0.0046653783007455565 0 -0.0078823943199309507 -0.0042347065628868426 0 -0.0081279049471359201 -0.0040732565741974577 0 -0.0082886819220944121 -0.0070922777300690028 0 -0.0080857018706939239 -0.010146195811501757 0 -0.0081749452782519383 -0.0046653783007455565 0 -0.0077802778928385352 -0.0045050333071880912 0 -0.0078823943199309507 -0.0042347065628868426 0 -0.0080857018706939239 -0.010146195811501757 0 -0.0075841921680167013 -0.014541232375938261 0 -0.0068524295030525191 -0.01181291978930506 0 -0.0073190937480890018 -0.012069932879721256 0 -0.0068382438519974022 -0.012628663158180909 0 -0.0078823943199309507 -0.0042347065628868426 0 -0.0081279049471359201 -0.0040732565741974577 0 -0.0077867859849020289 -0.0039203412415372051 0 -0.0080857018706939239 -0.010146195811501757 0 -0.0073213821706433644 -0.0093065589631130402 0 -0.0077867859849020289 -0.0039203412415372051 0 -0.0076383007087892545 -0.0041193057629922971 0 -0.0074843147839282129 -0.0037739505527670321 0 -0.0064550350352112571 -0.0061782817485355399 0 -0.0067771519310704832 -0.0088967434947010513 0 -0.0078823943199309507 -0.0042347065628868426 0 -0.0077867859849020289 -0.0039203412415372051 0 -0.0076383007087892545 -0.0041193057629922971 0 -0.0073213821706433644 -0.0093065589631130402 0 -0.0067771519310704832 -0.0088967434947010513 0 -0.0073913368062539838 -0.012587790694382955 0 -0.0077837079098046066 -0.01232578539676754 0 -0.007997781994123019 -0.012824758826554655 0 -0.0073190937480890018 -0.012069932879721256 0 -0.0073913368062539838 -0.012587790694382955 0 -0.0077837079098046066 -0.01232578539676754 0 -0.0099493585884838989 -0.015760347598194651 0 -0.0099117722902893057 -0.017488425165710635 0 -0.0093330683950092024 -0.017018947120557987 0 -0.0073190937480890018 -0.012069932879721256 0 -0.0073913368062539838 -0.012587790694382955 0 -0.0068382438519974022 -0.012628663158180909 0 -0.0063105536396742623 -0.0032209947011998248 0 -0.0065746321186044227 -0.0036103469245855114 0 -0.006739745660276953 -0.0032439146381917239 0 -0.0059982817809774071 -0.0035976685318616576 0 -0.0063105536396742623 -0.0032209947011998248 0 -0.0065746321186044227 -0.0036103469245855114 0 -0.0059982817809774071 -0.0035976685318616576 0 -0.0064762604412112144 -0.004106411143871589 0 -0.0065746321186044227 -0.0036103469245855114 0 -0.0069694644281393034 -0.0040263137542824994 0 -0.0065746321186044227 -0.0036103469245855114 0 -0.0070418807706016766 -0.0035914954400072469 0 -0.0075212871444173971 -0.0037958492642169851 0 -0.0070418807706016766 -0.0035914954400072469 0 -0.0072372445662170206 -0.003098206521293413 0 -0.0069694644281393034 -0.0040263137542824994 0 -0.0075212871444173971 -0.0037958492642169851 0 -0.0070418807706016766 -0.0035914954400072469 0 -0.0070418807706016766 -0.0035914954400072469 0 -0.006739745660276953 -0.0032439146381917239 0 -0.0072372445662170206 -0.003098206521293413 0 -0.0065746321186044227 -0.0036103469245855114 0 -0.0070418807706016766 -0.0035914954400072469 0 -0.006739745660276953 -0.0032439146381917239 0 -0.006739745660276953 -0.0032439146381917239 0 -0.0072372445662170206 -0.003098206521293413 0 -0.0065311825671691328 -0.0027002156937782355 0 -0.0067771519310704832 -0.0088967434947010513 0 -0.0070851887759639503 -0.0096871463484121973 0 -0.0079845196465808798 -0.0099791466382774009 0 -0.0065041426905166223 -0.0091791470663074651 0 -0.0074294109233092112 -0.0087016241237758436 0 -0.0067771519310704832 -0.0088967434947010513 0 -0.0066002858293458264 -0.011966605185245071 0 -0.0070851887759639503 -0.0096871463484121973 0 -0.0066002858293458264 -0.011966605185245071 0 -0.0057498025337299925 -0.0028777667876402672 0 -0.0066119196906906609 -0.0026183481100849298 0 -0.0061419963394687502 -0.0024657708244207911 0 -0.0057158352090792468 -0.0030683782467125181 0 -0.0063105536396742623 -0.0032209947011998248 0 -0.0065311825671691328 -0.0027002156937782355 0 -0.0070851887759639503 -0.0096871463484121973 0 -0.007287207881035678 -0.010400099817166586 0 -0.0075348760359647809 -0.0082242207445792827 0 -0.0070851887759639503 -0.0096871463484121973 0 -0.0063105536396742623 -0.0032209947011998248 0 -0.006739745660276953 -0.0032439146381917239 0 -0.0065311825671691328 -0.0027002156937782355 0 -0.0066119196906906609 -0.0026183481100849298 0 -0.0061419963394687502 -0.0024657708244207911 0 -0.0062392084358712328 -0.0024171233419567539 0 -0.0073002746053104865 -0.010374489551634471 0 -0.007287207881035678 -0.010400099817166586 0 -0.007287207881035678 -0.010400099817166586 0 -0.0064174690795082683 -0.013869745796923415 0 -0.0058476055737227426 -0.013056784506296285 0 -0.0054050457231721062 -0.013286979529412537 0 -0.0059662718193406253 -0.013353681118981164 0 -0.0061419963394687502 -0.0024657708244207911 0 -0.0062335156204079301 -0.0024206230562105985 0 -0.0059502952879480452 -0.0022712682565462329 0 -0.0068563793670087256 -0.012114749816137964 0 -0.0057176651206005168 -0.01149656895968635 0 -0.0079696551813121588 -0.010344058805418544 0 -0.007287207881035678 -0.010400099817166586 0 -0.0073711173299410978 -0.0099973260792998644 0 -0.0058476055737227426 -0.013056784506296285 0 -0.006026691486730725 -0.013151143234345103 0 -0.0059662718193406253 -0.013353681118981164 0 -0.0064174690795082683 -0.013869745796923415 0 -0.0055445588838064835 -0.017361200239274354 0 -0.0068563793670087256 -0.012114749816137964 0 -0.0083941379631940864 -0.011321935113653866 0 -0.0079696551813121588 -0.010344058805418544 0 -0.0065301610162079313 -0.015802351909346726 0 -0.0065697276537876031 -0.015894606264948669 0 -0.0062972275218560964 -0.015933657474327779 0 -0.0066002858293458264 -0.011966605185245071 0 -0.0064174690795082683 -0.013869745796923415 0 -0.0051041896034079047 -0.022957062549607683 0 -0.0049243320265027887 -0.023376030040287606 0 -0.0046161785238173674 -0.023235559057259103 0 -0.0051041896034079047 -0.022957062549607683 0 -0.0049243320265027887 -0.023376030040287606 0 -0.0053741500564235397 -0.023582431810936864 0 -0.0054050457231721062 -0.013286979529412537 0 -0.0056924342552335857 -0.013968540849982699 0 -0.0059662718193406253 -0.013353681118981164 0 -0.0057897255394514851 -0.013951489286586634 0 -0.0056924342552335857 -0.013968540849982699 0 -0.0059662718193406253 -0.013353681118981164 0 -0.0047564001097228073 -0.017111674497356122 0 -0.006925234054277433 -0.010651336015481258 0 -0.0064174690795082683 -0.013869745796923415 0 -0.0047481234999641421 -0.017944885401333818 0 -0.0068382438519974022 -0.012628663158180909 0 -0.0074146822270000998 -0.013134202760535894 0 -0.0068247739146373495 -0.013447931063295745 0 -0.0075841921680167013 -0.014541232375938261 0 -0.006688466456936255 -0.017536905791476178 0 -0.0099117722902893057 -0.017488425165710635 0 -0.0096161541036613139 -0.018322156413387518 0 -0.0098623055719080505 -0.019179333731282968 0 -0.0073913368062539838 -0.012587790694382955 0 -0.0068382438519974022 -0.012628663158180909 0 -0.0074146822270000998 -0.013134202760535894 0 -0.0067526453713480615 -0.014680156273556956 0 -0.006688466456936255 -0.017536905791476178 0 -0.0070537945771645344 -0.01829521640886814 0 -0.0068375428888010981 -0.018163344767196537 0 -0.0073913368062539838 -0.012587790694382955 0 -0.007997781994123019 -0.012824758826554655 0 -0.0074146822270000998 -0.013134202760535894 0 -0.0065697276537876031 -0.015894606264948669 0 -0.0062972275218560964 -0.015933657474327779 0 -0.0063164771085340602 -0.016037130235828423 0 -0.0066002858293458264 -0.011966605185245071 0 -0.0067526453713480615 -0.014680156273556956 0 -0.0062972275218560964 -0.015933657474327779 0 -0.0063164771085340602 -0.016037130235828423 0 -0.0060627282272158745 -0.016066104839932975 0 -0.0049243320265027887 -0.023376030040287606 0 -0.0046161785238173674 -0.023235559057259103 0 -0.00460772998166235 -0.023730133795821513 0 -0.0046161785238173674 -0.023235559057259103 0 -0.0043902120838730527 -0.023659176266401256 0 -0.00460772998166235 -0.023730133795821513 0 -0.0055445588838064835 -0.017361200239274354 0 -0.0062722799546737987 -0.019132323329560132 0 -0.0063164771085340602 -0.016037130235828423 0 -0.0060617651137308158 -0.01618094369303754 0 -0.0060627282272158745 -0.016066104839932975 0 -0.0046161785238173674 -0.023235559057259103 0 -0.004188453887746804 -0.023498084513495197 0 -0.0043902120838730527 -0.023659176266401256 0 -0.0066552213871310557 -0.017940236139186778 0 -0.0061444378997389977 -0.018201439596000034 0 -0.0066546708328577304 -0.01909649375655419 0 -0.0062722799546737987 -0.019132323329560132 0 -0.006688466456936255 -0.017536905791476178 0 -0.0065113256735241133 -0.019402643063590505 0 -0.0068375428888010981 -0.018163344767196537 0 -0.0065113256735241133 -0.019402643063590505 0 -0.0062722799546737987 -0.019132323329560132 0 -0.0096161541036613139 -0.018322156413387518 0 -0.0096009024834472732 -0.01931330284055937 0 -0.0098623055719080505 -0.019179333731282968 0 -0.0061444378997389977 -0.018201439596000034 0 -0.0066546708328577304 -0.01909649375655419 0 -0.0061294989098468885 -0.019367000981938432 0 -0.0068375428888010981 -0.018163344767196537 0 -0.006688466456936255 -0.017536905791476178 0 -0.0041266292379464366 -0.023539042235423198 0 -0.0042123141200640394 -0.023794772258632951 0 -0.0041638962438746057 -0.024109630682737328 0 -0.0065113256735241133 -0.019402643063590505 0 -0.0065152493489414268 -0.022013823408194483 0 -0.0062722799546737987 -0.019132323329560132 0 -0.0061188933318141571 -0.020247332544664293 0 -0.004188453887746804 -0.023498084513495197 0 -0.0042123141200640394 -0.023794772258632951 0 -0.0043902120838730527 -0.023659176266401256 0 -0.0041266292379464366 -0.023539042235423198 0 -0.0042085975538290092 -0.023495374378423077 0 -0.0042123141200640394 -0.023794772258632951 0 -0.0042123141200640394 -0.023794772258632951 0 -0.0043902120838730527 -0.023659176266401256 0 -0.0043967716728902399 -0.023973225834063947 0 -0.0043902120838730527 -0.023659176266401256 0 -0.00460772998166235 -0.023730133795821513 0 -0.0043967716728902399 -0.023973225834063947 0 -0.0046145855389944854 -0.02420501558008286 0 -0.0043967716728902399 -0.023973225834063947 0 -0.0044115352914789715 -0.024303039287802423 0 -0.00460772998166235 -0.023730133795821513 0 -0.0046145855389944854 -0.02420501558008286 0 -0.0048153365754337726 -0.024077256573673742 0 -0.00460772998166235 -0.023730133795821513 0 -0.0046145855389944854 -0.02420501558008286 0 -0.0043967716728902399 -0.023973225834063947 0 -0.0043967716728902399 -0.023973225834063947 0 -0.0041638962438746057 -0.024109630682737328 0 -0.0044115352914789715 -0.024303039287802423 0 -0.0042123141200640394 -0.023794772258632951 0 -0.0043967716728902399 -0.023973225834063947 0 -0.0041638962438746057 -0.024109630682737328 0 -0.0051386194415346063 -0.023743762876271769 0 -0.0049402567603431822 -0.023861102702726511 0 -0.0050404270334798475 -0.024087415656433537 0 -0.0049164724250614937 -0.024014289654411818 0 -0.004943998105727712 -0.024135591516749072 0 -0.0049658528262311935 -0.024053085028009322 0 -0.0047592006942778001 -0.01916819606614887 0 -0.0043533866663703763 -0.02230847707074823 0 -0.0047592006942778001 -0.01916819606614887 0 -0.0054515305456011541 -0.021999202450958377 0 -0.0049164724250614937 -0.024014289654411818 0 -0.0049284788696238382 -0.023980438201602339 0 -0.0049658528262311935 -0.024053085028009322 0 -0.0047592006942778001 -0.01916819606614887 0 -0.0047564001097228073 -0.017111674497356122 0 -0.0036369552835013473 -0.014980455912902759 0 -0.0024562148612647357 -0.01901102408316302 0 -0.0051854838320822723 -0.018548920748950509 0 -0.0047592006942778001 -0.01916819606614887 0 -0.0047481234999641421 -0.017944885401333818 0 -0.0051386194415346063 -0.023743762876271769 0 -0.0051028001038784547 -0.023666072245799436 0 -0.0049402567603431822 -0.023861102702726511 0 -0.0047564001097228073 -0.017111674497356122 0 -0.0047481234999641421 -0.017944885401333818 0 -0.00460772998166235 -0.023730133795821513 0 -0.0049402567603431822 -0.023861102702726511 0 -0.0048153365754337726 -0.024077256573673742 0 -0.00460772998166235 -0.023730133795821513 0 -0.0051028001038784547 -0.023666072245799436 0 -0.0049402567603431822 -0.023861102702726511 0 -0.0049243320265027887 -0.023376030040287606 0 -0.00460772998166235 -0.023730133795821513 0 -0.0053741500564235397 -0.023582431810936864 0 -0.0043712850216457389 -0.019690809839309438 0 -0.0047481234999641421 -0.017944885401333818 0 -0.0048153365754337726 -0.024077256573673742 0 -0.0050404270334798475 -0.024087415656433537 0 -0.0048699182994611252 -0.024445160333165645 0 -0.0049402567603431822 -0.023861102702726511 0 -0.0048153365754337726 -0.024077256573673742 0 -0.0050404270334798475 -0.024087415656433537 0 -0.0049244326354367417 -0.024080415076010227 0 -0.0048807592254979442 -0.024261359079457243 0 -0.0049861524236250532 -0.024241292261309069 0 -0.0048807592254979442 -0.024261359079457243 0 -0.0049861524236250532 -0.024241292261309069 0 -0.0049450839991851637 -0.024356462972039476 0 -0.004943998105727712 -0.024135591516749072 0 -0.0050580121204146684 -0.024184674627308798 0 -0.0050182543784318768 -0.024341319243949128 0 -0.0054515305456011541 -0.021999202450958377 0 -0.0055973322009277623 -0.022716030693020566 0 -0.0050580121204146684 -0.024184674627308798 0 -0.0050165488530545333 -0.024103793990974298 0 -0.0051001199055449777 -0.024111551756027999 0 -0.004943998105727712 -0.024135591516749072 0 -0.0050165488530545333 -0.024103793990974298 0 -0.0049658528262311935 -0.024053085028009322 0 -0.004943998105727712 -0.024135591516749072 0 -0.0050580121204146684 -0.024184674627308798 0 -0.0050165488530545333 -0.024103793990974298 0 -0.0050165488530545333 -0.024103793990974298 0 -0.0049658528262311935 -0.024053085028009322 0 -0.0050258976334557077 -0.024038755133258378 0 -0.0049284788696238382 -0.023980438201602339 0 -0.0050258976334557077 -0.024038755133258378 0 -0.0050978640218949569 -0.023980601157549044 0 -0.0050165488530545333 -0.024103793990974298 0 -0.0050258976334557077 -0.024038755133258378 0 -0.0051001199055449777 -0.024111551756027999 0 -0.0049284788696238382 -0.023980438201602339 0 -0.0049658528262311935 -0.024053085028009322 0 -0.0050258976334557077 -0.024038755133258378 0 -0.0050258976334557077 -0.024038755133258378 0 -0.0051116828944161299 -0.024036571303940088 0 -0.0051001199055449777 -0.024111551756027999 0 -0.0050258976334557077 -0.024038755133258378 0 -0.0051116828944161299 -0.024036571303940088 0 -0.0050978640218949569 -0.023980601157549044 0 -0.0051116828944161299 -0.024036571303940088 0 -0.0051147712297004329 -0.023999571679157693 0 -0.0050978640218949569 -0.023980601157549044 0 -0.0051116828944161299 -0.024036571303940088 0 -0.0051001199055449777 -0.024111551756027999 0 -0.0051285159256691179 -0.024091524295344453 0 -0.0051001199055449777 -0.024111551756027999 0 -0.0051607824474352365 -0.024154089128779699 0 -0.0051285159256691179 -0.024091524295344453 0 -0.0050580121204146684 -0.024184674627308798 0 -0.0051001199055449777 -0.024111551756027999 0 -0.005139133142809291 -0.024193242441161424 0 -0.0051001199055449777 -0.024111551756027999 0 -0.005139133142809291 -0.024193242441161424 0 -0.0051607824474352365 -0.024154089128779699 0 -0.005139133142809291 -0.024193242441161424 0 -0.0051607824474352365 -0.024154089128779699 0 -0.0052053899232896569 -0.024177318074360105 0 -0.0051607824474352365 -0.024154089128779699 0 -0.0051932389127865835 -0.024181700916505514 0 -0.0052053899232896569 -0.024177318074360105 0 -0.0051607824474352365 -0.024154089128779699 0 -0.0051932389127865835 -0.024181700916505514 0 -0.0051422812477164657 -0.024139407128282473 0 -0.0051932389127865835 -0.024181700916505514 0 -0.0051712857422014681 -0.024265829862783278 0 -0.0051422812477164657 -0.024139407128282473 0 -0.0051712857422014681 -0.024265829862783278 0 -0.0051422812477164657 -0.024139407128282473 0 -0.0051126213491602766 -0.024062308172803842 0 -0.0051422812477164657 -0.024139407128282473 0 -0.0051126213491602766 -0.024062308172803842 0 -0.0051181371661520089 -0.024044764207517826 0 -0.0051422812477164657 -0.024139407128282473 0 -0.0051285159256691179 -0.024091524295344453 0 -0.0051181371661520089 -0.024044764207517826 0 -0.0051607824474352365 -0.024154089128779699 0 -0.0051422812477164657 -0.024139407128282473 0 -0.0051285159256691179 -0.024091524295344453 0 -0.0051712857422014681 -0.024265829862783278 0 -0.0051126213491602766 -0.024062308172803842 0 -0.0050504895841854709 -0.023892549797357367 0 -0.0053619862761055802 -0.022781388248422654 0 -0.0049440703479301622 -0.023420157386645473 0 -0.0050504895841854709 -0.023892549797357367 0 -0.0051490423574332145 -0.02322249148447959 0 -0.0050563221171231786 -0.023612348881445731 0 -0.0046958073862376571 -0.022918847548487505 0 -0.0049641082413023237 -0.023033868125628517 0 -0.0047276546713822315 -0.023187951960781144 0 -0.0046958073862376571 -0.022918847548487505 0 -0.0049812527835007116 -0.022780601692592526 0 -0.0047053188157476031 -0.022648166236993478 0 -0.0046958073862376571 -0.022918847548487505 0 -0.0049812527835007116 -0.022780601692592526 0 -0.0049641082413023237 -0.023033868125628517 0 -0.0053619862761055802 -0.022781388248422654 0 -0.0049641082413023237 -0.023033868125628517 0 -0.0049440703479301622 -0.023420157386645473 0 -0.0053619862761055802 -0.022781388248422654 0 -0.0049812527835007116 -0.022780601692592526 0 -0.0049641082413023237 -0.023033868125628517 0 -0.0049641082413023237 -0.023033868125628517 0 -0.0049440703479301622 -0.023420157386645473 0 -0.0047276546713822315 -0.023187951960781144 0 -0.0049440703479301622 -0.023420157386645473 0 -0.0047276546713822315 -0.023187951960781144 0 -0.0045925389777443379 -0.023439520080683486 0 -0.0049440703479301622 -0.023420157386645473 0 -0.0049415223997615453 -0.023763138833397136 0 -0.0050504895841854709 -0.023892549797357367 0 -0.0049440703479301622 -0.023420157386645473 0 -0.0047142679878567394 -0.023615846214296368 0 -0.0045925389777443379 -0.023439520080683486 0 -0.0049440703479301622 -0.023420157386645473 0 -0.0047142679878567394 -0.023615846214296368 0 -0.0049415223997615453 -0.023763138833397136 0 -0.0051126213491602766 -0.024062308172803842 0 -0.0050504895841854709 -0.023892549797357367 0 -0.0050993437933421837 -0.023990699701787487 0 -0.0050504895841854709 -0.023892549797357367 0 -0.0050951714631387417 -0.023966672443139055 0 -0.0050993437933421837 -0.023990699701787487 0 -0.0051116828944161299 -0.024036571303940088 0 -0.0051285159256691179 -0.024091524295344453 0 -0.0051181371661520089 -0.024044764207517826 0 -0.0051116828944161299 -0.024036571303940088 0 -0.0051181371661520089 -0.024044764207517826 0 -0.0051147712297004329 -0.023999571679157693 0 -0.0051181371661520089 -0.024044764207517826 0 -0.0050993437933421837 -0.023990699701787487 0 -0.0051147712297004329 -0.023999571679157693 0 -0.0051126213491602766 -0.024062308172803842 0 -0.0051181371661520089 -0.024044764207517826 0 -0.0050993437933421837 -0.023990699701787487 0 -0.0050951714631387417 -0.023966672443139055 0 -0.0050993437933421837 -0.023990699701787487 0 -0.0051147712297004329 -0.023999571679157693 0 -0.0036208673197707904 -0.001106931787995368 0 -0.0047976749628981718 -0.0020171315838412116 0 -0.0049527495323844926 -0.00093431639888238787 0 -0.0041718504913574438 -0.013484063749951005 0 -0.0050170058546050601 -0.014493413432451059 0 -0.0051147712297004329 -0.023999571679157693 0 -0.0051070852726754689 -0.024036328202617759 0 -0.0050978640218949569 -0.023980601157549044 0 -0.0050951714631387417 -0.023966672443139055 0 -0.0051147712297004329 -0.023999571679157693 0 -0.0051070852726754689 -0.024036328202617759 0 -0.0036208673197707904 -0.001106931787995368 0 -0.0030429414723423371 -0.0017740291734175575 0 -0.0022893262807796772 -0.0012600271343039232 0 -0.0050504895841854709 -0.023892549797357367 0 -0.0051070852726754689 -0.024036328202617759 0 -0.0046745978172974146 -0.024124995425947687 0 -0.0050504895841854709 -0.023892549797357367 0 -0.0050951714631387417 -0.023966672443139055 0 -0.0051070852726754689 -0.024036328202617759 0 -0.0031170079823438874 -0.0026094016034293108 0 -0.0037176746595903617 -0.002076108345551842 0 -0.0030429414723423371 -0.0017740291734175575 0 -0.0036208673197707904 -0.001106931787995368 0 -0.0037176746595903617 -0.002076108345551842 0 -0.0030429414723423371 -0.0017740291734175575 0 -0.0036208673197707904 -0.001106931787995368 0 -0.0037176746595903617 -0.002076108345551842 0 -0.0047976749628981718 -0.0020171315838412116 0 -0.0047976749628981718 -0.0020171315838412116 0 -0.0054108499465857296 -0.0015763263138084984 0 -0.0049527495323844926 -0.00093431639888238787 0 -0.0047976749628981718 -0.0020171315838412116 0 -0.0054729926041079185 -0.0022422707312942281 0 -0.0054108499465857296 -0.0015763263138084984 0 -0.0054729926041079185 -0.0022422707312942281 0 -0.0059318813307006916 -0.0021177241721254121 0 -0.0060208759997273566 -0.0017565746693816141 0 -0.0073711173299410978 -0.0099973260792998644 0 -0.006925234054277433 -0.010651336015481258 0 -0.0060208759997273566 -0.0017565746693816141 0 -0.0054108499465857296 -0.0015763263138084984 0 -0.0056718689479018213 -0.0012533099867803655 0 -0.0054729926041079185 -0.0022422707312942281 0 -0.0060208759997273566 -0.0017565746693816141 0 -0.0054108499465857296 -0.0015763263138084984 0 -0.0063062715408847879 -0.00075089796852509686 0 -0.0060208759997273566 -0.0017565746693816141 0 -0.0056718689479018213 -0.0012533099867803655 0 -0.0063062715408847879 -0.00075089796852509686 0 -0.0056718689479018213 -0.0012533099867803655 0 -0.0049527495323844926 -0.00093431639888238787 0 -0.0054108499465857296 -0.0015763263138084984 0 -0.0056718689479018213 -0.0012533099867803655 0 -0.0049527495323844926 -0.00093431639888238787 0 -0.0047564001097228073 -0.017111674497356122 0 -0.0050170058546050601 -0.014493413432451059 0 -0.00515696708492155 -0.010886059745643205 0 -0.0060131901728346536 -0.012267459555604489 0 -0.0064508676725566266 -0.010891972420657901 0 -0.0060131901728346536 -0.012267459555604489 0 -0.0071741180138724025 -0.012299935116621093 0 -0.0064508676725566266 -0.010891972420657901 0 -0.0071741180138724025 -0.012299935116621093 0 -0.0078640703975638993 -0.01084947556897262 0 -0.0089037792710479242 -0.012739107049960565 0 -0.0071741180138724025 -0.012299935116621093 0 -0.0078640703975638993 -0.01084947556897262 0 -0.0064508676725566266 -0.010891972420657901 0 -0.0078640703975638993 -0.01084947556897262 0 -0.0064508676725566266 -0.010891972420657901 0 -0.0068891454419930387 -0.0095526692129614 0 -0.0078640703975638993 -0.01084947556897262 0 -0.0068891454419930387 -0.0095526692129614 0 -0.0079860735363282576 -0.0089914531915872512 0 -0.00515696708492155 -0.010886059745643205 0 -0.0064508676725566266 -0.010891972420657901 0 -0.0057474197719633857 -0.0096820382281988734 0 -0.0064508676725566266 -0.010891972420657901 0 -0.0057474197719633857 -0.0096820382281988734 0 -0.0068891454419930387 -0.0095526692129614 0 -0.0057474197719633857 -0.0096820382281988734 0 -0.0063826261815198501 -0.0084068662800728042 0 -0.0068891454419930387 -0.0095526692129614 0 -0.0052251868372574619 -0.0087643905204517324 0 -0.0057474197719633857 -0.0096820382281988734 0 -0.0063826261815198501 -0.0084068662800728042 0 -0.0063826261815198501 -0.0084068662800728042 0 -0.0076110516636732463 -0.0080524286145875965 0 -0.0068891454419930387 -0.0095526692129614 0 -0.007154651228203553 -0.0071123615462753143 0 -0.0063826261815198501 -0.0084068662800728042 0 -0.0076110516636732463 -0.0080524286145875965 0 -0.0076110516636732463 -0.0080524286145875965 0 -0.0068891454419930387 -0.0095526692129614 0 -0.0079860735363282576 -0.0089914531915872512 0 -0.0079860735363282576 -0.0089914531915872512 0 -0.0082068666481112072 -0.0079351185968875599 0 -0.0082937084277407095 -0.0083543107410818437 0 -0.0086027660436575268 -0.0096886507002525348 0 -0.0091248229477200998 -0.0099360360899129301 0 -0.0076110516636732463 -0.0080524286145875965 0 -0.0079860735363282576 -0.0089914531915872512 0 -0.0082068666481112072 -0.0079351185968875599 0 -0.0082068666481112072 -0.0079351185968875599 0 -0.0082937084277407095 -0.0083543107410818437 0 -0.0084504114783988324 -0.0079450243153238818 0 -0.010423609484574855 -0.0094065926389460749 0 -0.0095755849147590218 -0.010941893547593635 0 -0.011347678215528531 -0.010940492375495423 0 -0.0079860735363282576 -0.0089914531915872512 0 -0.010423609484574855 -0.0094065926389460749 0 -0.0095755849147590218 -0.010941893547593635 0 -0.0078640703975638993 -0.01084947556897262 0 -0.0079860735363282576 -0.0089914531915872512 0 -0.0095755849147590218 -0.010941893547593635 0 -0.0078640703975638993 -0.01084947556897262 0 -0.0095755849147590218 -0.010941893547593635 0 -0.0089037792710479242 -0.012739107049960565 0 -0.0095755849147590218 -0.010941893547593635 0 -0.010673489071908359 -0.012198402527384333 0 -0.011347678215528531 -0.010940492375495423 0 -0.0095755849147590218 -0.010941893547593635 0 -0.010673489071908359 -0.012198402527384333 0 -0.0089037792710479242 -0.012739107049960565 0 -0.01185411032807018 -0.012034100546646309 0 -0.01293020196944707 -0.01121498933750778 0 -0.011347678215528531 -0.010940492375495423 0 -0.010673489071908359 -0.012198402527384333 0 -0.01185411032807018 -0.012034100546646309 0 -0.011347678215528531 -0.010940492375495423 0 -0.010673489071908359 -0.012198402527384333 0 -0.01185411032807018 -0.012034100546646309 0 -0.011486505509805844 -0.01290836437534767 0 -0.01185411032807018 -0.012034100546646309 0 -0.012865181515493826 -0.012656122183722368 0 -0.01293020196944707 -0.01121498933750778 0 -0.01185411032807018 -0.012034100546646309 0 -0.012865181515493826 -0.012656122183722368 0 -0.011486505509805844 -0.01290836437534767 0 -0.01116151034051008 -0.014700210321792598 0 -0.011939591270583109 -0.013846822119019131 0 -0.011588035184029486 -0.014840992161916054 0 -0.010903427484008269 -0.013593712955443968 0 -0.0098832054261944989 -0.013497478737586239 0 -0.012865181515493826 -0.012656122183722368 0 -0.01293020196944707 -0.01121498933750778 0 -0.01434603121638507 -0.011046586876771444 0 -0.0098342852132362723 -0.010702282946509833 0 -0.0095710389251321398 -0.012169526418196901 0 -0.01293020196944707 -0.01121498933750778 0 -0.012564616870184427 -0.0098180580600568754 0 -0.01434603121638507 -0.011046586876771444 0 -0.012564616870184427 -0.0098180580600568754 0 -0.014663694783179847 -0.01017654086530939 0 -0.01434603121638507 -0.011046586876771444 0 -0.010423609484574855 -0.0094065926389460749 0 -0.012564616870184427 -0.0098180580600568754 0 -0.011347678215528531 -0.010940492375495423 0 -0.01293020196944707 -0.01121498933750778 0 -0.012564616870184427 -0.0098180580600568754 0 -0.011347678215528531 -0.010940492375495423 0 -0.0091248229477200998 -0.0099360360899129301 0 -0.0098342852132362723 -0.010702282946509833 0 -0.0082937084277407095 -0.0083543107410818437 0 -0.0085200867503409626 -0.0080567346358205172 0 -0.0084504114783988324 -0.0079450243153238818 0 -0.0084504114783988324 -0.0079450243153238818 0 -0.0084704056180060043 -0.0075972872224131767 0 -0.0085799120615983101 -0.0076541571316331393 0 -0.0082068666481112072 -0.0079351185968875599 0 -0.0084504114783988324 -0.0079450243153238818 0 -0.0084704056180060043 -0.0075972872224131767 0 -0.0084504114783988324 -0.0079450243153238818 0 -0.0085799120615983101 -0.0076541571316331393 0 -0.0086006311673838456 -0.0078296159675738022 0 -0.0086673362380571394 -0.0074088494328088412 0 -0.0085799120615983101 -0.0076541571316331393 0 -0.008651634843827501 -0.0076376335787759755 0 -0.0085799120615983101 -0.0076541571316331393 0 -0.008651634843827501 -0.0076376335787759755 0 -0.0086006311673838456 -0.0078296159675738022 0 -0.0085200867503409626 -0.0080567346358205172 0 -0.008710751267950045 -0.0078971222856825275 0 -0.0087689299225056517 -0.0080277243346099821 0 -0.0085200867503409626 -0.0080567346358205172 0 -0.0084504114783988324 -0.0079450243153238818 0 -0.0086006311673838456 -0.0078296159675738022 0 -0.008651634843827501 -0.0076376335787759755 0 -0.0086006311673838456 -0.0078296159675738022 0 -0.0087162262395149553 -0.0077010716413249422 0 -0.0085200867503409626 -0.0080567346358205172 0 -0.0086006311673838456 -0.0078296159675738022 0 -0.008710751267950045 -0.0078971222856825275 0 -0.008710751267950045 -0.0078971222856825275 0 -0.0088655665052570724 -0.0078053219238452482 0 -0.0087689299225056517 -0.0080277243346099821 0 -0.0083284068673121579 -0.014870783296491054 0 -0.0084331142036428493 -0.015970001984803448 0 -0.0079530342795800912 -0.015889658935329874 0 -0.0088490560060405024 -0.010160651417320641 0 -0.0095710389251321398 -0.012169526418196901 0 -0.0087490298464918664 -0.0076991096074228941 0 -0.0087162262395149553 -0.0077010716413249422 0 -0.0087096835756063223 -0.0074930772934056061 0 -0.0088490560060405024 -0.010160651417320641 0 -0.0087618646163991169 -0.010050014549861363 0 -0.008710751267950045 -0.0078971222856825275 0 -0.0088655665052570724 -0.0078053219238452482 0 -0.0087162262395149553 -0.0077010716413249422 0 -0.0086006311673838456 -0.0078296159675738022 0 -0.008710751267950045 -0.0078971222856825275 0 -0.0087162262395149553 -0.0077010716413249422 0 -0.0085991376731402013 -0.0071625114430526613 0 -0.0086798108656413707 -0.007492832473252148 0 -0.0087096835756063223 -0.0074930772934056061 0 -0.008651634843827501 -0.0076376335787759755 0 -0.0087162262395149553 -0.0077010716413249422 0 -0.0086798108656413707 -0.007492832473252148 0 -0.0088490560060405024 -0.010160651417320641 0 -0.0089730221242021024 -0.0096298115415972309 0 -0.0087162262395149553 -0.0077010716413249422 0 -0.0086798108656413707 -0.007492832473252148 0 -0.0087096835756063223 -0.0074930772934056061 0 -0.0086673362380571394 -0.0074088494328088412 0 -0.008651634843827501 -0.0076376335787759755 0 -0.0086798108656413707 -0.007492832473252148 0 -0.0089244182870731222 -0.007490125716156793 0 -0.0087557633319032477 -0.007321370792137123 0 -0.0087908834145734097 -0.0075851958804908732 0 -0.0087557633319032477 -0.007321370792137123 0 -0.0087096835756063223 -0.0074930772934056061 0 -0.0087908834145734097 -0.0075851958804908732 0 -0.0085991376731402013 -0.0071625114430526613 0 -0.0087557633319032477 -0.007321370792137123 0 -0.0087096835756063223 -0.0074930772934056061 0 -0.0089095632931011533 -0.007798841020530389 0 -0.008639694566339064 -0.0076357013850062699 0 -0.0087908834145734097 -0.0075851958804908732 0 -0.0099493585884838989 -0.015760347598194651 0 -0.0083284068673121579 -0.014870783296491054 0 -0.008964326407693339 -0.015865107650228215 0 -0.0080857018706939239 -0.010146195811501757 0 -0.0088490560060405024 -0.010160651417320641 0 -0.008639694566339064 -0.0076357013850062699 0 -0.0087096835756063223 -0.0074930772934056061 0 -0.0087908834145734097 -0.0075851958804908732 0 -0.0083284068673121579 -0.014870783296491054 0 -0.008964326407693339 -0.015865107650228215 0 -0.0084331142036428493 -0.015970001984803448 0 -0.0099493585884838989 -0.015760347598194651 0 -0.0089670306517636873 -0.016561200851086064 0 -0.008964326407693339 -0.015865107650228215 0 -0.0099493585884838989 -0.015760347598194651 0 -0.0089670306517636873 -0.016561200851086064 0 -0.0093330683950092024 -0.017018947120557987 0 -0.0089670306517636873 -0.016561200851086064 0 -0.0086569474502222535 -0.016301891761938959 0 -0.008964326407693339 -0.015865107650228215 0 -0.0085861612141060525 -0.016679397273876687 0 -0.0089670306517636873 -0.016561200851086064 0 -0.0086569474502222535 -0.016301891761938959 0 -0.0086569474502222535 -0.016301891761938959 0 -0.008964326407693339 -0.015865107650228215 0 -0.0084331142036428493 -0.015970001984803448 0 -0.0095112489126177018 -0.012234485537930752 0 -0.0095710389251321398 -0.012169526418196901 0 -0.0084331142036428493 -0.015970001984803448 0 -0.0079598705360249336 -0.015896832402694377 0 -0.0081511876949048358 -0.016166233623522926 0 -0.0079598705360249336 -0.015896832402694377 0 -0.0078919564585527603 -0.016369418813903455 0 -0.0081511876949048358 -0.016166233623522926 0 -0.0079598705360249336 -0.015896832402694377 0 -0.0078919564585527603 -0.016369418813903455 0 -0.0077182024987314758 -0.016558359518832902 0 -0.0095710389251321398 -0.012169526418196901 0 -0.0098832054261944989 -0.013497478737586239 0 -0.0078919564585527603 -0.016369418813903455 0 -0.0077145355638092092 -0.016564887732034017 0 -0.008028011382823521 -0.016651676882250173 0 -0.0098335906406483726 -0.013554863943605585 0 -0.0098832054261944989 -0.013497478737586239 0 -0.0086569474502222535 -0.016301891761938959 0 -0.0084331142036428493 -0.015970001984803448 0 -0.0083340717108105027 -0.016432364089126215 0 -0.0084331142036428493 -0.015970001984803448 0 -0.0081511876949048358 -0.016166233623522926 0 -0.0083340717108105027 -0.016432364089126215 0 -0.0078919564585527603 -0.016369418813903455 0 -0.0081511876949048358 -0.016166233623522926 0 -0.0083340717108105027 -0.016432364089126215 0 -0.008028011382823521 -0.016651676882250173 0 -0.0083340717108105027 -0.016432364089126215 0 -0.0082595449740052486 -0.016892835773452214 0 -0.0078919564585527603 -0.016369418813903455 0 -0.008028011382823521 -0.016651676882250173 0 -0.0083340717108105027 -0.016432364089126215 0 -0.0085861612141060525 -0.016679397273876687 0 -0.0086569474502222535 -0.016301891761938959 0 -0.0083340717108105027 -0.016432364089126215 0 -0.0085861612141060525 -0.016679397273876687 0 -0.0083340717108105027 -0.016432364089126215 0 -0.0082595449740052486 -0.016892835773452214 0 -0.0082595449740052486 -0.016892835773452214 0 -0.0081095302139585768 -0.017319327153516771 0 -0.0086648296094477429 -0.017246071711317777 0 -0.0077145355638092092 -0.016564887732034017 0 -0.0076987609434215482 -0.017368603681956089 0 -0.0072206369344306213 -0.01799714756102315 0 -0.0098832054261944989 -0.013497478737586239 0 -0.009048408658334053 -0.016108865497226649 0 -0.0085861612141060525 -0.016679397273876687 0 -0.0082595449740052486 -0.016892835773452214 0 -0.0086648296094477429 -0.017246071711317777 0 -0.008028011382823521 -0.016651676882250173 0 -0.0082595449740052486 -0.016892835773452214 0 -0.0079562578307382833 -0.016962775488148299 0 -0.0082595449740052486 -0.016892835773452214 0 -0.0079562578307382833 -0.016962775488148299 0 -0.0081095302139585768 -0.017319327153516771 0 -0.0077145355638092092 -0.016564887732034017 0 -0.0079562578307382833 -0.016962775488148299 0 -0.0076987609434215482 -0.017368603681956089 0 -0.0077145355638092092 -0.016564887732034017 0 -0.008028011382823521 -0.016651676882250173 0 -0.0079562578307382833 -0.016962775488148299 0 -0.0079562578307382833 -0.016962775488148299 0 -0.0076987609434215482 -0.017368603681956089 0 -0.0081095302139585768 -0.017319327153516771 0 -0.0076987609434215482 -0.017368603681956089 0 -0.0076329781408255547 -0.017790658541665276 0 -0.0072206369344306213 -0.01799714756102315 0 -0.0076987609434215482 -0.017368603681956089 0 -0.0078845643580720444 -0.017688316702679778 0 -0.0081095302139585768 -0.017319327153516771 0 -0.0076987609434215482 -0.017368603681956089 0 -0.0078845643580720444 -0.017688316702679778 0 -0.0076329781408255547 -0.017790658541665276 0 -0.0082461794035624866 -0.017809006085544161 0 -0.0086745955489250706 -0.017803077172356307 0 -0.0086648296094477429 -0.017246071711317777 0 -0.0081095302139585768 -0.017319327153516771 0 -0.0082461794035624866 -0.017809006085544161 0 -0.0086648296094477429 -0.017246071711317777 0 -0.0078845643580720444 -0.017688316702679778 0 -0.0081095302139585768 -0.017319327153516771 0 -0.0082461794035624866 -0.017809006085544161 0 -0.0093330683950092024 -0.017018947120557987 0 -0.0086648296094477429 -0.017246071711317777 0 -0.0091497522346710262 -0.017822715103780636 0 -0.0086745955489250706 -0.017803077172356307 0 -0.0086648296094477429 -0.017246071711317777 0 -0.0091497522346710262 -0.017822715103780636 0 -0.0099117722902893057 -0.017488425165710635 0 -0.0093330683950092024 -0.017018947120557987 0 -0.0091497522346710262 -0.017822715103780636 0 -0.0085861612141060525 -0.016679397273876687 0 -0.0089670306517636873 -0.016561200851086064 0 -0.0086648296094477429 -0.017246071711317777 0 -0.0089670306517636873 -0.016561200851086064 0 -0.0093330683950092024 -0.017018947120557987 0 -0.0086648296094477429 -0.017246071711317777 0 -0.0089947567672040568 -0.018508909223618891 0 -0.0086303223727835707 -0.01822815432744259 0 -0.0085390281773187922 -0.018677640350354817 0 -0.0089947567672040568 -0.018508909223618891 0 -0.0085390281773187922 -0.018677640350354817 0 -0.0087835708920073769 -0.019041227458469263 0 -0.0089947567672040568 -0.018508909223618891 0 -0.0092688820450085533 -0.018874142669356154 0 -0.0087835708920073769 -0.019041227458469263 0 -0.0096161541036613139 -0.018322156413387518 0 -0.009602271958516935 -0.019309717113426092 0 -0.0092688820450085533 -0.018874142669356154 0 -0.0096161541036613139 -0.018322156413387518 0 -0.0089947567672040568 -0.018508909223618891 0 -0.0092688820450085533 -0.018874142669356154 0 -0.0096161541036613139 -0.018322156413387518 0 -0.0089947567672040568 -0.018508909223618891 0 -0.0091497522346710262 -0.017822715103780636 0 -0.0099117722902893057 -0.017488425165710635 0 -0.0096161541036613139 -0.018322156413387518 0 -0.0091497522346710262 -0.017822715103780636 0 -0.0089947567672040568 -0.018508909223618891 0 -0.0091497522346710262 -0.017822715103780636 0 -0.0086303223727835707 -0.01822815432744259 0 -0.0086745955489250706 -0.017803077172356307 0 -0.0091497522346710262 -0.017822715103780636 0 -0.0086303223727835707 -0.01822815432744259 0 -0.0082461794035624866 -0.017809006085544161 0 -0.0086745955489250706 -0.017803077172356307 0 -0.0086303223727835707 -0.01822815432744259 0 -0.0082461794035624866 -0.017809006085544161 0 -0.0086303223727835707 -0.01822815432744259 0 -0.0082421766626808324 -0.018401996666040914 0 -0.0082461794035624866 -0.017809006085544161 0 -0.0077341308089475848 -0.018156691024247818 0 -0.0082421766626808324 -0.018401996666040914 0 -0.0076329781408255547 -0.017790658541665276 0 -0.0077341308089475848 -0.018156691024247818 0 -0.0072206369344306213 -0.01799714756102315 0 -0.0078845643580720444 -0.017688316702679778 0 -0.0082461794035624866 -0.017809006085544161 0 -0.0077341308089475848 -0.018156691024247818 0 -0.0078845643580720444 -0.017688316702679778 0 -0.0076329781408255547 -0.017790658541665276 0 -0.0077341308089475848 -0.018156691024247818 0 -0.0082421766626808324 -0.018401996666040914 0 -0.0085390281773187922 -0.018677640350354817 0 -0.0080781137755265558 -0.019045370967826124 0 -0.0077341308089475848 -0.018156691024247818 0 -0.0082421766626808324 -0.018401996666040914 0 -0.0080781137755265558 -0.019045370967826124 0 -0.0086303223727835707 -0.01822815432744259 0 -0.0082421766626808324 -0.018401996666040914 0 -0.0085390281773187922 -0.018677640350354817 0 -0.0080781137755265558 -0.019045370967826124 0 -0.0075259154951944169 -0.019571372455631834 0 -0.0085858445135853986 -0.019805877467908316 0 -0.0085390281773187922 -0.018677640350354817 0 -0.0080781137755265558 -0.019045370967826124 0 -0.0087835708920073769 -0.019041227458469263 0 -0.0077341308089475848 -0.018156691024247818 0 -0.0080781137755265558 -0.019045370967826124 0 -0.0075259154951944169 -0.019571372455631834 0 -0.0080781137755265558 -0.019045370967826124 0 -0.0085858445135853986 -0.019805877467908316 0 -0.0087835708920073769 -0.019041227458469263 0 -0.0075259154951944169 -0.019571372455631834 0 -0.0085858445135853986 -0.019805877467908316 0 -0.0075966496544268873 -0.020242969009891691 0 -0.0085858445135853986 -0.019805877467908316 0 -0.009059462469384414 -0.01925891575312471 0 -0.0087835708920073769 -0.019041227458469263 0 -0.0092688820450085533 -0.018874142669356154 0 -0.009059462469384414 -0.01925891575312471 0 -0.0087835708920073769 -0.019041227458469263 0 -0.009602271958516935 -0.019309717113426092 0 -0.0092688820450085533 -0.018874142669356154 0 -0.009059462469384414 -0.01925891575312471 0 -0.0068375428888010981 -0.018163344767196537 0 -0.0073162120889617146 -0.018533378154222305 0 -0.0086869210365330667 -0.020000758100581547 0 -0.008685115687264577 -0.019692593328885385 0 -0.0081466771354687609 -0.019977473343824315 0 -0.009602271958516935 -0.019309717113426092 0 -0.0085858445135853986 -0.019805877467908316 0 -0.009059462469384414 -0.01925891575312471 0 -0.0065113256735241133 -0.019402643063590505 0 -0.0072642829928918247 -0.019658180356988558 0 -0.0088011059471836076 -0.019411714182152033 0 -0.0084042691126208456 -0.020072198203016429 0 -0.0076902753522029108 -0.020008922857346668 0 -0.0086869210365330667 -0.020000758100581547 0 -0.0081466771354687609 -0.019977473343824315 0 -0.0078663186519497934 -0.020441932827476257 0 -0.0088011059471836076 -0.019411714182152033 0 -0.0088329426933942846 -0.020696048905125993 0 -0.0084042691126208456 -0.020072198203016429 0 -0.0084042691126208456 -0.020072198203016429 0 -0.0079836016433529403 -0.020502792989446034 0 -0.0076902753522029108 -0.020008922857346668 0 -0.0088329426933942846 -0.020696048905125993 0 -0.0084042691126208456 -0.020072198203016429 0 -0.0079836016433529403 -0.020502792989446034 0 -0.0088329426933942846 -0.020696048905125993 0 -0.0079836016433529403 -0.020502792989446034 0 -0.0076146368125108721 -0.021085650636399878 0 -0.0073818144756538735 -0.020666493014959233 0 -0.0070468777664242383 -0.020939207841433483 0 -0.0076146368125108721 -0.021085650636399878 0 -0.0073818144756538735 -0.020666493014959233 0 -0.0079836016433529403 -0.020502792989446034 0 -0.0076146368125108721 -0.021085650636399878 0 -0.0073818144756538735 -0.020666493014959233 0 -0.0079836016433529403 -0.020502792989446034 0 -0.0076902753522029108 -0.020008922857346668 0 -0.0078663186519497934 -0.020441932827476257 0 -0.0075966496544268873 -0.020242969009891691 0 -0.0072182512228891839 -0.020432464944677115 0 -0.0073162120889617146 -0.018533378154222305 0 -0.0073230565095550358 -0.018719467895915713 0 -0.0081466771354687609 -0.019977473343824315 0 -0.0078663186519497934 -0.020441932827476257 0 -0.0075966496544268873 -0.020242969009891691 0 -0.0075259154951944169 -0.019571372455631834 0 -0.0075966496544268873 -0.020242969009891691 0 -0.0071623755689687206 -0.020062817151955351 0 -0.0071623755689687206 -0.020062817151955351 0 -0.006750047002008196 -0.020715427043762644 0 -0.0068681762093877469 -0.019410461321743518 0 -0.0075966496544268873 -0.020242969009891691 0 -0.0071623755689687206 -0.020062817151955351 0 -0.0072182512228891839 -0.020432464944677115 0 -0.0078663186519497934 -0.020441932827476257 0 -0.0072182512228891839 -0.020432464944677115 0 -0.0068534566815258643 -0.02075191375691797 0 -0.0075601827496724625 -0.019657611924714432 0 -0.0081632381451944899 -0.018363302141581828 0 -0.0071623755689687206 -0.020062817151955351 0 -0.0072182512228891839 -0.020432464944677115 0 -0.006750047002008196 -0.020715427043762644 0 -0.0072182512228891839 -0.020432464944677115 0 -0.0068534566815258643 -0.02075191375691797 0 -0.006750047002008196 -0.020715427043762644 0 -0.0072642829928918247 -0.019658180356988558 0 -0.0071292666623767658 -0.019913021887526628 0 -0.0073818144756538735 -0.020666493014959233 0 -0.0076902753522029108 -0.020008922857346668 0 -0.0068534566815258643 -0.02075191375691797 0 -0.0073818144756538735 -0.020666493014959233 0 -0.0068534566815258643 -0.02075191375691797 0 -0.0070468777664242383 -0.020939207841433483 0 -0.0068445485769712735 -0.020813980853721312 0 -0.0068261881038050023 -0.020804258638436088 0 -0.0073454426633688058 -0.02081564821343454 0 -0.0068534566815258643 -0.02075191375691797 0 -0.0068445485769712735 -0.020813980853721312 0 -0.0065599972412277571 -0.020941128778450051 0 -0.0068445485769712735 -0.020813980853721312 0 -0.0068261881038050023 -0.020804258638436088 0 -0.006750047002008196 -0.020715427043762644 0 -0.0068534566815258643 -0.02075191375691797 0 -0.0068445485769712735 -0.020813980853721312 0 -0.006750047002008196 -0.020715427043762644 0 -0.0083673347310886485 -0.018709902909370295 0 -0.0081632381451944899 -0.018363302141581828 0 -0.0068261881038050023 -0.020804258638436088 0 -0.006750047002008196 -0.020715427043762644 0 -0.0066524928562761779 -0.020988857296098958 0 -0.01045544192427178 -0.016875997666172659 0 -0.01034713389221634 -0.01556852930564488 0 -0.011235636780095244 -0.01586471119126601 0 -0.0077341308089475848 -0.018156691024247818 0 -0.0075259154951944169 -0.019571372455631834 0 -0.0068681762093877469 -0.019410461321743518 0 -0.0075259154951944169 -0.019571372455631834 0 -0.0071623755689687206 -0.020062817151955351 0 -0.0068681762093877469 -0.019410461321743518 0 -0.0078919806397847094 -0.01856036353835366 0 -0.0081632381451944899 -0.018363302141581828 0 -0.0077341308089475848 -0.018156691024247818 0 -0.0067241946737506015 -0.019371747300301403 0 -0.0072206369344306213 -0.01799714756102315 0 -0.01116151034051008 -0.014700210321792598 0 -0.011235636780095244 -0.01586471119126601 0 -0.011588035184029486 -0.014840992161916054 0 -0.0081632381451944899 -0.018363302141581828 0 -0.009048408658334053 -0.016108865497226649 0 -0.012865181515493826 -0.012656122183722368 0 -0.011378825374947797 -0.014251489746246815 0 -0.011486505509805844 -0.01290836437534767 0 -0.010903427484008269 -0.013593712955443968 0 -0.010436570481644241 -0.014681032117314063 0 -0.01116151034051008 -0.014700210321792598 0 -0.01034713389221634 -0.01556852930564488 0 -0.011235636780095244 -0.01586471119126601 0 -0.011378825374947797 -0.014251489746246815 0 -0.011486505509805844 -0.01290836437534767 0 -0.010662105692247762 -0.013392606071212685 0 -0.010673489071908359 -0.012198402527384333 0 -0.010662105692247762 -0.013392606071212685 0 -0.0089037792710479242 -0.012739107049960565 0 -0.011378825374947797 -0.014251489746246815 0 -0.010662105692247762 -0.013392606071212685 0 -0.0096703039116047083 -0.013904458665458398 0 -0.010662105692247762 -0.013392606071212685 0 -0.0089037792710479242 -0.012739107049960565 0 -0.0096703039116047083 -0.013904458665458398 0 -0.010673489071908359 -0.012198402527384333 0 -0.011486505509805844 -0.01290836437534767 0 -0.010662105692247762 -0.013392606071212685 0 -0.0089037792710479242 -0.012739107049960565 0 -0.0096703039116047083 -0.013904458665458398 0 -0.0083076807650705829 -0.014486588138660337 0 -0.0083076807650705829 -0.014486588138660337 0 -0.0099289380907876569 -0.015826645768288235 0 -0.0078062742880008751 -0.016049655119372098 0 -0.0096703039116047083 -0.013904458665458398 0 -0.0083076807650705829 -0.014486588138660337 0 -0.0099289380907876569 -0.015826645768288235 0 -0.01045544192427178 -0.016875997666172659 0 -0.01034713389221634 -0.01556852930564488 0 -0.0094490290594292821 -0.016483516609616212 0 -0.011378825374947797 -0.014251489746246815 0 -0.0096703039116047083 -0.013904458665458398 0 -0.0099289380907876569 -0.015826645768288235 0 -0.010436570481644241 -0.014681032117314063 0 -0.0096145662001374636 -0.015822468855593047 0 -0.01045544192427178 -0.016875997666172659 0 -0.0094900472667282607 -0.017224993870793667 0 -0.0094490290594292821 -0.016483516609616212 0 -0.0083673347310886485 -0.018709902909370295 0 -0.0082730016851385035 -0.019148701713586545 0 -0.01045544192427178 -0.016875997666172659 0 -0.0094900472667282607 -0.017224993870793667 0 -0.009597525267531189 -0.018101311538221258 0 -0.009597525267531189 -0.018101311538221258 0 -0.0083790790282698129 -0.017456131920057013 0 -0.0077966639911344476 -0.018596179243983081 0 -0.0094900472667282607 -0.017224993870793667 0 -0.009597525267531189 -0.018101311538221258 0 -0.0083790790282698129 -0.017456131920057013 0 -0.0099289380907876569 -0.015826645768288235 0 -0.0083790790282698129 -0.017456131920057013 0 -0.0078062742880008751 -0.016049655119372098 0 -0.0096145662001374636 -0.015822468855593047 0 -0.0090982499480689403 -0.016444232553876646 0 -0.0094900472667282607 -0.017224993870793667 0 -0.0094490290594292821 -0.016483516609616212 0 -0.0083790790282698129 -0.017456131920057013 0 -0.0078062742880008751 -0.016049655119372098 0 -0.0071228084115525399 -0.017711626963386656 0 -0.0062174340556001937 -0.016367109918329403 0 -0.0083790790282698129 -0.017456131920057013 0 -0.0071228084115525399 -0.017711626963386656 0 -0.0077966639911344476 -0.018596179243983081 0 -0.0083790790282698129 -0.017456131920057013 0 -0.0078062742880008751 -0.016049655119372098 0 -0.0071228084115525399 -0.017711626963386656 0 -0.0056954056647546504 -0.018265222737657062 0 -0.0071228084115525399 -0.017711626963386656 0 -0.0062174340556001937 -0.016367109918329403 0 -0.0078062742880008751 -0.016049655119372098 0 -0.0062174340556001937 -0.016367109918329403 0 -0.0068559671656493884 -0.014810527690621633 0 -0.0054563522117393598 -0.014820460760522123 0 -0.0068559671656493884 -0.014810527690621633 0 -0.0061684854559916789 -0.013566498523092873 0 -0.0054563522117393598 -0.014820460760522123 0 -0.0062174340556001937 -0.016367109918329403 0 -0.0068559671656493884 -0.014810527690621633 0 -0.0083076807650705829 -0.014486588138660337 0 -0.0068559671656493884 -0.014810527690621633 0 -0.0074207056645746875 -0.013579272547675859 0 -0.0083076807650705829 -0.014486588138660337 0 -0.0078062742880008751 -0.016049655119372098 0 -0.0068559671656493884 -0.014810527690621633 0 -0.0071741180138724025 -0.012299935116621093 0 -0.0089037792710479242 -0.012739107049960565 0 -0.0074207056645746875 -0.013579272547675859 0 -0.0089037792710479242 -0.012739107049960565 0 -0.0083076807650705829 -0.014486588138660337 0 -0.0074207056645746875 -0.013579272547675859 0 -0.0060131901728346536 -0.012267459555604489 0 -0.0071741180138724025 -0.012299935116621093 0 -0.0061684854559916789 -0.013566498523092873 0 -0.0071741180138724025 -0.012299935116621093 0 -0.0074207056645746875 -0.013579272547675859 0 -0.0061684854559916789 -0.013566498523092873 0 -0.0050739488525265225 -0.013341445096826101 0 -0.0060131901728346536 -0.012267459555604489 0 -0.0061684854559916789 -0.013566498523092873 0 -0.0068559671656493884 -0.014810527690621633 0 -0.0074207056645746875 -0.013579272547675859 0 -0.0061684854559916789 -0.013566498523092873 0 -0.0074319339939286902 -0.023142477498525636 0 -0.0086772186042315975 -0.022220814658030146 0 -0.0071829873458054182 -0.021684621974949456 0 -0.0074319339939286902 -0.023142477498525636 0 -0.0086772186042315975 -0.022220814658030146 0 -0.0089641596352646701 -0.023336073894478872 0 -0.0086772186042315975 -0.022220814658030146 0 -0.010129931398302037 -0.021658457704923684 0 -0.0095437024628727777 -0.022707408159492345 0 -0.0086772186042315975 -0.022220814658030146 0 -0.0095437024628727777 -0.022707408159492345 0 -0.0089641596352646701 -0.023336073894478872 0 -0.0095437024628727777 -0.022707408159492345 0 -0.0096768503775906713 -0.023372894322467162 0 -0.0089641596352646701 -0.023336073894478872 0 -0.0075556335287418445 -0.021028501060629697 0 -0.0081629013656441141 -0.021730211022411825 0 -0.0086772186042315975 -0.022220814658030146 0 -0.0085925942063170037 -0.020823716811195936 0 -0.010129931398302037 -0.021658457704923684 0 -0.0061276704969222533 -0.019877837617027324 0 -0.0071829873458054182 -0.021684621974949456 0 -0.0085925942063170037 -0.020823716811195936 0 -0.0086772186042315975 -0.022220814658030146 0 -0.0071829873458054182 -0.021684621974949456 0 -0.0085925942063170037 -0.020823716811195936 0 -0.0061276704969222533 -0.019877837617027324 0 -0.0070117594026597703 -0.01914351989561627 0 -0.0074165180169815702 -0.020076508853979397 0 -0.006986236187580314 -0.020694846613028686 0 -0.0075556335287418445 -0.021028501060629697 0 -0.0056954056647546504 -0.018265222737657062 0 -0.0071228084115525399 -0.017711626963386656 0 -0.0070117594026597703 -0.01914351989561627 0 -0.0056954056647546504 -0.018265222737657062 0 -0.0061276704969222533 -0.019877837617027324 0 -0.0070117594026597703 -0.01914351989561627 0 -0.0071228084115525399 -0.017711626963386656 0 -0.0070117594026597703 -0.01914351989561627 0 -0.0077966639911344476 -0.018596179243983081 0 -0.0070117594026597703 -0.01914351989561627 0 -0.0077966639911344476 -0.018596179243983081 0 -0.0081044443114450734 -0.019756167795792721 0 -0.0070117594026597703 -0.01914351989561627 0 -0.0074165180169815702 -0.020076508853979397 0 -0.0081044443114450734 -0.019756167795792721 0 -0.0081044443114450734 -0.019756167795792721 0 -0.0075073158718998532 -0.019846989104273873 0 -0.0078470859981804204 -0.0197699545911839 0 -0.0074165180169815702 -0.020076508853979397 0 -0.0081044443114450734 -0.019756167795792721 0 -0.0078470859981804204 -0.0197699545911839 0 -0.0082730016851385035 -0.019148701713586545 0 -0.0081620633434288277 -0.019374266821456682 0 -0.009597525267531189 -0.018101311538221258 0 -0.0077966639911344476 -0.018596179243983081 0 -0.0081044443114450734 -0.019756167795792721 0 -0.0068445485769712735 -0.020813980853721312 0 -0.0073454426633688058 -0.02081564821343454 0 -0.007155528224286503 -0.020440385439875239 0 -0.0073454426633688058 -0.02081564821343454 0 -0.0081044443114450734 -0.019756167795792721 0 -0.007155528224286503 -0.020440385439875239 0 -0.007155528224286503 -0.020440385439875239 0 -0.0075073158718998532 -0.019846989104273873 0 -0.0068959474556319778 -0.019902065723822443 0 -0.0081044443114450734 -0.019756167795792721 0 -0.007155528224286503 -0.020440385439875239 0 -0.0075073158718998532 -0.019846989104273873 0 -0.0081629013656441141 -0.021730211022411825 0 -0.008100974306146265 -0.022819900757738276 0 -0.0075073158718998532 -0.019846989104273873 0 -0.0078470859981804204 -0.0197699545911839 0 -0.0072417520948335019 -0.019364521988119034 0 -0.010129931398302037 -0.021658457704923684 0 -0.0095437024628727777 -0.022707408159492345 0 -0.010261829801109189 -0.022857482845890398 0 -0.0095437024628727777 -0.022707408159492345 0 -0.010261829801109189 -0.022857482845890398 0 -0.0096768503775906713 -0.023372894322467162 0 -0.008100974306146265 -0.022819900757738276 0 -0.0087649762371434774 -0.023572806517064483 0 -0.010129931398302037 -0.021658457704923684 0 -0.010261829801109189 -0.022857482845890398 0 -0.01145367375738013 -0.022249239424949885 0 -0.010261829801109189 -0.022857482845890398 0 -0.01145367375738013 -0.022249239424949885 0 -0.010739785911932639 -0.023710389260870445 0 -0.0082838141447756156 -0.025794665990376931 0 -0.0081077829372441425 -0.025242160121813375 0 -0.0088251141269125276 -0.025164004028958541 0 -0.008100974306146265 -0.022819900757738276 0 -0.0078347754690203976 -0.023498179968067422 0 -0.0082838141447756156 -0.025794665990376931 0 -0.0077886266133928069 -0.025417989746552842 0 -0.0081077829372441425 -0.025242160121813375 0 -0.0077886266133928069 -0.025417989746552842 0 -0.0076035817296364492 -0.02487159022437677 0 -0.0077136391215431995 -0.025155228120922895 0 -0.0078347754690203976 -0.023498179968067422 0 -0.0078802723226123958 -0.023735932056581165 0 -0.00641596654999894 -0.024290430215103645 0 -0.0066170528174704802 -0.023173977259919501 0 -0.0074951888255613682 -0.023803445624859303 0 -0.0051822312868589756 -0.023810810111396317 0 -0.00641596654999894 -0.024290430215103645 0 -0.0066170528174704802 -0.023173977259919501 0 -0.0075073158718998532 -0.019846989104273873 0 -0.0072417520948335019 -0.019364521988119034 0 -0.0068959474556319778 -0.019902065723822443 0 -0.008100974306146265 -0.022819900757738276 0 -0.0076297594275062681 -0.022012840388521665 0 -0.0051822312868589756 -0.023810810111396317 0 -0.0066170528174704802 -0.023173977259919501 0 -0.0057290117420280735 -0.022493769547697884 0 -0.007155528224286503 -0.020440385439875239 0 -0.0068959474556319778 -0.019902065723822443 0 -0.0065599972412277571 -0.020941128778450051 0 -0.0076297594275062681 -0.022012840388521665 0 -0.0075078228470166798 -0.021741436276453259 0 -0.0068445485769712735 -0.020813980853721312 0 -0.007155528224286503 -0.020440385439875239 0 -0.0065599972412277571 -0.020941128778450051 0 -0.0068534566815258643 -0.02075191375691797 0 -0.0065599972412277571 -0.020941128778450051 0 -0.0070468777664242383 -0.020939207841433483 0 -0.0065599972412277571 -0.020941128778450051 0 -0.0070468777664242383 -0.020939207841433483 0 -0.0071774799779208325 -0.021740299232997171 0 -0.0057290117420280735 -0.022493769547697884 0 -0.0065599972412277571 -0.020941128778450051 0 -0.0071774799779208325 -0.021740299232997171 0 -0.0066170528174704802 -0.023173977259919501 0 -0.0071774799779208325 -0.021740299232997171 0 -0.0078259293145469169 -0.022781159648345251 0 -0.0066170528174704802 -0.023173977259919501 0 -0.0057290117420280735 -0.022493769547697884 0 -0.0071774799779208325 -0.021740299232997171 0 -0.0071774799779208325 -0.021740299232997171 0 -0.0080484243883309613 -0.021858295077021243 0 -0.0078259293145469169 -0.022781159648345251 0 -0.0071774799779208325 -0.021740299232997171 0 -0.0080484243883309613 -0.021858295077021243 0 -0.0076146368125108721 -0.021085650636399878 0 -0.0070468777664242383 -0.020939207841433483 0 -0.0071774799779208325 -0.021740299232997171 0 -0.0076146368125108721 -0.021085650636399878 0 -0.0088329426933942846 -0.020696048905125993 0 -0.0080484243883309613 -0.021858295077021243 0 -0.0076146368125108721 -0.021085650636399878 0 -0.0088329426933942846 -0.020696048905125993 0 -0.0080484243883309613 -0.021858295077021243 0 -0.0089414961105133191 -0.022106941293793158 0 -0.0080484243883309613 -0.021858295077021243 0 -0.0078259293145469169 -0.022781159648345251 0 -0.0089414961105133191 -0.022106941293793158 0 -0.0078259293145469169 -0.022781159648345251 0 -0.0089414961105133191 -0.022106941293793158 0 -0.0088000548180502559 -0.023901805836257294 0 -0.0078259293145469169 -0.022781159648345251 0 -0.0074951888255613682 -0.023803445624859303 0 -0.0088000548180502559 -0.023901805836257294 0 -0.0066170528174704802 -0.023173977259919501 0 -0.0078259293145469169 -0.022781159648345251 0 -0.0074951888255613682 -0.023803445624859303 0 -0.0074951888255613682 -0.023803445624859303 0 -0.0076035817296364492 -0.02487159022437677 0 -0.0088000548180502559 -0.023901805836257294 0 -0.00641596654999894 -0.024290430215103645 0 -0.0074951888255613682 -0.023803445624859303 0 -0.0076035817296364492 -0.02487159022437677 0 -0.0076035817296364492 -0.02487159022437677 0 -0.0088000548180502559 -0.023901805836257294 0 -0.0081781711004105476 -0.0251591749414634 0 -0.0076035817296364492 -0.02487159022437677 0 -0.0076803850017766791 -0.025293788396100289 0 -0.0081781711004105476 -0.0251591749414634 0 -0.0076035817296364492 -0.02487159022437677 0 -0.0076803850017766791 -0.025293788396100289 0 -0.0077136391215431995 -0.025155228120922895 0 -0.0076803850017766791 -0.025293788396100289 0 -0.0077453151567206478 -0.025266610711040971 0 -0.0077136391215431995 -0.025155228120922895 0 -0.0076803850017766791 -0.025293788396100289 0 -0.0075189744178458555 -0.025349975219229572 0 -0.0077453151567206478 -0.025266610711040971 0 -0.0076803850017766791 -0.025293788396100289 0 -0.0081781711004105476 -0.0251591749414634 0 -0.0073862722152631651 -0.02545979274553152 0 -0.0070923243060327301 -0.025260168568739881 0 -0.0075189744178458555 -0.025349975219229572 0 -0.0073862722152631651 -0.02545979274553152 0 -0.0076803850017766791 -0.025293788396100289 0 -0.0075189744178458555 -0.025349975219229572 0 -0.0073862722152631651 -0.02545979274553152 0 -0.0070923243060327301 -0.025260168568739881 0 -0.0071629826960069301 -0.024999727732666493 0 -0.0062502127231990343 -0.024999970289650727 0 -0.0070923243060327301 -0.025260168568739881 0 -0.0073862722152631651 -0.02545979274553152 0 -0.0062502127231990343 -0.024999970289650727 0 -0.0071629826960069301 -0.024999727732666493 0 -0.0075189744178458555 -0.025349975219229572 0 -0.0080743496820075058 -0.02500004180514883 0 -0.0070923243060327301 -0.025260168568739881 0 -0.0071629826960069301 -0.024999727732666493 0 -0.0075189744178458555 -0.025349975219229572 0 -0.0075189744178458555 -0.025349975219229572 0 -0.0078901684102399856 -0.025214574232881308 0 -0.0077453151567206478 -0.025266610711040971 0 -0.0078901684102399856 -0.025214574232881308 0 -0.0080743496820075058 -0.02500004180514883 0 -0.0079679864086302128 -0.025141475499499622 0 -0.0080765341286401747 -0.024999922383197311 0 -0.0087119257560538278 -0.025120714414108351 0 -0.0075189744178458555 -0.025349975219229572 0 -0.0078901684102399856 -0.025214574232881308 0 -0.0080743496820075058 -0.02500004180514883 0 -0.0080757617329540749 -0.024999999378319239 0 -0.0093093911076526526 -0.02499999756625837 0 -0.0090203938910930655 -0.025578301400029171 0 -0.0093093911076526526 -0.02499999756625837 0 -0.0090203938910930655 -0.025578301400029171 0 -0.0096929598628319336 -0.025519091332180301 0 -0.0078901684102399856 -0.025214574232881308 0 -0.0079679864086302128 -0.025141475499499622 0 -0.0079541190392335183 -0.025187055297251317 0 -0.0078901684102399856 -0.025214574232881308 0 -0.0079541190392335183 -0.025187055297251317 0 -0.0079004152281578061 -0.025195779823343884 0 -0.0079541190392335183 -0.025187055297251317 0 -0.0079004152281578061 -0.025195779823343884 0 -0.0079796729316318725 -0.025203930777852719 0 -0.0078901684102399856 -0.025214574232881308 0 -0.0079004152281578061 -0.025195779823343884 0 -0.0077453151567206478 -0.025266610711040971 0 -0.0079004152281578061 -0.025195779823343884 0 -0.0077453151567206478 -0.025266610711040971 0 -0.0077136391215431995 -0.025155228120922895 0 -0.0077886266133928069 -0.025417989746552842 0 -0.0077136391215431995 -0.025155228120922895 0 -0.0081077829372441425 -0.025242160121813375 0 -0.0079004152281578061 -0.025195779823343884 0 -0.0077136391215431995 -0.025155228120922895 0 -0.0081077829372441425 -0.025242160121813375 0 -0.0079004152281578061 -0.025195779823343884 0 -0.0081077829372441425 -0.025242160121813375 0 -0.0079796729316318725 -0.025203930777852719 0 -0.0089006898263940884 -0.025412545424978596 0 -0.0090867433797182078 -0.025318680689026051 0 -0.0081077829372441425 -0.025242160121813375 0 -0.0088251141269125276 -0.025164004028958541 0 -0.0087794030477782673 -0.02463499227929012 0 -0.010261829801109189 -0.022857482845890398 0 -0.010739785911932639 -0.023710389260870445 0 -0.010135663529395475 -0.023591397458924416 0 -0.010261829801109189 -0.022857482845890398 0 -0.010135663529395475 -0.023591397458924416 0 -0.0096768503775906713 -0.023372894322467162 0 -0.010135663529395475 -0.023591397458924416 0 -0.0096768503775906713 -0.023372894322467162 0 -0.0098401262701553124 -0.02392699755936473 0 -0.0098401262701553124 -0.02392699755936473 0 -0.0097024868959615963 -0.024262722408981158 0 -0.0094503165139531893 -0.023951850229183821 0 -0.0096768503775906713 -0.023372894322467162 0 -0.0098401262701553124 -0.02392699755936473 0 -0.0094503165139531893 -0.023951850229183821 0 -0.010739785911932639 -0.023710389260870445 0 -0.010135663529395475 -0.023591397458924416 0 -0.01007221832498088 -0.024014622154279346 0 -0.010135663529395475 -0.023591397458924416 0 -0.0098401262701553124 -0.02392699755936473 0 -0.01007221832498088 -0.024014622154279346 0 -0.01007221832498088 -0.024014622154279346 0 -0.0098582075872482924 -0.024235767679645605 0 -0.0097013847907628046 -0.024360806009335201 0 -0.0098401262701553124 -0.02392699755936473 0 -0.01007221832498088 -0.024014622154279346 0 -0.0098582075872482924 -0.024235767679645605 0 -0.0098401262701553124 -0.02392699755936473 0 -0.0098582075872482924 -0.024235767679645605 0 -0.0097024868959615963 -0.024262722408981158 0 -0.0098582075872482924 -0.024235767679645605 0 -0.0097024868959615963 -0.024262722408981158 0 -0.0098373357242159173 -0.024379855545894988 0 -0.0098582075872482924 -0.024235767679645605 0 -0.0098373357242159173 -0.024379855545894988 0 -0.0097013847907628046 -0.024360806009335201 0 -0.0088251141269125276 -0.025164004028958541 0 -0.0097013847907628046 -0.024360806009335201 0 -0.0087794030477782673 -0.02463499227929012 0 -0.010739785911932639 -0.023710389260870445 0 -0.01007221832498088 -0.024014622154279346 0 -0.0097013847907628046 -0.024360806009335201 0 -0.0090867433797182078 -0.025318680689026051 0 -0.0095670379747601585 -0.025226109227657001 0 -0.0087649762371434774 -0.023572806517064483 0 -0.0089773968583648396 -0.023710102893744735 0 -0.0097013847907628046 -0.024360806009335201 0 -0.0087794030477782673 -0.02463499227929012 0 -0.0095049110546141496 -0.024006348117734864 0 -0.0079541190392335183 -0.025187055297251317 0 -0.0079796729316318725 -0.025203930777852719 0 -0.0079900424293372317 -0.025178748858566025 0 -0.0079679864086302128 -0.025141475499499622 0 -0.0079541190392335183 -0.025187055297251317 0 -0.0079900424293372317 -0.025178748858566025 0 -0.0087119257560538278 -0.025120714414108351 0 -0.0095670379747601585 -0.025226109227657001 0 -0.0099621296545004817 -0.026155492922364933 0 -0.0096929598628319336 -0.025519091332180301 0 -0.010543012333262332 -0.0249999984988378 0 -0.0090203938910930655 -0.025578301400029171 0 -0.0099621296545004817 -0.026155492922364933 0 -0.0096929598628319336 -0.025519091332180301 0 -0.0093093911076526526 -0.02499999756625837 0 -0.0096929598628319336 -0.025519091332180301 0 -0.010543012333262332 -0.0249999984988378 0 -0.010543160261210792 -0.025000332996725078 0 -0.010660681154966888 -0.025626638249970104 0 -0.010778685857547744 -0.025924411688886616 0 -0.0095670379747601585 -0.025226109227657001 0 -0.010541524942374147 -0.025000009195083755 0 -0.010446624710681793 -0.025704805230104027 0 -0.010543160261210792 -0.025000332996725078 0 -0.010660681154966888 -0.025626638249970104 0 -0.010834015377604186 -0.02554480905910585 0 -0.010446624710681793 -0.025704805230104027 0 -0.010660681154966888 -0.025626638249970104 0 -0.009664165891601002 -0.025096326180801407 0 -0.0095670379747601585 -0.025226109227657001 0 -0.0098373357242159173 -0.024379855545894988 0 -0.0097013847907628046 -0.024360806009335201 0 -0.0095049110546141496 -0.024006348117734864 0 -0.010834015377604186 -0.02554480905910585 0 -0.010660681154966888 -0.025626638249970104 0 -0.010778685857547744 -0.025924411688886616 0 -0.010834015377604186 -0.02554480905910585 0 -0.010778685857547744 -0.025924411688886616 0 -0.010060099147422803 -0.025165232748266503 0 -0.010778685857547744 -0.025924411688886616 0 -0.011826066252776272 -0.026299935939606053 0 -0.011593285674318329 -0.027243900434756097 0 -0.010543160261210792 -0.025000332996725078 0 -0.010778685857547744 -0.025924411688886616 0 -0.011702114445881756 -0.025609192839058124 0 -0.010543160261210792 -0.025000332996725078 0 -0.012007186494738181 -0.024999684160031344 0 -0.011702114445881756 -0.025609192839058124 0 -0.012695899887424675 -0.025903176515847934 0 -0.012007186494738181 -0.024999684160031344 0 -0.011702114445881756 -0.025609192839058124 0 -0.012695899887424675 -0.025903176515847934 0 -0.011826066252776272 -0.026299935939606053 0 -0.012282432587115833 -0.02688043537529778 0 -0.012695899887424675 -0.025903176515847934 0 -0.011702114445881756 -0.025609192839058124 0 -0.011826066252776272 -0.026299935939606053 0 -0.010778685857547744 -0.025924411688886616 0 -0.011702114445881756 -0.025609192839058124 0 -0.011826066252776272 -0.026299935939606053 0 -0.011826066252776272 -0.026299935939606053 0 -0.012282432587115833 -0.02688043537529778 0 -0.011593285674318329 -0.027243900434756097 0 -0.012282432587115833 -0.02688043537529778 0 -0.011593285674318329 -0.027243900434756097 0 -0.012213683975177331 -0.027511561162777903 0 -0.010778685857547744 -0.025924411688886616 0 -0.0086819411183360947 -0.024496429890371516 0 -0.010060099147422803 -0.025165232748266503 0 -0.010747629081952684 -0.025315670665371357 0 -0.010785884408856276 -0.025165132765867158 0 -0.009664165891601002 -0.025096326180801407 0 -0.0095902933092130906 -0.024994410669425374 0 -0.0097024868959615963 -0.024262722408981158 0 -0.0098373357242159173 -0.024379855545894988 0 -0.0094733620769309017 -0.024511888275020131 0 -0.010834015377604186 -0.02554480905910585 0 -0.010060099147422803 -0.025165232748266503 0 -0.0094733620769309017 -0.024511888275020131 0 -0.0097024868959615963 -0.024262722408981158 0 -0.0094733620769309017 -0.024511888275020131 0 -0.0094503165139531893 -0.023951850229183821 0 -0.0086819411183360947 -0.024496429890371516 0 -0.010060099147422803 -0.025165232748266503 0 -0.0094733620769309017 -0.024511888275020131 0 -0.0086819411183360947 -0.024496429890371516 0 -0.0094733620769309017 -0.024511888275020131 0 -0.0088121612411738888 -0.023886015124680911 0 -0.0094733620769309017 -0.024511888275020131 0 -0.0088121612411738888 -0.023886015124680911 0 -0.0094503165139531893 -0.023951850229183821 0 -0.0088121612411738888 -0.023886015124680911 0 -0.0094503165139531893 -0.023951850229183821 0 -0.0089641596352646701 -0.023336073894478872 0 -0.0096768503775906713 -0.023372894322467162 0 -0.0094503165139531893 -0.023951850229183821 0 -0.0089641596352646701 -0.023336073894478872 0 -0.0074319339939286902 -0.023142477498525636 0 -0.0088121612411738888 -0.023886015124680911 0 -0.0089641596352646701 -0.023336073894478872 0 -0.012228830755845237 -0.028337186655238884 0 -0.011593285674318329 -0.027243900434756097 0 -0.012213683975177331 -0.027511561162777903 0 -0.0074319339939286902 -0.023142477498525636 0 -0.0086819411183360947 -0.024496429890371516 0 -0.0088121612411738888 -0.023886015124680911 0 -0.011071925050510262 -0.024619607673826545 0 -0.010785884408856276 -0.025165132765867158 0 -0.0054007908959692258 -0.022247877736024269 0 -0.0053198918975128733 -0.021523708262983228 0 -0.0051450393333092228 -0.02315728967210489 0 -0.0054007908959692258 -0.022247877736024269 0 -0.0056831441194587651 -0.021626257262070309 0 -0.00534154511564712 -0.023060146931639647 0 -0.0051715111265398604 -0.023359411248940393 0 -0.0051435640505462657 -0.023745060308302281 0 -0.0052004260941609605 -0.024716421214020186 0 -0.0052278146583686355 -0.024943140200571683 0 -0.0053249281896532424 -0.02456004755018296 0 -0.0051425414926351233 -0.024835566207477025 0 -0.0052004260941609605 -0.024716421214020186 0 -0.0052278146583686355 -0.024943140200571683 0 -0.0054007908959692258 -0.022247877736024269 0 -0.0056831441194587651 -0.021626257262070309 0 -0.0054955946493180355 -0.021664813059947639 0 -0.0052004260941609605 -0.024716421214020186 0 -0.0051332404636931341 -0.024625313063229921 0 -0.0052073981392005411 -0.024579513479729358 0 -0.0051425414926351233 -0.024835566207477025 0 -0.0052004260941609605 -0.024716421214020186 0 -0.0051190724206494039 -0.02473804100048118 0 -0.0052004260941609605 -0.024716421214020186 0 -0.0051190724206494039 -0.02473804100048118 0 -0.0051332404636931341 -0.024625313063229921 0 -0.0051190724206494039 -0.02473804100048118 0 -0.0051332404636931341 -0.024625313063229921 0 -0.0050459126932420433 -0.02466307419497597 0 -0.0051190724206494039 -0.02473804100048118 0 -0.0050534762064351445 -0.024860602136997121 0 -0.0050459126932420433 -0.02466307419497597 0 -0.0050534762064351445 -0.024860602136997121 0 -0.0050459126932420433 -0.02466307419497597 0 -0.0049587401782947068 -0.024791369330804544 0 -0.0050534762064351445 -0.024860602136997121 0 -0.0049587401782947068 -0.024791369330804544 0 -0.0049114297875420352 -0.025019204402633003 0 -0.0051425414926351233 -0.024835566207477025 0 -0.0051190724206494039 -0.02473804100048118 0 -0.0050534762064351445 -0.024860602136997121 0 -0.0051425414926351233 -0.024835566207477025 0 -0.0050534762064351445 -0.024860602136997121 0 -0.0051159538248069601 -0.024921568012971997 0 -0.0051159538248069601 -0.024921568012971997 0 -0.0050496049924815961 -0.025051305632631291 0 -0.0052278146583686355 -0.024943140200571683 0 -0.0050534762064351445 -0.024860602136997121 0 -0.0051159538248069601 -0.024921568012971997 0 -0.0050496049924815961 -0.025051305632631291 0 -0.0050496049924815961 -0.025051305632631291 0 -0.0052278146583686355 -0.024943140200571683 0 -0.0050303173293543384 -0.025264793754239939 0 -0.0050534762064351445 -0.024860602136997121 0 -0.0050496049924815961 -0.025051305632631291 0 -0.0049114297875420352 -0.025019204402633003 0 -0.0050496049924815961 -0.025051305632631291 0 -0.0049114297875420352 -0.025019204402633003 0 -0.0049040649744552566 -0.025178520540201855 0 -0.0055366272241458171 -0.021446800436572964 0 -0.0053863993382048322 -0.021076168245475379 0 -0.0060336399089026471 -0.020633530731105704 0 -0.0056831441194587651 -0.021626257262070309 0 -0.0055366272241458171 -0.021446800436572964 0 -0.0060336399089026471 -0.020633530731105704 0 -0.0051715111265398604 -0.023359411248940393 0 -0.0049674946416291884 -0.023183398259198441 0 -0.0051425414926351233 -0.024835566207477025 0 -0.0051159538248069601 -0.024921568012971997 0 -0.0052278146583686355 -0.024943140200571683 0 -0.0054007908959692258 -0.022247877736024269 0 -0.0054955946493180355 -0.021664813059947639 0 -0.0053198918975128733 -0.021523708262983228 0 -0.0056831441194587651 -0.021626257262070309 0 -0.0054955946493180355 -0.021664813059947639 0 -0.0055366272241458171 -0.021446800436572964 0 -0.005298553425145131 -0.021562753424844188 0 -0.0052927122510189476 -0.021565155445561392 0 -0.0054955946493180355 -0.021664813059947639 0 -0.0055366272241458171 -0.021446800436572964 0 -0.0053198918975128733 -0.021523708262983228 0 -0.0055366272241458171 -0.021446800436572964 0 -0.0053482444382808554 -0.021474654065026598 0 -0.0052790436315812905 -0.021337661058266143 0 -0.0055366272241458171 -0.021446800436572964 0 -0.0052790436315812905 -0.021337661058266143 0 -0.0053863993382048322 -0.021076168245475379 0 -0.0052790436315812905 -0.021337661058266143 0 -0.0053863993382048322 -0.021076168245475379 0 -0.0051222823798375318 -0.021204658300032958 0 -0.0053482444382808554 -0.021474654065026598 0 -0.0049664695404194829 -0.021353224755628113 0 -0.0043903250408237537 -0.021635587240706942 0 -0.0052927122510189476 -0.021565155445561392 0 -0.004788611660442664 -0.021501792630372482 0 -0.0053863993382048322 -0.021076168245475379 0 -0.0051222823798375318 -0.021204658300032958 0 -0.0050247628015883308 -0.02102600633096996 0 -0.0052790436315812905 -0.021337661058266143 0 -0.0051222823798375318 -0.021204658300032958 0 -0.0049664695404194829 -0.021353224755628113 0 -0.0049692030552399066 -0.021216658047556593 0 -0.0050247628015883308 -0.02102600633096996 0 -0.0047356495861153357 -0.021237750210544901 0 -0.0051222823798375318 -0.021204658300032958 0 -0.0049692030552399066 -0.021216658047556593 0 -0.0049664695404194829 -0.021353224755628113 0 -0.0051222823798375318 -0.021204658300032958 0 -0.0049692030552399066 -0.021216658047556593 0 -0.0050247628015883308 -0.02102600633096996 0 -0.0047356495861153357 -0.021237750210544901 0 -0.0045341187393576204 -0.021121081880179172 0 -0.0046678856100110739 -0.020930028173428847 0 -0.0050247628015883308 -0.02102600633096996 0 -0.0047356495861153357 -0.021237750210544901 0 -0.0046678856100110739 -0.020930028173428847 0 -0.0049692030552399066 -0.021216658047556593 0 -0.0047356495861153357 -0.021237750210544901 0 -0.0049664695404194829 -0.021353224755628113 0 -0.0047356495861153357 -0.021237750210544901 0 -0.0049664695404194829 -0.021353224755628113 0 -0.0043903250408237537 -0.021635587240706942 0 -0.0053482444382808554 -0.021474654065026598 0 -0.0052790436315812905 -0.021337661058266143 0 -0.0049664695404194829 -0.021353224755628113 0 -0.0043024677983446126 -0.021051042995678823 0 -0.0043977801943204465 -0.021277654682185093 0 -0.0040309466322159095 -0.021348704755493199 0 -0.0047356495861153357 -0.021237750210544901 0 -0.0045341187393576204 -0.021121081880179172 0 -0.0043977801943204465 -0.021277654682185093 0 -0.0043024677983446126 -0.021051042995678823 0 -0.0045341187393576204 -0.021121081880179172 0 -0.0046678856100110739 -0.020930028173428847 0 -0.0043024677983446126 -0.021051042995678823 0 -0.0045341187393576204 -0.021121081880179172 0 -0.0043977801943204465 -0.021277654682185093 0 -0.0047356495861153357 -0.021237750210544901 0 -0.0043977801943204465 -0.021277654682185093 0 -0.0043903250408237537 -0.021635587240706942 0 -0.0043977801943204465 -0.021277654682185093 0 -0.0043903250408237537 -0.021635587240706942 0 -0.0040309466322159095 -0.021348704755493199 0 -0.0050986310961773319 -0.020972623434502173 0 -0.0054486754484138573 -0.0212962682564307 0 -0.0052216444591583052 -0.021713375720376838 0 -0.0050986310961773319 -0.020972623434502173 0 -0.0046786176946356402 -0.021576126546326242 0 -0.0052216444591583052 -0.021713375720376838 0 -0.0060784808479802076 -0.020611373601653243 0 -0.0050986310961773319 -0.020972623434502173 0 -0.0054486754484138573 -0.0212962682564307 0 -0.0060784808479802076 -0.020611373601653243 0 -0.0054486754484138573 -0.0212962682564307 0 -0.0057128233679064168 -0.021690892157106113 0 -0.0052927122510189476 -0.021565155445561392 0 -0.0053072796925449283 -0.022304931860524711 0 -0.0054007908959692258 -0.022247877736024269 0 -0.0051450393333092228 -0.02315728967210489 0 -0.00534154511564712 -0.023060146931639647 0 -0.0051450393333092228 -0.02315728967210489 0 -0.00534154511564712 -0.023060146931639647 0 -0.0052235613880930593 -0.024057870787262872 0 -0.0051435640505462657 -0.023745060308302281 0 -0.0051032649815589111 -0.023931439763458122 0 -0.0054486754484138573 -0.0212962682564307 0 -0.0057128233679064168 -0.021690892157106113 0 -0.0052216444591583052 -0.021713375720376838 0 -0.0057128233679064168 -0.021690892157106113 0 -0.0052216444591583052 -0.021713375720376838 0 -0.00526992527996651 -0.022245843529433346 0 -0.0046786176946356402 -0.021576126546326242 0 -0.0052216444591583052 -0.021713375720376838 0 -0.0047216564429583959 -0.021969975094070709 0 -0.0052216444591583052 -0.021713375720376838 0 -0.0047216564429583959 -0.021969975094070709 0 -0.0050025975086375515 -0.022137174320202156 0 -0.0052216444591583052 -0.021713375720376838 0 -0.0050025975086375515 -0.022137174320202156 0 -0.00526992527996651 -0.022245843529433346 0 -0.0047216564429583959 -0.021969975094070709 0 -0.0047586847905618087 -0.022354382367000249 0 -0.0050025975086375515 -0.022137174320202156 0 -0.0047586847905618087 -0.022354382367000249 0 -0.0050414164196134507 -0.022400966223302766 0 -0.0050025975086375515 -0.022137174320202156 0 -0.0050414164196134507 -0.022400966223302766 0 -0.00526992527996651 -0.022245843529433346 0 -0.0051315525142910275 -0.022594190460995922 0 -0.0050414164196134507 -0.022400966223302766 0 -0.0050025975086375515 -0.022137174320202156 0 -0.00526992527996651 -0.022245843529433346 0 -0.0053619862761055802 -0.022781388248422654 0 -0.0049812527835007116 -0.022780601692592526 0 -0.0051315525142910275 -0.022594190460995922 0 -0.0053619862761055802 -0.022781388248422654 0 -0.00526992527996651 -0.022245843529433346 0 -0.0051315525142910275 -0.022594190460995922 0 -0.0049812527835007116 -0.022780601692592526 0 -0.0051315525142910275 -0.022594190460995922 0 -0.0049229763155098118 -0.02257213765321096 0 -0.0050414164196134507 -0.022400966223302766 0 -0.0051315525142910275 -0.022594190460995922 0 -0.0049229763155098118 -0.02257213765321096 0 -0.0047586847905618087 -0.022354382367000249 0 -0.0050414164196134507 -0.022400966223302766 0 -0.0049229763155098118 -0.02257213765321096 0 -0.0049812527835007116 -0.022780601692592526 0 -0.0049229763155098118 -0.02257213765321096 0 -0.0047053188157476031 -0.022648166236993478 0 -0.0047586847905618087 -0.022354382367000249 0 -0.0049229763155098118 -0.02257213765321096 0 -0.0047053188157476031 -0.022648166236993478 0 -0.0053619862761055802 -0.022781388248422654 0 -0.0057128233679064168 -0.021690892157106113 0 -0.00526992527996651 -0.022245843529433346 0 -0.0053249281896532424 -0.02456004755018296 0 -0.0052258543888038661 -0.024274751411695439 0 -0.0052235613880930593 -0.024057870787262872 0 -0.0051712857422014681 -0.024265829862783278 0 -0.0051450393333092228 -0.02315728967210489 0 -0.0052235613880930593 -0.024057870787262872 0 -0.0051490423574332145 -0.02322249148447959 0 -0.0053072796925449283 -0.022304931860524711 0 -0.0051932389127865835 -0.024181700916505514 0 -0.0051712857422014681 -0.024265829862783278 0 -0.0052235613880930593 -0.024057870787262872 0 -0.0051932389127865835 -0.024181700916505514 0 -0.0052235613880930593 -0.024057870787262872 0 -0.0052053899232896569 -0.024177318074360105 0 -0.0052258543888038661 -0.024274751411695439 0 -0.0052235613880930593 -0.024057870787262872 0 -0.0052053899232896569 -0.024177318074360105 0 -0.005139133142809291 -0.024193242441161424 0 -0.0052053899232896569 -0.024177318074360105 0 -0.0051748873965134076 -0.024270634934565251 0 -0.005139133142809291 -0.024193242441161424 0 -0.0051036290847746683 -0.024271372425767442 0 -0.0051748873965134076 -0.024270634934565251 0 -0.0050580121204146684 -0.024184674627308798 0 -0.005139133142809291 -0.024193242441161424 0 -0.0051036290847746683 -0.024271372425767442 0 -0.0051036290847746683 -0.024271372425767442 0 -0.005114488550623927 -0.024380669665909932 0 -0.0051748873965134076 -0.024270634934565251 0 -0.005114488550623927 -0.024380669665909932 0 -0.0051748873965134076 -0.024270634934565251 0 -0.0052216367266205051 -0.024404961414372824 0 -0.0052258543888038661 -0.024274751411695439 0 -0.0051748873965134076 -0.024270634934565251 0 -0.0052216367266205051 -0.024404961414372824 0 -0.0052258543888038661 -0.024274751411695439 0 -0.0052053899232896569 -0.024177318074360105 0 -0.0051748873965134076 -0.024270634934565251 0 -0.0053249281896532424 -0.02456004755018296 0 -0.0052258543888038661 -0.024274751411695439 0 -0.0052216367266205051 -0.024404961414372824 0 -0.0052216367266205051 -0.024404961414372824 0 -0.0051579125790355319 -0.024495104697558577 0 -0.0052325345417295992 -0.024507807710698028 0 -0.005114488550623927 -0.024380669665909932 0 -0.0052216367266205051 -0.024404961414372824 0 -0.0051579125790355319 -0.024495104697558577 0 -0.0051579125790355319 -0.024495104697558577 0 -0.0051332404636931341 -0.024625313063229921 0 -0.0052073981392005411 -0.024579513479729358 0 -0.0051579125790355319 -0.024495104697558577 0 -0.0052073981392005411 -0.024579513479729358 0 -0.0052325345417295992 -0.024507807710698028 0 -0.0053249281896532424 -0.02456004755018296 0 -0.0052216367266205051 -0.024404961414372824 0 -0.0052325345417295992 -0.024507807710698028 0 -0.0052004260941609605 -0.024716421214020186 0 -0.0053249281896532424 -0.02456004755018296 0 -0.0052073981392005411 -0.024579513479729358 0 -0.0053249281896532424 -0.02456004755018296 0 -0.0052073981392005411 -0.024579513479729358 0 -0.0052325345417295992 -0.024507807710698028 0 -0.0050459126932420433 -0.02466307419497597 0 -0.0049664084079592561 -0.024527552748095215 0 -0.0049587401782947068 -0.024791369330804544 0 -0.0050459126932420433 -0.02466307419497597 0 -0.0050540998167245077 -0.024484221568166396 0 -0.0049664084079592561 -0.024527552748095215 0 -0.0051332404636931341 -0.024625313063229921 0 -0.0050459126932420433 -0.02466307419497597 0 -0.0050540998167245077 -0.024484221568166396 0 -0.0051579125790355319 -0.024495104697558577 0 -0.0051332404636931341 -0.024625313063229921 0 -0.0050540998167245077 -0.024484221568166396 0 -0.005114488550623927 -0.024380669665909932 0 -0.0051579125790355319 -0.024495104697558577 0 -0.0050540998167245077 -0.024484221568166396 0 -0.0050540998167245077 -0.024484221568166396 0 -0.0050182543784318768 -0.024341319243949128 0 -0.0049664084079592561 -0.024527552748095215 0 -0.0049861524236250532 -0.024241292261309069 0 -0.0050182543784318768 -0.024341319243949128 0 -0.0049450839991851637 -0.024356462972039476 0 -0.005114488550623927 -0.024380669665909932 0 -0.0050540998167245077 -0.024484221568166396 0 -0.0050182543784318768 -0.024341319243949128 0 -0.0051036290847746683 -0.024271372425767442 0 -0.005114488550623927 -0.024380669665909932 0 -0.0050182543784318768 -0.024341319243949128 0 -0.0050580121204146684 -0.024184674627308798 0 -0.0051036290847746683 -0.024271372425767442 0 -0.0050182543784318768 -0.024341319243949128 0 -0.0048807592254979442 -0.024261359079457243 0 -0.0049450839991851637 -0.024356462972039476 0 -0.0048699182994611252 -0.024445160333165645 0 -0.0049450839991851637 -0.024356462972039476 0 -0.0048699182994611252 -0.024445160333165645 0 -0.0049664084079592561 -0.024527552748095215 0 -0.0050182543784318768 -0.024341319243949128 0 -0.0049450839991851637 -0.024356462972039476 0 -0.0049664084079592561 -0.024527552748095215 0 -0.0046145855389944854 -0.02420501558008286 0 -0.0048153365754337726 -0.024077256573673742 0 -0.0048699182994611252 -0.024445160333165645 0 -0.0043533866663703763 -0.02230847707074823 0 -0.0042836208233638911 -0.023074919302327159 0 -0.0047823454380306139 -0.024654048125941172 0 -0.0046184737857787629 -0.024581001535806991 0 -0.0047382494421645341 -0.024877452980376632 0 -0.0048699182994611252 -0.024445160333165645 0 -0.0047823454380306139 -0.024654048125941172 0 -0.0048781021408555031 -0.024739324368338297 0 -0.0048699182994611252 -0.024445160333165645 0 -0.0047823454380306139 -0.024654048125941172 0 -0.0046184737857787629 -0.024581001535806991 0 -0.0048699182994611252 -0.024445160333165645 0 -0.0049664084079592561 -0.024527552748095215 0 -0.0048781021408555031 -0.024739324368338297 0 -0.0049664084079592561 -0.024527552748095215 0 -0.0049587401782947068 -0.024791369330804544 0 -0.0048781021408555031 -0.024739324368338297 0 -0.0041638962438746057 -0.024109630682737328 0 -0.0044115352914789715 -0.024303039287802423 0 -0.0042541791868433796 -0.024597702945490931 0 -0.0065152493489414268 -0.022013823408194483 0 -0.006523064000033353 -0.023256638723938003 0 -0.0044115352914789715 -0.024303039287802423 0 -0.0046184737857787629 -0.024581001535806991 0 -0.0042541791868433796 -0.024597702945490931 0 -0.0046145855389944854 -0.02420501558008286 0 -0.0048699182994611252 -0.024445160333165645 0 -0.0046184737857787629 -0.024581001535806991 0 -0.0046145855389944854 -0.02420501558008286 0 -0.0044115352914789715 -0.024303039287802423 0 -0.0046184737857787629 -0.024581001535806991 0 -0.0046184737857787629 -0.024581001535806991 0 -0.0042541791868433796 -0.024597702945490931 0 -0.0045476240463517125 -0.024867599128273608 0 -0.0044013144129658602 -0.025037503753510767 0 -0.0045476240463517125 -0.024867599128273608 0 -0.0046804471669407753 -0.025200503139527909 0 -0.006523064000033353 -0.023256638723938003 0 -0.0064954232071706575 -0.024181943624656817 0 -0.0042541791868433796 -0.024597702945490931 0 -0.0044013144129658602 -0.025037503753510767 0 -0.0045476240463517125 -0.024867599128273608 0 -0.0046184737857787629 -0.024581001535806991 0 -0.0045476240463517125 -0.024867599128273608 0 -0.0047382494421645341 -0.024877452980376632 0 -0.0045476240463517125 -0.024867599128273608 0 -0.0046804471669407753 -0.025200503139527909 0 -0.0047382494421645341 -0.024877452980376632 0 -0.0044013144129658602 -0.025037503753510767 0 -0.0046804471669407753 -0.025200503139527909 0 -0.0046883831405881227 -0.02540118103843475 0 -0.0064954232071706575 -0.024181943624656817 0 -0.0064212957897359004 -0.024781496341036258 0 -0.0048483300317059119 -0.024939252209409495 0 -0.0049587401782947068 -0.024791369330804544 0 -0.0049114297875420352 -0.025019204402633003 0 -0.0048483300317059119 -0.024939252209409495 0 -0.0049587401782947068 -0.024791369330804544 0 -0.0048781021408555031 -0.024739324368338297 0 -0.0048483300317059119 -0.024939252209409495 0 -0.0048781021408555031 -0.024739324368338297 0 -0.0047382494421645341 -0.024877452980376632 0 -0.0047823454380306139 -0.024654048125941172 0 -0.0048781021408555031 -0.024739324368338297 0 -0.0047382494421645341 -0.024877452980376632 0 -0.0048483300317059119 -0.024939252209409495 0 -0.0047382494421645341 -0.024877452980376632 0 -0.004782583290767352 -0.025113449579089717 0 -0.0046804471669407753 -0.025200503139527909 0 -0.0047382494421645341 -0.024877452980376632 0 -0.004782583290767352 -0.025113449579089717 0 -0.0046804471669407753 -0.025200503139527909 0 -0.004782583290767352 -0.025113449579089717 0 -0.0047516731137998433 -0.025370941750343188 0 -0.004782583290767352 -0.025113449579089717 0 -0.0049114297875420352 -0.025019204402633003 0 -0.0048092037866728204 -0.025209677954222416 0 -0.0048483300317059119 -0.024939252209409495 0 -0.004782583290767352 -0.025113449579089717 0 -0.0049114297875420352 -0.025019204402633003 0 -0.0049114297875420352 -0.025019204402633003 0 -0.0049040649744552566 -0.025178520540201855 0 -0.0048092037866728204 -0.025209677954222416 0 -0.0049040649744552566 -0.025178520540201855 0 -0.004764877074859405 -0.025324975200942498 0 -0.0048092037866728204 -0.025209677954222416 0 -0.004782583290767352 -0.025113449579089717 0 -0.0048092037866728204 -0.025209677954222416 0 -0.0047516731137998433 -0.025370941750343188 0 -0.004764877074859405 -0.025324975200942498 0 -0.0048092037866728204 -0.025209677954222416 0 -0.0047516731137998433 -0.025370941750343188 0 -0.004764877074859405 -0.025324975200942498 0 -0.0047516731137998433 -0.025370941750343188 0 -0.0046550757820522639 -0.025453952939612338 0 -0.0047516731137998433 -0.025370941750343188 0 -0.0046550757820522639 -0.025453952939612338 0 -0.004799627578760352 -0.025492744607057399 0 -0.0046550757820522639 -0.025453952939612338 0 -0.0046978730587096057 -0.025421803156314225 0 -0.0045446233986708197 -0.025480280249371996 0 -0.004764877074859405 -0.025324975200942498 0 -0.0046978730587096057 -0.025421803156314225 0 -0.0050303173293543384 -0.025264793754239939 0 -0.0046978730587096057 -0.025421803156314225 0 -0.0045446233986708197 -0.025480280249371996 0 -0.0047612577119552617 -0.025485045378533581 0 -0.004764877074859405 -0.025324975200942498 0 -0.0046550757820522639 -0.025453952939612338 0 -0.0046978730587096057 -0.025421803156314225 0 -0.0046804471669407753 -0.025200503139527909 0 -0.0046883831405881227 -0.02540118103843475 0 -0.0048810297491337562 -0.025499094116613445 0 -0.0046804471669407753 -0.025200503139527909 0 -0.0047516731137998433 -0.025370941750343188 0 -0.0048810297491337562 -0.025499094116613445 0 -0.0047516731137998433 -0.025370941750343188 0 -0.0048810297491337562 -0.025499094116613445 0 -0.004799627578760352 -0.025492744607057399 0 -0.0064212957897359004 -0.024781496341036258 0 -0.0063340579341171393 -0.024935587621850181 0 -0.0046883831405881227 -0.02540118103843475 0 -0.0048810297491337562 -0.025499094116613445 0 -0.0052625600041474466 -0.025531945021211911 0 -0.0048810297491337562 -0.025499094116613445 0 -0.0052625600041474466 -0.025531945021211911 0 -0.005187004824807862 -0.025426897165555594 0 -0.0048810297491337562 -0.025499094116613445 0 -0.005187004824807862 -0.025426897165555594 0 -0.004799627578760352 -0.025492744607057399 0 -0.005187004824807862 -0.025426897165555594 0 -0.004799627578760352 -0.025492744607057399 0 -0.0046947979616162984 -0.025332219749167915 0 -0.005187004824807862 -0.025426897165555594 0 -0.0050275094652989273 -0.02499969739725192 0 -0.0046947979616162984 -0.025332219749167915 0 -0.0052625600041474466 -0.025531945021211911 0 -0.005187004824807862 -0.025426897165555594 0 -0.006247721616973869 -0.024999991164361361 0 -0.005187004824807862 -0.025426897165555594 0 -0.0050275094652989273 -0.02499969739725192 0 -0.006247721616973869 -0.024999991164361361 0 -0.0063340579341171393 -0.024935587621850181 0 -0.0062492459325553459 -0.024999603504480012 0 -0.0045446233986708197 -0.025480280249371996 0 -0.0045184395988195217 -0.025434225616855117 0 -0.0043341474399564879 -0.025365616835936629 0 -0.0045184395988195217 -0.025434225616855117 0 -0.0042984524726509691 -0.025307129808803151 0 -0.0043341474399564879 -0.025365616835936629 0 -0.003835571482054875 -0.024805640204783725 0 -0.0040190813309448504 -0.024094820546027202 0 -0.0034291235894640527 -0.025743903652453614 0 -0.002857114678077853 -0.025847635826192157 0 -0.0030654977448635514 -0.026472412376069902 0 -0.0045446233986708197 -0.025480280249371996 0 -0.0043341474399564879 -0.025365616835936629 0 -0.0045164855672911496 -0.025511702784483451 0 -0.0040361862743959259 -0.024132927190266235 0 -0.0040190813309448504 -0.024094820546027202 0 -0.0046550757820522639 -0.025453952939612338 0 -0.0045446233986708197 -0.025480280249371996 0 -0.0045184395988195217 -0.025434225616855117 0 -0.0046550757820522639 -0.025453952939612338 0 -0.004799627578760352 -0.025492744607057399 0 -0.0045184395988195217 -0.025434225616855117 0 -0.004799627578760352 -0.025492744607057399 0 -0.0045184395988195217 -0.025434225616855117 0 -0.0046947979616162984 -0.025332219749167915 0 -0.0050275094652989273 -0.02499969739725192 0 -0.0046947979616162984 -0.025332219749167915 0 -0.0038078199306297278 -0.025000085623197041 0 -0.0042984524726509691 -0.025307129808803151 0 -0.0046947979616162984 -0.025332219749167915 0 -0.0038078199306297278 -0.025000085623197041 0 -0.0045184395988195217 -0.025434225616855117 0 -0.0042984524726509691 -0.025307129808803151 0 -0.0046947979616162984 -0.025332219749167915 0 -0.0038063136814971837 -0.024999683477031603 0 -0.003835571482054875 -0.024805640204783725 0 -0.0038062760731469416 -0.024999992508839001 0 -0.0034291235894640527 -0.025743903652453614 0 -0.00275401124677088 -0.024999976783494009 0 -0.0042984524726509691 -0.025307129808803151 0 -0.0038078199306297278 -0.025000085623197041 0 -0.0043341474399564879 -0.025365616835936629 0 -0.0034291235894640527 -0.025743903652453614 0 -0.00275401124677088 -0.024999976783494009 0 -0.002857114678077853 -0.025847635826192157 0 -0.00275401124677088 -0.024999976783494009 0 -0.0022350531974404285 -0.025879821634632528 0 -0.002857114678077853 -0.025847635826192157 0 -0.00275401124677088 -0.024999976783494009 0 -0.001701927901557422 -0.025000010234857983 0 -0.0022350531974404285 -0.025879821634632528 0 -0.001701927901557422 -0.025000010234857983 0 -0.0022350531974404285 -0.025879821634632528 0 -0.0015190674545024366 -0.025876577922294482 0 -0.0022350531974404285 -0.025879821634632528 0 -0.0018202081531110126 -0.026988203540874021 0 -0.0015190674545024366 -0.025876577922294482 0 -0.0022350531974404285 -0.025879821634632528 0 -0.0030654977448635514 -0.026472412376069902 0 -0.0018202081531110126 -0.026988203540874021 0 -0.0022350531974404285 -0.025879821634632528 0 -0.002857114678077853 -0.025847635826192157 0 -0.0030654977448635514 -0.026472412376069902 0 -0.0064226725047802488 -0.019782472809992596 0 -0.0054059460977352904 -0.020211090068847869 0 -0.0060336399089026471 -0.020633530731105704 0 -0.0040190813309448504 -0.024094820546027202 0 -0.0035142723000369468 -0.023577173256387952 0 -0.0046978730587096057 -0.025421803156314225 0 -0.0047612577119552617 -0.025485045378533581 0 -0.0050303173293543384 -0.025264793754239939 0 -0.0040190813309448504 -0.024094820546027202 0 -0.0049674946416291884 -0.023183398259198441 0 -0.0053863993382048322 -0.021076168245475379 0 -0.0053463230014250155 -0.020773496847712472 0 -0.0060336399089026471 -0.020633530731105704 0 -0.0054059460977352904 -0.020211090068847869 0 -0.0053463230014250155 -0.020773496847712472 0 -0.0060336399089026471 -0.020633530731105704 0 -0.0054059460977352904 -0.020211090068847869 0 -0.0053463230014250155 -0.020773496847712472 0 -0.0049599260768715802 -0.02078560542494641 0 -0.0053863993382048322 -0.021076168245475379 0 -0.0050247628015883308 -0.02102600633096996 0 -0.0053463230014250155 -0.020773496847712472 0 -0.0049040649744552566 -0.025178520540201855 0 -0.004764877074859405 -0.025324975200942498 0 -0.0050303173293543384 -0.025264793754239939 0 -0.0050496049924815961 -0.025051305632631291 0 -0.0049040649744552566 -0.025178520540201855 0 -0.0050303173293543384 -0.025264793754239939 0 -0.0043024677983446126 -0.021051042995678823 0 -0.0043574713415886167 -0.020738766442086769 0 -0.0037444172503555417 -0.021001849800370304 0 -0.0043024677983446126 -0.021051042995678823 0 -0.0043631954858740747 -0.020661663370921245 0 -0.0046678856100110739 -0.020930028173428847 0 -0.0027656009403700058 -0.022793818575185802 0 -0.002642766462342155 -0.023172533135922057 0 -0.0050247628015883308 -0.02102600633096996 0 -0.0046678856100110739 -0.020930028173428847 0 -0.0049599260768715802 -0.02078560542494641 0 -0.0054059460977352904 -0.020211090068847869 0 -0.0043631954858740747 -0.020661663370921245 0 -0.0049599260768715802 -0.02078560542494641 0 -0.0035142723000369468 -0.023577173256387952 0 -0.002642766462342155 -0.023172533135922057 0 -0.0043631954858740747 -0.020661663370921245 0 -0.0046678856100110739 -0.020930028173428847 0 -0.0049599260768715802 -0.02078560542494641 0 -0.0050247628015883308 -0.02102600633096996 0 -0.0053463230014250155 -0.020773496847712472 0 -0.0049599260768715802 -0.02078560542494641 0 -0.0018202081531110126 -0.026988203540874021 0 -0.00062215665277038702 -0.027497130112275555 0 -0.000822465001931396 -0.02634105108085007 0 -0.002642766462342155 -0.023172533135922057 0 -0.0015462778153251641 -0.024592074176899466 0 -0.00090505903044009212 -0.023385070283623462 0 -0.00090676929132975359 -0.023366519914973339 0 -0.0008905836521507657 -0.02337378408492782 0 -0.00090676929132975359 -0.023366519914973339 0 -0.00089554356577542093 -0.02335964152439569 0 -0.0008905836521507657 -0.02337378408492782 0 -0.00090676929132975359 -0.023366519914973339 0 -0.00089554356577542093 -0.02335964152439569 0 -0.00090916245086793438 -0.023349604628407798 0 -0.0015462778153251641 -0.024592074176899466 0 -0.0010193392565221678 -0.024883469985751878 0 -0.000822465001931396 -0.02634105108085007 0 -0.0015190674545024366 -0.025876577922294482 0 -0.001018485980875864 -0.025162002641016042 0 -0.0018202081531110126 -0.026988203540874021 0 -0.000822465001931396 -0.02634105108085007 0 -0.0015190674545024366 -0.025876577922294482 0 -0.001701927901557422 -0.025000010234857983 0 -0.0015190674545024366 -0.025876577922294482 0 -0.001018485980875864 -0.025162002641016042 0 -0.0010193392565221678 -0.024883469985751878 0 -0.00098209603088915865 -0.024999173941733177 0 -0.0017005909166913781 -0.024999428204893585 0 -0.0010193392565221678 -0.024883469985751878 0 -0.0017018000452218257 -0.024999999595822997 0 -0.00095179012473560682 -0.025165104786630317 0 -0.00098170422688739355 -0.024999998844507695 0 -0.00089554356577542093 -0.02335964152439569 0 -0.00090916245086793438 -0.023349604628407798 0 -0.00089002923827815846 -0.023348735517056705 0 -0.0010193392565221678 -0.024883469985751878 0 -0.00038128480770999602 -0.024585775373862334 0 -0.00095178843748000119 -0.025164991711858448 0 -0.00098169298910965631 -0.024999998769927666 0 0.00019999052755923226 -0.025416279587820889 0 -0.00098169298910965631 -0.024999998769927666 0 0.00019999052755923226 -0.025416279587820889 0 0.00046516553771593761 -0.02499999539294186 0 -0.00038128480770999602 -0.024585775373862334 0 0.0002553072855330065 -0.02438947189308548 0 0.00019999052755923226 -0.025416279587820889 0 0.00046516553771593761 -0.02499999539294186 0 0.0013375369203189676 -0.025663289923316623 0 0.00046518455643501037 -0.024999998972061191 0 0.001805576232216105 -0.024999998149888181 0 0.0015705513027160401 -0.025410884326827594 0 0.00046622195359968284 -0.025000384925087136 0 0.0013963888164341967 -0.02534623848357687 0 0.00046516553771593761 -0.02499999539294186 0 0.0013375369203189676 -0.025663289923316623 0 0.0015563376882012806 -0.025403026368493068 0 -0.00086377352302414708 -0.023344892498081693 0 -0.00087822786190807354 -0.023361857812884287 0 -0.00085947397542509619 -0.023368401629996489 0 -0.00089002923827815846 -0.023348735517056705 0 -0.00086377352302414708 -0.023344892498081693 0 -0.00087822786190807354 -0.023361857812884287 0 -0.00089554356577542093 -0.02335964152439569 0 -0.00089002923827815846 -0.023348735517056705 0 -0.00087822786190807354 -0.023361857812884287 0 -0.00089554356577542093 -0.02335964152439569 0 -0.00087822786190807354 -0.023361857812884287 0 -0.0008905836521507657 -0.02337378408492782 0 0.0022615624569562111 -0.025357119924945454 0 0.001805576232216105 -0.024999998149888181 0 0.0031459600308938055 -0.024999996728566669 0 0.0022615624569562111 -0.025357119924945454 0 0.0026703522242947256 -0.025818740585257866 0 0.0031459600308938055 -0.024999996728566669 0 0.0015563376882012806 -0.025403026368493068 0 0.0024962963195407921 -0.025922121363523076 0 0.0026703522242947256 -0.025818740585257866 0 0.0013375369203189676 -0.025663289923316623 0 0.0015563376882012806 -0.025403026368493068 0 0.0024962963195407921 -0.025922121363523076 0 0.0013963888164341967 -0.02534623848357687 0 0.0019011954941825446 -0.025534076118568165 0 0.0022615624569562111 -0.025357119924945454 0 0.0015705513027160401 -0.025410884326827594 0 0.0026703522242947256 -0.025818740585257866 0 0.0022615624569562111 -0.025357119924945454 0 0.001805576232216105 -0.024999998149888181 0 0.0015705513027160401 -0.025410884326827594 0 -0.00081950092973158081 -0.023344040237373326 0 -0.00083404223443484687 -0.023376817430217044 0 -0.00085947397542509619 -0.023368401629996489 0 0.0002553072855330065 -0.02438947189308548 0 0.00087264786299645451 -0.02413166214332315 0 -0.00086377352302414708 -0.023344892498081693 0 -0.00081950092973158081 -0.023344040237373326 0 -0.00085947397542509619 -0.023368401629996489 0 -0.00081950092973158081 -0.023344040237373326 0 -0.00080875821503388439 -0.023390279872795509 0 -0.00076606167227700789 -0.02335251653579808 0 0.0024962963195407921 -0.025922121363523076 0 0.0026703522242947256 -0.025818740585257866 0 0.003648258517142657 -0.026175001246586071 0 0.00087264786299645451 -0.02413166214332315 0 0.0013515792065749894 -0.023598704051192108 0 -0.00081950092973158081 -0.023344040237373326 0 -0.00080875821503388439 -0.023390279872795509 0 -0.00083404223443484687 -0.023376817430217044 0 -0.00080875821503388439 -0.023390279872795509 0 -0.00083404223443484687 -0.023376817430217044 0 -0.00085119874366270949 -0.023396498480780986 0 -0.00083404223443484687 -0.023376817430217044 0 -0.00085947397542509619 -0.023368401629996489 0 -0.00085119874366270949 -0.023396498480780986 0 -0.001203679436010175 -0.02302981785279112 0 -0.0012693681452179723 -0.022858212078404969 0 -0.00080875821503388439 -0.023390279872795509 0 -0.00085119874366270949 -0.023396498480780986 0 -0.00084579187546680076 -0.023422342280241083 0 -0.0012693681452179723 -0.022858212078404969 0 -0.0015097949629392588 -0.022175019048359283 0 -0.00086398555087036988 -0.023378420734578204 0 -0.00086447994062417949 -0.023387276631272866 0 -0.00087151636846350918 -0.023385148855739113 0 -0.0021999682100295702 -0.019219935565337642 0 -0.0029535871318279497 -0.020053474363498067 0 -0.0022202391588389582 -0.020306737409523441 0 -0.00034458828840930756 -0.022460136358727546 0 -0.0015097949629392588 -0.022175019048359283 0 -0.0021999682100295702 -0.019219935565337642 0 -0.0022202391588389582 -0.020306737409523441 0 -0.0014921525865274838 -0.020058127384975939 0 -0.00087822786190807354 -0.023361857812884287 0 -0.0008905836521507657 -0.02337378408492782 0 -0.00087470570122517442 -0.023377308202808651 0 -0.00087822786190807354 -0.023361857812884287 0 -0.00085947397542509619 -0.023368401629996489 0 -0.00087470570122517442 -0.023377308202808651 0 -0.00085947397542509619 -0.023368401629996489 0 -0.00086398555087036988 -0.023378420734578204 0 -0.00087470570122517442 -0.023377308202808651 0 -0.00087470570122517442 -0.023377308202808651 0 -0.00087151636846350918 -0.023385148855739113 0 -0.00088636350559091932 -0.023390361811314687 0 -0.00086398555087036988 -0.023378420734578204 0 -0.00087470570122517442 -0.023377308202808651 0 -0.00087151636846350918 -0.023385148855739113 0 -0.0008905836521507657 -0.02337378408492782 0 -0.00087470570122517442 -0.023377308202808651 0 -0.00088636350559091932 -0.023390361811314687 0 -0.00090505903044009212 -0.023385070283623462 0 -0.0008905836521507657 -0.02337378408492782 0 -0.00088636350559091932 -0.023390361811314687 0 -0.002642766462342155 -0.023172533135922057 0 -0.0023437001437611868 -0.02250480564093987 0 -0.0043024677983446126 -0.021051042995678823 0 -0.0037444172503555417 -0.021001849800370304 0 -0.0040309466322159095 -0.021348704755493199 0 -0.0037444172503555417 -0.021001849800370304 0 -0.003649451076955996 -0.02138957974555834 0 -0.0040309466322159095 -0.021348704755493199 0 -0.004788611660442664 -0.021501792630372482 0 -0.0040761622523912662 -0.021635011690573101 0 -0.0050986310961773319 -0.020972623434502173 0 -0.0046786176946356402 -0.021576126546326242 0 -0.0040881368654820558 -0.021341739701142486 0 -0.003649451076955996 -0.02138957974555834 0 -0.0040309466322159095 -0.021348704755493199 0 -0.0036518965828516783 -0.021740474506236621 0 -0.0043903250408237537 -0.021635587240706942 0 -0.0040309466322159095 -0.021348704755493199 0 -0.0036518965828516783 -0.021740474506236621 0 -0.0036518965828516783 -0.021740474506236621 0 -0.0033908670778234756 -0.021559688553973118 0 -0.0030836871648841353 -0.02179822291121937 0 -0.0033908670778234756 -0.021559688553973118 0 -0.0031427945411539185 -0.021531931228602415 0 -0.0030836871648841353 -0.02179822291121937 0 -0.003649451076955996 -0.02138957974555834 0 -0.0033908670778234756 -0.021559688553973118 0 -0.003299448938436771 -0.021318498398497681 0 -0.003649451076955996 -0.02138957974555834 0 -0.0036518965828516783 -0.021740474506236621 0 -0.0033908670778234756 -0.021559688553973118 0 -0.0033908670778234756 -0.021559688553973118 0 -0.0032471925953178747 -0.021449578749848847 0 -0.0031427945411539185 -0.021531931228602415 0 -0.0033908670778234756 -0.021559688553973118 0 -0.0032471925953178747 -0.021449578749848847 0 -0.003299448938436771 -0.021318498398497681 0 -0.0032471925953178747 -0.021449578749848847 0 -0.003299448938436771 -0.021318498398497681 0 -0.003162268208980518 -0.021386335751000494 0 -0.003299448938436771 -0.021318498398497681 0 -0.003224975409934926 -0.021238654207119827 0 -0.003162268208980518 -0.021386335751000494 0 -0.00087151636846350918 -0.023385148855739113 0 -0.00088636350559091932 -0.023390361811314687 0 -0.00087082398054728373 -0.023393352649772305 0 -0.0037444172503555417 -0.021001849800370304 0 -0.003649451076955996 -0.02138957974555834 0 -0.003299448938436771 -0.021318498398497681 0 -0.0023437001437611868 -0.02250480564093987 0 -0.0018963117769640867 -0.022033724139359306 0 -0.0037444172503555417 -0.021001849800370304 0 -0.003299448938436771 -0.021318498398497681 0 -0.003213436213707802 -0.021224056227345627 0 -0.0019160476149029195 -0.022034291515446822 0 -0.0018963117769640867 -0.022033724139359306 0 -0.00086447994062417949 -0.023387276631272866 0 -0.00087151636846350918 -0.023385148855739113 0 -0.00087082398054728373 -0.023393352649772305 0 -0.0015952146474115633 -0.021928251374233206 0 -0.0017063836140086901 -0.022051112700385414 0 -0.001552331211286856 -0.022118779174141994 0 -0.0029535871318279497 -0.020053474363498067 0 -0.0028138411248103019 -0.020667034261610869 0 -0.0022202391588389582 -0.020306737409523441 0 -0.0015097949629392588 -0.022175019048359283 0 -0.0018963117769640867 -0.022033724139359306 0 -0.0015097949629392588 -0.022175019048359283 0 -0.002085217638871133 -0.021657173339068931 0 -0.003224975409934926 -0.021238654207119827 0 -0.0029800135324953634 -0.021339542337683506 0 -0.003162268208980518 -0.021386335751000494 0 -0.0018963117769640867 -0.022033724139359306 0 -0.002085217638871133 -0.021657173339068931 0 -0.0028138411248103019 -0.020667034261610869 0 -0.0022202391588389582 -0.020306737409523441 0 -0.0022712512909751573 -0.0209063158131906 0 -0.0022202391588389582 -0.020306737409523441 0 -0.0022712512909751573 -0.0209063158131906 0 -0.0017328015956595496 -0.020916459808803394 0 -0.0028149713636565401 -0.020667111880431032 0 -0.0022712512909751573 -0.0209063158131906 0 -0.0026274523574852894 -0.021535304471516629 0 -0.0022712512909751573 -0.0209063158131906 0 -0.0021587556209578251 -0.021337214483729331 0 -0.0017328015956595496 -0.020916459808803394 0 -0.002085217638871133 -0.021657173339068931 0 -0.0022277281297248906 -0.021543706437449489 0 -0.0022712512909751573 -0.0209063158131906 0 -0.0021587556209578251 -0.021337214483729331 0 -0.0026274523574852894 -0.021535304471516629 0 -0.002085217638871133 -0.021657173339068931 0 -0.0022863213028483996 -0.021716052948972484 0 -0.0029800135324953634 -0.021339542337683506 0 -0.0030004688522555717 -0.021598180762114744 0 -0.002802799166273282 -0.021732175110800288 0 -0.0029800135324953634 -0.021339542337683506 0 -0.0031427945411539185 -0.021531931228602415 0 -0.003162268208980518 -0.021386335751000494 0 -0.0029800135324953634 -0.021339542337683506 0 -0.0031427945411539185 -0.021531931228602415 0 -0.0030004688522555717 -0.021598180762114744 0 -0.0032471925953178747 -0.021449578749848847 0 -0.0031427945411539185 -0.021531931228602415 0 -0.003162268208980518 -0.021386335751000494 0 -0.0031427945411539185 -0.021531931228602415 0 -0.0030004688522555717 -0.021598180762114744 0 -0.0030836871648841353 -0.02179822291121937 0 -0.002802799166273282 -0.021732175110800288 0 -0.00247315321813608 -0.022412142375963718 0 -0.0029533700072790691 -0.022220686926392303 0 -0.0030004688522555717 -0.021598180762114744 0 -0.0030836871648841353 -0.02179822291121937 0 -0.002802799166273282 -0.021732175110800288 0 -0.0030836871648841353 -0.02179822291121937 0 -0.002802799166273282 -0.021732175110800288 0 -0.0029533700072790691 -0.022220686926392303 0 -0.0030836871648841353 -0.02179822291121937 0 -0.0029533700072790691 -0.022220686926392303 0 -0.0033181883903501586 -0.02217633521384163 0 -0.0022863213028483996 -0.021716052948972484 0 -0.0022960015905805222 -0.02193268759841354 0 -0.0026274523574852894 -0.021535304471516629 0 -0.0021695480771213487 -0.021781099997168572 0 -0.00247315321813608 -0.022412142375963718 0 -0.0021587556209578251 -0.021337214483729331 0 -0.0021695480771213487 -0.021781099997168572 0 -0.00179158401432042 -0.021564018061212251 0 -0.0021587556209578251 -0.021337214483729331 0 -0.0026274523574852894 -0.021535304471516629 0 -0.0021695480771213487 -0.021781099997168572 0 -0.00247315321813608 -0.022412142375963718 0 -0.001824426442186933 -0.022134524482748164 0 -0.002058930423323379 -0.02293529389100573 0 -0.0021695480771213487 -0.021781099997168572 0 -0.00247315321813608 -0.022412142375963718 0 -0.001824426442186933 -0.022134524482748164 0 -0.0029533700072790691 -0.022220686926392303 0 -0.0032991904660076938 -0.022557589373759158 0 -0.0033181883903501586 -0.02217633521384163 0 -0.00247315321813608 -0.022412142375963718 0 -0.0029533700072790691 -0.022220686926392303 0 -0.0028012396097420885 -0.022810666962312518 0 -0.0029533700072790691 -0.022220686926392303 0 -0.0032991904660076938 -0.022557589373759158 0 -0.0028012396097420885 -0.022810666962312518 0 -0.0032991904660076938 -0.022557589373759158 0 -0.0036559448821815218 -0.022386649474075277 0 -0.0036768998841312777 -0.022753135651503924 0 -0.0032991904660076938 -0.022557589373759158 0 -0.0033181883903501586 -0.02217633521384163 0 -0.0036559448821815218 -0.022386649474075277 0 -0.0033181883903501586 -0.02217633521384163 0 -0.0036559448821815218 -0.022386649474075277 0 -0.0037063530875807642 -0.02196627353107394 0 -0.0036559448821815218 -0.022386649474075277 0 -0.0040421986573486871 -0.022278271045967447 0 -0.0037063530875807642 -0.02196627353107394 0 -0.0036559448821815218 -0.022386649474075277 0 -0.0040084692503414357 -0.022635478915552225 0 -0.0040421986573486871 -0.022278271045967447 0 -0.0036559448821815218 -0.022386649474075277 0 -0.0040084692503414357 -0.022635478915552225 0 -0.0036768998841312777 -0.022753135651503924 0 -0.0040084692503414357 -0.022635478915552225 0 -0.0043999796362717558 -0.022483504028117621 0 -0.0040421986573486871 -0.022278271045967447 0 -0.0040084692503414357 -0.022635478915552225 0 -0.0043999796362717558 -0.022483504028117621 0 -0.0043645367460382663 -0.02277248257645454 0 -0.0047053188157476031 -0.022648166236993478 0 -0.0043999796362717558 -0.022483504028117621 0 -0.0043645367460382663 -0.02277248257645454 0 -0.0047586847905618087 -0.022354382367000249 0 -0.0047053188157476031 -0.022648166236993478 0 -0.0043999796362717558 -0.022483504028117621 0 -0.0047586847905618087 -0.022354382367000249 0 -0.0043999796362717558 -0.022483504028117621 0 -0.0043911684291978482 -0.022203508645630116 0 -0.0047216564429583959 -0.021969975094070709 0 -0.0047586847905618087 -0.022354382367000249 0 -0.0043911684291978482 -0.022203508645630116 0 -0.0043911684291978482 -0.022203508645630116 0 -0.0040421986573486871 -0.022278271045967447 0 -0.0042564534291611765 -0.021882714379299565 0 -0.0043999796362717558 -0.022483504028117621 0 -0.0043911684291978482 -0.022203508645630116 0 -0.0040421986573486871 -0.022278271045967447 0 -0.0040421986573486871 -0.022278271045967447 0 -0.0042564534291611765 -0.021882714379299565 0 -0.0037063530875807642 -0.02196627353107394 0 -0.0047216564429583959 -0.021969975094070709 0 -0.0043911684291978482 -0.022203508645630116 0 -0.0042564534291611765 -0.021882714379299565 0 -0.0046786176946356402 -0.021576126546326242 0 -0.0047216564429583959 -0.021969975094070709 0 -0.0042564534291611765 -0.021882714379299565 0 -0.0046786176946356402 -0.021576126546326242 0 -0.0040881368654820558 -0.021341739701142486 0 -0.0042564534291611765 -0.021882714379299565 0 -0.0040881368654820558 -0.021341739701142486 0 -0.0042564534291611765 -0.021882714379299565 0 -0.0037063530875807642 -0.02196627353107394 0 -0.0040881368654820558 -0.021341739701142486 0 -0.0030836871648841353 -0.02179822291121937 0 -0.0037063530875807642 -0.02196627353107394 0 -0.0040761622523912662 -0.021635011690573101 0 -0.0036882480648438311 -0.021737411223159024 0 -0.0030836871648841353 -0.02179822291121937 0 -0.0033181883903501586 -0.02217633521384163 0 -0.0037063530875807642 -0.02196627353107394 0 -0.00024488083706304334 -0.022026804337995642 0 -0.0010280244283855573 -0.021427249138593084 0 0.00017722248090158634 -0.021143984938142162 0 0.0005300504966052798 -0.022006508336800644 0 0.00017722248090158634 -0.021143984938142162 0 0.0012506315563629226 -0.021740573268380137 0 0.0005300504966052798 -0.022006508336800644 0 -0.00024488083706304334 -0.022026804337995642 0 0.00017722248090158634 -0.021143984938142162 0 0.0005300504966052798 -0.022006508336800644 0 -0.00024488083706304334 -0.022026804337995642 0 0.0004989113040725525 -0.022753875257246439 0 -0.00024488083706304334 -0.022026804337995642 0 -0.00032807572021011165 -0.022702438817275395 0 0.0004989113040725525 -0.022753875257246439 0 -0.001233682446489665 -0.02228826608415822 0 -0.0010909096135760237 -0.021510093475638311 0 -0.00024488083706304334 -0.022026804337995642 0 -0.0012223113427646194 -0.022343078587149696 0 -0.0010280244283855573 -0.021427249138593084 0 -0.00024488083706304334 -0.022026804337995642 0 -0.0012223113427646194 -0.022343078587149696 0 -0.00032807572021011165 -0.022702438817275395 0 -0.0013272002464801657 -0.022510853566203644 0 -0.001824426442186933 -0.022134524482748164 0 -0.002058930423323379 -0.02293529389100573 0 -0.0013272002464801657 -0.022510853566203644 0 -0.001824426442186933 -0.022134524482748164 0 -0.0011454376860640608 -0.021585986242304983 0 -0.001824426442186933 -0.022134524482748164 0 -0.00179158401432042 -0.021564018061212251 0 -0.0011454376860640608 -0.021585986242304983 0 -0.0021695480771213487 -0.021781099997168572 0 -0.001824426442186933 -0.022134524482748164 0 -0.00179158401432042 -0.021564018061212251 0 -0.0010909096135760237 -0.021510093475638311 0 -0.00095028251937771455 -0.020738568320295039 0 -0.0010280244283855573 -0.021427249138593084 0 -0.00086434061210874933 -0.020547617535023294 0 0.00017722248090158634 -0.021143984938142162 0 -0.00179158401432042 -0.021564018061212251 0 -0.0011454376860640608 -0.021585986242304983 0 -0.0017328015956595496 -0.020916459808803394 0 -0.0011454376860640608 -0.021585986242304983 0 -0.0017328015956595496 -0.020916459808803394 0 -0.0009514616637438391 -0.020644539517515468 0 -0.0021587556209578251 -0.021337214483729331 0 -0.00179158401432042 -0.021564018061212251 0 -0.0017328015956595496 -0.020916459808803394 0 -0.0017328015956595496 -0.020916459808803394 0 -0.0009514616637438391 -0.020644539517515468 0 -0.0014921525865274838 -0.020058127384975939 0 -0.0022202391588389582 -0.020306737409523441 0 -0.0017328015956595496 -0.020916459808803394 0 -0.0014921525865274838 -0.020058127384975939 0 -0.00095028251937771455 -0.020738568320295039 0 -0.00087664761402823715 -0.020325574829849112 0 -0.0009514616637438391 -0.020644539517515468 0 -0.0014921525865274838 -0.020058127384975939 0 -0.00074492579503569853 -0.019675297965373217 0 -0.00086434061210874933 -0.020547617535023294 0 -5.2879462213953357e-05 -0.02035356423664382 0 -0.00074492579503569853 -0.019675297965373217 0 -0.00086434061210874933 -0.020547617535023294 0 -5.2879462213953357e-05 -0.02035356423664382 0 0.00017722248090158634 -0.021143984938142162 0 0.0016642750620456744 -0.021187341608588994 0 0.0024824985460300212 -0.020739745244625789 0 -5.2879462213953357e-05 -0.02035356423664382 0 0.00017722248090158634 -0.021143984938142162 0 0.00075579431936334258 -0.020211817937310909 0 -5.2879462213953357e-05 -0.02035356423664382 0 0.00019595865406768964 -0.01957092439851657 0 0.00075579431936334258 -0.020211817937310909 0 0.00019595865406768964 -0.01957092439851657 0 0.00078898067349300355 -0.019404473058931192 0 0.00085842567182110635 -0.020317663532955024 0 0.001661970454782161 -0.020057692889440357 0 0.0024824985460300212 -0.020739745244625789 0 -5.2879462213953357e-05 -0.02035356423664382 0 0.00019595865406768964 -0.01957092439851657 0 -0.00074492579503569853 -0.019675297965373217 0 0.00019595865406768964 -0.01957092439851657 0 -0.00074492579503569853 -0.019675297965373217 0 -0.00042377912735757105 -0.018610918620363615 0 0.0035264769829442431 -0.0227120307838998 0 0.0022564515546662457 -0.0229988725369774 0 0.00019595865406768964 -0.01957092439851657 0 0.00059124376077259485 -0.018824639023432458 0 -0.00042377912735757105 -0.018610918620363615 0 0.00019595865406768964 -0.01957092439851657 0 0.00078898067349300355 -0.019404473058931192 0 0.00059124376077259485 -0.018824639023432458 0 -0.0021999682100295702 -0.019219935565337642 0 -0.0014921525865274838 -0.020058127384975939 0 -0.0014239858123134348 -0.019286496390059974 0 -0.0014921525865274838 -0.020058127384975939 0 -0.00074492579503569853 -0.019675297965373217 0 -0.0014239858123134348 -0.019286496390059974 0 -0.00074492579503569853 -0.019675297965373217 0 -0.0014239858123134348 -0.019286496390059974 0 -0.00042377912735757105 -0.018610918620363615 0 -0.0014239858123134348 -0.019286496390059974 0 -0.0014366955180029038 -0.018389177043539998 0 -0.00042377912735757105 -0.018610918620363615 0 -0.00034458828840930756 -0.022460136358727546 0 0.0013515792065749894 -0.023598704051192108 0 -0.0021999682100295702 -0.019219935565337642 0 -0.0014239858123134348 -0.019286496390059974 0 -0.0014366955180029038 -0.018389177043539998 0 0.0026703522242947256 -0.025818740585257866 0 0.003648258517142657 -0.026175001246586071 0 0.0037080870905688026 -0.025426762877784077 0 0.0036516339155832737 -0.026162238382576527 0 0.0045826495155243526 -0.025851096832511695 0 0.0048152049948613817 -0.026422310089967632 0 0.0013515792065749894 -0.023598704051192108 0 0.0022564515546662457 -0.0229988725369774 0 0.0013515792065749894 -0.023598704051192108 0 0.0022662003560096552 -0.023912321948644389 0 0.0044863566135970694 -0.024999990656132991 0 0.0045886402245347967 -0.025140145608173257 0 0.0037080870905688026 -0.025426762877784077 0 0.0036516339155832737 -0.026162238382576527 0 0.0045826495155243526 -0.025851096832511695 0 0.0045886402245347967 -0.025140145608173257 0 0.003648258517142657 -0.026175001246586071 0 0.0045886402245347967 -0.025140145608173257 0 0.0037080870905688026 -0.025426762877784077 0 0.0044863566135970694 -0.024999990656132991 0 0.0031459600308938055 -0.024999996728566669 0 0.0037080870905688026 -0.025426762877784077 0 0.0026703522242947256 -0.025818740585257866 0 0.0031459600308938055 -0.024999996728566669 0 0.0037080870905688026 -0.025426762877784077 0 0.0059813193285906709 -0.026677689604591014 0 0.005276584834255812 -0.025679818291417345 0 0.0061548892759635031 -0.025763835416191646 0 0.0059813193285906709 -0.026677689604591014 0 0.0048152049948613817 -0.026422310089967632 0 0.005276584834255812 -0.025679818291417345 0 0.0045826495155243526 -0.025851096832511695 0 0.0048152049948613817 -0.026422310089967632 0 0.005276584834255812 -0.025679818291417345 0 0.0044863566135970694 -0.024999990656132991 0 0.0045886402245347967 -0.025140145608173257 0 0.0058267467078175154 -0.024999993082477884 0 0.0045886402245347967 -0.025140145608173257 0 0.005276584834255812 -0.025679818291417345 0 0.0058267467078175154 -0.024999993082477884 0 0.0045826495155243526 -0.025851096832511695 0 0.0045886402245347967 -0.025140145608173257 0 0.005276584834255812 -0.025679818291417345 0 0.005276584834255812 -0.025679818291417345 0 0.0058267467078175154 -0.024999993082477884 0 0.0061548892759635031 -0.025763835416191646 0 0.0058267467078175154 -0.024999993082477884 0 0.0061548892759635031 -0.025763835416191646 0 0.0071671488376342535 -0.024999986981131178 0 0.0061548892759635031 -0.025763835416191646 0 0.006894768104512985 -0.025963131309246983 0 0.0071671488376342535 -0.024999986981131178 0 0.0059813193285906709 -0.026677689604591014 0 0.0061548892759635031 -0.025763835416191646 0 0.006894768104512985 -0.025963131309246983 0 0.0059813193285906709 -0.026677689604591014 0 0.006894768104512985 -0.025963131309246983 0 0.0071468303163967541 -0.026932769205208786 0 0.0078911077263337358 -0.025755413417852077 0 0.0083498397979981393 -0.026465099423270917 0 0.0071890846550741764 -0.026886606803714141 0 0.0055410548899099479 -0.024122330993198091 0 0.0053738370743567866 -0.022506806026792021 0 0.006894768104512985 -0.025963131309246983 0 0.0078911077263337358 -0.025755413417852077 0 0.0071468303163967541 -0.026932769205208786 0 0.006894768104512985 -0.025963131309246983 0 0.0071671488376342535 -0.024999986981131178 0 0.0078911077263337358 -0.025755413417852077 0 0.0078911077263337358 -0.025755413417852077 0 0.008507533242255309 -0.024999994506021653 0 0.0089514956550115366 -0.025499013411521883 0 0.0071671488376342535 -0.024999986981131178 0 0.0078911077263337358 -0.025755413417852077 0 0.008507533242255309 -0.024999994506021653 0 0.0078911077263337358 -0.025755413417852077 0 0.0089514956550115366 -0.025499013411521883 0 0.0089447745960565331 -0.026049920749923055 0 0.008507533242255309 -0.024999994506021653 0 0.0089514956550115366 -0.025499013411521883 0 0.0098479192866176447 -0.02499998984368422 0 0.0089514956550115366 -0.025499013411521883 0 0.0089447745960565331 -0.026049920749923055 0 0.0095783485701429402 -0.025687261139130235 0 0.0096767814652662255 -0.025711361064850637 0 0.009845085223092338 -0.025702637779499087 0 0.0089447745960565331 -0.026049920749923055 0 0.0093378682115828841 -0.026655328763042888 0 0.009686833699098096 -0.02632758315448229 0 0.0089447745960565331 -0.026049920749923055 0 0.0087370425640512263 -0.026495988087912498 0 0.0083498397979981393 -0.026465099423270917 0 0.0089447745960565331 -0.026049920749923055 0 0.0087370425640512263 -0.026495988087912498 0 0.0090434571694024621 -0.026672552746489105 0 0.0089447745960565331 -0.026049920749923055 0 0.0093378682115828841 -0.026655328763042888 0 0.0090434571694024621 -0.026672552746489105 0 0.0078911077263337358 -0.025755413417852077 0 0.0089447745960565331 -0.026049920749923055 0 0.0083498397979981393 -0.026465099423270917 0 0.0073259659720395602 -0.023025347447319686 0 0.0089895734260077281 -0.023551368608009889 0 0.0083498397979981393 -0.026465099423270917 0 0.0079556978701700934 -0.027059840881756544 0 0.0071890846550741764 -0.026886606803714141 0 0.0079556978701700934 -0.027059840881756544 0 0.008608508521682507 -0.026796116654017085 0 0.0087242510969962259 -0.027231018179453489 0 0.0087370425640512263 -0.026495988087912498 0 0.0083498397979981393 -0.026465099423270917 0 0.008608508521682507 -0.026796116654017085 0 0.0083498397979981393 -0.026465099423270917 0 0.0079556978701700934 -0.027059840881756544 0 0.008608508521682507 -0.026796116654017085 0 0.0093418683284782564 -0.026656023089613953 0 0.0090434571694024621 -0.026672552746489105 0 0.0087242510969962259 -0.027231018179453489 0 0.0094562972918691805 -0.025440424631024552 0 0.0094349801974091384 -0.025459825975029014 0 0.0087370425640512263 -0.026495988087912498 0 0.0090434571694024621 -0.026672552746489105 0 0.008608508521682507 -0.026796116654017085 0 0.0090434571694024621 -0.026672552746489105 0 0.008608508521682507 -0.026796116654017085 0 0.0087242510969962259 -0.027231018179453489 0 0.0094562972918691805 -0.025440424631024552 0 0.0089895734260077281 -0.023551368608009889 0 0.0083425205199550798 -0.018598095591680491 0 0.0088605975248335495 -0.019405450466794791 0 0.0099431303505918694 -0.018904292212099726 0 0.0083425205199550798 -0.018598095591680491 0 0.0088605975248335495 -0.019405450466794791 0 0.0075633834677944593 -0.019362052961844015 0 0.0073986012856875711 -0.0184916347197303 0 0.0075633834677944593 -0.019362052961844015 0 0.0068615860350282123 -0.019122152501643435 0 0.0073986012856875711 -0.0184916347197303 0 0.0082809621216171168 -0.018694430005811169 0 0.0075633834677944593 -0.019362052961844015 0 0.0089895734260077281 -0.023551368608009889 0 0.0092701540636855925 -0.02264034338065915 0 0.0075633834677944593 -0.019362052961844015 0 0.0068615860350282123 -0.019122152501643435 0 0.0073135709628906467 -0.019940167565569256 0 0.0068615860350282123 -0.019122152501643435 0 0.0064591250861418172 -0.019650370310795934 0 0.0073135709628906467 -0.019940167565569256 0 0.0068615860350282123 -0.019122152501643435 0 0.0059892941804012469 -0.019089173235862622 0 0.0064943636374469541 -0.018290118018673071 0 0.0068615860350282123 -0.019122152501643435 0 0.0059892941804012469 -0.019089173235862622 0 0.0064591250861418172 -0.019650370310795934 0 0.00078898067349300355 -0.019404473058931192 0 0.0012514022186295732 -0.019681581173587995 0 0.00085842567182110635 -0.020317663532955024 0 0.0059892941804012469 -0.019089173235862622 0 0.0054783698302612472 -0.019902025062956567 0 0.0064591250861418172 -0.019650370310795934 0 0.0041141276975733571 -0.021041855817107883 0 0.0024824985460300212 -0.020739745244625789 0 0.00078898067349300355 -0.019404473058931192 0 0.0012514022186295732 -0.019681581173587995 0 0.0016463410027801001 -0.019052566134340837 0 0.0035264769829442431 -0.0227120307838998 0 0.0053738370743567866 -0.022506806026792021 0 0.00078898067349300355 -0.019404473058931192 0 0.00059124376077259485 -0.018824639023432458 0 0.0016463410027801001 -0.019052566134340837 0 0.0041141276975733571 -0.021041855817107883 0 0.0053738370743567866 -0.022506806026792021 0 0.0073259659720395602 -0.023025347447319686 0 0.0053738370743567866 -0.022506806026792021 0 0.0073986012856875711 -0.0184916347197303 0 0.0068615860350282123 -0.019122152501643435 0 0.0064943636374469541 -0.018290118018673071 0 0.011734997738728575 -0.026230039812739261 0 0.012312518169980821 -0.026259416566679985 0 0.012341457728825226 -0.02586882756828468 0 0.011820284020690977 -0.026510086088279622 0 0.013087566209584452 -0.026429863819076509 0 0.012341457728825226 -0.02586882756828468 0 0.011442739959523347 -0.025776271226830752 0 0.011820284020690977 -0.026510086088279622 0 0.012341457728825226 -0.02586882756828468 0 0.012306935530503224 -0.024999971262433324 0 0.011442739959523347 -0.025776271226830752 0 0.012305766040088558 -0.025000549249113053 0 0.01138136085214592 -0.025618836994783092 0 0.011188352564510253 -0.024999996836654877 0 0.011374981176500465 -0.025796307633071391 0 0.010490482706745023 -0.02566585555021296 0 0.012306769173109125 -0.024999997442378599 0 0.011188352564510253 -0.024999996836654877 0 0.011374981176500465 -0.025796307633071391 0 0.011103466987906908 -0.026353636100133575 0 0.010599832616478436 -0.026573247786805344 0 0.011820284020690977 -0.026510086088279622 0 0.011442739959523347 -0.025776271226830752 0 0.011103466987906908 -0.026353636100133575 0 0.010525475979036776 -0.026577399358852127 0 0.011442739959523347 -0.025776271226830752 0 0.011103466987906908 -0.026353636100133575 0 0.011820284020690977 -0.026510086088279622 0 0.01138136085214592 -0.025618836994783092 0 0.010574786184670759 -0.02602175781992741 0 0.010490482706745023 -0.02566585555021296 0 0.0097967017442079363 -0.026318115537788445 0 0.01045030592228767 -0.026595144770445067 0 0.011374981176500465 -0.025796307633071391 0 0.010490482706745023 -0.02566585555021296 0 0.01045030592228767 -0.026595144770445067 0 0.011188320378022122 -0.025000000703927303 0 0.010461573847578117 -0.025675162065216455 0 0.0098479192866176447 -0.02499998984368422 0 0.011187246047405886 -0.025000441769309288 0 0.010457193199043827 -0.025447001607972201 0 0.010461573847578117 -0.025675162065216455 0 0.0098479192866176447 -0.02499998984368422 0 0.0095783485701429402 -0.025687261139130235 0 0.0089514956550115366 -0.025499013411521883 0 0.0098479192866176447 -0.02499998984368422 0 0.0095783485701429402 -0.025687261139130235 0 0.010461573847578117 -0.025675162065216455 0 0.0095783485701429402 -0.025687261139130235 0 0.0097354502804748531 -0.026350950697096462 0 0.0089447745960565331 -0.026049920749923055 0 0.0095783485701429402 -0.025687261139130235 0 0.0097354502804748531 -0.026350950697096462 0 0.010457193199043827 -0.025447001607972201 0 0.009845085223092338 -0.025702637779499087 0 0.009845085223092338 -0.025702637779499087 0 0.010574786184670759 -0.02602175781992741 0 0.0094562972918691805 -0.025440424631024552 0 0.009845085223092338 -0.025702637779499087 0 0.0095151901640913705 -0.026462561598353428 0 0.010162598410808923 -0.026737494416410185 0 0.010537558817450573 -0.026410687247320444 0 0.0095151901640913705 -0.026462561598353428 0 0.0088967007008835253 -0.027037136982763457 0 0.010159569004458023 -0.027327297210748242 0 0.0095151901640913705 -0.026462561598353428 0 0.010162598410808923 -0.026737494416410185 0 0.010159569004458023 -0.027327297210748242 0 0.0098075095344895905 -0.025670351295449423 0 0.0099018340634776589 -0.02558289567871138 0 0.010076825589368482 -0.025656930857983873 0 0.0094562972918691805 -0.025440424631024552 0 0.010574786184670759 -0.02602175781992741 0 0.0089895734260077281 -0.023551368608009889 0 0.010106030648836001 -0.023422224703247223 0 0.010159569004458023 -0.027327297210748242 0 0.010744796839002625 -0.02703910061055885 0 0.011431458662071689 -0.02762656594834767 0 0.010106030648836001 -0.023422224703247223 0 0.011533127075874595 -0.023545079232709192 0 0.0099431303505918694 -0.018904292212099726 0 0.011617780644136459 -0.019230451063177251 0 0.010934717030161759 -0.020451806872135166 0 0.011037902616523959 -0.026821474657035636 0 0.010744796839002625 -0.02703910061055885 0 0.0106161562454118 -0.026665690890617186 0 0.011037902616523959 -0.026821474657035636 0 0.010744796839002625 -0.02703910061055885 0 0.011282684822564419 -0.027078553956372247 0 0.010162598410808923 -0.026737494416410185 0 0.010744796839002625 -0.02703910061055885 0 0.0106161562454118 -0.026665690890617186 0 0.010162598410808923 -0.026737494416410185 0 0.010159569004458023 -0.027327297210748242 0 0.010744796839002625 -0.02703910061055885 0 0.010162598410808923 -0.026737494416410185 0 0.0106161562454118 -0.026665690890617186 0 0.010538141490700103 -0.026412009471042153 0 0.010512221528334326 -0.026090901094357834 0 0.010574786184670759 -0.02602175781992741 0 0.0106161562454118 -0.026665690890617186 0 0.010538141490700103 -0.026412009471042153 0 0.010614032996543199 -0.026407513967493357 0 0.010574786184670759 -0.02602175781992741 0 0.010702667235146922 -0.026067540097933533 0 0.011103466987906908 -0.026353636100133575 0 0.010525475979036776 -0.026577399358852127 0 0.010599832616478436 -0.026573247786805344 0 0.011037902616523959 -0.026821474657035636 0 0.0106161562454118 -0.026665690890617186 0 0.010614032996543199 -0.026407513967493357 0 0.010702667235146922 -0.026067540097933533 0 0.011909867957302794 -0.026729237543124375 0 0.010821970034664789 -0.026550758698659242 0 0.012018334843118376 -0.026999568224285841 0 0.011955100662424473 -0.02649121223129099 0 0.011037902616523959 -0.026821474657035636 0 0.010614032996543199 -0.026407513967493357 0 0.011932281138163109 -0.026916347047794716 0 0.011037902616523959 -0.026821474657035636 0 0.011282684822564419 -0.027078553956372247 0 0.011932281138163109 -0.026916347047794716 0 0.010702667235146922 -0.026067540097933533 0 0.011734997738728575 -0.026230039812739261 0 0.010744796839002625 -0.02703910061055885 0 0.011282684822564419 -0.027078553956372247 0 0.011431458662071689 -0.02762656594834767 0 0.011282684822564419 -0.027078553956372247 0 0.011431458662071689 -0.02762656594834767 0 0.011932281138163109 -0.026916347047794716 0 0.011533127075874595 -0.023545079232709192 0 0.013007742837662047 -0.023749022629463674 0 0.011431458662071689 -0.02762656594834767 0 0.011932281138163109 -0.026916347047794716 0 0.01270513335159036 -0.027931111373675304 0 0.012018334843118376 -0.026999568224285841 0 0.011955100662424473 -0.02649121223129099 0 0.013087566209584452 -0.026429863819076509 0 0.012321810023838259 -0.020706506786909967 0 0.012578498337276757 -0.021713695957024725 0 0.013468866840666213 -0.021184445538419808 0 0.012321810023838259 -0.020706506786909967 0 0.011710937023177456 -0.021443628031784723 0 0.012578498337276757 -0.021713695957024725 0 0.012321810023838259 -0.020706506786909967 0 0.013320603175467917 -0.019578946011710969 0 0.013468866840666213 -0.021184445538419808 0 0.011617780644136459 -0.019230451063177251 0 0.012321810023838259 -0.020706506786909967 0 0.013320603175467917 -0.019578946011710969 0 0.011617780644136459 -0.019230451063177251 0 0.012321810023838259 -0.020706506786909967 0 0.010934717030161759 -0.020451806872135166 0 0.012321810023838259 -0.020706506786909967 0 0.011710937023177456 -0.021443628031784723 0 0.010934717030161759 -0.020451806872135166 0 0.011710937023177456 -0.021443628031784723 0 0.010934717030161759 -0.020451806872135166 0 0.010699457990148464 -0.021607082244817971 0 0.010934717030161759 -0.020451806872135166 0 0.0093865804389606806 -0.020613602996130426 0 0.010699457990148464 -0.021607082244817971 0 0.0099431303505918694 -0.018904292212099726 0 0.010934717030161759 -0.020451806872135166 0 0.0093865804389606806 -0.020613602996130426 0 0.0088605975248335495 -0.019405450466794791 0 0.0099431303505918694 -0.018904292212099726 0 0.0093865804389606806 -0.020613602996130426 0 0.010375612652335929 -0.020755716401076041 0 0.010921584569897971 -0.020994536125857811 0 0.0093865804389606806 -0.020613602996130426 0 0.0096552307687879022 -0.021670511427810454 0 0.0089594927731203606 -0.021631701254602391 0 0.0093865804389606806 -0.020613602996130426 0 0.0096552307687879022 -0.021670511427810454 0 0.010522784766351875 -0.021496436839871545 0 0.0096552307687879022 -0.021670511427810454 0 0.0093618564534134491 -0.022212189532216334 0 0.0089594927731203606 -0.021631701254602391 0 0.0096552307687879022 -0.021670511427810454 0 0.0093618564534134491 -0.022212189532216334 0 0.010185534907588889 -0.022152530688482129 0 0.0085529844105971878 -0.021600003162491735 0 0.0069105630799203687 -0.022056504790888418 0 0.0079354456548647052 -0.021846973548581918 0 0.0079187219038824568 -0.02185074669721997 0 0.0079316070997091041 -0.021858742298301766 0 0.0079354456548647052 -0.021846973548581918 0 0.0079414280372472265 -0.021854096753193546 0 0.0079316070997091041 -0.021858742298301766 0 0.0093618564534134491 -0.022212189532216334 0 0.0098637221622716841 -0.022702028991582704 0 0.0088062798657494272 -0.022908070270927151 0 0.0093618564534134491 -0.022212189532216334 0 0.0098637221622716841 -0.022702028991582704 0 0.010185534907588889 -0.022152530688482129 0 0.0085529844105971878 -0.021600003162491735 0 0.0098714386090025912 -0.020988285747166237 0 0.0079510828083860681 -0.021843523682425852 0 0.0079494122547714291 -0.02185717135711435 0 0.0079414280372472265 -0.021854096753193546 0 0.0098637221622716841 -0.022702028991582704 0 0.010185534907588889 -0.022152530688482129 0 0.010901238840769413 -0.022498847390712534 0 0.0079354456548647052 -0.021846973548581918 0 0.0079510828083860681 -0.021843523682425852 0 0.0079414280372472265 -0.021854096753193546 0 0.010874938281153141 -0.022281591465795787 0 0.010185534907588889 -0.022152530688482129 0 0.010901238840769413 -0.022498847390712534 0 0.010874938281153141 -0.022281591465795787 0 0.010185534907588889 -0.022152530688482129 0 0.010522784766351875 -0.021496436839871545 0 0.0096552307687879022 -0.021670511427810454 0 0.010185534907588889 -0.022152530688482129 0 0.010522784766351875 -0.021496436839871545 0 0.011710937023177456 -0.021443628031784723 0 0.012018749164593855 -0.022595875114833932 0 0.012578498337276757 -0.021713695957024725 0 0.010874938281153141 -0.022281591465795787 0 0.010522784766351875 -0.021496436839871545 0 0.011660910739000978 -0.022355486801761776 0 0.011710937023177456 -0.021443628031784723 0 0.010699457990148464 -0.021607082244817971 0 0.012018749164593855 -0.022595875114833932 0 0.010921584569897971 -0.020994536125857811 0 0.01147058120708069 -0.02078797453985444 0 0.0098714386090025912 -0.020988285747166237 0 0.01147058120708069 -0.02078797453985444 0 0.0098714386090025912 -0.020988285747166237 0 0.0089292077528651728 -0.021197764745015849 0 0.010874938281153141 -0.022281591465795787 0 0.010900331549763692 -0.022494886649743064 0 0.011660910739000978 -0.022355486801761776 0 0.011496051223561704 -0.019453475785504572 0 0.011566493001060021 -0.019564000942620091 0 0.011527269595230686 -0.019723174480186557 0 0.011496051223561704 -0.019453475785504572 0 0.011566493001060021 -0.019564000942620091 0 0.011679860208168668 -0.019423138764350572 0 0.0098805481156004089 -0.021022222821597592 0 0.0098714386090025912 -0.020988285747166237 0 0.011742989909510056 -0.019882022261017738 0 0.011927526110243863 -0.020023321224944012 0 0.012343858396652649 -0.019619205670273452 0 0.012482006904031296 -0.019591138032728966 0 0.012478643031617716 -0.019714832135076771 0 0.011566493001060021 -0.019564000942620091 0 0.011679860208168668 -0.019423138764350572 0 0.011951246843097136 -0.019629222891660525 0 0.01147058120708069 -0.02078797453985444 0 0.011927526110243863 -0.020023321224944012 0 0.012578498337276757 -0.021713695957024725 0 0.013468866840666213 -0.021184445538419808 0 0.013369746895252173 -0.022346354506668303 0 0.01147058120708069 -0.02078797453985444 0 0.012745395749786489 -0.020786402555866411 0 0.012018749164593855 -0.022595875114833932 0 0.012578498337276757 -0.021713695957024725 0 0.013369746895252173 -0.022346354506668303 0 0.0064060361493918014 -0.020937291338345595 0 0.0070743752222859899 -0.020893867673242209 0 0.0066697083626099975 -0.02030229429447716 0 0.0070743752222859899 -0.020893867673242209 0 0.0066697083626099975 -0.02030229429447716 0 0.0073386642848306607 -0.020559420383061976 0 0.0064060361493918014 -0.020937291338345595 0 0.0070743752222859899 -0.020893867673242209 0 0.0072270337443534928 -0.021529018272892764 0 0.00017722248090158634 -0.021143984938142162 0 0.0014766702973174936 -0.020875867602488253 0 0.00080778614948301723 -0.020130317697881015 0 0.0064060361493918014 -0.020937291338345595 0 0.0054783698302612472 -0.019902025062956567 0 0.0066697083626099975 -0.02030229429447716 0 0.0054783698302612472 -0.019902025062956567 0 0.0064591250861418172 -0.019650370310795934 0 0.0066697083626099975 -0.02030229429447716 0 0.0035978460952583793 -0.02120171306989567 0 0.0024824985460300212 -0.020739745244625789 0 0.0066697083626099975 -0.02030229429447716 0 0.0073135709628906467 -0.019940167565569256 0 0.0073386642848306607 -0.020559420383061976 0 0.0064591250861418172 -0.019650370310795934 0 0.0066697083626099975 -0.02030229429447716 0 0.0073135709628906467 -0.019940167565569256 0 0.0073135709628906467 -0.019940167565569256 0 0.008357687564567208 -0.020077611064440903 0 0.0078621619008005204 -0.020537682470147749 0 0.0075633834677944593 -0.019362052961844015 0 0.0073135709628906467 -0.019940167565569256 0 0.008357687564567208 -0.020077611064440903 0 0.0073135709628906467 -0.019940167565569256 0 0.0073386642848306607 -0.020559420383061976 0 0.0078621619008005204 -0.020537682470147749 0 0.0088605975248335495 -0.019405450466794791 0 0.0075633834677944593 -0.019362052961844015 0 0.008357687564567208 -0.020077611064440903 0 0.0088605975248335495 -0.019405450466794791 0 0.0093865804389606806 -0.020613602996130426 0 0.008357687564567208 -0.020077611064440903 0 0.0093865804389606806 -0.020613602996130426 0 0.008357687564567208 -0.020077611064440903 0 0.0083899575705524646 -0.021085877188845761 0 0.0093865804389606806 -0.020613602996130426 0 0.0083899575705524646 -0.021085877188845761 0 0.0089594927731203606 -0.021631701254602391 0 0.008357687564567208 -0.020077611064440903 0 0.0083899575705524646 -0.021085877188845761 0 0.0078621619008005204 -0.020537682470147749 0 0.0070743752222859899 -0.020893867673242209 0 0.0073386642848306607 -0.020559420383061976 0 0.0076532407278181464 -0.021039286405913751 0 0.0073386642848306607 -0.020559420383061976 0 0.0078621619008005204 -0.020537682470147749 0 0.0076532407278181464 -0.021039286405913751 0 0.0083899575705524646 -0.021085877188845761 0 0.0078621619008005204 -0.020537682470147749 0 0.0076532407278181464 -0.021039286405913751 0 0.0083899575705524646 -0.021085877188845761 0 0.0076532407278181464 -0.021039286405913751 0 0.0079441469484172172 -0.021537284985433232 0 0.0076532407278181464 -0.021039286405913751 0 0.0079441469484172172 -0.021537284985433232 0 0.0072270337443534928 -0.021529018272892764 0 0.0070743752222859899 -0.020893867673242209 0 0.0076532407278181464 -0.021039286405913751 0 0.0072270337443534928 -0.021529018272892764 0 0.0073447229635786029 -0.022221420939365414 0 0.0073143887900036933 -0.022126531535103827 0 0.0079441469484172172 -0.021537284985433232 0 0.0080264587145155754 -0.022234072695817633 0 0.0084073070646367484 -0.021757795072959371 0 0.0079441469484172172 -0.021537284985433232 0 0.0080264587145155754 -0.022234072695817633 0 0.0072270337443534928 -0.021529018272892764 0 0.0078956280292139577 -0.022152575527132175 0 0.0073081291383198764 -0.021933288324447051 0 0.0072270337443534928 -0.021529018272892764 0 0.0089594927731203606 -0.021631701254602391 0 0.0084073070646367484 -0.021757795072959371 0 0.0086853181296786333 -0.022208417289467989 0 0.0083899575705524646 -0.021085877188845761 0 0.0089594927731203606 -0.021631701254602391 0 0.0084073070646367484 -0.021757795072959371 0 0.0083899575705524646 -0.021085877188845761 0 0.0079441469484172172 -0.021537284985433232 0 0.0084073070646367484 -0.021757795072959371 0 0.0080264587145155754 -0.022234072695817633 0 0.0084073070646367484 -0.021757795072959371 0 0.0086853181296786333 -0.022208417289467989 0 0.0093618564534134491 -0.022212189532216334 0 0.0089594927731203606 -0.021631701254602391 0 0.0086853181296786333 -0.022208417289467989 0 0.0093618564534134491 -0.022212189532216334 0 0.0086853181296786333 -0.022208417289467989 0 0.0088062798657494272 -0.022908070270927151 0 0.0073447229635786029 -0.022221420939365414 0 0.0069105630799203687 -0.022056504790888418 0 0.0080264587145155754 -0.022234072695817633 0 0.0086853181296786333 -0.022208417289467989 0 0.0088062798657494272 -0.022908070270927151 0 0.0078956280292139577 -0.022152575527132175 0 0.0081000307666719631 -0.022813635384282927 0 0.0085429113873614765 -0.022730599424266678 0 0.0052592916883759337 -0.022283802571385989 0 0.0069105630799203687 -0.022056504790888418 0 0.006272304838989942 -0.022234085097494891 0 0.0062621905893467692 -0.02223481547047066 0 0.0062657777830624779 -0.022224718271098527 0 0.0044642422901700271 -0.022294350188412596 0 0.0049440508055078585 -0.022254495207725322 0 0.0051906278683612351 -0.022692438077771476 0 0.005562497210426222 -0.022624842293707575 0 0.0047162092505052301 -0.022159957409494987 0 0.0052592916883759337 -0.022283802571385989 0 0.0049440508055078585 -0.022254495207725322 0 0.0021445933224555668 -0.02161185760924238 0 0.0028230313348475596 -0.022355360741744153 0 0.0023590347341685639 -0.02224274247522311 0 0.0026324868954106448 -0.022392215802055446 0 0.0023590347341685639 -0.02224274247522311 0 0.0015499249910764232 -0.02257978374843099 0 0.0045377354463543634 -0.021804671392705866 0 0.0052592916883759337 -0.022283802571385989 0 0.0078956280292139577 -0.022152575527132175 0 0.0073081291383198764 -0.021933288324447051 0 0.0081000307666719631 -0.022813635384282927 0 0.0021445933224555668 -0.02161185760924238 0 0.0023590347341685639 -0.02224274247522311 0 0.0018063827135063769 -0.022072372016785538 0 0.0028230313348475596 -0.022355360741744153 0 0.0026334605927671091 -0.022390549244379231 0 0.0023590347341685639 -0.02224274247522311 0 0.0044642422901700271 -0.022294350188412596 0 0.0043271048798142692 -0.022242884879121658 0 0.0052592916883759337 -0.022283802571385989 0 0.0044642422901700271 -0.022294350188412596 0 0.0018063827135063769 -0.022072372016785538 0 0.0012506315563629226 -0.021740573268380137 0 0.0015499249910764232 -0.02257978374843099 0 0.0023590347341685639 -0.02224274247522311 0 0.0018063827135063769 -0.022072372016785538 0 0.0015499249910764232 -0.02257978374843099 0 0.0044642422901700271 -0.022294350188412596 0 0.0021101603946316549 -0.022596656642641492 0 0.0021445933224555668 -0.02161185760924238 0 0.0018063827135063769 -0.022072372016785538 0 0.0012506315563629226 -0.021740573268380137 0 0.0014766702973174936 -0.020875867602488253 0 0.0021445933224555668 -0.02161185760924238 0 0.0012506315563629226 -0.021740573268380137 0 0.0064060361493918014 -0.020937291338345595 0 0.0073081291383198764 -0.021933288324447051 0 0.0072270337443534928 -0.021529018272892764 0 0.0035978460952583793 -0.02120171306989567 0 0.0045377354463543634 -0.021804671392705866 0 0.00017722248090158634 -0.021143984938142162 0 0.0014766702973174936 -0.020875867602488253 0 0.0012506315563629226 -0.021740573268380137 0 0.0005300504966052798 -0.022006508336800644 0 0.0015499249910764232 -0.02257978374843099 0 0.0004989113040725525 -0.022753875257246439 0 0.0005300504966052798 -0.022006508336800644 0 0.0012506315563629226 -0.021740573268380137 0 0.0015499249910764232 -0.02257978374843099 0 0.001307507096286069 -0.023181552780710591 0 0.0016522939838009897 -0.022475706935851183 0 0.0004989113040725525 -0.022753875257246439 0 0.0021101603946316549 -0.022596656642641492 0 0.0013504115408068166 -0.022702119052357531 0 0.001307507096286069 -0.023181552780710591 0 0.0011906957437253566 -0.023777395251314493 0 0.00047770754294512908 -0.023500617847983182 0 0.001307507096286069 -0.023181552780710591 0 0.0011906957437253566 -0.023777395251314493 0 0.0019634119078839971 -0.023573656966238747 0 0.001307507096286069 -0.023181552780710591 0 0.0019634119078839971 -0.023573656966238747 0 0.0020811938381757266 -0.022997237773618451 0 0.0019634119078839971 -0.023573656966238747 0 0.0024739355469417007 -0.02362622669889107 0 0.0018601159120177587 -0.024106605444154838 0 0.0019634119078839971 -0.023573656966238747 0 0.0020811938381757266 -0.022997237773618451 0 0.002405181065835935 -0.023264459452534768 0 0.001307507096286069 -0.023181552780710591 0 0.0020811938381757266 -0.022997237773618451 0 0.0016522939838009897 -0.022475706935851183 0 0.0028030565554725607 -0.022244654926386154 0 0.0020811938381757266 -0.022997237773618451 0 0.0016522939838009897 -0.022475706935851183 0 0.0028030565554725607 -0.022244654926386154 0 0.0020811938381757266 -0.022997237773618451 0 0.0027156961632575937 -0.022937675041376733 0 0.0028030565554725607 -0.022244654926386154 0 0.0027156961632575937 -0.022937675041376733 0 0.003016940433438464 -0.022632354651608368 0 0.0020811938381757266 -0.022997237773618451 0 0.0027156961632575937 -0.022937675041376733 0 0.002405181065835935 -0.023264459452534768 0 0.0062621905893467692 -0.02223481547047066 0 0.0062657777830624779 -0.022224718271098527 0 0.0062479897624695378 -0.022215964142800578 0 0.0049440508055078585 -0.022254495207725322 0 0.0055987318389101766 -0.0221723739730013 0 0.0049440508055078585 -0.022254495207725322 0 0.0047780090059436498 -0.022219692776401744 0 0.0028030565554725607 -0.022244654926386154 0 0.003016940433438464 -0.022632354651608368 0 0.0032553612150065044 -0.022487922330081525 0 0.003016940433438464 -0.022632354651608368 0 0.0032553612150065044 -0.022487922330081525 0 0.0032645157037155211 -0.022869906556229967 0 0.0027156961632575937 -0.022937675041376733 0 0.003016940433438464 -0.022632354651608368 0 0.0032645157037155211 -0.022869906556229967 0 0.0027156961632575937 -0.022937675041376733 0 0.0032645157037155211 -0.022869906556229967 0 0.0031869373543058025 -0.023220001869193995 0 0.0032645157037155211 -0.022869906556229967 0 0.003478009746437733 -0.023134413078782348 0 0.0031869373543058025 -0.023220001869193995 0 0.0032645157037155211 -0.022869906556229967 0 0.003478009746437733 -0.023134413078782348 0 0.0036650600341882685 -0.02292753868449101 0 0.0032553612150065044 -0.022487922330081525 0 0.0032645157037155211 -0.022869906556229967 0 0.0036650600341882685 -0.02292753868449101 0 0.003478009746437733 -0.023134413078782348 0 0.0031869373543058025 -0.023220001869193995 0 0.0035583009054548516 -0.023452314944922392 0 0.003478009746437733 -0.023134413078782348 0 0.0035583009054548516 -0.023452314944922392 0 0.0038337491347547907 -0.023194478108909122 0 0.0031869373543058025 -0.023220001869193995 0 0.0030402488190750991 -0.023573400020142236 0 0.0027706671050037827 -0.023306370792390781 0 0.0031869373543058025 -0.023220001869193995 0 0.0030402488190750991 -0.023573400020142236 0 0.0035583009054548516 -0.023452314944922392 0 0.0035583009054548516 -0.023452314944922392 0 0.0033435492259898804 -0.023820708954592658 0 0.003764284570900992 -0.023914055978843538 0 0.0030402488190750991 -0.023573400020142236 0 0.0035583009054548516 -0.023452314944922392 0 0.0033435492259898804 -0.023820708954592658 0 0.002405181065835935 -0.023264459452534768 0 0.0027706671050037827 -0.023306370792390781 0 0.0024739355469417007 -0.02362622669889107 0 0.0027156961632575937 -0.022937675041376733 0 0.0031869373543058025 -0.023220001869193995 0 0.0027706671050037827 -0.023306370792390781 0 0.0027156961632575937 -0.022937675041376733 0 0.002405181065835935 -0.023264459452534768 0 0.0027706671050037827 -0.023306370792390781 0 0.0030402488190750991 -0.023573400020142236 0 0.0024739355469417007 -0.02362622669889107 0 0.0029070165553184068 -0.024014597199918934 0 0.0030402488190750991 -0.023573400020142236 0 0.0027706671050037827 -0.023306370792390781 0 0.0024739355469417007 -0.02362622669889107 0 0.0019634119078839971 -0.023573656966238747 0 0.002405181065835935 -0.023264459452534768 0 0.0024739355469417007 -0.02362622669889107 0 0.0024739355469417007 -0.02362622669889107 0 0.0029070165553184068 -0.024014597199918934 0 0.0024401108699851938 -0.024331905437849161 0 0.0024739355469417007 -0.02362622669889107 0 0.0024401108699851938 -0.024331905437849161 0 0.0018601159120177587 -0.024106605444154838 0 0.0029070165553184068 -0.024014597199918934 0 0.0024401108699851938 -0.024331905437849161 0 0.0029348391807009098 -0.024509464909842314 0 0.0033435492259898804 -0.023820708954592658 0 0.0034340987354312216 -0.02427160286626074 0 0.003764284570900992 -0.023914055978843538 0 0.0030402488190750991 -0.023573400020142236 0 0.0029070165553184068 -0.024014597199918934 0 0.0033435492259898804 -0.023820708954592658 0 0.0029070165553184068 -0.024014597199918934 0 0.0033435492259898804 -0.023820708954592658 0 0.0034340987354312216 -0.02427160286626074 0 0.0029070165553184068 -0.024014597199918934 0 0.0034340987354312216 -0.02427160286626074 0 0.0029348391807009098 -0.024509464909842314 0 0.0029348391807009098 -0.024509464909842314 0 0.0035477794194274464 -0.024943046174643844 0 0.0025594400248322526 -0.024938812709875139 0 0.0034340987354312216 -0.02427160286626074 0 0.0029348391807009098 -0.024509464909842314 0 0.0035477794194274464 -0.024943046174643844 0 0.0024401108699851938 -0.024331905437849161 0 0.0025594400248322526 -0.024938812709875139 0 0.0019083724569070675 -0.024789787419623947 0 0.0024401108699851938 -0.024331905437849161 0 0.0029348391807009098 -0.024509464909842314 0 0.0025594400248322526 -0.024938812709875139 0 0.0019083724569070675 -0.024789787419623947 0 0.0020330656794453087 -0.025355931604633085 0 0.00079333921036116881 -0.025177912233911921 0 0.0025594400248322526 -0.024938812709875139 0 0.0019083724569070675 -0.024789787419623947 0 0.0020416516537852154 -0.025343141385680352 0 0.0032760311161356532 -0.017581629967818813 0 0.0030153504307781588 -0.015375939345002705 0 0.0012476469045562149 -0.024434904116266476 0 0.00079333921036116881 -0.025177912233911921 0 0.0004884585944995146 -0.024322246969123211 0 0.0019083724569070675 -0.024789787419623947 0 0.0012476469045562149 -0.024434904116266476 0 0.00079333921036116881 -0.025177912233911921 0 0.0011906957437253566 -0.023777395251314493 0 0.0012476469045562149 -0.024434904116266476 0 0.0004884585944995146 -0.024322246969123211 0 0.0011906957437253566 -0.023777395251314493 0 0.0012476469045562149 -0.024434904116266476 0 0.0018601159120177587 -0.024106605444154838 0 0.0019083724569070675 -0.024789787419623947 0 0.0012476469045562149 -0.024434904116266476 0 0.0018601159120177587 -0.024106605444154838 0 0.0024401108699851938 -0.024331905437849161 0 0.0019083724569070675 -0.024789787419623947 0 0.0018601159120177587 -0.024106605444154838 0 0.0011906957437253566 -0.023777395251314493 0 0.0019634119078839971 -0.023573656966238747 0 0.0018601159120177587 -0.024106605444154838 0 0.011786345014968875 -0.019925932727031224 0 0.011557863524507866 -0.020013123551866525 0 0.011833380881716654 -0.020159342911957524 0 0.011786345014968875 -0.019925932727031224 0 0.011833380881716654 -0.020159342911957524 0 0.012030901042263011 -0.019915985038436976 0 0.011566493001060021 -0.019564000942620091 0 0.011765199171813928 -0.019690154961694951 0 0.011998871999067925 -0.019615670216583857 0 0.011765199171813928 -0.019690154961694951 0 0.012030901042263011 -0.019915985038436976 0 0.011998871999067925 -0.019615670216583857 0 0.011786345014968875 -0.019925932727031224 0 0.011765199171813928 -0.019690154961694951 0 0.012030901042263011 -0.019915985038436976 0 0.011786345014968875 -0.019925932727031224 0 0.011765199171813928 -0.019690154961694951 0 0.011660243461008538 -0.019818656398059239 0 0.011660243461008538 -0.019818656398059239 0 0.011629478245407469 -0.01969829242927295 0 0.011527269595230686 -0.019723174480186557 0 0.011765199171813928 -0.019690154961694951 0 0.011660243461008538 -0.019818656398059239 0 0.011629478245407469 -0.01969829242927295 0 0.011566493001060021 -0.019564000942620091 0 0.011765199171813928 -0.019690154961694951 0 0.011629478245407469 -0.01969829242927295 0 0.011566493001060021 -0.019564000942620091 0 0.011629478245407469 -0.01969829242927295 0 0.011527269595230686 -0.019723174480186557 0 0.0079494122547714291 -0.02185717135711435 0 0.0079490707939814977 -0.021868049171269398 0 0.0079419963458150916 -0.021864982899297579 0 0.011660243461008538 -0.019818656398059239 0 0.011527269595230686 -0.019723174480186557 0 0.011557863524507866 -0.020013123551866525 0 0.0089292077528651728 -0.021197764745015849 0 0.0077669496075980417 -0.021918889810733571 0 0.011786345014968875 -0.019925932727031224 0 0.011660243461008538 -0.019818656398059239 0 0.011557863524507866 -0.020013123551866525 0 0.0052319627589689317 -0.023530911170937779 0 0.0050494667081800735 -0.023548792710418966 0 0.0049247241373080739 -0.023902468042562981 0 0.0050494667081800735 -0.023548792710418966 0 0.0045675941239310429 -0.023647950117262739 0 0.0049247241373080739 -0.023902468042562981 0 0.0050494667081800735 -0.023548792710418966 0 0.0045675941239310429 -0.023647950117262739 0 0.0046933478904360882 -0.023240214127026326 0 0.0052319627589689317 -0.023530911170937779 0 0.0050494667081800735 -0.023548792710418966 0 0.0047104413214877315 -0.023245567082729311 0 0.0045675941239310429 -0.023647950117262739 0 0.0046933478904360882 -0.023240214127026326 0 0.0042250200652158123 -0.023300891123188255 0 0.0065105029154315132 -0.022141264098144906 0 0.0066189751085573359 -0.022110573693323751 0 0.0077669496075980417 -0.021918889810733571 0 0.0066189751085573359 -0.022110573693323751 0 0.0079494122547714291 -0.02185717135711435 0 0.0079419963458150916 -0.021864982899297579 0 0.0079414280372472265 -0.021854096753193546 0 0.0079419963458150916 -0.021864982899297579 0 0.0079414280372472265 -0.021854096753193546 0 0.0079316070997091041 -0.021858742298301766 0 0.0066189751085573359 -0.022110573693323751 0 0.0055987318389101766 -0.0221723739730013 0 0.0066189751085573359 -0.022110573693323751 0 0.0068559991243449239 -0.022118822234681788 0 0.0032667635527675746 -0.022482310772804912 0 0.0039751322622379997 -0.022864067481851665 0 0.0036650600341882685 -0.02292753868449101 0 0.0062657777830624779 -0.022224718271098527 0 0.0062497044321608453 -0.022211727102709907 0 0.0062479897624695378 -0.022215964142800578 0 0.0062397798078522972 -0.022199825540841919 0 0.0062497044321608453 -0.022211727102709907 0 0.0062479897624695378 -0.022215964142800578 0 0.0069105630799203687 -0.022056504790888418 0 0.0068559991243449239 -0.022118822234681788 0 0.0039751322622379997 -0.022864067481851665 0 0.0036650600341882685 -0.02292753868449101 0 0.0038337491347547907 -0.023194478108909122 0 0.003478009746437733 -0.023134413078782348 0 0.0036650600341882685 -0.02292753868449101 0 0.0038337491347547907 -0.023194478108909122 0 0.0035583009054548516 -0.023452314944922392 0 0.0038337491347547907 -0.023194478108909122 0 0.0040554661423010769 -0.023557723888626595 0 0.0046933478904360882 -0.023240214127026326 0 0.0039751322622379997 -0.022864067481851665 0 0.0042250200652158123 -0.023300891123188255 0 0.0038337491347547907 -0.023194478108909122 0 0.0042250200652158123 -0.023300891123188255 0 0.0040554661423010769 -0.023557723888626595 0 0.0039751322622379997 -0.022864067481851665 0 0.0038337491347547907 -0.023194478108909122 0 0.0042250200652158123 -0.023300891123188255 0 0.0045675941239310429 -0.023647950117262739 0 0.0042250200652158123 -0.023300891123188255 0 0.0040554661423010769 -0.023557723888626595 0 0.0045675941239310429 -0.023647950117262739 0 0.0040554661423010769 -0.023557723888626595 0 0.0041732913204127024 -0.023933160072718035 0 0.0035583009054548516 -0.023452314944922392 0 0.0040554661423010769 -0.023557723888626595 0 0.003764284570900992 -0.023914055978843538 0 0.003764284570900992 -0.023914055978843538 0 0.0041732913204127024 -0.023933160072718035 0 0.0040201230451684666 -0.024308959522303747 0 0.0040554661423010769 -0.023557723888626595 0 0.003764284570900992 -0.023914055978843538 0 0.0041732913204127024 -0.023933160072718035 0 0.0041732913204127024 -0.023933160072718035 0 0.0040201230451684666 -0.024308959522303747 0 0.0045478652060170158 -0.024148467591729304 0 0.0034340987354312216 -0.02427160286626074 0 0.003764284570900992 -0.023914055978843538 0 0.0040201230451684666 -0.024308959522303747 0 0.0035477794194274464 -0.024943046174643844 0 0.0040201230451684666 -0.024308959522303747 0 0.0046190591674899134 -0.024742650237098148 0 0.0034340987354312216 -0.02427160286626074 0 0.0035477794194274464 -0.024943046174643844 0 0.0040201230451684666 -0.024308959522303747 0 0.0046190591674899134 -0.024742650237098148 0 0.0053713768894455543 -0.024551987483374314 0 0.0050721051125059372 -0.025277471196130458 0 0.0046190591674899134 -0.024742650237098148 0 0.0048716538255179917 -0.024353745742904092 0 0.0053713768894455543 -0.024551987483374314 0 0.0046190591674899134 -0.024742650237098148 0 0.0048716538255179917 -0.024353745742904092 0 0.0045478652060170158 -0.024148467591729304 0 0.0048716538255179917 -0.024353745742904092 0 0.0045478652060170158 -0.024148467591729304 0 0.0049247241373080739 -0.023902468042562981 0 0.0040201230451684666 -0.024308959522303747 0 0.0046190591674899134 -0.024742650237098148 0 0.0045478652060170158 -0.024148467591729304 0 0.0045675941239310429 -0.023647950117262739 0 0.0041732913204127024 -0.023933160072718035 0 0.0045478652060170158 -0.024148467591729304 0 0.0045675941239310429 -0.023647950117262739 0 0.0045478652060170158 -0.024148467591729304 0 0.0049247241373080739 -0.023902468042562981 0 0.0052319627589689317 -0.023530911170937779 0 0.0049247241373080739 -0.023902468042562981 0 0.0053713768894455543 -0.024551987483374314 0 0.0077669496075980417 -0.021918889810733571 0 0.0068708144995915377 -0.023560373315596954 0 0.0050948004003768419 -0.021390276343040839 0 0.0053321978789057029 -0.023468394690994331 0 0.0066811530460810439 -0.022256389778619018 0 0.0077669496075980417 -0.021918889810733571 0 0.0092352165700648262 -0.020688605542046688 0 0.0048716538255179917 -0.024353745742904092 0 0.0049247241373080739 -0.023902468042562981 0 0.0053713768894455543 -0.024551987483374314 0 0.0068708144995915377 -0.023560373315596954 0 0.0066569143528358177 -0.024356975338933353 0 0.0053321978789057029 -0.023468394690994331 0 0.0068090059285757162 -0.023470712738890884 0 0.0062437914564409175 -0.024643195873987202 0 0.0068090059285757162 -0.023470712738890884 0 0.0072587005137282083 -0.024605660826436525 0 0.0062437914564409175 -0.024643195873987202 0 0.0053321978789057029 -0.023468394690994331 0 0.0068090059285757162 -0.023470712738890884 0 0.0066811530460810439 -0.022256389778619018 0 0.0068090059285757162 -0.023470712738890884 0 0.0066811530460810439 -0.022256389778619018 0 0.008282405136329803 -0.023121155223721247 0 0.0088330732456407927 -0.012405337938912821 0 0.0089528662764448326 -0.012230852921410407 0 0.010979558080003997 -0.012772110711614474 0 0.011455594985277429 -0.0042277664159704196 0 0.011572931866071849 -0.0038983825482480799 0 0.011370876246572363 -0.004044571704074902 0 0.0089990546290433723 -0.012439174968800013 0 0.011495993331774817 -0.010442606030239145 0 0.011455594985277429 -0.0042277664159704196 0 0.011370876246572363 -0.004044571704074902 0 0.011165710633804981 -0.0041997095102894915 0 0.012555579936070477 -0.0081308086121207272 0 0.011495993331774817 -0.010442606030239145 0 0.0089990546290433723 -0.012439174968800013 0 0.008684715467313954 -0.013141642755509771 0 0.0062090271215714107 -0.026030222723501174 0 0.0062437914564409175 -0.024643195873987202 0 0.0055796280392639928 -0.025569214332625739 0 0.0062090271215714107 -0.026030222723501174 0 0.0072587005137282083 -0.024605660826436525 0 0.0062437914564409175 -0.024643195873987202 0 0.008684715467313954 -0.013141642755509771 0 0.0087787530858885639 -0.017563115689284932 0 0.0099799528131503928 -0.015151451142706236 0 0.010120680290807775 -0.014958893148421292 0 0.010294948542202868 -0.01514982553645523 0 0.0053713768894455543 -0.024551987483374314 0 0.0055796280392639928 -0.025569214332625739 0 0.0050721051125059372 -0.025277471196130458 0 0.0053321978789057029 -0.023468394690994331 0 0.0062437914564409175 -0.024643195873987202 0 0.0055796280392639928 -0.025569214332625739 0 0.0055796280392639928 -0.025569214332625739 0 0.0050721051125059372 -0.025277471196130458 0 0.005498342534475187 -0.025932210096565454 0 0.0065844758446113151 -0.011113809125036877 0 0.0065142778358232402 -0.011101233291126141 0 0.006466519618879789 -0.011265965322529603 0 0.0065142778358232402 -0.011101233291126141 0 0.0063994169638838189 -0.01118599806612252 0 0.006466519618879789 -0.011265965322529603 0 0.0078803725536489722 -0.013145060797035446 0 0.0070502529098559362 -0.012674328818230525 0 0.0089990546290433723 -0.012439174968800013 0 0.0090518384731379884 -0.0087490556853318593 0 0.0062090271215714107 -0.026030222723501174 0 0.0055796280392639928 -0.025569214332625739 0 0.005498342534475187 -0.025932210096565454 0 0.0098621620769951644 -0.013577052898646906 0 0.010151826014315305 -0.013154489754228263 0 0.0076785263495910867 -0.013204977259610045 0 0.008684715467313954 -0.013141642755509771 0 0.0078803725536489722 -0.013145060797035446 0 0.0089990546290433723 -0.012439174968800013 0 0.0078803725536489722 -0.013145060797035446 0 0.0064089934762394749 -0.011136422240082704 0 0.006306362657656616 -0.011075925385742442 0 0.0062429381280596722 -0.011115926311859543 0 0.0065887319295215505 -0.011148128982031257 0 0.0064089934762394749 -0.011136422240082704 0 0.006306362657656616 -0.011075925385742442 0 0.0078803725536489722 -0.013145060797035446 0 0.0059512178402632392 -0.015450039915316734 0 0.0070502529098559362 -0.012674328818230525 0 0.00681635764117575 -0.01252702524684767 0 0.0063130020742340207 -0.01117667727391819 0 0.006375785233270391 -0.011103851831543133 0 0.0062429381280596722 -0.011115926311859543 0 0.0065142778358232402 -0.011101233291126141 0 0.0063994169638838189 -0.01118599806612252 0 0.006375785233270391 -0.011103851831543133 0 0.0063994169638838189 -0.01118599806612252 0 0.0063130020742340207 -0.01117667727391819 0 0.006375785233270391 -0.011103851831543133 0 0.0046190591674899134 -0.024742650237098148 0 0.0050721051125059372 -0.025277471196130458 0 0.0043005236925322812 -0.025698651517687715 0 0.0050721051125059372 -0.025277471196130458 0 0.005498342534475187 -0.025932210096565454 0 0.0043005236925322812 -0.025698651517687715 0 0.006306362657656616 -0.011075925385742442 0 0.0062429381280596722 -0.011115926311859543 0 0.0060829710399202515 -0.011043756146114039 0 0.0035477794194274464 -0.024943046174643844 0 0.0043005236925322812 -0.025698651517687715 0 0.0031692154453623117 -0.025523289994536909 0 0.0035477794194274464 -0.024943046174643844 0 0.0046190591674899134 -0.024742650237098148 0 0.0043005236925322812 -0.025698651517687715 0 0.0059512178402632392 -0.015450039915316734 0 0.0047580409426774316 -0.016101440347826151 0 0.0063130020742340207 -0.01117667727391819 0 0.0062429381280596722 -0.011115926311859543 0 0.0062225349566481201 -0.011208038272071825 0 0.0062429381280596722 -0.011115926311859543 0 0.0062225349566481201 -0.011208038272071825 0 0.0061368243318488851 -0.011162127093354261 0 0.0062225349566481201 -0.011208038272071825 0 0.0062125003660856463 -0.011321915945803271 0 0.006105383222329298 -0.011255054174995288 0 0.0063130020742340207 -0.01117667727391819 0 0.0062225349566481201 -0.011208038272071825 0 0.0063268551152565753 -0.011259915790494632 0 0.0062225349566481201 -0.011208038272071825 0 0.0062125003660856463 -0.011321915945803271 0 0.0063268551152565753 -0.011259915790494632 0 0.0081515630097084412 -0.0070293034006827871 0 0.0063637069972563333 -0.0073658101007444332 0 0.0062125003660856463 -0.011321915945803271 0 0.0063536984523370711 -0.011410796044273098 0 0.0061719140684904509 -0.011444570104334053 0 0.0062125003660856463 -0.011321915945803271 0 0.0063536984523370711 -0.011410796044273098 0 0.0063268551152565753 -0.011259915790494632 0 0.0081515630097084412 -0.0070293034006827871 0 0.0090518384731379884 -0.0087490556853318593 0 0.01125558049212118 -0.0041291551697828005 0 0.011439414495070507 -0.0040662506484312171 0 0.011589230176364674 -0.0039083262392062409 0 0.01125558049212118 -0.0041291551697828005 0 0.01137014826324487 -0.0041228543450320737 0 0.011439414495070507 -0.0040662506484312171 0 0.011203832871611618 -0.0041394143543001041 0 0.01137014826324487 -0.0041228543450320737 0 0.01125205047674576 -0.0043823198907092849 0 0.0081515630097084412 -0.0070293034006827871 0 0.0083668745818617982 -0.0069475079965788432 0 0.0063536984523370711 -0.011410796044273098 0 0.0063268551152565753 -0.011259915790494632 0 0.006466519618879789 -0.011265965322529603 0 0.0063994169638838189 -0.01118599806612252 0 0.0063268551152565753 -0.011259915790494632 0 0.006466519618879789 -0.011265965322529603 0 0.0063994169638838189 -0.01118599806612252 0 0.0063130020742340207 -0.01117667727391819 0 0.0063268551152565753 -0.011259915790494632 0 0.011455594985277429 -0.0042277664159704196 0 0.011589230176364674 -0.0039083262392062409 0 0.011572931866071849 -0.0038983825482480799 0 0.011572931866071849 -0.0038983825482480799 0 0.011621252234809152 -0.004004171322947574 0 0.011737551045584781 -0.0039445293729432626 0 0.011572931866071849 -0.0038983825482480799 0 0.01156693986861944 -0.0039665038335834294 0 0.011621252234809152 -0.004004171322947574 0 0.011589230176364674 -0.0039083262392062409 0 0.01156693986861944 -0.0039665038335834294 0 0.011525112938879284 -0.0040122949270076083 0 0.011439414495070507 -0.0040662506484312171 0 0.011589230176364674 -0.0039083262392062409 0 0.011525112938879284 -0.0040122949270076083 0 0.011589230176364674 -0.0039083262392062409 0 0.011572931866071849 -0.0038983825482480799 0 0.01156693986861944 -0.0039665038335834294 0 0.01156693986861944 -0.0039665038335834294 0 0.011525112938879284 -0.0040122949270076083 0 0.011565147989131183 -0.0040591500970194004 0 0.011565147989131183 -0.0040591500970194004 0 0.011510004723445483 -0.0041177742299832957 0 0.011646512728646285 -0.0041174927929566816 0 0.011525112938879284 -0.0040122949270076083 0 0.011565147989131183 -0.0040591500970194004 0 0.011510004723445483 -0.0041177742299832957 0 0.011439414495070507 -0.0040662506484312171 0 0.011525112938879284 -0.0040122949270076083 0 0.011510004723445483 -0.0041177742299832957 0 0.01137014826324487 -0.0041228543450320737 0 0.011439414495070507 -0.0040662506484312171 0 0.011510004723445483 -0.0041177742299832957 0 0.011510004723445483 -0.0041177742299832957 0 0.011604464136613533 -0.0042520523078213536 0 0.0114577459732791 -0.0042622405505965992 0 0.01137014826324487 -0.0041228543450320737 0 0.011510004723445483 -0.0041177742299832957 0 0.0114577459732791 -0.0042622405505965992 0 0.011748557691777706 -0.0042345812509374161 0 0.011646512728646285 -0.0041174927929566816 0 0.011604464136613533 -0.0042520523078213536 0 0.011510004723445483 -0.0041177742299832957 0 0.011646512728646285 -0.0041174927929566816 0 0.011604464136613533 -0.0042520523078213536 0 0.011646512728646285 -0.0041174927929566816 0 0.011621252234809152 -0.004004171322947574 0 0.011734749843195816 -0.0040468396560796021 0 0.011565147989131183 -0.0040591500970194004 0 0.011646512728646285 -0.0041174927929566816 0 0.011621252234809152 -0.004004171322947574 0 0.01156693986861944 -0.0039665038335834294 0 0.011565147989131183 -0.0040591500970194004 0 0.011621252234809152 -0.004004171322947574 0 0.011621252234809152 -0.004004171322947574 0 0.011734749843195816 -0.0040468396560796021 0 0.011737551045584781 -0.0039445293729432626 0 0.011734749843195816 -0.0040468396560796021 0 0.011910311986411929 -0.0039751433884748473 0 0.011737551045584781 -0.0039445293729432626 0 0.011646512728646285 -0.0041174927929566816 0 0.011734749843195816 -0.0040468396560796021 0 0.011838827787273843 -0.0041337025662351928 0 0.011734749843195816 -0.0040468396560796021 0 0.011838827787273843 -0.0041337025662351928 0 0.011910311986411929 -0.0039751433884748473 0 0.011748557691777706 -0.0042345812509374161 0 0.011838827787273843 -0.0041337025662351928 0 0.011919025733010138 -0.0043117924824397106 0 0.011748557691777706 -0.0042345812509374161 0 0.011646512728646285 -0.0041174927929566816 0 0.011838827787273843 -0.0041337025662351928 0 0.011838827787273843 -0.0041337025662351928 0 0.012120862761252935 -0.0041407078068658419 0 0.011919025733010138 -0.0043117924824397106 0 0.011838827787273843 -0.0041337025662351928 0 0.011910311986411929 -0.0039751433884748473 0 0.012120862761252935 -0.0041407078068658419 0 0.011910311986411929 -0.0039751433884748473 0 0.012097000868093967 -0.0038571994604630713 0 0.012120862761252935 -0.0041407078068658419 0 0.011910311986411929 -0.0039751433884748473 0 0.011890990664762111 -0.0036967429763683623 0 0.012097000868093967 -0.0038571994604630713 0 0.011890990664762111 -0.0036967429763683623 0 0.012156255803191404 -0.0035393406547729132 0 0.012097000868093967 -0.0038571994604630713 0 0.011910311986411929 -0.0039751433884748473 0 0.011737551045584781 -0.0039445293729432626 0 0.011890990664762111 -0.0036967429763683623 0 0.011572931866071849 -0.0038983825482480799 0 0.011737551045584781 -0.0039445293729432626 0 0.011890990664762111 -0.0036967429763683623 0 0.012767362031568615 -0.0074929753257691745 0 0.012555579936070477 -0.0081308086121207272 0 0.0017268797531155599 -0.0066207125157002299 0 0.00088284804980301402 -0.0063220801074406474 0 0.001342535269384509 -0.0057074346735667813 0 0.0017268797531155599 -0.0066207125157002299 0 0.0010500080392320606 -0.0072093449400409525 0 0.00088284804980301402 -0.0063220801074406474 0 0.0030153504307781588 -0.015375939345002705 0 0.0016909093980262847 -0.015467068507113957 0 0.0017268797531155599 -0.0066207125157002299 0 0.0010500080392320606 -0.0072093449400409525 0 0.002181812612725331 -0.0074212439911918752 0 0.0030153504307781588 -0.015375939345002705 0 0.003242256031530672 -0.010426047135974762 0 0.0030153504307781588 -0.015375939345002705 0 0.0047580409426774316 -0.016101440347826151 0 0.0025594400248322526 -0.024938812709875139 0 0.0020416516537852154 -0.025343141385680352 0 0.0031692154453623117 -0.025523289994536909 0 0.005877421254760584 -0.011018160764341235 0 0.0060829710399202515 -0.011043756146114039 0 0.0059189863003389596 -0.011170829367442103 0 0.0035477794194274464 -0.024943046174643844 0 0.0025594400248322526 -0.024938812709875139 0 0.0031692154453623117 -0.025523289994536909 0 0.0060829710399202515 -0.011043756146114039 0 0.0061368243318488851 -0.011162127093354261 0 0.0060376895934933948 -0.011189819470665921 0 0.0062429381280596722 -0.011115926311859543 0 0.0060829710399202515 -0.011043756146114039 0 0.0061368243318488851 -0.011162127093354261 0 0.0061368243318488851 -0.011162127093354261 0 0.0060376895934933948 -0.011189819470665921 0 0.006105383222329298 -0.011255054174995288 0 0.0060829710399202515 -0.011043756146114039 0 0.0059189863003389596 -0.011170829367442103 0 0.0060376895934933948 -0.011189819470665921 0 0.0059189863003389596 -0.011170829367442103 0 0.0060376895934933948 -0.011189819470665921 0 0.0059606523274297104 -0.011321691354881988 0 0.0060376895934933948 -0.011189819470665921 0 0.006105383222329298 -0.011255054174995288 0 0.0059606523274297104 -0.011321691354881988 0 0.003242256031530672 -0.010426047135974762 0 0.003921262141984419 -0.0085233313246643235 0 0.006105383222329298 -0.011255054174995288 0 0.0060814071828244505 -0.011358300502775139 0 0.0059606523274297104 -0.011321691354881988 0 0.0062125003660856463 -0.011321915945803271 0 0.006105383222329298 -0.011255054174995288 0 0.0060814071828244505 -0.011358300502775139 0 0.0062225349566481201 -0.011208038272071825 0 0.0061368243318488851 -0.011162127093354261 0 0.006105383222329298 -0.011255054174995288 0 0.0062125003660856463 -0.011321915945803271 0 0.0060814071828244505 -0.011358300502775139 0 0.0061719140684904509 -0.011444570104334053 0 0.0060814071828244505 -0.011358300502775139 0 0.005996623649821042 -0.011474033568509703 0 0.0061719140684904509 -0.011444570104334053 0 0.003921262141984419 -0.0085233313246643235 0 0.0048657123054428042 -0.006923630972313171 0 0.00080160476915592431 -0.0054886274571250967 0 0.001176411151429728 -0.0051092749319909345 0 0.00078704291636650509 -0.0048610488029962031 0 0.0060814071828244505 -0.011358300502775139 0 0.0059606523274297104 -0.011321691354881988 0 0.005996623649821042 -0.011474033568509703 0 0.00080160476915592431 -0.0054886274571250967 0 0.001176411151429728 -0.0051092749319909345 0 0.001342535269384509 -0.0057074346735667813 0 0.001176411151429728 -0.0051092749319909345 0 0.001342535269384509 -0.0057074346735667813 0 0.0015198299696735998 -0.0050578716192553165 0 0.00088284804980301402 -0.0063220801074406474 0 0.00080160476915592431 -0.0054886274571250967 0 0.001342535269384509 -0.0057074346735667813 0 0.0017268797531155599 -0.0066207125157002299 0 0.001342535269384509 -0.0057074346735667813 0 0.0021700391200366949 -0.0058818936776973609 0 0.001342535269384509 -0.0057074346735667813 0 0.0015198299696735998 -0.0050578716192553165 0 0.0021700391200366949 -0.0058818936776973609 0 0.00060289884210740663 -0.0061569178310070805 0 0.00050525014340665672 -0.0066926835289316698 0 0.0015198299696735998 -0.0050578716192553165 0 0.0014720805660440859 -0.0048352071903289863 0 0.0015232340872446211 -0.0049713498648020459 0 0.0013882725005059154 -0.0048865416038038657 0 0.0014720805660440859 -0.0048352071903289863 0 0.0015232340872446211 -0.0049713498648020459 0 0.0013882725005059154 -0.0048865416038038657 0 0.0012296677682855426 -0.0048561906688154213 0 0.0012595638023361882 -0.004966653453806218 0 0.0013882725005059154 -0.0048865416038038657 0 0.0012516500950206879 -0.0048074910769558858 0 0.0012296677682855426 -0.0048561906688154213 0 0.0013882725005059154 -0.0048865416038038657 0 0.001351687615774863 -0.0048017351167078254 0 0.0012516500950206879 -0.0048074910769558858 0 0.001351687615774863 -0.0048017351167078254 0 0.0012542036681777056 -0.0047802883268270252 0 0.0012516500950206879 -0.0048074910769558858 0 0.001351687615774863 -0.0048017351167078254 0 0.0012840110187927237 -0.0047599043205589445 0 0.0012542036681777056 -0.0047802883268270252 0 0.0013882725005059154 -0.0048865416038038657 0 0.001351687615774863 -0.0048017351167078254 0 0.0014720805660440859 -0.0048352071903289863 0 0.00050525014340665672 -0.0066926835289316698 0 0.00019039980634264348 -0.008672226898356325 0 0.0017268797531155599 -0.0066207125157002299 0 0.0021700391200366949 -0.0058818936776973609 0 0.0027566480504422407 -0.006756858608034517 0 0.001351687615774863 -0.0048017351167078254 0 0.0014720805660440859 -0.0048352071903289863 0 0.0013403431789545488 -0.004732630518356741 0 0.001351687615774863 -0.0048017351167078254 0 0.0013403431789545488 -0.004732630518356741 0 0.0012840110187927237 -0.0047599043205589445 0 0.0013403431789545488 -0.004732630518356741 0 0.0012840110187927237 -0.0047599043205589445 0 0.0012529436621379359 -0.004745681114380635 0 0.0013403431789545488 -0.004732630518356741 0 0.0012529436621379359 -0.004745681114380635 0 0.0012661512029030406 -0.0047196917425347427 0 0.00019039980634264348 -0.008672226898356325 0 0.00072646098073952524 -0.015000108098659955 0 0.0027566480504422407 -0.006756858608034517 0 0.002181812612725331 -0.0074212439911918752 0 0.00333136966876063 -0.0076443340079155207 0 0.0017268797531155599 -0.0066207125157002299 0 0.0027566480504422407 -0.006756858608034517 0 0.002181812612725331 -0.0074212439911918752 0 0.0012171467817958914 -0.0047494195627516868 0 0.0011809974474769913 -0.0047691810715935487 0 0.0011950171685848141 -0.0047449729772767232 0 0.0012171467817958914 -0.0047494195627516868 0 0.0012001539551288666 -0.004768455177704637 0 0.0011809974474769913 -0.0047691810715935487 0 0.0012171467817958914 -0.0047494195627516868 0 0.0012529436621379359 -0.004745681114380635 0 0.0012001539551288666 -0.004768455177704637 0 0.0012171467817958914 -0.0047494195627516868 0 0.0012529436621379359 -0.004745681114380635 0 0.0012661512029030406 -0.0047196917425347427 0 0.0012529436621379359 -0.004745681114380635 0 0.0012236070436411268 -0.0047687232944489608 0 0.0012001539551288666 -0.004768455177704637 0 0.0012840110187927237 -0.0047599043205589445 0 0.0012529436621379359 -0.004745681114380635 0 0.0012236070436411268 -0.0047687232944489608 0 0.0012840110187927237 -0.0047599043205589445 0 0.0012236070436411268 -0.0047687232944489608 0 0.0012542036681777056 -0.0047802883268270252 0 0.0012236070436411268 -0.0047687232944489608 0 0.0012001539551288666 -0.004768455177704637 0 0.0011936465751982487 -0.0047792020051071558 0 0.0012001539551288666 -0.004768455177704637 0 0.0011854273638218624 -0.0047744669431742008 0 0.0011809974474769913 -0.0047691810715935487 0 0.0012001539551288666 -0.004768455177704637 0 0.0011854273638218624 -0.0047744669431742008 0 0.001186836664250865 -0.0047803341952469278 0 0.0012001539551288666 -0.004768455177704637 0 0.001186836664250865 -0.0047803341952469278 0 0.0011936465751982487 -0.0047792020051071558 0 0.001186836664250865 -0.0047803341952469278 0 0.0011884240915334234 -0.0047831011192391226 0 0.0011922942002760384 -0.0047823387030535257 0 0.0008771983881298111 -0.00461935748931419 0 0.000916962982696116 -0.0045711879233591062 0 0.0011072172047089728 -0.0047768626939071043 0 0.001186836664250865 -0.0047803341952469278 0 0.0011884240915334234 -0.0047831011192391226 0 0.0011936465751982487 -0.0047792020051071558 0 0.0011884240915334234 -0.0047831011192391226 0 0.0011767945808214544 -0.0047840198015797917 0 0.0011922942002760384 -0.0047823387030535257 0 0.0011884240915334234 -0.0047831011192391226 0 0.0011936465751982487 -0.0047792020051071558 0 0.0011767945808214544 -0.0047840198015797917 0 0.0011936465751982487 -0.0047792020051071558 0 0.0011767945808214544 -0.0047840198015797917 0 0.0011959698546000395 -0.0047823875274559642 0 0.0011767945808214544 -0.0047840198015797917 0 0.0011922942002760384 -0.0047823387030535257 0 0.0011072172047089728 -0.0047768626939071043 0 0.0012236070436411268 -0.0047687232944489608 0 0.0012542036681777056 -0.0047802883268270252 0 0.0011959698546000395 -0.0047823875274559642 0 0.0012236070436411268 -0.0047687232944489608 0 0.0011936465751982487 -0.0047792020051071558 0 0.0011959698546000395 -0.0047823875274559642 0 0.0011767945808214544 -0.0047840198015797917 0 0.0011959698546000395 -0.0047823875274559642 0 0.0011072172047089728 -0.0047768626939071043 0 0.0012542036681777056 -0.0047802883268270252 0 0.0011959698546000395 -0.0047823875274559642 0 0.0012516500950206879 -0.0048074910769558858 0 0.0012516500950206879 -0.0048074910769558858 0 0.0011072172047089728 -0.0047768626939071043 0 0.0012296677682855426 -0.0048561906688154213 0 0.0011959698546000395 -0.0047823875274559642 0 0.0012516500950206879 -0.0048074910769558858 0 0.0011072172047089728 -0.0047768626939071043 0 0.0011072172047089728 -0.0047768626939071043 0 0.00097396089021115919 -0.0048245638517108317 0 0.0011135094024330909 -0.0048826224171541841 0 0.0011072172047089728 -0.0047768626939071043 0 0.0012296677682855426 -0.0048561906688154213 0 0.0011135094024330909 -0.0048826224171541841 0 0.0008771983881298111 -0.00461935748931419 0 0.0011072172047089728 -0.0047768626939071043 0 0.00097396089021115919 -0.0048245638517108317 0 0.00060961725593905328 -0.0041622115135023707 0 0.00097396089021115919 -0.0048245638517108317 0 0.00056483100342654595 -0.0045988369117567008 0 0.00032547669016245025 -0.0047473937027230273 0 0.00044706007662847867 -0.0047989204419966033 0 0.00052316625824940226 -0.0049913605602810249 0 0.00064391603304527834 -0.0050060302548717382 0 0.00097396089021115919 -0.0048245638517108317 0 0.00056483100342654595 -0.0045988369117567008 0 0.00069231168176469009 -0.0048438684166877593 0 0.00022889816426069053 -0.0043933208196745106 0 0.0003239558688106248 -0.0047367364332371494 0 -0.00032116655947766711 -0.0044499598990300317 0 0.00056483100342654595 -0.0045988369117567008 0 0.00022889816426069053 -0.0043933208196745106 0 0.0003239558688106248 -0.0047367364332371494 0 0.00056483100342654595 -0.0045988369117567008 0 0.0003239558688106248 -0.0047367364332371494 0 0.00069231168176469009 -0.0048438684166877593 0 0.00060961725593905328 -0.0041622115135023707 0 0.00056483100342654595 -0.0045988369117567008 0 0.00022889816426069053 -0.0043933208196745106 0 0.0003239558688106248 -0.0047367364332371494 0 -0.00032116655947766711 -0.0044499598990300317 0 0.0002143501216798852 -0.0050295733837568742 0 0.00022889816426069053 -0.0043933208196745106 0 -0.00032116655947766711 -0.0044499598990300317 0 -2.0862064772477923e-05 -0.0039813814254511552 0 -0.00088419808578289912 -0.0043151265490706994 0 -0.00078593273899342454 -0.0037997638391131685 0 -0.0013680098129406997 -0.0045920172022556448 0 -0.0014454285418215925 -0.0035918162673933217 0 -0.00070630478550569591 -0.0033520522879820509 0 -0.00032116655947766711 -0.0044499598990300317 0 -2.0862064772477923e-05 -0.0039813814254511552 0 -0.00070630478550569591 -0.0033520522879820509 0 0.0008771983881298111 -0.00461935748931419 0 0.000916962982696116 -0.0045711879233591062 0 0.0007290078065541846 -0.0043699186294552869 0 0.00032547669016245025 -0.0047473937027230273 0 0.00013766476123470324 -0.0049654812188806591 0 0.00060961725593905328 -0.0041622115135023707 0 -2.0862064772477923e-05 -0.0039813814254511552 0 7.5551231012451148e-05 -0.0033662435686216204 0 0.00052316625824940226 -0.0049913605602810249 0 0.00013766476123470324 -0.0049654812188806591 0 0.001186836664250865 -0.0047803341952469278 0 0.0011922942002760384 -0.0047823387030535257 0 0.0011768412867303602 -0.0047799098503338733 0 0.00060961725593905328 -0.0041622115135023707 0 0.00022889816426069053 -0.0043933208196745106 0 -2.0862064772477923e-05 -0.0039813814254511552 0 -0.0025565670432654694 -0.004521450212638032 0 -0.0021628106167560788 -0.00507155389972093 0 -0.0028239250044523774 -0.0051434562821214367 0 -0.0031523500152596797 -0.0045746804752375995 0 -0.0025565670432654694 -0.004521450212638032 0 -0.0028239250044523774 -0.0051434562821214367 0 -0.0031523500152596797 -0.0045746804752375995 0 -0.0030265760623159063 -0.0039415272064348573 0 -0.0025565670432654694 -0.004521450212638032 0 -0.0013680098129406997 -0.0045920172022556448 0 -0.0025565670432654694 -0.004521450212638032 0 -0.0021628106167560788 -0.00507155389972093 0 -0.0013680098129406997 -0.0045920172022556448 0 -0.0025565670432654694 -0.004521450212638032 0 -0.002149058058607726 -0.0038562450716309658 0 -0.0013680098129406997 -0.0045920172022556448 0 -0.002149058058607726 -0.0038562450716309658 0 -0.0014454285418215925 -0.0035918162673933217 0 -0.0030265760623159063 -0.0039415272064348573 0 -0.0025565670432654694 -0.004521450212638032 0 -0.002149058058607726 -0.0038562450716309658 0 -0.0030265760623159063 -0.0039415272064348573 0 -0.002149058058607726 -0.0038562450716309658 0 -0.0026168823330484058 -0.0032830709493689913 0 -0.0026168823330484058 -0.0032830709493689913 0 -0.001873658417315009 -0.003140268329827482 0 -0.0024133728779380473 -0.002718944132110658 0 -0.002149058058607726 -0.0038562450716309658 0 -0.001873658417315009 -0.003140268329827482 0 -0.0014454285418215925 -0.0035918162673933217 0 -0.002149058058607726 -0.0038562450716309658 0 -0.0026168823330484058 -0.0032830709493689913 0 -0.001873658417315009 -0.003140268329827482 0 -0.001873658417315009 -0.003140268329827482 0 -0.0014454285418215925 -0.0035918162673933217 0 -0.0011378253475816803 -0.0029090234383593976 0 -0.001873658417315009 -0.003140268329827482 0 -0.0019007180924020422 -0.0023988860148692558 0 -0.0011378253475816803 -0.0029090234383593976 0 -0.0019007180924020422 -0.0023988860148692558 0 -0.0011378253475816803 -0.0029090234383593976 0 -0.0012426210391664736 -0.0022272052945726956 0 -0.001873658417315009 -0.003140268329827482 0 -0.0019007180924020422 -0.0023988860148692558 0 -0.0024133728779380473 -0.002718944132110658 0 -0.0031170079823438874 -0.0026094016034293108 0 -0.0030429414723423371 -0.0017740291734175575 0 -0.002525231433679082 -0.0021752756814428266 0 -0.0019007180924020422 -0.0023988860148692558 0 -0.0024133728779380473 -0.002718944132110658 0 -0.002525231433679082 -0.0021752756814428266 0 -0.0031170079823438874 -0.0026094016034293108 0 -0.0024133728779380473 -0.002718944132110658 0 -0.002525231433679082 -0.0021752756814428266 0 -0.0031170079823438874 -0.0026094016034293108 0 -0.0026168823330484058 -0.0032830709493689913 0 -0.0024133728779380473 -0.002718944132110658 0 0.00013766476123470324 -0.0049654812188806591 0 0.00052324506517058712 -0.0050136775412558086 0 0.0011854273638218624 -0.0047744669431742008 0 0.0011768412867303602 -0.0047799098503338733 0 0.0011809974474769913 -0.0047691810715935487 0 0.0011854273638218624 -0.0047744669431742008 0 0.001186836664250865 -0.0047803341952469278 0 0.0011768412867303602 -0.0047799098503338733 0 -2.0862064772477923e-05 -0.0039813814254511552 0 7.5551231012451148e-05 -0.0033662435686216204 0 -0.00070630478550569591 -0.0033520522879820509 0 7.5551231012451148e-05 -0.0033662435686216204 0 -0.0011378253475816803 -0.0029090234383593976 0 -0.0012426210391664736 -0.0022272052945726956 0 7.5551231012451148e-05 -0.0033662435686216204 0 -0.00070630478550569591 -0.0033520522879820509 0 -0.0011378253475816803 -0.0029090234383593976 0 -0.0014454285418215925 -0.0035918162673933217 0 -0.00070630478550569591 -0.0033520522879820509 0 -0.0011378253475816803 -0.0029090234383593976 0 0.00013766476123470324 -0.0049654812188806591 0 -0.001767784858644964 -0.0064029935160489588 0 0.0011424418148327942 -0.0048742662902332336 0 0.0011310220170931719 -0.0048399528591539995 0 0.001115533758868144 -0.004829684744137773 0 0.0011310220170931719 -0.0048399528591539995 0 0.001115533758868144 -0.004829684744137773 0 0.0011204959661983182 -0.0047945508727236562 0 0.0011608949038644624 -0.0047768095298497759 0 0.0011643928625032541 -0.0047714054011334141 0 0.0011488729370880539 -0.0047809028649878852 0 0.0011768412867303602 -0.0047799098503338733 0 0.0011608949038644624 -0.0047768095298497759 0 0.0011809974474769913 -0.0047691810715935487 0 0.0011809974474769913 -0.0047691810715935487 0 0.0011643928625032541 -0.0047714054011334141 0 0.0011950171685848141 -0.0047449729772767232 0 0.0011608949038644624 -0.0047768095298497759 0 0.0011809974474769913 -0.0047691810715935487 0 0.0011643928625032541 -0.0047714054011334141 0 0.0011643928625032541 -0.0047714054011334141 0 0.0011434637531774698 -0.0047766443149388398 0 0.0011950171685848141 -0.0047449729772767232 0 -0.00092033538678173608 -0.014201204682764581 0 -0.00017481485963100919 -0.014650634750851365 0 0.0011643928625032541 -0.0047714054011334141 0 0.0011488729370880539 -0.0047809028649878852 0 0.0011434637531774698 -0.0047766443149388398 0 0.0011608949038644624 -0.0047768095298497759 0 0.0011488729370880539 -0.0047809028649878852 0 0.0011204959661983182 -0.0047945508727236562 0 0.00052324506517058712 -0.0050136775412558086 0 0.00062448050719370767 -0.0050047227157202084 0 0.0011488729370880539 -0.0047809028649878852 0 0.0011204959661983182 -0.0047945508727236562 0 0.0011434637531774698 -0.0047766443149388398 0 -0.0028573579545419022 -0.024748132446827251 0 -0.0033073043672349088 -0.024024008345882152 0 -0.0026569044179155623 -0.023670398867370376 0 -0.0028573579545419022 -0.024748132446827251 0 -0.0020308661267676633 -0.024206922076511192 0 -0.0016670912898419457 -0.024903022390029058 0 -0.0028573579545419022 -0.024748132446827251 0 -0.0020308661267676633 -0.024206922076511192 0 -0.0026569044179155623 -0.023670398867370376 0 -0.0030429414723423371 -0.0017740291734175575 0 -0.002525231433679082 -0.0021752756814428266 0 -0.0022893262807796772 -0.0012600271343039232 0 -0.0019007180924020422 -0.0023988860148692558 0 -0.002525231433679082 -0.0021752756814428266 0 -0.0022893262807796772 -0.0012600271343039232 0 -0.001767784858644964 -0.0064029935160489588 0 -0.0022260407983101704 -0.013280121171467053 0 -0.0019007180924020422 -0.0023988860148692558 0 -0.0012426210391664736 -0.0022272052945726956 0 -0.0022893262807796772 -0.0012600271343039232 0 0.0011204959661983182 -0.0047945508727236562 0 0.0011434637531774698 -0.0047766443149388398 0 0.0010551063137977238 -0.0047932323843322489 0 0.001115533758868144 -0.004829684744137773 0 0.0011204959661983182 -0.0047945508727236562 0 0.0010551063137977238 -0.0047932323843322489 0 -0.00092033538678173608 -0.014201204682764581 0 -0.0022260407983101704 -0.013280121171467053 0 -0.0040329153357484757 -0.024599685415417388 0 -0.0033073043672349088 -0.024024008345882152 0 -0.0038555893386600687 -0.023631544185967693 0 -0.0028573579545419022 -0.024748132446827251 0 -0.0040329153357484757 -0.024599685415417388 0 -0.0033073043672349088 -0.024024008345882152 0 -0.0041718504913574438 -0.013484063749951005 0 -0.0022260407983101704 -0.013280121171467053 0 -0.0011143196849058214 -0.018190768141467466 0 -0.0022260407983101704 -0.013280121171467053 0 -0.0049415223997615453 -0.023763138833397136 0 -0.0050504895841854709 -0.023892549797357367 0 -0.0046745978172974146 -0.024124995425947687 0 -0.0049415223997615453 -0.023763138833397136 0 -0.0040329153357484757 -0.024599685415417388 0 -0.0043696319560788564 -0.023841031684245468 0 -0.0040329153357484757 -0.024599685415417388 0 -0.0043696319560788564 -0.023841031684245468 0 -0.0038555893386600687 -0.023631544185967693 0 -0.0045925389777443379 -0.023439520080683486 0 -0.0043696319560788564 -0.023841031684245468 0 -0.0042462124839667201 -0.023454843658007006 0 -0.0047142679878567394 -0.023615846214296368 0 -0.0045925389777443379 -0.023439520080683486 0 -0.0043696319560788564 -0.023841031684245468 0 -0.0047142679878567394 -0.023615846214296368 0 -0.0049415223997615453 -0.023763138833397136 0 -0.0043696319560788564 -0.023841031684245468 0 -0.0043696319560788564 -0.023841031684245468 0 -0.0042462124839667201 -0.023454843658007006 0 -0.0038555893386600687 -0.023631544185967693 0 -0.0033073043672349088 -0.024024008345882152 0 -0.0038555893386600687 -0.023631544185967693 0 -0.0034296365714670349 -0.023125178891707565 0 -0.0032991904660076938 -0.022557589373759158 0 -0.0034296365714670349 -0.023125178891707565 0 -0.0036768998841312777 -0.022753135651503924 0 -0.0034296365714670349 -0.023125178891707565 0 -0.0036768998841312777 -0.022753135651503924 0 -0.0039965213195684249 -0.023069167819677178 0 -0.0040084692503414357 -0.022635478915552225 0 -0.0036768998841312777 -0.022753135651503924 0 -0.0039965213195684249 -0.023069167819677178 0 -0.0038555893386600687 -0.023631544185967693 0 -0.0034296365714670349 -0.023125178891707565 0 -0.0039965213195684249 -0.023069167819677178 0 -0.0042462124839667201 -0.023454843658007006 0 -0.0039965213195684249 -0.023069167819677178 0 -0.004442575991628929 -0.023134109112898919 0 -0.0042462124839667201 -0.023454843658007006 0 -0.0038555893386600687 -0.023631544185967693 0 -0.0039965213195684249 -0.023069167819677178 0 -0.0039965213195684249 -0.023069167819677178 0 -0.0043645367460382663 -0.02277248257645454 0 -0.004442575991628929 -0.023134109112898919 0 -0.0040084692503414357 -0.022635478915552225 0 -0.0039965213195684249 -0.023069167819677178 0 -0.0043645367460382663 -0.02277248257645454 0 -0.0046958073862376571 -0.022918847548487505 0 -0.0047053188157476031 -0.022648166236993478 0 -0.0043645367460382663 -0.02277248257645454 0 -0.0046958073862376571 -0.022918847548487505 0 -0.0043645367460382663 -0.02277248257645454 0 -0.004442575991628929 -0.023134109112898919 0 -0.0046958073862376571 -0.022918847548487505 0 -0.0047276546713822315 -0.023187951960781144 0 -0.004442575991628929 -0.023134109112898919 0 -0.0047276546713822315 -0.023187951960781144 0 -0.0045925389777443379 -0.023439520080683486 0 -0.004442575991628929 -0.023134109112898919 0 -0.0045925389777443379 -0.023439520080683486 0 -0.0042462124839667201 -0.023454843658007006 0 -0.004442575991628929 -0.023134109112898919 0 -0.0026569044179155623 -0.023670398867370376 0 -0.002058930423323379 -0.02293529389100573 0 -0.0019259081587199931 -0.023574724086163089 0 -0.0020308661267676633 -0.024206922076511192 0 -0.0026569044179155623 -0.023670398867370376 0 -0.0019259081587199931 -0.023574724086163089 0 -0.0033073043672349088 -0.024024008345882152 0 -0.0034296365714670349 -0.023125178891707565 0 -0.0026569044179155623 -0.023670398867370376 0 -0.0034296365714670349 -0.023125178891707565 0 -0.0026569044179155623 -0.023670398867370376 0 -0.0028012396097420885 -0.022810666962312518 0 -0.0032991904660076938 -0.022557589373759158 0 -0.0034296365714670349 -0.023125178891707565 0 -0.0028012396097420885 -0.022810666962312518 0 -0.0026569044179155623 -0.023670398867370376 0 -0.0028012396097420885 -0.022810666962312518 0 -0.002058930423323379 -0.02293529389100573 0 -0.00247315321813608 -0.022412142375963718 0 -0.0028012396097420885 -0.022810666962312518 0 -0.002058930423323379 -0.02293529389100573 0 -0.001233682446489665 -0.02228826608415822 0 -0.0013099109113484417 -0.022710028072767494 0 -0.0013272002464801657 -0.022510853566203644 0 -0.002058930423323379 -0.02293529389100573 0 -0.0014526059096807969 -0.023374836110636416 0 -0.002058930423323379 -0.02293529389100573 0 -0.0019259081587199931 -0.023574724086163089 0 -0.0014526059096807969 -0.023374836110636416 0 -0.0019259081587199931 -0.023574724086163089 0 -0.0014526059096807969 -0.023374836110636416 0 -0.0014175773182926942 -0.02370737558135784 0 -0.0014526059096807969 -0.023374836110636416 0 -0.0014175773182926942 -0.02370737558135784 0 -0.00089368349333258804 -0.02347130577042 0 -0.0020308661267676633 -0.024206922076511192 0 -0.0019259081587199931 -0.023574724086163089 0 -0.0014175773182926942 -0.02370737558135784 0 -0.0014175773182926942 -0.02370737558135784 0 -0.00089368349333258804 -0.02347130577042 0 -0.00090085745669244604 -0.02433233905944009 0 -0.0014526059096807969 -0.023374836110636416 0 -0.00089368349333258804 -0.02347130577042 0 -0.00088817284020222453 -0.02300484134342946 0 -0.00089368349333258804 -0.02347130577042 0 -0.00088817284020222453 -0.02300484134342946 0 -0.00032614706661862543 -0.023353899480250816 0 -0.0012223113427646194 -0.022343078587149696 0 -0.0014526059096807969 -0.023374836110636416 0 -0.00088817284020222453 -0.02300484134342946 0 -0.0012223113427646194 -0.022343078587149696 0 -0.00088817284020222453 -0.02300484134342946 0 -0.00032807572021011165 -0.022702438817275395 0 -0.00032807572021011165 -0.022702438817275395 0 0.0004989113040725525 -0.022753875257246439 0 -0.00032614706661862543 -0.023353899480250816 0 -0.00088817284020222453 -0.02300484134342946 0 -0.00032807572021011165 -0.022702438817275395 0 -0.00032614706661862543 -0.023353899480250816 0 0.001307507096286069 -0.023181552780710591 0 0.0004989113040725525 -0.022753875257246439 0 0.00047770754294512908 -0.023500617847983182 0 0.0004989113040725525 -0.022753875257246439 0 0.00047770754294512908 -0.023500617847983182 0 -0.00032614706661862543 -0.023353899480250816 0 0.00047770754294512908 -0.023500617847983182 0 -0.00032614706661862543 -0.023353899480250816 0 -0.00029230881417150947 -0.024001377591847315 0 -0.00089368349333258804 -0.02347130577042 0 -0.00032614706661862543 -0.023353899480250816 0 -0.00029230881417150947 -0.024001377591847315 0 -0.00029230881417150947 -0.024001377591847315 0 0.0004884585944995146 -0.024322246969123211 0 -0.00042662772273375984 -0.024993587478608418 0 0.0011906957437253566 -0.023777395251314493 0 0.00047770754294512908 -0.023500617847983182 0 0.0004884585944995146 -0.024322246969123211 0 0.00047770754294512908 -0.023500617847983182 0 -0.00029230881417150947 -0.024001377591847315 0 0.0004884585944995146 -0.024322246969123211 0 0.0016909093980262847 -0.015467068507113957 0 0.00072646098073952524 -0.015000108098659955 0 0.00079333921036116881 -0.025177912233911921 0 0.0004884585944995146 -0.024322246969123211 0 -0.00042662772273375984 -0.024993587478608418 0 0.0012171467817958914 -0.0047494195627516868 0 0.0012661512029030406 -0.0047196917425347427 0 0.0011950171685848141 -0.0047449729772767232 0 -0.00050197568378255737 -0.025059578159377989 0 -0.0016670912898419457 -0.024903022390029058 0 -0.00096252648211646666 -0.024403947232566947 0 0.00072646098073952524 -0.015000108098659955 0 -0.00017481485963100919 -0.014650634750851365 0 0.00072646098073952524 -0.015000108098659955 0 0.0014803154738898627 -0.019838199818014064 0 -0.0020308661267676633 -0.024206922076511192 0 -0.0016670912898419457 -0.024903022390029058 0 -0.0015094354126075544 -0.02429617877803562 0 -0.0016670912898419457 -0.024903022390029058 0 -0.0015094354126075544 -0.02429617877803562 0 -0.00096252648211646666 -0.024403947232566947 0 -0.0014175773182926942 -0.02370737558135784 0 -0.0015094354126075544 -0.02429617877803562 0 -0.00096252648211646666 -0.024403947232566947 0 -0.0020308661267676633 -0.024206922076511192 0 -0.0014175773182926942 -0.02370737558135784 0 -0.0015094354126075544 -0.02429617877803562 0 -0.00089368349333258804 -0.02347130577042 0 -0.00029230881417150947 -0.024001377591847315 0 -0.00090085745669244604 -0.02433233905944009 0 0.0014027647251138337 -0.020846486883166766 0 0.0014803154738898627 -0.019838199818014064 0 -0.00029230881417150947 -0.024001377591847315 0 -0.00042662772273375984 -0.024993587478608418 0 -0.00090085745669244604 -0.02433233905944009 0 0.025714170941877723 -0.019939229735068696 0 0.025243893026402103 -0.021637655365719273 0 0.025235093110482072 -0.020891265436729069 0 0.025235459763133208 -0.020040504866155568 0 0.025463493158565151 -0.020595637369497825 0 0.025243893026402103 -0.021637655365719273 0 0.025483720075931988 -0.01973786486075341 0 0.025600902105853921 -0.020327461416511663 0 0.025235459763133208 -0.020040504866155568 0 0.025463493158565151 -0.020595637369497825 0 0.025959912972726384 -0.019724123767274063 0 0.025714170941877723 -0.019939229735068696 0 0.025237463171269091 -0.01991897892554827 0 0.025235093110482072 -0.020891265436729069 0 0.024999560478475572 -0.020261302568018773 0 0.025237463171269091 -0.01991897892554827 0 0.024999857772228854 -0.018894850798973024 0 0.024999560478475572 -0.020261302568018773 0 0.025237463171269091 -0.01991897892554827 0 0.025235093110482072 -0.020891265436729069 0 0.025714170941877723 -0.019939229735068696 0 0.025237463171269091 -0.01991897892554827 0 0.025347267963488532 -0.019364214376630197 0 0.025483720075931988 -0.01973786486075341 0 0.025259717130266729 -0.01867905288676943 0 0.025237463171269091 -0.01991897892554827 0 0.025347267963488532 -0.019364214376630197 0 0.024999857772228854 -0.018894850798973024 0 0.025714170941877723 -0.019939229735068696 0 0.025347267963488532 -0.019364214376630197 0 0.025468064750164263 -0.018626420283139863 0 0.025347267963488532 -0.019364214376630197 0 0.024999857772228854 -0.018894850798973024 0 0.025468064750164263 -0.018626420283139863 0 0.025235459763133208 -0.020040504866155568 0 0.025473037563972813 -0.019003288901536013 0 0.025639735742730645 -0.019404268740124738 0 0.025235459763133208 -0.020040504866155568 0 0.025473037563972813 -0.019003288901536013 0 0.02501156425741783 -0.018596552207546576 0 0.025639735742730645 -0.019404268740124738 0 0.025974925070797069 -0.018965133019711429 0 0.025959912972726384 -0.019724123767274063 0 0.025235459763133208 -0.020040504866155568 0 0.025639735742730645 -0.019404268740124738 0 0.025959912972726384 -0.019724123767274063 0 0.025473037563972813 -0.019003288901536013 0 0.025639735742730645 -0.019404268740124738 0 0.025974925070797069 -0.018965133019711429 0 0.025974925070797069 -0.018965133019711429 0 0.026547184592231085 -0.019570437590263112 0 0.026827432309434896 -0.018810675040955585 0 0.025974925070797069 -0.018965133019711429 0 0.026547184592231085 -0.019570437590263112 0 0.025959912972726384 -0.019724123767274063 0 0.027301683635067481 -0.019464697843597775 0 0.027903693149467508 -0.0185090041324452 0 0.026827432309434896 -0.018810675040955585 0 0.026547184592231085 -0.019570437590263112 0 0.027301683635067481 -0.019464697843597775 0 0.026827432309434896 -0.018810675040955585 0 0.026547184592231085 -0.019570437590263112 0 0.027301683635067481 -0.019464697843597775 0 0.02681704439399589 -0.020281108173062556 0 0.02681704439399589 -0.020281108173062556 0 0.027214026021842346 -0.020763615621578344 0 0.027671705956849469 -0.020269498963936209 0 0.027301683635067481 -0.019464697843597775 0 0.02681704439399589 -0.020281108173062556 0 0.027671705956849469 -0.020269498963936209 0 0.02681704439399589 -0.020281108173062556 0 0.026265541647988579 -0.02031320779713584 0 0.026709286751183028 -0.021326247261827955 0 0.025463493158565151 -0.020595637369497825 0 0.026265541647988579 -0.02031320779713584 0 0.026709286751183028 -0.021326247261827955 0 0.026547184592231085 -0.019570437590263112 0 0.025959912972726384 -0.019724123767274063 0 0.026265541647988579 -0.02031320779713584 0 0.025463493158565151 -0.020595637369497825 0 0.025959912972726384 -0.019724123767274063 0 0.026265541647988579 -0.02031320779713584 0 0.026547184592231085 -0.019570437590263112 0 0.02681704439399589 -0.020281108173062556 0 0.026265541647988579 -0.02031320779713584 0 0.025463493158565151 -0.020595637369497825 0 0.025110807530880113 -0.022266333305370881 0 0.025243893026402103 -0.021637655365719273 0 0.024892495557401959 -0.021598659390943895 0 0.025048512690954906 -0.022053586857559218 0 0.025110807530880113 -0.022266333305370881 0 0.02496325666971258 -0.022343281006941374 0 0.025243893026402103 -0.021637655365719273 0 0.026709286751183028 -0.021326247261827955 0 0.027701851927803278 -0.022078175902770048 0 0.027654169396773582 -0.021172724609372879 0 0.02681704439399589 -0.020281108173062556 0 0.026709286751183028 -0.021326247261827955 0 0.027214026021842346 -0.020763615621578344 0 0.027214026021842346 -0.020763615621578344 0 0.027654169396773582 -0.021172724609372879 0 0.027671705956849469 -0.020269498963936209 0 0.026709286751183028 -0.021326247261827955 0 0.027214026021842346 -0.020763615621578344 0 0.027654169396773582 -0.021172724609372879 0 0.025110807530880113 -0.022266333305370881 0 0.024617437030450592 -0.022857384017039996 0 0.024068639306357054 -0.023440334605297382 0 0.025048512690954906 -0.022053586857559218 0 0.025011642616921553 -0.02285446500090501 0 0.024617437030450592 -0.022857384017039996 0 0.024143106532496569 -0.023268824955685111 0 0.024068639306357054 -0.023440334605297382 0 0.024617437030450592 -0.022857384017039996 0 0.02496325666971258 -0.022343281006941374 0 0.024624720702564478 -0.022872717191878514 0 0.02496325666971258 -0.022343281006941374 0 0.025034903950164045 -0.022053402614676944 0 0.024624720702564478 -0.022872717191878514 0 0.025110807530880113 -0.022266333305370881 0 0.024617437030450592 -0.022857384017039996 0 0.02496325666971258 -0.022343281006941374 0 0.02496325666971258 -0.022343281006941374 0 0.025034903950164045 -0.022053402614676944 0 0.025243893026402103 -0.021637655365719273 0 0.025034903950164045 -0.022053402614676944 0 0.025243893026402103 -0.021637655365719273 0 0.025235093110482072 -0.020891265436729069 0 0.024999560478475572 -0.020261302568018773 0 0.025235093110482072 -0.020891265436729069 0 0.024999416544697856 -0.02162799643249191 0 0.025034903950164045 -0.022053402614676944 0 0.025235093110482072 -0.020891265436729069 0 0.024999416544697856 -0.02162799643249191 0 0.025034903950164045 -0.022053402614676944 0 0.024999416544697856 -0.02162799643249191 0 0.024833683452804674 -0.022766948863146341 0 0.024999416544697856 -0.02162799643249191 0 0.024833683452804674 -0.022766948863146341 0 0.024999203035757159 -0.022991193837658321 0 0.025034903950164045 -0.022053402614676944 0 0.024833683452804674 -0.022766948863146341 0 0.024624720702564478 -0.022872717191878514 0 0.024833683452804674 -0.022766948863146341 0 0.024345074636685619 -0.022992086878661395 0 0.02430810356126431 -0.023087964515941677 0 0.024998951419930082 -0.022993406039238124 0 0.024428512954870467 -0.023390118170280812 0 0.024833683452804674 -0.022766948863146341 0 0.024999203035757159 -0.022991193837658321 0 0.024345074636685619 -0.022992086878661395 0 0.024998056691071163 -0.024998687688540615 0 0.024273928092749898 -0.024514595940113851 0 0.022337958007506792 -0.024997242336686768 0 0.024999404226885485 -0.022996180356339335 0 0.024998056691071163 -0.024998687688540615 0 0.024273928092749898 -0.024514595940113851 0 0.023063495898239018 -0.02434409998235558 0 0.022337958007506792 -0.024997242336686768 0 0.023769904981906908 -0.023609484690604275 0 0.022332390111321394 -0.024999169533654067 0 0.022496095417408747 -0.024546166182356222 0 0.024273928092749898 -0.024514595940113851 0 0.023063495898239018 -0.02434409998235558 0 0.022337958007506792 -0.024997242336686768 0 0.024428512954870467 -0.023390118170280812 0 0.024157735119509024 -0.023597675886958786 0 0.024345074636685619 -0.022992086878661395 0 0.023063495898239018 -0.02434409998235558 0 0.023702210277584165 -0.023427888822391219 0 0.023702210277584165 -0.023427888822391219 0 0.023590525719346306 -0.02353798101774875 0 0.023769904981906908 -0.023609484690604275 0 0.023063495898239018 -0.02434409998235558 0 0.023702210277584165 -0.023427888822391219 0 0.023769904981906908 -0.023609484690604275 0 0.023702210277584165 -0.023427888822391219 0 0.023916934210507133 -0.023332252554449148 0 0.023590525719346306 -0.02353798101774875 0 0.023702210277584165 -0.023427888822391219 0 0.023916934210507133 -0.023332252554449148 0 0.02430810356126431 -0.023087964515941677 0 0.023916934210507133 -0.023332252554449148 0 0.02349566085093514 -0.023597652743801361 0 0.023590525719346306 -0.02353798101774875 0 0.024345074636685619 -0.022992086878661395 0 0.023702210277584165 -0.023427888822391219 0 0.02430810356126431 -0.023087964515941677 0 0.023916934210507133 -0.023332252554449148 0 0.02430810356126431 -0.023087964515941677 0 0.024624720702564478 -0.022872717191878514 0 0.024833683452804674 -0.022766948863146341 0 0.02430810356126431 -0.023087964515941677 0 0.024624720702564478 -0.022872717191878514 0 0.024617437030450592 -0.022857384017039996 0 0.024624720702564478 -0.022872717191878514 0 0.024143106532496569 -0.023268824955685111 0 0.023916934210507133 -0.023332252554449148 0 0.024624720702564478 -0.022872717191878514 0 0.024143106532496569 -0.023268824955685111 0 0.024143106532496569 -0.023268824955685111 0 0.02349566085093514 -0.023597652743801361 0 0.024068639306357054 -0.023440334605297382 0 0.023916934210507133 -0.023332252554449148 0 0.024143106532496569 -0.023268824955685111 0 0.02349566085093514 -0.023597652743801361 0 0.024457647671971942 -0.023663960162825886 0 0.025011642616921553 -0.02285446500090501 0 0.02349566085093514 -0.023597652743801361 0 0.022486535864188591 -0.023977329115923728 0 0.024068639306357054 -0.023440334605297382 0 0.02349566085093514 -0.023597652743801361 0 0.022486535864188591 -0.023977329115923728 0 0.022433350566070247 -0.02388121978303246 0 0.028601712094645477 -0.02281505663379034 0 0.028879904927180945 -0.022220184547368418 0 0.027701851927803278 -0.022078175902770048 0 0.028601712094645477 -0.02281505663379034 0 0.029085800441319691 -0.022817438968584878 0 0.028879904927180945 -0.022220184547368418 0 0.022486535864188591 -0.023977329115923728 0 0.022062002700875209 -0.024261011172550379 0 0.021778928193663814 -0.024525696969137832 0 0.024457647671971942 -0.023663960162825886 0 0.022678944896146479 -0.02409206231743171 0 0.028601712094645477 -0.02281505663379034 0 0.029085800441319691 -0.022817438968584878 0 0.029450389240670904 -0.023542021160524836 0 0.022486535864188591 -0.023977329115923728 0 0.022433350566070247 -0.02388121978303246 0 0.022062002700875209 -0.024261011172550379 0 0.022433350566070247 -0.02388121978303246 0 0.022062002700875209 -0.024261011172550379 0 0.021890207947873181 -0.024503085975328243 0 0.022062002700875209 -0.024261011172550379 0 0.021578596651916811 -0.024784744443177697 0 0.021778928193663814 -0.024525696969137832 0 0.022433350566070247 -0.02388121978303246 0 0.021363571531422737 -0.025120486232267873 0 0.021890207947873181 -0.024503085975328243 0 0.022433350566070247 -0.02388121978303246 0 0.023590525719346306 -0.02353798101774875 0 0.023769904981906908 -0.023609484690604275 0 0.022478533337710358 -0.024460762604161902 0 0.022496095417408747 -0.024546166182356222 0 0.02349566085093514 -0.023597652743801361 0 0.022433350566070247 -0.02388121978303246 0 0.023590525719346306 -0.02353798101774875 0 0.021363571531422737 -0.025120486232267873 0 0.021578596651916811 -0.024784744443177697 0 0.021254396765379008 -0.025138750339914667 0 0.021363571531422737 -0.025120486232267873 0 0.021890207947873181 -0.024503085975328243 0 0.021578596651916811 -0.024784744443177697 0 0.022062002700875209 -0.024261011172550379 0 0.021890207947873181 -0.024503085975328243 0 0.021578596651916811 -0.024784744443177697 0 0.021578596651916811 -0.024784744443177697 0 0.020988138271570287 -0.025091767992359394 0 0.021119230336918874 -0.024969444970730635 0 0.021578596651916811 -0.024784744443177697 0 0.020988138271570287 -0.025091767992359394 0 0.021254396765379008 -0.025138750339914667 0 0.020988138271570287 -0.025091767992359394 0 0.021070565277235238 -0.024999461546782207 0 0.019810790630692451 -0.024999719392670958 0 0.020988138271570287 -0.025091767992359394 0 0.021070565277235238 -0.024999461546782207 0 0.021254396765379008 -0.025138750339914667 0 0.022331022182487663 -0.025000041380410551 0 0.021363571531422737 -0.025120486232267873 0 0.021254396765379008 -0.025138750339914667 0 0.022331022182487663 -0.025000041380410551 0 0.021070565277235238 -0.024999461546782207 0 0.021254396765379008 -0.025138750339914667 0 0.019069688391454457 -0.025434513299196198 0 0.019808038018781806 -0.024999832968230228 0 0.01842793989121954 -0.025000103851523504 0 0.019069688391454457 -0.025434513299196198 0 0.01926432936449873 -0.026090872756311764 0 0.018647802399678278 -0.025513720805709766 0 0.019812088265408045 -0.024999269161668839 0 0.021156115981567653 -0.024695721006330357 0 0.020988138271570287 -0.025091767992359394 0 0.019810790630692451 -0.024999719392670958 0 0.021119230336918874 -0.024969444970730635 0 0.019069688391454457 -0.025434513299196198 0 0.019808038018781806 -0.024999832968230228 0 0.019830609984221603 -0.02579209760475756 0 0.021156115981567653 -0.024695721006330357 0 0.022678944896146479 -0.02409206231743171 0 0.021578596651916811 -0.024784744443177697 0 0.021119230336918874 -0.024969444970730635 0 0.021778928193663814 -0.024525696969137832 0 0.019830609984221603 -0.02579209760475756 0 0.01926432936449873 -0.026090872756311764 0 0.019883264896583142 -0.026608433281228316 0 0.021288739950364385 -0.024169289209952285 0 0.022678944896146479 -0.02409206231743171 0 0.019069688391454457 -0.025434513299196198 0 0.019830609984221603 -0.02579209760475756 0 0.01926432936449873 -0.026090872756311764 0 0.01880368820980546 -0.025699390949773984 0 0.018688160403768691 -0.025724444257030885 0 0.018647802399678278 -0.025513720805709766 0 0.021288739950364385 -0.024169289209952285 0 0.020839979522477039 -0.024174329474098682 0 0.018734002415522189 -0.025765284274192581 0 0.018673261795772562 -0.025810606803551291 0 0.018688160403768691 -0.025724444257030885 0 0.01880368820980546 -0.025699390949773984 0 0.018734002415522189 -0.025765284274192581 0 0.018688160403768691 -0.025724444257030885 0 0.018734002415522189 -0.025765284274192581 0 0.018775329499908601 -0.025820162328272882 0 0.018673261795772562 -0.025810606803551291 0 0.01880368820980546 -0.025699390949773984 0 0.018734002415522189 -0.025765284274192581 0 0.018775329499908601 -0.025820162328272882 0 0.01880368820980546 -0.025699390949773984 0 0.018775329499908601 -0.025820162328272882 0 0.018887904574061316 -0.025787281070071836 0 0.018775329499908601 -0.025820162328272882 0 0.018830264979641641 -0.025862824622430475 0 0.018781924844683075 -0.025880952842529441 0 0.018775329499908601 -0.025820162328272882 0 0.018781924844683075 -0.025880952842529441 0 0.018703566713061733 -0.025901220994389008 0 0.018775329499908601 -0.025820162328272882 0 0.018703566713061733 -0.025901220994389008 0 0.018673261795772562 -0.025810606803551291 0 0.029085800441319691 -0.022817438968584878 0 0.029450389240670904 -0.023542021160524836 0 0.029411432541000065 -0.022683296074619452 0 0.018887904574061316 -0.025787281070071836 0 0.018830264979641641 -0.025862824622430475 0 0.018884329339088457 -0.025908506480597088 0 0.022678944896146479 -0.02409206231743171 0 0.023564263246339558 -0.024206434997880704 0 0.018775329499908601 -0.025820162328272882 0 0.018887904574061316 -0.025787281070071836 0 0.018830264979641641 -0.025862824622430475 0 0.018830264979641641 -0.025862824622430475 0 0.018884329339088457 -0.025908506480597088 0 0.01881678413237009 -0.025916042510370146 0 0.018884329339088457 -0.025908506480597088 0 0.01881678413237009 -0.025916042510370146 0 0.018854073463499422 -0.025950593624018737 0 0.029085800441319691 -0.022817438968584878 0 0.029411432541000065 -0.022683296074619452 0 0.028879904927180945 -0.022220184547368418 0 0.018781924844683075 -0.025880952842529441 0 0.018769422176599052 -0.025917882564947592 0 0.018703566713061733 -0.025901220994389008 0 0.018830264979641641 -0.025862824622430475 0 0.018781924844683075 -0.025880952842529441 0 0.01881678413237009 -0.025916042510370146 0 0.018781924844683075 -0.025880952842529441 0 0.01881678413237009 -0.025916042510370146 0 0.018769422176599052 -0.025917882564947592 0 0.01881678413237009 -0.025916042510370146 0 0.018794855106309613 -0.025945082598010073 0 0.01880246267724018 -0.025979232581855978 0 0.02181953966238772 -0.024376450722495002 0 0.022186992926775805 -0.023601046910422804 0 0.01881678413237009 -0.025916042510370146 0 0.018794855106309613 -0.025945082598010073 0 0.018769422176599052 -0.025917882564947592 0 0.018769422176599052 -0.025917882564947592 0 0.018741011845546902 -0.025949578250426659 0 0.018703566713061733 -0.025901220994389008 0 0.018794855106309613 -0.025945082598010073 0 0.018769422176599052 -0.025917882564947592 0 0.018741011845546902 -0.025949578250426659 0 0.019724232769544988 -0.02420348269349749 0 0.019995470439397013 -0.023915179337010681 0 0.018794855106309613 -0.025945082598010073 0 0.018770781855936558 -0.025967523983276775 0 0.01880246267724018 -0.025979232581855978 0 0.018794855106309613 -0.025945082598010073 0 0.018741011845546902 -0.025949578250426659 0 0.018736016066847723 -0.02599582579424474 0 0.018741011845546902 -0.025949578250426659 0 0.018736016066847723 -0.02599582579424474 0 0.018708542615578975 -0.025989313531684939 0 0.019995470439397013 -0.023915179337010681 0 0.022186992926775805 -0.023601046910422804 0 0.01881678413237009 -0.025916042510370146 0 0.018826236913587244 -0.025980052908319923 0 0.018854073463499422 -0.025950593624018737 0 0.030163219769059984 -0.021866796221868944 0 0.030265061600680949 -0.021112326233397871 0 0.029874551098289698 -0.021431940464633693 0 0.022186992926775805 -0.023601046910422804 0 0.02245305996032439 -0.02226216587205786 0 0.020840765531750342 -0.023974457504762101 0 0.021258786493820642 -0.023522704975651822 0 0.020969124240596482 -0.022948775825473625 0 0.021500643990301296 -0.024088838857162474 0 0.020840765531750342 -0.023974457504762101 0 0.021258786493820642 -0.023522704975651822 0 0.021500643990301296 -0.024088838857162474 0 0.021258786493820642 -0.023522704975651822 0 0.021861933677149108 -0.023764400208707032 0 0.020670641597097892 -0.022234246591015153 0 0.019694033795356242 -0.023525249295312238 0 0.021258786493820642 -0.023522704975651822 0 0.021327582746490572 -0.022552756539379562 0 0.021861933677149108 -0.023764400208707032 0 0.021258786493820642 -0.023522704975651822 0 0.020969124240596482 -0.022948775825473625 0 0.021327582746490572 -0.022552756539379562 0 0.030265061600680949 -0.021112326233397871 0 0.029798435830149482 -0.020740868051185232 0 0.029874551098289698 -0.021431940464633693 0 0.020969124240596482 -0.022948775825473625 0 0.021160607322740554 -0.022515461854104517 0 0.021098415061832479 -0.021922828734899188 0 0.030265061600680949 -0.021112326233397871 0 0.029798435830149482 -0.020740868051185232 0 0.030356858174183866 -0.020359300612150234 0 0.02245305996032439 -0.02226216587205786 0 0.022045607650123894 -0.021386116376184216 0 0.018683709714194079 -0.020780608700453642 0 0.018772366476236542 -0.021019286721387771 0 0.018430695317715424 -0.020725366274380055 0 0.020676613995490069 -0.02223601883173941 0 0.020670641597097892 -0.022234246591015153 0 0.020969124240596482 -0.022948775825473625 0 0.021160607322740554 -0.022515461854104517 0 0.021327582746490572 -0.022552756539379562 0 0.029798435830149482 -0.020740868051185232 0 0.029461004828985185 -0.021171433923871212 0 0.029194888966746341 -0.020447737024779852 0 0.029874551098289698 -0.021431940464633693 0 0.029461004828985185 -0.021171433923871212 0 0.029482717428560404 -0.021746195083522518 0 0.029798435830149482 -0.020740868051185232 0 0.029874551098289698 -0.021431940464633693 0 0.029461004828985185 -0.021171433923871212 0 0.02452939009709975 -0.023671616830778747 0 0.024269071260650674 -0.024171505883855481 0 0.023564263246339558 -0.024206434997880704 0 0.024269071260650674 -0.024171505883855481 0 0.018884329339088457 -0.025908506480597088 0 0.018890478561082145 -0.025991821910649745 0 0.018854073463499422 -0.025950593624018737 0 0.029411432541000065 -0.022683296074619452 0 0.029369540960659687 -0.021814259639369716 0 0.028879904927180945 -0.022220184547368418 0 0.030163219769059984 -0.021866796221868944 0 0.029874551098289698 -0.021431940464633693 0 0.029482717428560404 -0.021746195083522518 0 0.022186992926775805 -0.023601046910422804 0 0.024269071260650674 -0.024171505883855481 0 0.018826236913587244 -0.025980052908319923 0 0.018890478561082145 -0.025991821910649745 0 0.018854073463499422 -0.025950593624018737 0 0.028879904927180945 -0.022220184547368418 0 0.028560905557878959 -0.021646954909401158 0 0.027701851927803278 -0.022078175902770048 0 0.029369540960659687 -0.021814259639369716 0 0.028879904927180945 -0.022220184547368418 0 0.028560905557878959 -0.021646954909401158 0 0.029461004828985185 -0.021171433923871212 0 0.029495616465700474 -0.02180257470094182 0 0.028560905557878959 -0.021646954909401158 0 0.024269071260650674 -0.024171505883855481 0 0.025905766379444972 -0.024058904377758938 0 0.028560905557878959 -0.021646954909401158 0 0.027701851927803278 -0.022078175902770048 0 0.027654169396773582 -0.021172724609372879 0 0.028560905557878959 -0.021646954909401158 0 0.027654169396773582 -0.021172724609372879 0 0.028403993803215819 -0.020752592352841017 0 0.027654169396773582 -0.021172724609372879 0 0.028403993803215819 -0.020752592352841017 0 0.027671705956849469 -0.020269498963936209 0 0.028560905557878959 -0.021646954909401158 0 0.028403993803215819 -0.020752592352841017 0 0.028906436381829471 -0.021002847324628565 0 0.029461004828985185 -0.021171433923871212 0 0.028560905557878959 -0.021646954909401158 0 0.028906436381829471 -0.021002847324628565 0 0.029461004828985185 -0.021171433923871212 0 0.028906436381829471 -0.021002847324628565 0 0.029194888966746341 -0.020447737024779852 0 0.028403993803215819 -0.020752592352841017 0 0.028906436381829471 -0.021002847324628565 0 0.029194888966746341 -0.020447737024779852 0 0.028403993803215819 -0.020752592352841017 0 0.029194888966746341 -0.020447737024779852 0 0.028480113553757559 -0.019957409569862545 0 0.028403993803215819 -0.020752592352841017 0 0.028480113553757559 -0.019957409569862545 0 0.027671705956849469 -0.020269498963936209 0 0.028480113553757559 -0.019957409569862545 0 0.027671705956849469 -0.020269498963936209 0 0.027995886789297549 -0.019423632125759566 0 0.027995886789297549 -0.019423632125759566 0 0.029011056537530736 -0.019032986987245377 0 0.027903693149467508 -0.0185090041324452 0 0.027301683635067481 -0.019464697843597775 0 0.027995886789297549 -0.019423632125759566 0 0.027903693149467508 -0.0185090041324452 0 0.027301683635067481 -0.019464697843597775 0 0.027671705956849469 -0.020269498963936209 0 0.027995886789297549 -0.019423632125759566 0 0.029194888966746341 -0.020447737024779852 0 0.028480113553757559 -0.019957409569862545 0 0.029011056537530736 -0.019032986987245377 0 0.028480113553757559 -0.019957409569862545 0 0.027995886789297549 -0.019423632125759566 0 0.029011056537530736 -0.019032986987245377 0 0.02856189959645717 -0.019677802208855996 0 0.028301899814369851 -0.019075421168984967 0 0.028928767575649997 -0.019251720111551133 0 0.029980607427599167 -0.019336518748826945 0 0.029632792074164856 -0.019933924138281219 0 0.029194888966746341 -0.020447737024779852 0 0.028928767575649997 -0.019251720111551133 0 0.029632792074164856 -0.019933924138281219 0 0.0217812297901912 -0.020229369501497448 0 0.022045607650123894 -0.021386116376184216 0 0.024339735442662373 -0.019981043227288345 0 0.022045607650123894 -0.021386116376184216 0 0.023598555295094682 -0.019576715308103062 0 0.023103753014999145 -0.019427559095614007 0 0.023481317808513362 -0.020481500184454521 0 0.029980607427599167 -0.019336518748826945 0 0.030356858174183866 -0.020359300612150234 0 0.029632792074164856 -0.019933924138281219 0 0.018714386402415815 -0.021485363243745417 0 0.018772366476236542 -0.021019286721387771 0 0.018366775023771171 -0.021227838102522378 0 0.021160607322740554 -0.022515461854104517 0 0.021328070398446509 -0.022552458966964197 0 0.021098415061832479 -0.021922828734899188 0 0.020670641597097892 -0.022234246591015153 0 0.022045607650123894 -0.021386116376184216 0 0.029798435830149482 -0.020740868051185232 0 0.029194888966746341 -0.020447737024779852 0 0.029632792074164856 -0.019933924138281219 0 0.029798435830149482 -0.020740868051185232 0 0.030356858174183866 -0.020359300612150234 0 0.029632792074164856 -0.019933924138281219 0 0.017847715396004552 -0.021221142010701247 0 0.018026675674428658 -0.021040280885334772 0 0.018039245188780178 -0.021292472832331676 0 0.017847715396004552 -0.021221142010701247 0 0.018026675674428658 -0.021040280885334772 0 0.017669547145878782 -0.021026035267839541 0 0.018026675674428658 -0.021040280885334772 0 0.017669547145878782 -0.021026035267839541 0 0.018051416027050095 -0.020694948622367614 0 0.018026675674428658 -0.021040280885334772 0 0.018193906307581324 -0.02094638341953917 0 0.018055222415858958 -0.020714429666347518 0 0.019135991894449634 -0.021762233688148218 0 0.019457242575441906 -0.022498715501863335 0 0.018193906307581324 -0.02094638341953917 0 0.018316067101982639 -0.021251468785552518 0 0.018361786740695052 -0.020780302760212865 0 0.018772366476236542 -0.021019286721387771 0 0.018366775023771171 -0.021227838102522378 0 0.018430695317715424 -0.020725366274380055 0 0.018026675674428658 -0.021040280885334772 0 0.018316067101982639 -0.021251468785552518 0 0.018039245188780178 -0.021292472832331676 0 0.018026675674428658 -0.021040280885334772 0 0.018193906307581324 -0.02094638341953917 0 0.018316067101982639 -0.021251468785552518 0 0.018316067101982639 -0.021251468785552518 0 0.018133181696033691 -0.021517275727951309 0 0.018039245188780178 -0.021292472832331676 0 0.018316067101982639 -0.021251468785552518 0 0.018133181696033691 -0.021517275727951309 0 0.018288799609355706 -0.021750818456296138 0 0.019135991894449634 -0.021762233688148218 0 0.019020210314035026 -0.021716513846687036 0 0.018714386402415815 -0.021485363243745417 0 0.018366775023771171 -0.021227838102522378 0 0.018288799609355706 -0.021750818456296138 0 0.018133181696033691 -0.021517275727951309 0 0.017873930062032719 -0.021468211936853488 0 0.018076764981852931 -0.021805785871660068 0 0.017873930062032719 -0.021468211936853488 0 0.017520236964492605 -0.021631925189466696 0 0.018076764981852931 -0.021805785871660068 0 0.018133181696033691 -0.021517275727951309 0 0.018039245188780178 -0.021292472832331676 0 0.017873930062032719 -0.021468211936853488 0 0.017847715396004552 -0.021221142010701247 0 0.018039245188780178 -0.021292472832331676 0 0.017873930062032719 -0.021468211936853488 0 0.017847715396004552 -0.021221142010701247 0 0.017873930062032719 -0.021468211936853488 0 0.017638311912204652 -0.021337865372629865 0 0.017873930062032719 -0.021468211936853488 0 0.017520236964492605 -0.021631925189466696 0 0.017638311912204652 -0.021337865372629865 0 0.017520236964492605 -0.021631925189466696 0 0.017638311912204652 -0.021337865372629865 0 0.017296974693920358 -0.021367712880377296 0 0.017667108904495275 -0.020086984428619434 0 0.017518005639319937 -0.020290034114754871 0 0.017095600086992051 -0.021369298185294056 0 0.017170781622072615 -0.021407035453187739 0 0.01691328489229112 -0.020814135402142091 0 0.017520236964492605 -0.021631925189466696 0 0.017095600086992051 -0.021369298185294056 0 0.017296974693920358 -0.021367712880377296 0 0.017095600086992051 -0.021369298185294056 0 0.017153954597365743 -0.021311700535440431 0 0.017170781622072615 -0.021407035453187739 0 0.017095600086992051 -0.021369298185294056 0 0.017296974693920358 -0.021367712880377296 0 0.017153954597365743 -0.021311700535440431 0 0.017296974693920358 -0.021367712880377296 0 0.017153954597365743 -0.021311700535440431 0 0.017331195862109204 -0.021237419053555941 0 0.017153954597365743 -0.021311700535440431 0 0.017331195862109204 -0.021237419053555941 0 0.017150491508292821 -0.02117084650316246 0 0.017331195862109204 -0.021237419053555941 0 0.017150491508292821 -0.02117084650316246 0 0.017523172409896658 -0.021040151720117844 0 0.017638311912204652 -0.021337865372629865 0 0.017296974693920358 -0.021367712880377296 0 0.017669547145878782 -0.021026035267839541 0 0.017847715396004552 -0.021221142010701247 0 0.017638311912204652 -0.021337865372629865 0 0.017669547145878782 -0.021026035267839541 0 0.017296974693920358 -0.021367712880377296 0 0.017331195862109204 -0.021237419053555941 0 0.01765576448251599 -0.021221608711752823 0 0.018250637828041004 -0.022156755879134373 0 0.01838453837433501 -0.02231041156761884 0 0.017331195862109204 -0.021237419053555941 0 0.01765576448251599 -0.021221608711752823 0 0.017523172409896658 -0.021040151720117844 0 0.017523172409896658 -0.021040151720117844 0 0.017445489169320327 -0.020718951073521657 0 0.018035512136032723 -0.020912357191549005 0 0.017132528739914991 -0.023855239410775723 0 0.01847928893460507 -0.023123474179382517 0 0.017150491508292821 -0.02117084650316246 0 0.017523172409896658 -0.021040151720117844 0 0.017445489169320327 -0.020718951073521657 0 0.017150491508292821 -0.02117084650316246 0 0.017445489169320327 -0.020718951073521657 0 0.016455732591535967 -0.020366886409877025 0 0.017132528739914991 -0.023855239410775723 0 0.015834068720979484 -0.024031716543629442 0 0.016601985190407037 -0.028764897205124342 0 0.015842132231006119 -0.027720612876239413 0 0.01523409208993781 -0.028488592012213862 0 0.016601985190407037 -0.028764897205124342 0 0.017531512813299246 -0.028514069993032437 0 0.016981423312834344 -0.027788160380665443 0 0.016601985190407037 -0.028764897205124342 0 0.016981423312834344 -0.027788160380665443 0 0.015842132231006119 -0.027720612876239413 0 0.017531512813299246 -0.028514069993032437 0 0.018128550155923403 -0.027975682209585021 0 0.016981423312834344 -0.027788160380665443 0 0.017531512813299246 -0.028514069993032437 0 0.01794768379735702 -0.029042493758217987 0 0.018128550155923403 -0.027975682209585021 0 0.01847928893460507 -0.023123474179382517 0 0.018752380685833469 -0.024988414672321126 0 0.018752380685833469 -0.024988414672321126 0 0.018202761257267074 -0.025448533825328766 0 0.01765576448251599 -0.021221608711752823 0 0.017523172409896658 -0.021040151720117844 0 0.018035512136032723 -0.020912357191549005 0 0.016601985190407037 -0.028764897205124342 0 0.017531512813299246 -0.028514069993032437 0 0.01794768379735702 -0.029042493758217987 0 0.018474143935758591 -0.022572272221181033 0 0.01847928893460507 -0.023123474179382517 0 0.01838453837433501 -0.02231041156761884 0 0.01847928893460507 -0.023123474179382517 0 0.019704485898669834 -0.023050441566331462 0 0.019641402047586756 -0.023036147192680326 0 0.019633401267112841 -0.023117078266046639 0 0.019457242575441906 -0.022498715501863335 0 0.019694033795356242 -0.023525249295312238 0 0.019716126714668585 -0.021972968793407953 0 0.02023275360420506 -0.022087700364312696 0 0.020137948952752907 -0.022929781035545899 0 0.020670641597097892 -0.022234246591015153 0 0.019457242575441906 -0.022498715501863335 0 0.018193906307581324 -0.02094638341953917 0 0.018055222415858958 -0.020714429666347518 0 0.018361786740695052 -0.020780302760212865 0 0.01847928893460507 -0.023123474179382517 0 0.019457242575441906 -0.022498715501863335 0 0.01847928893460507 -0.023123474179382517 0 0.019694033795356242 -0.023525249295312238 0 0.018597862267791278 -0.023814155413786061 0 0.018597479479417665 -0.023820697523991085 0 0.018598570933498371 -0.023822925349114562 0 0.018596447627743193 -0.02382003286551777 0 0.018597479479417665 -0.023820697523991085 0 0.018596647101942029 -0.023821041646522399 0 0.019995470439397013 -0.023915179337010681 0 0.019694033795356242 -0.023525249295312238 0 0.019208560994098317 -0.024032244526858031 0 0.019002098405285946 -0.024215642892370024 0 0.019014526232632535 -0.024105364729962126 0 0.019694033795356242 -0.023525249295312238 0 0.019598272740271885 -0.023896465637855701 0 0.018597862267791278 -0.023814155413786061 0 0.018596447627743193 -0.02382003286551777 0 0.018597479479417665 -0.023820697523991085 0 0.018752380685833469 -0.024988414672321126 0 0.019512749573675412 -0.024245322420456114 0 0.018597479479417665 -0.023820697523991085 0 0.018598570933498371 -0.023822925349114562 0 0.018596659653576614 -0.023821928011964331 0 0.019995470439397013 -0.023915179337010681 0 0.019512749573675412 -0.024245322420456114 0 0.019208560994098317 -0.024032244526858031 0 0.019026314125191086 -0.024000653169497021 0 0.019014526232632535 -0.024105364729962126 0 0.019512749573675412 -0.024245322420456114 0 0.019598272740271885 -0.023896465637855701 0 0.018597479479417665 -0.023820697523991085 0 0.018596659653576614 -0.023821928011964331 0 0.018596647101942029 -0.023821041646522399 0 0.018741011845546902 -0.025949578250426659 0 0.018708542615578975 -0.025989313531684939 0 0.018703566713061733 -0.025901220994389008 0 0.019512749573675412 -0.024245322420456114 0 0.019395389024338825 -0.024783828733196941 0 0.018695938970598545 -0.02599749138855734 0 0.018703566713061733 -0.025901220994389008 0 0.018624293665780039 -0.025867650731615198 0 0.018752380685833469 -0.024988414672321126 0 0.018925962011655525 -0.025504577897660686 0 0.019406692739482475 -0.024492151645262278 0 0.019048350569195436 -0.024429516807748266 0 0.019329280834249132 -0.025088825219810727 0 0.019512749573675412 -0.024245322420456114 0 0.018925962011655525 -0.025504577897660686 0 0.018134273769039273 -0.027979577896456369 0 0.017767208055760073 -0.027418478511742114 0 0.018263685562130896 -0.026974794882235059 0 0.017767208055760073 -0.027418478511742114 0 0.017487762048036627 -0.026888460113443778 0 0.016981423312834344 -0.027788160380665443 0 0.018134273769039273 -0.027979577896456369 0 0.017767208055760073 -0.027418478511742114 0 0.016981423312834344 -0.027788160380665443 0 0.017767208055760073 -0.027418478511742114 0 0.017487762048036627 -0.026888460113443778 0 0.018263685562130896 -0.026974794882235059 0 0.017487762048036627 -0.026888460113443778 0 0.0180210153842712 -0.02631711283528609 0 0.018263685562130896 -0.026974794882235059 0 0.017487762048036627 -0.026888460113443778 0 0.0180210153842712 -0.02631711283528609 0 0.017385786622541439 -0.026186168172229581 0 0.018925962011655525 -0.025504577897660686 0 0.018609334970597621 -0.025542406227573922 0 0.0180210153842712 -0.02631711283528609 0 0.018259685076541653 -0.026963471458117234 0 0.018394762321171553 -0.025923907187846647 0 0.018624293665780039 -0.025867650731615198 0 0.018673261795772562 -0.025810606803551291 0 0.018575941407994755 -0.02574962395708244 0 0.018703566713061733 -0.025901220994389008 0 0.018624293665780039 -0.025867650731615198 0 0.018673261795772562 -0.025810606803551291 0 0.018909608730291239 -0.025688664517683306 0 0.018925962011655525 -0.025504577897660686 0 0.018673261795772562 -0.025810606803551291 0 0.018688160403768691 -0.025724444257030885 0 0.018575941407994755 -0.02574962395708244 0 0.018394762321171553 -0.025923907187846647 0 0.017697186784394556 -0.025605797184528822 0 0.018530522780279085 -0.024875529385099727 0 0.018688160403768691 -0.025724444257030885 0 0.018575941407994755 -0.02574962395708244 0 0.018647802399678278 -0.025513720805709766 0 0.0180210153842712 -0.02631711283528609 0 0.018394762321171553 -0.025923907187846647 0 0.017697186784394556 -0.025605797184528822 0 0.0180210153842712 -0.02631711283528609 0 0.017385786622541439 -0.026186168172229581 0 0.017697186784394556 -0.025605797184528822 0 0.017385786622541439 -0.026186168172229581 0 0.017697186784394556 -0.025605797184528822 0 0.016935197059603935 -0.025573314369971248 0 0.017697186784394556 -0.025605797184528822 0 0.017486497368052436 -0.024758221529931543 0 0.016935197059603935 -0.025573314369971248 0 0.017380083987849924 -0.025147058709796603 0 0.017406318122502026 -0.024999985007270409 0 0.018393627402961965 -0.025260780767402187 0 0.017697186784394556 -0.025605797184528822 0 0.017486497368052436 -0.024758221529931543 0 0.018530522780279085 -0.024875529385099727 0 0.017837348527386242 -0.025313177462596714 0 0.018380099024764101 -0.02517485117906143 0 0.017406318122502026 -0.024999985007270409 0 0.018427587485074424 -0.025000006390557602 0 0.018393627402961965 -0.025260780767402187 0 0.018575941407994755 -0.02574962395708244 0 0.018435544285022018 -0.025263375252381457 0 0.018647802399678278 -0.025513720805709766 0 0.018609334970597621 -0.025542406227573922 0 0.018380099024764101 -0.02517485117906143 0 0.019069688391454457 -0.025434513299196198 0 0.01842793989121954 -0.025000103851523504 0 0.018435544285022018 -0.025263375252381457 0 0.01842725350023525 -0.025000806627457635 0 0.018380099024764101 -0.02517485117906143 0 0.019069688391454457 -0.025434513299196198 0 0.018435544285022018 -0.025263375252381457 0 0.018647802399678278 -0.025513720805709766 0 0.018017122572244148 -0.025645191537618496 0 0.01672359736709117 -0.026254174501661273 0 0.016440308593036447 -0.024640811638250156 0 0.016935197059603935 -0.025573314369971248 0 0.015868364977343705 -0.025692188846177751 0 0.016046833358502138 -0.024999983123772093 0 0.015779716468366393 -0.026012798792760583 0 0.015377754409660743 -0.025519009841953315 0 0.016046833358502138 -0.024999983123772093 0 0.016358145008567363 -0.02503533091222717 0 0.015779716468366393 -0.026012798792760583 0 0.016048196085540353 -0.025004114047076177 0 0.018017122572244148 -0.025645191537618496 0 0.017837348527386242 -0.025313177462596714 0 0.018017122572244148 -0.025645191537618496 0 0.017486497368052436 -0.024758221529931543 0 0.016440308593036447 -0.024640811638250156 0 0.016935197059603935 -0.025573314369971248 0 0.017380083987849924 -0.025147058709796603 0 0.017406318122502026 -0.024999985007270409 0 0.016365958929344157 -0.024964523502087499 0 0.017385786622541439 -0.026186168172229581 0 0.016935197059603935 -0.025573314369971248 0 0.016785971503077625 -0.02654826696815701 0 0.016935197059603935 -0.025573314369971248 0 0.015868364977343705 -0.025692188846177751 0 0.016785971503077625 -0.02654826696815701 0 0.015868364977343705 -0.025692188846177751 0 0.016067390950495565 -0.026863623007608285 0 0.015288941896796268 -0.026753354064244995 0 0.015868364977343705 -0.025692188846177751 0 0.016067390950495565 -0.026863623007608285 0 0.016785971503077625 -0.02654826696815701 0 0.017487762048036627 -0.026888460113443778 0 0.017385786622541439 -0.026186168172229581 0 0.016785971503077625 -0.02654826696815701 0 0.017487762048036627 -0.026888460113443778 0 0.016785971503077625 -0.02654826696815701 0 0.016981423312834344 -0.027788160380665443 0 0.016067390950495565 -0.026863623007608285 0 0.016785971503077625 -0.02654826696815701 0 0.016981423312834344 -0.027788160380665443 0 0.016067390950495565 -0.026863623007608285 0 0.016981423312834344 -0.027788160380665443 0 0.015842132231006119 -0.027720612876239413 0 0.016067390950495565 -0.026863623007608285 0 0.015842132231006119 -0.027720612876239413 0 0.015288941896796268 -0.026753354064244995 0 0.015544704512383411 -0.027362965723766803 0 0.01589562592689928 -0.026954842208116225 0 0.015842132231006119 -0.027720612876239413 0 0.014709853214267364 -0.027851524850073202 0 0.015288941896796268 -0.026753354064244995 0 0.014709853214267364 -0.027851524850073202 0 0.013886482551988391 -0.027560458096601889 0 0.013940998092507656 -0.028205483973134545 0 0.014709853214267364 -0.027851524850073202 0 0.014170354747498079 -0.027000477702025294 0 0.013886482551988391 -0.027560458096601889 0 0.014709853214267364 -0.027851524850073202 0 0.014170354747498079 -0.027000477702025294 0 0.015216890438971434 -0.026950873015942723 0 0.014170354747498079 -0.027000477702025294 0 0.015216890438971434 -0.026950873015942723 0 0.014888763683238687 -0.026054808707294569 0 0.01672359736709117 -0.026254174501661273 0 0.01589562592689928 -0.026954842208116225 0 0.015779716468366393 -0.026012798792760583 0 0.014888763683238687 -0.026054808707294569 0 0.015377754409660743 -0.025519009841953315 0 0.015779716468366393 -0.026012798792760583 0 0.015216890438971434 -0.026950873015942723 0 0.014888763683238687 -0.026054808707294569 0 0.014170354747498079 -0.027000477702025294 0 0.014888763683238687 -0.026054808707294569 0 0.013970349236153323 -0.02590715876122697 0 0.014800211326683625 -0.024999982735564457 0 0.0135535039756371 -0.024999976880280238 0 0.013970349236153323 -0.02590715876122697 0 0.014888763683238687 -0.026054808707294569 0 0.014800211326683625 -0.024999982735564457 0 0.013970349236153323 -0.02590715876122697 0 0.014888763683238687 -0.026054808707294569 0 0.014800211326683625 -0.024999982735564457 0 0.015377754409660743 -0.025519009841953315 0 0.016046833358502138 -0.024999983123772093 0 0.014800211326683625 -0.024999982735564457 0 0.015377754409660743 -0.025519009841953315 0 0.012341457728825226 -0.02586882756828468 0 0.012306935530503224 -0.024999971262433324 0 0.013054097884038954 -0.025643422754945265 0 0.012306935530503224 -0.024999971262433324 0 0.013054097884038954 -0.025643422754945265 0 0.0135535039756371 -0.024999976880280238 0 0.013054097884038954 -0.025643422754945265 0 0.0135535039756371 -0.024999976880280238 0 0.013970349236153323 -0.02590715876122697 0 0.013054097884038954 -0.025643422754945265 0 0.013970349236153323 -0.02590715876122697 0 0.013087566209584452 -0.026429863819076509 0 0.014170354747498079 -0.027000477702025294 0 0.013970349236153323 -0.02590715876122697 0 0.013087566209584452 -0.026429863819076509 0 0.012341457728825226 -0.02586882756828468 0 0.013054097884038954 -0.025643422754945265 0 0.013087566209584452 -0.026429863819076509 0 0.012018334843118376 -0.026999568224285841 0 0.013087566209584452 -0.026429863819076509 0 0.013236769643792818 -0.027449305739918824 0 0.014170354747498079 -0.027000477702025294 0 0.013087566209584452 -0.026429863819076509 0 0.013236769643792818 -0.027449305739918824 0 0.014170354747498079 -0.027000477702025294 0 0.013886482551988391 -0.027560458096601889 0 0.013236769643792818 -0.027449305739918824 0 0.013886482551988391 -0.027560458096601889 0 0.013236769643792818 -0.027449305739918824 0 0.013940998092507656 -0.028205483973134545 0 0.011909867957302794 -0.026729237543124375 0 0.012569348791718431 -0.02703416194887108 0 0.013236769643792818 -0.027449305739918824 0 0.01270513335159036 -0.027931111373675304 0 0.013940998092507656 -0.028205483973134545 0 0.011932281138163109 -0.026916347047794716 0 0.013236769643792818 -0.027449305739918824 0 0.01270513335159036 -0.027931111373675304 0 0.013320603175467917 -0.019578946011710969 0 0.013468866840666213 -0.021184445538419808 0 0.01435949306537437 -0.020715659364847875 0 0.013468866840666213 -0.021184445538419808 0 0.01435949306537437 -0.020715659364847875 0 0.014720811065877755 -0.022087576152803781 0 0.01435949306537437 -0.020715659364847875 0 0.01523971723959586 -0.020792815557988426 0 0.014720811065877755 -0.022087576152803781 0 0.01435949306537437 -0.020715659364847875 0 0.015018509701472407 -0.019968207776245542 0 0.01523971723959586 -0.020792815557988426 0 0.013007742837662047 -0.023749022629463674 0 0.014457114445587173 -0.023943305234789099 0 0.013320603175467917 -0.019578946011710969 0 0.01435949306537437 -0.020715659364847875 0 0.015018509701472407 -0.019968207776245542 0 0.014709853214267364 -0.027851524850073202 0 0.013940998092507656 -0.028205483973134545 0 0.01523409208993781 -0.028488592012213862 0 0.015018509701472407 -0.019968207776245542 0 0.016455732591535967 -0.020366886409877025 0 0.01523971723959586 -0.020792815557988426 0 0.014457114445587173 -0.023943305234789099 0 0.015834068720979484 -0.024031716543629442 0 0.015842132231006119 -0.027720612876239413 0 0.014709853214267364 -0.027851524850073202 0 0.01523409208993781 -0.028488592012213862 0 0.017150491508292821 -0.02117084650316246 0 0.016455732591535967 -0.020366886409877025 0 0.015947724697918282 -0.021513674495413856 0 0.015110335737370662 -0.02089279483210453 0 0.014890149882225898 -0.020673000598976962 0 0.016455732591535967 -0.020366886409877025 0 0.01523971723959586 -0.020792815557988426 0 0.015947724697918282 -0.021513674495413856 0 0.01523971723959586 -0.020792815557988426 0 0.016089368285051447 -0.021830500108193273 0 0.014720811065877755 -0.022087576152803781 0 0.012756654944216477 -0.019535500084702093 0 0.012734266114019009 -0.019647389757196074 0 0.012620056160039939 -0.019563186068996791 0 0.014890149882225898 -0.020673000598976962 0 0.013742436434542756 -0.020754465167751434 0 0.017153954597365743 -0.021311700535440431 0 0.017150491508292821 -0.02117084650316246 0 0.016981174601228988 -0.021246147715061628 0 0.014890149882225898 -0.020673000598976962 0 0.01499857407858507 -0.020363148183638904 0 0.016066051924692626 -0.020667336002839223 0 0.014890149882225898 -0.020673000598976962 0 0.017153954597365743 -0.021311700535440431 0 0.016981174601228988 -0.021246147715061628 0 0.017170781622072615 -0.021407035453187739 0 0.012856201759988965 -0.019640960038896378 0 0.012734266114019009 -0.019647389757196074 0 0.012835314106836998 -0.019773930847551462 0 0.012756654944216477 -0.019535500084702093 0 0.012856201759988965 -0.019640960038896378 0 0.012734266114019009 -0.019647389757196074 0 0.012734266114019009 -0.019647389757196074 0 0.012647833345554261 -0.019650692417661177 0 0.012620056160039939 -0.019563186068996791 0 0.012734266114019009 -0.019647389757196074 0 0.012647833345554261 -0.019650692417661177 0 0.012657823363516944 -0.019739371783030039 0 0.012647833345554261 -0.019650692417661177 0 0.01257914978821598 -0.019653865429138908 0 0.012657823363516944 -0.019739371783030039 0 0.01257914978821598 -0.019653865429138908 0 0.012478643031617716 -0.019714832135076771 0 0.012657823363516944 -0.019739371783030039 0 0.012647833345554261 -0.019650692417661177 0 0.01257914978821598 -0.019653865429138908 0 0.012620056160039939 -0.019563186068996791 0 0.01257914978821598 -0.019653865429138908 0 0.012482006904031296 -0.019591138032728966 0 0.012478643031617716 -0.019714832135076771 0 0.012745395749786489 -0.020786402555866411 0 0.013742436434542756 -0.020754465167751434 0 0.013468866840666213 -0.021184445538419808 0 0.013369746895252173 -0.022346354506668303 0 0.014720811065877755 -0.022087576152803781 0 0.01257914978821598 -0.019653865429138908 0 0.012482006904031296 -0.019591138032728966 0 0.012620056160039939 -0.019563186068996791 0 0.012336362195580257 -0.019860661229046988 0 0.012400513618104634 -0.020056161476788067 0 0.012515635824351001 -0.01997688387599408 0 0.012336362195580257 -0.019860661229046988 0 0.012400513618104634 -0.020056161476788067 0 0.012205481724968268 -0.020023275344967145 0 0.012205481724968268 -0.020023275344967145 0 0.012030901042263011 -0.019915985038436976 0 0.012081492719247557 -0.020110301757471326 0 0.011833380881716654 -0.020159342911957524 0 0.012030901042263011 -0.019915985038436976 0 0.012081492719247557 -0.020110301757471326 0 0.012336362195580257 -0.019860661229046988 0 0.012205481724968268 -0.020023275344967145 0 0.012030901042263011 -0.019915985038436976 0 0.0120332369287393 -0.019986422884128129 0 0.011927526110243863 -0.020023321224944012 0 0.012336362195580257 -0.019860661229046988 0 0.012030901042263011 -0.019915985038436976 0 0.011998871999067925 -0.019615670216583857 0 0.011927526110243863 -0.020023321224944012 0 0.012434520505847447 -0.01990794808916594 0 0.012336362195580257 -0.019860661229046988 0 0.012015648451444549 -0.019621320225096356 0 0.012420596957206919 -0.01968389296601079 0 0.012434520505847447 -0.01990794808916594 0 0.012623194018496247 -0.019886167881392344 0 0.012734266114019009 -0.019647389757196074 0 0.012657823363516944 -0.019739371783030039 0 0.012835314106836998 -0.019773930847551462 0 0.012336362195580257 -0.019860661229046988 0 0.012420596957206919 -0.01968389296601079 0 0.012577317270032489 -0.019853273746093768 0 0.012420596957206919 -0.01968389296601079 0 0.012835314106836998 -0.019773930847551462 0 0.012577317270032489 -0.019853273746093768 0 0.012835314106836998 -0.019773930847551462 0 0.012735140883061076 -0.01989626535739453 0 0.012577317270032489 -0.019853273746093768 0 0.012835314106836998 -0.019773930847551462 0 0.012735140883061076 -0.01989626535739453 0 0.01290078759303759 -0.019878070995783644 0 0.012735140883061076 -0.01989626535739453 0 0.012853993907093443 -0.019979398434549062 0 0.01290078759303759 -0.019878070995783644 0 0.012735140883061076 -0.01989626535739453 0 0.012748267094388307 -0.020012019245916765 0 0.012630392462394903 -0.019944020404756513 0 0.012748267094388307 -0.020012019245916765 0 0.012617825828117305 -0.020035167014930348 0 0.012665506757779575 -0.020129366188884522 0 0.012748267094388307 -0.020012019245916765 0 0.012630392462394903 -0.019944020404756513 0 0.012617825828117305 -0.020035167014930348 0 0.012748267094388307 -0.020012019245916765 0 0.012811894373247748 -0.020046894155716602 0 0.012771178490686094 -0.020117973790643725 0 0.012735140883061076 -0.01989626535739453 0 0.012748267094388307 -0.020012019245916765 0 0.012853993907093443 -0.019979398434549062 0 0.012748267094388307 -0.020012019245916765 0 0.012811894373247748 -0.020046894155716602 0 0.012853993907093443 -0.019979398434549062 0 0.012811894373247748 -0.020046894155716602 0 0.012853993907093443 -0.019979398434549062 0 0.012873738547699168 -0.020078771842084887 0 0.012336362195580257 -0.019860661229046988 0 0.012577317270032489 -0.019853273746093768 0 0.012515635824351001 -0.01997688387599408 0 0.012735140883061076 -0.01989626535739453 0 0.012577317270032489 -0.019853273746093768 0 0.012630392462394903 -0.019944020404756513 0 0.012577317270032489 -0.019853273746093768 0 0.012630392462394903 -0.019944020404756513 0 0.012515635824351001 -0.01997688387599408 0 0.012630392462394903 -0.019944020404756513 0 0.012617825828117305 -0.020035167014930348 0 0.012515635824351001 -0.01997688387599408 0 0.012617825828117305 -0.020035167014930348 0 0.012515635824351001 -0.01997688387599408 0 0.012530054481882892 -0.020110443203815394 0 0.012400513618104634 -0.020056161476788067 0 0.012515635824351001 -0.01997688387599408 0 0.012530054481882892 -0.020110443203815394 0 0.012400513618104634 -0.020056161476788067 0 0.012530054481882892 -0.020110443203815394 0 0.012387165694148442 -0.020228311355470402 0 0.012530054481882892 -0.020110443203815394 0 0.012596272154149542 -0.020228502209460826 0 0.012665506757779575 -0.020129366188884522 0 0.012617825828117305 -0.020035167014930348 0 0.012530054481882892 -0.020110443203815394 0 0.012665506757779575 -0.020129366188884522 0 0.012596272154149542 -0.020228502209460826 0 0.012488134220371729 -0.020345947138031707 0 0.012387165694148442 -0.020228311355470402 0 0.012530054481882892 -0.020110443203815394 0 0.012596272154149542 -0.020228502209460826 0 0.012387165694148442 -0.020228311355470402 0 0.012827341828975831 -0.020154526876403282 0 0.012873738547699168 -0.020078771842084887 0 0.012916477465121213 -0.020184360251116158 0 0.012827341828975831 -0.020154526876403282 0 0.012873738547699168 -0.020078771842084887 0 0.012771178490686094 -0.020117973790643725 0 0.012811894373247748 -0.020046894155716602 0 0.012873738547699168 -0.020078771842084887 0 0.012771178490686094 -0.020117973790643725 0 0.012827341828975831 -0.020154526876403282 0 0.012771178490686094 -0.020117973790643725 0 0.012781278724549257 -0.020200366121702062 0 0.012771178490686094 -0.020117973790643725 0 0.012665506757779575 -0.020129366188884522 0 0.012781278724549257 -0.020200366121702062 0 0.012748267094388307 -0.020012019245916765 0 0.012771178490686094 -0.020117973790643725 0 0.012665506757779575 -0.020129366188884522 0 0.012596272154149542 -0.020228502209460826 0 0.012781278724549257 -0.020200366121702062 0 0.012746687606086549 -0.020361478144044546 0 0.012596272154149542 -0.020228502209460826 0 0.012665506757779575 -0.020129366188884522 0 0.012781278724549257 -0.020200366121702062 0 0.012827341828975831 -0.020154526876403282 0 0.012781278724549257 -0.020200366121702062 0 0.012916477465121213 -0.020184360251116158 0 0.012781278724549257 -0.020200366121702062 0 0.012746687606086549 -0.020361478144044546 0 0.012945737566601667 -0.02022006416636454 0 0.013530850259995638 -0.011260950660997847 0 0.013862326512700215 -0.011450521555314621 0 0.013884414795892466 -0.011026308625757823 0 0.013530850259995638 -0.011260950660997847 0 0.013184804361795338 -0.011498452056266519 0 0.01357159395393547 -0.011703063835415094 0 0.013530850259995638 -0.011260950660997847 0 0.01357159395393547 -0.011703063835415094 0 0.013862326512700215 -0.011450521555314621 0 0.013100793677031023 -0.016091844221199695 0 0.014067186164635898 -0.017227130986119991 0 0.012596272154149542 -0.020228502209460826 0 0.012746687606086549 -0.020361478144044546 0 0.012488134220371729 -0.020345947138031707 0 0.012746687606086549 -0.020361478144044546 0 0.012488134220371729 -0.020345947138031707 0 0.012541480654576668 -0.020499921701846145 0 0.013100793677031023 -0.016091844221199695 0 0.011989781579849135 -0.015117808122643604 0 0.011989781579849135 -0.015117808122643604 0 0.011282105310938926 -0.01720027885236319 0 0.012488134220371729 -0.020345947138031707 0 0.012541480654576668 -0.020499921701846145 0 0.012334964149098191 -0.020394362758004707 0 0.010432890090311866 -0.014853672922611654 0 0.01026106140788598 -0.014765403819830309 0 0.010311672872104154 -0.01495502001277692 0 0.012334964149098191 -0.020394362758004707 0 0.012387165694148442 -0.020228311355470402 0 0.012127511996274971 -0.020287446488532625 0 0.01060779473244337 -0.014945930842511394 0 0.010432890090311866 -0.014853672922611654 0 0.010450726526124091 -0.015049362297926513 0 0.011282105310938926 -0.01720027885236319 0 0.010354297081753111 -0.01908119466255781 0 0.012488134220371729 -0.020345947138031707 0 0.012334964149098191 -0.020394362758004707 0 0.012387165694148442 -0.020228311355470402 0 0.012387165694148442 -0.020228311355470402 0 0.012225735289312272 -0.020148072882715577 0 0.012127511996274971 -0.020287446488532625 0 0.012400513618104634 -0.020056161476788067 0 0.012205481724968268 -0.020023275344967145 0 0.012225735289312272 -0.020148072882715577 0 0.012400513618104634 -0.020056161476788067 0 0.012387165694148442 -0.020228311355470402 0 0.012225735289312272 -0.020148072882715577 0 0.011833380881716654 -0.020159342911957524 0 0.012081492719247557 -0.020110301757471326 0 0.012113460514561422 -0.020308736417661035 0 0.0092352165700648262 -0.020688605542046688 0 0.010354297081753111 -0.01908119466255781 0 0.012205481724968268 -0.020023275344967145 0 0.012225735289312272 -0.020148072882715577 0 0.012081492719247557 -0.020110301757471326 0 0.012225735289312272 -0.020148072882715577 0 0.012081492719247557 -0.020110301757471326 0 0.012113460514561422 -0.020308736417661035 0 0.010472464181308441 -0.019132555497056104 0 0.010354297081753111 -0.01908119466255781 0 0.0087787530858885639 -0.017563115689284932 0 0.010354297081753111 -0.01908119466255781 0 0.010120680290807775 -0.014958893148421292 0 0.01026106140788598 -0.014765403819830309 0 0.010311672872104154 -0.01495502001277692 0 0.0068090059285757162 -0.023470712738890884 0 0.0072587005137282083 -0.024605660826436525 0 0.008282405136329803 -0.023121155223721247 0 0.010120680290807775 -0.014958893148421292 0 0.010311672872104154 -0.01495502001277692 0 0.010294948542202868 -0.01514982553645523 0 0.012751471814184463 -0.011690197350936045 0 0.012378548413836298 -0.011943505912931592 0 0.013056142179660647 -0.011922517030730412 0 0.010311672872104154 -0.01495502001277692 0 0.010450726526124091 -0.015049362297926513 0 0.010294948542202868 -0.01514982553645523 0 0.010432890090311866 -0.014853672922611654 0 0.010311672872104154 -0.01495502001277692 0 0.010450726526124091 -0.015049362297926513 0 0.011621082460809706 -0.013561762834032884 0 0.011204617294524832 -0.012079577192845387 0 0.012156255803191404 -0.0035393406547729132 0 0.012394400040965873 -0.0039335344021996961 0 0.012649743110292089 -0.0036394374823208557 0 0.011204617294524832 -0.012079577192845387 0 0.012105591623888969 -0.012037419065877809 0 0.012386223451728752 -0.011921862582845798 0 0.013056142179660647 -0.011922517030730412 0 0.012922843929005045 -0.012207499537648478 0 0.012159758937511403 -0.012073285007676357 0 0.012386223451728752 -0.011921862582845798 0 0.012922843929005045 -0.012207499537648478 0 0.011495993331774817 -0.010442606030239145 0 0.012595247260232232 -0.0089449051696357824 0 0.008684715467313954 -0.013141642755509771 0 0.011204617294524832 -0.012079577192845387 0 0.0089528662764448326 -0.012230852921410407 0 0.010979558080003997 -0.012772110711614474 0 0.011858618491792979 -0.012173953433422981 0 0.011495993331774817 -0.010442606030239145 0 0.011204617294524832 -0.012079577192845387 0 0.012156255803191404 -0.0035393406547729132 0 0.012097000868093967 -0.0038571994604630713 0 0.012394400040965873 -0.0039335344021996961 0 0.012097000868093967 -0.0038571994604630713 0 0.012394400040965873 -0.0039335344021996961 0 0.012120862761252935 -0.0041407078068658419 0 0.012394400040965873 -0.0039335344021996961 0 0.012797781240175757 -0.0040443954003103778 0 0.012649743110292089 -0.0036394374823208557 0 0.013839331827296355 -0.0054127468064051037 0 0.013281383567636355 -0.0049140373984677905 0 0.012394400040965873 -0.0039335344021996961 0 0.012797781240175757 -0.0040443954003103778 0 0.01247213102878823 -0.0043602601732135558 0 0.012394400040965873 -0.0039335344021996961 0 0.012120862761252935 -0.0041407078068658419 0 0.01247213102878823 -0.0043602601732135558 0 0.01349592101762037 -0.0034830929715589849 0 0.014363630371105593 -0.0036603751210694743 0 0.013813315269473934 -0.0042952129357089535 0 0.012797781240175757 -0.0040443954003103778 0 0.013126686690858466 -0.0037332529470854112 0 0.012649743110292089 -0.0036394374823208557 0 0.013839331827296355 -0.0054127468064051037 0 0.013547540837500793 -0.0081031958749597753 0 0.01349592101762037 -0.0034830929715589849 0 0.014072608748199818 -0.002947951191642918 0 0.014363630371105593 -0.0036603751210694743 0 0.013660176173245959 -0.012317502992418995 0 0.013056142179660647 -0.011922517030730412 0 0.01357159395393547 -0.011703063835415094 0 0.013660176173245959 -0.012317502992418995 0 0.013056142179660647 -0.011922517030730412 0 0.012922843929005045 -0.012207499537648478 0 0.013547540837500793 -0.0081031958749597753 0 0.012595247260232232 -0.0089449051696357824 0 0.013117256457778163 -0.011449417942519169 0 0.013056142179660647 -0.011922517030730412 0 0.01357159395393547 -0.011703063835415094 0 0.013117256457778163 -0.011449417942519169 0 0.012751471814184463 -0.011690197350936045 0 0.013056142179660647 -0.011922517030730412 0 0.011989781579849135 -0.015117808122643604 0 0.011621082460809706 -0.013561762834032884 0 0.011989781579849135 -0.015117808122643604 0 0.01206905093650343 -0.014631396970414825 0 0.01357159395393547 -0.011703063835415094 0 0.014149584753894327 -0.011814342438783071 0 0.013862326512700215 -0.011450521555314621 0 0.014149584753894327 -0.011814342438783071 0 0.014248666404335046 -0.011468973279142649 0 0.013862326512700215 -0.011450521555314621 0 0.016112225659670295 -0.017133189939518255 0 0.016040433553225562 -0.018082350544737745 0 0.01686161707874622 -0.018106131480602087 0 0.016305909218750393 -0.013565326158783829 0 0.015199033355075163 -0.015209400529699858 0 0.014149584753894327 -0.011814342438783071 0 0.014581565818343391 -0.011886456004005062 0 0.014248666404335046 -0.011468973279142649 0 0.014149584753894327 -0.011814342438783071 0 0.014279820671116347 -0.012301438672231014 0 0.014581565818343391 -0.011886456004005062 0 0.014279820671116347 -0.012301438672231014 0 0.014581565818343391 -0.011886456004005062 0 0.014636071322898294 -0.012190218129432011 0 0.013660176173245959 -0.012317502992418995 0 0.01357159395393547 -0.011703063835415094 0 0.014149584753894327 -0.011814342438783071 0 0.013547540837500793 -0.0081031958749597753 0 0.012965445839602917 -0.0096862689867431902 0 0.013750642018785309 -0.012201371664025802 0 0.014149584753894327 -0.011814342438783071 0 0.014279820671116347 -0.012301438672231014 0 0.014072608748199818 -0.002947951191642918 0 0.014827617529660596 -0.0030876186662624964 0 0.014363630371105593 -0.0036603751210694743 0 0.013547540837500793 -0.0081031958749597753 0 0.014855066131777093 -0.0086388971480754351 0 0.014827617529660596 -0.0030876186662624964 0 0.014363630371105593 -0.0036603751210694743 0 0.015174985249081185 -0.0037905726172934159 0 0.01662756301954714 -0.0028332569419642975 0 0.017204913614648577 -0.0031306803418510239 0 0.016968309219869113 -0.0025892899293545836 0 0.01662756301954714 -0.0028332569419642975 0 0.017204913614648577 -0.0031306803418510239 0 0.016637599419779749 -0.0034119967267005036 0 0.017037817852178859 -0.0060138755578035118 0 0.017382296632786509 -0.0098557835396796568 0 0.01662756301954714 -0.0028332569419642975 0 0.015847942075980351 -0.0031707061215752079 0 0.016637599419779749 -0.0034119967267005036 0 0.01662756301954714 -0.0028332569419642975 0 0.015847942075980351 -0.0031707061215752079 0 0.016428758006979009 -0.0023452661112526268 0 0.014855066131777093 -0.0086388971480754351 0 0.017382296632786509 -0.0098557835396796568 0 0.014279820671116347 -0.012301438672231014 0 0.014833004872331383 -0.012395543343563709 0 0.014636071322898294 -0.012190218129432011 0 0.014827617529660596 -0.0030876186662624964 0 0.015174985249081185 -0.0037905726172934159 0 0.015575172147855755 -0.0032283679329803846 0 0.014833004872331383 -0.012395543343563709 0 0.014911045924539727 -0.012281816344507552 0 0.014636071322898294 -0.012190218129432011 0 0.017382296632786509 -0.0098557835396796568 0 0.017696266016608495 -0.01127675453960012 0 0.019645140395569045 -0.011677703659423609 0 0.01932744332848663 -0.011277595862047924 0 0.019148189381080365 -0.012400093732460912 0 0.018683228586865865 -0.010888887855139138 0 0.019088641523771648 -0.013104829824497602 0 0.027446060763608289 -0.015230643169454029 0 0.027417385759451678 -0.015385897784669632 0 0.027373840440244521 -0.015316052297373726 0 0.017242165779359987 -0.0095156138477562446 0 0.017487877626380124 -0.0091608254480264033 0 0.017855251374655871 -0.0096200339546338373 0 0.017696266016608495 -0.01127675453960012 0 0.018683228586865865 -0.010888887855139138 0 0.01662756301954714 -0.0028332569419642975 0 0.016428758006979009 -0.0023452661112526268 0 0.016816879268769742 -0.0024070936784991517 0 0.01662756301954714 -0.0028332569419642975 0 0.016816879268769742 -0.0024070936784991517 0 0.016968309219869113 -0.0025892899293545836 0 0.017382296632786509 -0.0098557835396796568 0 0.018683228586865865 -0.010888887855139138 0 0.018683228586865865 -0.010888887855139138 0 0.018503531484155167 -0.010592587672835331 0 0.027446060763608289 -0.015230643169454029 0 0.027373840440244521 -0.015316052297373726 0 0.027342237511466857 -0.015278030940459144 0 0.027417385759451678 -0.015385897784669632 0 0.027369536245590638 -0.015368677996571385 0 0.027373840440244521 -0.015316052297373726 0 0.017696266016608495 -0.01127675453960012 0 0.019088641523771648 -0.013104829824497602 0 0.027375351481679935 -0.015431712549298725 0 0.027417385759451678 -0.015385897784669632 0 0.027369536245590638 -0.015368677996571385 0 0.019364645402212055 -0.013013370030725838 0 0.019088641523771648 -0.013104829824497602 0 0.017696266016608495 -0.01127675453960012 0 0.016305909218750393 -0.013565326158783829 0 0.014911045924539727 -0.012281816344507552 0 0.014581565818343391 -0.011886456004005062 0 0.014636071322898294 -0.012190218129432011 0 0.014912441433552899 -0.016784827693661131 0 0.016112225659670295 -0.017133189939518255 0 0.015356754468543744 -0.017517180570845066 0 0.015348244134927035 -0.016148466589901898 0 0.014912441433552899 -0.016784827693661131 0 0.016112225659670295 -0.017133189939518255 0 0.016112225659670295 -0.017133189939518255 0 0.015356754468543744 -0.017517180570845066 0 0.016040433553225562 -0.018082350544737745 0 0.019088641523771648 -0.013104829824497602 0 0.020178892809838377 -0.016091731583698358 0 0.014912441433552899 -0.016784827693661131 0 0.015356754468543744 -0.017517180570845066 0 0.014753141075129346 -0.018112055251839308 0 0.027375351481679935 -0.015431712549298725 0 0.027375176461893899 -0.015429292322499713 0 0.027358828287319635 -0.015438135017931799 0 0.015356754468543744 -0.017517180570845066 0 0.014753141075129346 -0.018112055251839308 0 0.015492752596150254 -0.01868104640597457 0 0.014753141075129346 -0.018112055251839308 0 0.015492752596150254 -0.01868104640597457 0 0.014613661454805894 -0.019422940673807863 0 0.020178892809838377 -0.016091731583698358 0 0.020961927929108528 -0.017382255842658654 0 0.01533684508634863 -0.01945970938591577 0 0.015492752596150254 -0.01868104640597457 0 0.014613661454805894 -0.019422940673807863 0 0.01533684508634863 -0.01945970938591577 0 0.015119330144080548 -0.019989897001687199 0 0.014613661454805894 -0.019422940673807863 0 0.015847996640143535 -0.019395111023496375 0 0.015492752596150254 -0.01868104640597457 0 0.016374470017101832 -0.018967266285489653 0 0.015847996640143535 -0.019395111023496375 0 0.016374470017101832 -0.018967266285489653 0 0.016243335157108896 -0.019626339585401203 0 0.015847996640143535 -0.019395111023496375 0 0.015629832069786808 -0.019812936782681666 0 0.015961208908667718 -0.019793229645390608 0 0.015847996640143535 -0.019395111023496375 0 0.016243335157108896 -0.019626339585401203 0 0.015961208908667718 -0.019793229645390608 0 0.01533684508634863 -0.01945970938591577 0 0.015847996640143535 -0.019395111023496375 0 0.015629832069786808 -0.019812936782681666 0 0.01533684508634863 -0.01945970938591577 0 0.015847996640143535 -0.019395111023496375 0 0.015492752596150254 -0.01868104640597457 0 0.016040433553225562 -0.018082350544737745 0 0.015492752596150254 -0.01868104640597457 0 0.016374470017101832 -0.018967266285489653 0 0.015356754468543744 -0.017517180570845066 0 0.016040433553225562 -0.018082350544737745 0 0.015492752596150254 -0.01868104640597457 0 0.01686161707874622 -0.018106131480602087 0 0.017619916991623311 -0.019069877886559637 0 0.016374470017101832 -0.018967266285489653 0 0.016040433553225562 -0.018082350544737745 0 0.01686161707874622 -0.018106131480602087 0 0.016374470017101832 -0.018967266285489653 0 0.015199033355075163 -0.015209400529699858 0 0.014067186164635898 -0.017227130986119991 0 0.014248666404335046 -0.011468973279142649 0 0.013862326512700215 -0.011450521555314621 0 0.013884414795892466 -0.011026308625757823 0 0.012916477465121213 -0.020184360251116158 0 0.012943918147325968 -0.020217802723152878 0 0.012988969570021396 -0.020006546434072396 0 0.012943918147325968 -0.020217802723152878 0 0.013233455069653616 -0.020014320315826697 0 0.012988969570021396 -0.020006546434072396 0 0.012781278724549257 -0.020200366121702062 0 0.012916477465121213 -0.020184360251116158 0 0.012945737566601667 -0.02022006416636454 0 0.01407514872350585 -0.017256220483084284 0 0.014067186164635898 -0.017227130986119991 0 0.012873738547699168 -0.020078771842084887 0 0.012916477465121213 -0.020184360251116158 0 0.012988969570021396 -0.020006546434072396 0 0.014067186164635898 -0.017227130986119991 0 0.015006166438368504 -0.019148315869005658 0 0.017619916991623311 -0.019069877886559637 0 0.016374470017101832 -0.018967266285489653 0 0.016451535341976159 -0.019876846470268359 0 0.016374470017101832 -0.018967266285489653 0 0.016243335157108896 -0.019626339585401203 0 0.016451535341976159 -0.019876846470268359 0 0.013233455069653616 -0.020014320315826697 0 0.012988969570021396 -0.020006546434072396 0 0.013023545120164216 -0.019783638308987349 0 0.016243335157108896 -0.019626339585401203 0 0.016204854746845822 -0.020048918235457115 0 0.016443453236740846 -0.019892604935665918 0 0.016379139765201292 -0.01994031841442612 0 0.016368035144991369 -0.020455980945003109 0 0.01691328489229112 -0.020814135402142091 0 0.015006166438368504 -0.019148315869005658 0 0.015065487467540951 -0.019945505254178705 0 0.015059262012188143 -0.019197840064402193 0 0.015006166438368504 -0.019148315869005658 0 0.015031252953345686 -0.019147700610982744 0 0.015006166438368504 -0.019148315869005658 0 0.016204854746845822 -0.020048918235457115 0 0.016368035144991369 -0.020455980945003109 0 0.016001702053613464 -0.02037909939124008 0 0.016204854746845822 -0.020048918235457115 0 0.016379139765201292 -0.01994031841442612 0 0.016368035144991369 -0.020455980945003109 0 0.012988969570021396 -0.020006546434072396 0 0.01290078759303759 -0.019878070995783644 0 0.013023545120164216 -0.019783638308987349 0 0.012853993907093443 -0.019979398434549062 0 0.012873738547699168 -0.020078771842084887 0 0.012988969570021396 -0.020006546434072396 0 0.012853993907093443 -0.019979398434549062 0 0.012988969570021396 -0.020006546434072396 0 0.01290078759303759 -0.019878070995783644 0 0.012856201759988965 -0.019640960038896378 0 0.012835314106836998 -0.019773930847551462 0 0.013023545120164216 -0.019783638308987349 0 0.012835314106836998 -0.019773930847551462 0 0.01290078759303759 -0.019878070995783644 0 0.013023545120164216 -0.019783638308987349 0 0.016482672705916936 -0.021180529384631677 0 0.017095600086992051 -0.021369298185294056 0 0.01691328489229112 -0.020814135402142091 0 0.01499857407858507 -0.020363148183638904 0 0.015065487467540951 -0.019945505254178705 0 0.016368035144991369 -0.020455980945003109 0 0.016525574531059985 -0.020810312778143849 0 0.016125439959368992 -0.020737958565317474 0 0.016368035144991369 -0.020455980945003109 0 0.016125439959368992 -0.020737958565317474 0 0.016001702053613464 -0.02037909939124008 0 0.016368035144991369 -0.020455980945003109 0 0.01691328489229112 -0.020814135402142091 0 0.016525574531059985 -0.020810312778143849 0 0.016482672705916936 -0.021180529384631677 0 0.01691328489229112 -0.020814135402142091 0 0.016525574531059985 -0.020810312778143849 0 0.016482672705916936 -0.021180529384631677 0 0.016525574531059985 -0.020810312778143849 0 0.016125439959368992 -0.020737958565317474 0 0.016482672705916936 -0.021180529384631677 0 0.016125439959368992 -0.020737958565317474 0 0.015539539547038178 -0.020966003229240013 0 0.017667108904495275 -0.020086984428619434 0 0.018502992416942723 -0.019478150658010559 0 0.016125439959368992 -0.020737958565317474 0 0.015739100263222928 -0.020606872814110482 0 0.016001702053613464 -0.02037909939124008 0 0.016125439959368992 -0.020737958565317474 0 0.015739100263222928 -0.020606872814110482 0 0.015539539547038178 -0.020966003229240013 0 0.01547892610407548 -0.020617636827325338 0 0.015739100263222928 -0.020606872814110482 0 0.015581088205224854 -0.020301698848707223 0 0.01547892610407548 -0.020617636827325338 0 0.015739100263222928 -0.020606872814110482 0 0.015539539547038178 -0.020966003229240013 0 0.018502992416942723 -0.019478150658010559 0 0.021736450790070729 -0.018612234060127589 0 0.018076764981852931 -0.021805785871660068 0 0.018288799609355706 -0.021750818456296138 0 0.018653958260885405 -0.021970687966937404 0 0.015539539547038178 -0.020966003229240013 0 0.015125146797426874 -0.020557102288679366 0 0.014492718152070557 -0.020676448266726582 0 0.018714386402415815 -0.021485363243745417 0 0.018288799609355706 -0.021750818456296138 0 0.018653958260885405 -0.021970687966937404 0 0.018133181696033691 -0.021517275727951309 0 0.018076764981852931 -0.021805785871660068 0 0.018288799609355706 -0.021750818456296138 0 0.01547892610407548 -0.020617636827325338 0 0.015125146797426874 -0.020557102288679366 0 0.015581088205224854 -0.020301698848707223 0 0.01547892610407548 -0.020617636827325338 0 0.015539539547038178 -0.020966003229240013 0 0.015125146797426874 -0.020557102288679366 0 0.015125146797426874 -0.020557102288679366 0 0.015119330144080548 -0.019989897001687199 0 0.015581088205224854 -0.020301698848707223 0 0.015119330144080548 -0.019989897001687199 0 0.014492718152070557 -0.020676448266726582 0 0.014613661454805894 -0.019422940673807863 0 0.015125146797426874 -0.020557102288679366 0 0.015119330144080548 -0.019989897001687199 0 0.014492718152070557 -0.020676448266726582 0 0.01533684508634863 -0.01945970938591577 0 0.015119330144080548 -0.019989897001687199 0 0.015629832069786808 -0.019812936782681666 0 0.015119330144080548 -0.019989897001687199 0 0.015629832069786808 -0.019812936782681666 0 0.015581088205224854 -0.020301698848707223 0 0.015629832069786808 -0.019812936782681666 0 0.015889462381141577 -0.02007696743876616 0 0.015581088205224854 -0.020301698848707223 0 0.015629832069786808 -0.019812936782681666 0 0.015961208908667718 -0.019793229645390608 0 0.015889462381141577 -0.02007696743876616 0 0.016243335157108896 -0.019626339585401203 0 0.016204854746845822 -0.020048918235457115 0 0.015961208908667718 -0.019793229645390608 0 0.016204854746845822 -0.020048918235457115 0 0.015961208908667718 -0.019793229645390608 0 0.015889462381141577 -0.02007696743876616 0 0.015889462381141577 -0.02007696743876616 0 0.016001702053613464 -0.02037909939124008 0 0.015581088205224854 -0.020301698848707223 0 0.016204854746845822 -0.020048918235457115 0 0.015889462381141577 -0.02007696743876616 0 0.016001702053613464 -0.02037909939124008 0 0.015739100263222928 -0.020606872814110482 0 0.016001702053613464 -0.02037909939124008 0 0.015581088205224854 -0.020301698848707223 0 0.025569445183531814 -0.018502151798692183 0 0.026313930258287623 -0.016880563139481775 0 0.027381253297032501 -0.015400443677452131 0 0.027355160762117921 -0.015400848220855102 0 0.027359797757048544 -0.015413140026536461 0 0.021736450790070729 -0.018612234060127589 0 0.020961927929108528 -0.017382255842658654 0 0.023598555295094682 -0.019576715308103062 0 0.023103753014999145 -0.019427559095614007 0 0.02371161500037177 -0.018676022397602066 0 0.023103753014999145 -0.019427559095614007 0 0.022727702447911776 -0.018380240349800899 0 0.02371161500037177 -0.018676022397602066 0 0.025569445183531814 -0.018502151798692183 0 0.021736450790070729 -0.018612234060127589 0 0.0217812297901912 -0.020229369501497448 0 0.021736450790070729 -0.018612234060127589 0 0.028928767575649997 -0.019251720111551133 0 0.029980607427599167 -0.019336518748826945 0 0.029603012115560944 -0.018314093016855909 0 0.024339735442662373 -0.019981043227288345 0 0.025569445183531814 -0.018502151798692183 0 0.029011056537530736 -0.019032986987245377 0 0.027903693149467508 -0.0185090041324452 0 0.028746144958056004 -0.017608866930837859 0 0.028928767575649997 -0.019251720111551133 0 0.029603012115560944 -0.018314093016855909 0 0.028676316475735292 -0.018036163355137049 0 0.028301899814369851 -0.019075421168984967 0 0.027580460850786054 -0.018003013816743959 0 0.027903693149467508 -0.0185090041324452 0 0.028746144958056004 -0.017608866930837859 0 0.02715884296831644 -0.017135339018109791 0 0.027580460850786054 -0.018003013816743959 0 0.027478345653782498 -0.01776826809306007 0 0.028173816505794733 -0.016946434226573201 0 0.027733595137247571 -0.01681021994666906 0 0.028004167269493268 -0.016461665009530942 0 0.025569445183531814 -0.018502151798692183 0 0.027580460850786054 -0.018003013816743959 0 0.027733595137247571 -0.01681021994666906 0 0.027644186342086229 -0.016316378977152823 0 0.028004167269493268 -0.016461665009530942 0 0.027580460850786054 -0.018003013816743959 0 0.02753100808031882 -0.016917146068140168 0 0.027644186342086229 -0.016316378977152823 0 0.027834480969051244 -0.015986430396533663 0 0.028004167269493268 -0.016461665009530942 0 0.028053848610959949 -0.017348266082597305 0 0.027901853674672433 -0.01662255439230767 0 0.02715884296831644 -0.017135339018109791 0 0.027901853674672433 -0.01662255439230767 0 0.027316224146413697 -0.016312366201027582 0 0.02715884296831644 -0.017135339018109791 0 0.027901853674672433 -0.01662255439230767 0 0.027576485297904258 -0.015845559588605476 0 0.027316224146413697 -0.016312366201027582 0 0.02753100808031882 -0.016917146068140168 0 0.027501051311483504 -0.016540094771500913 0 0.027576485297904258 -0.015845559588605476 0 0.027235081135767249 -0.015735502108337632 0 0.027316224146413697 -0.016312366201027582 0 0.027452434082216395 -0.015423698961573961 0 0.027408390757917647 -0.015421882930359161 0 0.027402941860110195 -0.015408662997922005 0 0.027644186342086229 -0.016316378977152823 0 0.027834480969051244 -0.015986430396533663 0 0.027576485297904258 -0.015845559588605476 0 0.026717588021067735 -0.016250206264661046 0 0.026313930258287623 -0.016880563139481775 0 0.027452434082216395 -0.015423698961573961 0 0.027408390757917647 -0.015421882930359161 0 0.027420289797243754 -0.015450745547833881 0 0.027385838391596241 -0.015432343901514685 0 0.027408390757917647 -0.015421882930359161 0 0.027420289797243754 -0.015450745547833881 0 0.027385838391596241 -0.015432343901514685 0 0.027408390757917647 -0.015421882930359161 0 0.027383894439222796 -0.015415639128205746 0 0.027381253297032501 -0.015400443677452131 0 0.027383894439222796 -0.015415639128205746 0 0.027402941860110195 -0.015408662997922005 0 0.027408390757917647 -0.015421882930359161 0 0.027383894439222796 -0.015415639128205746 0 0.027402941860110195 -0.015408662997922005 0 0.027381253297032501 -0.015400443677452131 0 0.027383894439222796 -0.015415639128205746 0 0.027359797757048544 -0.015413140026536461 0 0.027358828287319635 -0.015438135017931799 0 0.027383894439222796 -0.015415639128205746 0 0.027359797757048544 -0.015413140026536461 0 0.027358828287319635 -0.015438135017931799 0 0.027385838391596241 -0.015432343901514685 0 0.027383894439222796 -0.015415639128205746 0 0.027375351481679935 -0.015431712549298725 0 0.027358828287319635 -0.015438135017931799 0 0.027367787141854651 -0.015443074087388445 0 0.027358828287319635 -0.015438135017931799 0 0.027385838391596241 -0.015432343901514685 0 0.027367787141854651 -0.015443074087388445 0 0.027385838391596241 -0.015432343901514685 0 0.027367787141854651 -0.015443074087388445 0 0.027388586868099734 -0.015445087423789814 0 0.027367787141854651 -0.015443074087388445 0 0.027361366897564621 -0.015449665355005117 0 0.027388586868099734 -0.015445087423789814 0 0.027375351481679935 -0.015431712549298725 0 0.027367787141854651 -0.015443074087388445 0 0.027361366897564621 -0.015449665355005117 0 0.027385838391596241 -0.015432343901514685 0 0.027420289797243754 -0.015450745547833881 0 0.027388586868099734 -0.015445087423789814 0 0.027420289797243754 -0.015450745547833881 0 0.027388586868099734 -0.015445087423789814 0 0.027432938678516906 -0.015478239690312869 0 0.027361366897564621 -0.015449665355005117 0 0.027388586868099734 -0.015445087423789814 0 0.027432938678516906 -0.015478239690312869 0 0.027420289797243754 -0.015450745547833881 0 0.027432938678516906 -0.015478239690312869 0 0.027460609990544178 -0.015498283437552794 0 0.027432938678516906 -0.015478239690312869 0 0.027453212868200735 -0.015483645718183911 0 0.027439696819555125 -0.01547281654174338 0 0.027432938678516906 -0.015478239690312869 0 0.027453212868200735 -0.015483645718183911 0 0.027460609990544178 -0.015498283437552794 0 0.027432938678516906 -0.015478239690312869 0 0.027423880846836942 -0.015474945477437238 0 0.027439696819555125 -0.01547281654174338 0 0.027361366897564621 -0.015449665355005117 0 0.027432938678516906 -0.015478239690312869 0 0.027423880846836942 -0.015474945477437238 0 0.027423880846836942 -0.015474945477437238 0 0.02744571790472022 -0.015485237944537961 0 0.027439696819555125 -0.01547281654174338 0 0.027453212868200735 -0.015483645718183911 0 0.027439696819555125 -0.01547281654174338 0 0.027456226304183911 -0.015451060523784357 0 0.027361366897564621 -0.015449665355005117 0 0.027423880846836942 -0.015474945477437238 0 0.02744571790472022 -0.015485237944537961 0 0.027361366897564621 -0.015449665355005117 0 0.027251992983475734 -0.015323860298210342 0 0.027343237626834136 -0.01538193170068889 0 0.024789754845283229 -0.01418518481233381 0 0.024313165003301027 -0.013369448871220898 0 0.027375351481679935 -0.015431712549298725 0 0.027361366897564621 -0.015449665355005117 0 0.027343237626834136 -0.01538193170068889 0 0.027375351481679935 -0.015431712549298725 0 0.027343237626834136 -0.01538193170068889 0 0.027369536245590638 -0.015368677996571385 0 0.027251992983475734 -0.015323860298210342 0 0.027323976612517072 -0.015322953803735603 0 0.027343237626834136 -0.01538193170068889 0 0.027323976612517072 -0.015322953803735603 0 0.027343237626834136 -0.01538193170068889 0 0.027369536245590638 -0.015368677996571385 0 0.027323976612517072 -0.015322953803735603 0 0.027369536245590638 -0.015368677996571385 0 0.027373840440244521 -0.015316052297373726 0 0.018683228586865865 -0.010888887855139138 0 0.022592115984896837 -0.010093769673564687 0 0.027446060763608289 -0.015230643169454029 0 0.027342237511466857 -0.015278030940459144 0 0.027298272288405867 -0.015235851081141961 0 0.027446060763608289 -0.015230643169454029 0 0.027298272288405867 -0.015235851081141961 0 0.027205144892498097 -0.015174885173116357 0 0.016816044478506008 -0.0024044272525938258 0 0.016968309219869113 -0.0025892899293545836 0 0.018155205982402316 -0.0026065315398541731 0 0.027323976612517072 -0.015322953803735603 0 0.027373840440244521 -0.015316052297373726 0 0.027342237511466857 -0.015278030940459144 0 0.027298272288405867 -0.015235851081141961 0 0.027280063020804424 -0.015273207078567145 0 0.027205144892498097 -0.015174885173116357 0 0.027251992983475734 -0.015323860298210342 0 0.027323976612517072 -0.015322953803735603 0 0.027280063020804424 -0.015273207078567145 0 0.027342237511466857 -0.015278030940459144 0 0.027298272288405867 -0.015235851081141961 0 0.027280063020804424 -0.015273207078567145 0 0.027323976612517072 -0.015322953803735603 0 0.027342237511466857 -0.015278030940459144 0 0.027280063020804424 -0.015273207078567145 0 0.027251992983475734 -0.015323860298210342 0 0.027280063020804424 -0.015273207078567145 0 0.027205144892498097 -0.015174885173116357 0 0.02744571790472022 -0.015485237944537961 0 0.027431344813962564 -0.015440096754222839 0 0.027426197985196792 -0.015328034970817764 0 0.02744571790472022 -0.015485237944537961 0 0.027439696819555125 -0.01547281654174338 0 0.027431344813962564 -0.015440096754222839 0 0.024313165003301027 -0.013369448871220898 0 0.022592115984896837 -0.010093769673564687 0 0.027439696819555125 -0.01547281654174338 0 0.027431344813962564 -0.015440096754222839 0 0.027447386394604003 -0.015439811814505796 0 0.027439696819555125 -0.01547281654174338 0 0.027447386394604003 -0.015439811814505796 0 0.027456226304183911 -0.015451060523784357 0 0.027447386394604003 -0.015439811814505796 0 0.027463785227072986 -0.015399422610188488 0 0.027456226304183911 -0.015451060523784357 0 0.027431344813962564 -0.015440096754222839 0 0.027447386394604003 -0.015439811814505796 0 0.027463785227072986 -0.015399422610188488 0 0.027431344813962564 -0.015440096754222839 0 0.027426197985196792 -0.015328034970817764 0 0.027286658984083351 -0.015295316621724165 0 0.025216033254934579 -0.012310509880480798 0 0.023754304567464728 -0.010710599827460103 0 0.018155205982402316 -0.0026065315398541731 0 0.017729893858351779 -0.0034261787103904771 0 0.018470378307298144 -0.0035979326730299389 0 0.018301631670848063 -0.0023642305299760636 0 0.018973195031805293 -0.0030674963703703623 0 0.018593424680269539 -0.0034471091159444024 0 0.022592115984896837 -0.010093769673564687 0 0.020305986501585646 -0.0051199561910146262 0 0.022592115984896837 -0.010093769673564687 0 0.023754304567464728 -0.010710599827460103 0 0.018301631670848063 -0.0023642305299760636 0 0.018973195031805293 -0.0030674963703703623 0 0.018871565186631033 -0.0024541297978305752 0 0.017204913614648577 -0.0031306803418510239 0 0.018155205982402316 -0.0026065315398541731 0 0.017729893858351779 -0.0034261787103904771 0 0.017204913614648577 -0.0031306803418510239 0 0.016968309219869113 -0.0025892899293545836 0 0.018155205982402316 -0.0026065315398541731 0 0.02528915889297563 -0.011428910329632724 0 0.025730794951073846 -0.011496361680982453 0 0.027397679420142016 -0.015326270457259797 0 0.027334395595901232 -0.015382878261456717 0 0.027250089989705344 -0.015261803500078023 0 0.02444576040124161 -0.011002987512780421 0 0.024836558095964127 -0.011068640228115363 0 0.024507631399218108 -0.011395455992789606 0 0.025730794951073846 -0.011496361680982453 0 0.023911814753732205 -0.0095257073816164776 0 0.02528915889297563 -0.011428910329632724 0 0.023754304567464728 -0.010710599827460103 0 0.02444576040124161 -0.011002987512780421 0 0.024055088372644674 -0.010938097600151495 0 0.024507631399218108 -0.011395455992789606 0 0.023754304567464728 -0.010710599827460103 0 0.023911814753732205 -0.0095257073816164776 0 0.018973195031805293 -0.0030674963703703623 0 0.018871565186631033 -0.0024541297978305752 0 0.019970076273994282 -0.0034946941202204204 0 0.027397679420142016 -0.015326270457259797 0 0.027463785227072986 -0.015399422610188488 0 0.027435612991808876 -0.015419004461815242 0 0.027463785227072986 -0.015399422610188488 0 0.027456226304183911 -0.015451060523784357 0 0.027435612991808876 -0.015419004461815242 0 0.027456226304183911 -0.015451060523784357 0 0.027435612991808876 -0.015419004461815242 0 0.02747440955237011 -0.015492813563044404 0 0.027435612991808876 -0.015419004461815242 0 0.027334395595901232 -0.015382878261456717 0 0.027414894394372599 -0.015469268836840973 0 0.027397679420142016 -0.015326270457259797 0 0.027435612991808876 -0.015419004461815242 0 0.027334395595901232 -0.015382878261456717 0 0.027334395595901232 -0.015382878261456717 0 0.027414894394372599 -0.015469268836840973 0 0.027289194846481322 -0.015481878816515726 0 0.027414894394372599 -0.015469268836840973 0 0.02735745477066398 -0.015574872847702714 0 0.027289194846481322 -0.015481878816515726 0 0.027414894394372599 -0.015469268836840973 0 0.02735745477066398 -0.015574872847702714 0 0.027532372928386215 -0.015546121172820747 0 0.027453212868200735 -0.015483645718183911 0 0.027456226304183911 -0.015451060523784357 0 0.02747440955237011 -0.015492813563044404 0 0.027435612991808876 -0.015419004461815242 0 0.027414894394372599 -0.015469268836840973 0 0.02747440955237011 -0.015492813563044404 0 0.027414894394372599 -0.015469268836840973 0 0.02747440955237011 -0.015492813563044404 0 0.027532372928386215 -0.015546121172820747 0 0.02747440955237011 -0.015492813563044404 0 0.027532372928386215 -0.015546121172820747 0 0.027460609990544178 -0.015498283437552794 0 0.027453212868200735 -0.015483645718183911 0 0.02747440955237011 -0.015492813563044404 0 0.027460609990544178 -0.015498283437552794 0 0.027452434082216395 -0.015423698961573961 0 0.027532372928386215 -0.015546121172820747 0 0.027460609990544178 -0.015498283437552794 0 0.027834480969051244 -0.015986430396533663 0 0.027532372928386215 -0.015546121172820747 0 0.027576485297904258 -0.015845559588605476 0 0.026717588021067735 -0.016250206264661046 0 0.026832609742099434 -0.016062759950696226 0 0.027452434082216395 -0.015423698961573961 0 0.027420289797243754 -0.015450745547833881 0 0.027460609990544178 -0.015498283437552794 0 0.02735745477066398 -0.015574872847702714 0 0.027576485297904258 -0.015845559588605476 0 0.027235081135767249 -0.015735502108337632 0 0.02735745477066398 -0.015574872847702714 0 0.027532372928386215 -0.015546121172820747 0 0.027576485297904258 -0.015845559588605476 0 0.02735745477066398 -0.015574872847702714 0 0.027235081135767249 -0.015735502108337632 0 0.027137786407069757 -0.015592077535260292 0 0.026778767491069697 -0.015515027436429817 0 0.026429747860910329 -0.015452600666712796 0 0.027235081135767249 -0.015735502108337632 0 0.027012628923505894 -0.015696786473537099 0 0.027137786407069757 -0.015592077535260292 0 0.027235081135767249 -0.015735502108337632 0 0.026335385450959682 -0.015592184382392814 0 0.026661167955290721 -0.016334764656763173 0 0.027012628923505894 -0.015696786473537099 0 0.027137786407069757 -0.015592077535260292 0 0.026927468050286528 -0.0155332247468489 0 0.027137786407069757 -0.015592077535260292 0 0.027092564168086562 -0.015383587164592804 0 0.026927468050286528 -0.0155332247468489 0 0.027137786407069757 -0.015592077535260292 0 0.027289194846481322 -0.015481878816515726 0 0.027092564168086562 -0.015383587164592804 0 0.02735745477066398 -0.015574872847702714 0 0.027137786407069757 -0.015592077535260292 0 0.027289194846481322 -0.015481878816515726 0 0.027334395595901232 -0.015382878261456717 0 0.027289194846481322 -0.015481878816515726 0 0.027092564168086562 -0.015383587164592804 0 0.027334395595901232 -0.015382878261456717 0 0.027092564168086562 -0.015383587164592804 0 0.027250089989705344 -0.015261803500078023 0 0.025958881392459107 -0.013246318445150037 0 0.025730794951073846 -0.011496361680982453 0 0.025958881392459107 -0.013246318445150037 0 0.025887706513886437 -0.014347367618134051 0 0.027051081629961008 -0.013649904412859317 0 0.02674474553544855 -0.012701874575396512 0 0.027805637605885895 -0.012880763811847926 0 0.027051081629961008 -0.013649904412859317 0 0.02674474553544855 -0.012701874575396512 0 0.025931353835330066 -0.013421636315559763 0 0.026464883543893723 -0.011792131060856404 0 0.025730794951073846 -0.011496361680982453 0 0.02674474553544855 -0.012701874575396512 0 0.027773680704913772 -0.012858795824532653 0 0.027539512401090406 -0.01216001867782672 0 0.024999978885556304 -0.01254005815882049 0 0.025931353835330066 -0.013421636315559763 0 0.025915157058445149 -0.012330699224450769 0 0.024999978885556304 -0.01254005815882049 0 0.025931353835330066 -0.013421636315559763 0 0.024999996576258229 -0.013852917143545052 0 0.02674474553544855 -0.012701874575396512 0 0.025931353835330066 -0.013421636315559763 0 0.025915157058445149 -0.012330699224450769 0 0.027051081629961008 -0.013649904412859317 0 0.025931353835330066 -0.013421636315559763 0 0.026299925778707461 -0.014420480166698734 0 0.025931353835330066 -0.013421636315559763 0 0.024999996576258229 -0.013852917143545052 0 0.025548110070127326 -0.0144110581076391 0 0.024999996576258229 -0.013852917143545052 0 0.025548110070127326 -0.0144110581076391 0 0.024999993666467796 -0.015165763943892525 0 0.025931353835330066 -0.013421636315559763 0 0.025548110070127326 -0.0144110581076391 0 0.026299925778707461 -0.014420480166698734 0 0.025548110070127326 -0.0144110581076391 0 0.026299925778707461 -0.014420480166698734 0 0.025546217795125926 -0.015189624503970926 0 0.025887706513886437 -0.014347367618134051 0 0.025460676498297953 -0.015265987940604846 0 0.026429747860910329 -0.015452600666712796 0 0.025460676498297953 -0.015265987940604846 0 0.026335385450959682 -0.015592184382392814 0 0.025419113675012872 -0.01546457953585679 0 0.025523467813852178 -0.01594618748679421 0 0.027012628923505894 -0.015696786473537099 0 0.026927468050286528 -0.0155332247468489 0 0.026772529365056745 -0.015683697263963688 0 0.025001044760935769 -0.015166173138095148 0 0.025460676498297953 -0.015265987940604846 0 0.025548110070127326 -0.0144110581076391 0 0.024999993666467796 -0.015165763943892525 0 0.025546217795125926 -0.015189624503970926 0 0.025419113675012872 -0.01546457953585679 0 0.024999859870131196 -0.01574766393593607 0 0.025523467813852178 -0.01594618748679421 0 0.02499999926810232 -0.015165782953999051 0 0.025549195015743122 -0.015194168319450271 0 0.024999999561872224 -0.015747127145777987 0 0.025460676498297953 -0.015265987940604846 0 0.02500070494054291 -0.015746372791505411 0 0.025523467813852178 -0.01594618748679421 0 0.025000033781580475 -0.016637893231818954 0 0.02585051493608076 -0.016388734171277657 0 0.024999859870131196 -0.01574766393593607 0 0.025523467813852178 -0.01594618748679421 0 0.025000033781580475 -0.016637893231818954 0 0.025000033781580475 -0.016637893231818954 0 0.025569467703426732 -0.017121564000434717 0 0.02585051493608076 -0.016388734171277657 0 0.025000033781580475 -0.016637893231818954 0 0.025569467703426732 -0.017121564000434717 0 0.024999357106905359 -0.017528562376971299 0 0.025569467703426732 -0.017121564000434717 0 0.02585051493608076 -0.016388734171277657 0 0.026208418197958026 -0.016841092703714009 0 0.025569467703426732 -0.017121564000434717 0 0.026208418197958026 -0.016841092703714009 0 0.026148348988346188 -0.01760106132629476 0 0.026335385450959682 -0.015592184382392814 0 0.025523467813852178 -0.01594618748679421 0 0.02585051493608076 -0.016388734171277657 0 0.026335385450959682 -0.015592184382392814 0 0.02585051493608076 -0.016388734171277657 0 0.026661167955290721 -0.016334764656763173 0 0.027235081135767249 -0.015735502108337632 0 0.026661167955290721 -0.016334764656763173 0 0.027316224146413697 -0.016312366201027582 0 0.026661167955290721 -0.016334764656763173 0 0.027316224146413697 -0.016312366201027582 0 0.02715884296831644 -0.017135339018109791 0 0.026661167955290721 -0.016334764656763173 0 0.02715884296831644 -0.017135339018109791 0 0.026208418197958026 -0.016841092703714009 0 0.02585051493608076 -0.016388734171277657 0 0.026661167955290721 -0.016334764656763173 0 0.026208418197958026 -0.016841092703714009 0 0.026148348988346188 -0.01760106132629476 0 0.026975483920786466 -0.01805232715808686 0 0.026340406209393083 -0.018330412092216038 0 0.02715884296831644 -0.017135339018109791 0 0.026148348988346188 -0.01760106132629476 0 0.026975483920786466 -0.01805232715808686 0 0.02715884296831644 -0.017135339018109791 0 0.026208418197958026 -0.016841092703714009 0 0.026148348988346188 -0.01760106132629476 0 0.027903693149467508 -0.0185090041324452 0 0.02715884296831644 -0.017135339018109791 0 0.026975483920786466 -0.01805232715808686 0 0.027903693149467508 -0.0185090041324452 0 0.026975483920786466 -0.01805232715808686 0 0.026827432309434896 -0.018810675040955585 0 0.025974925070797069 -0.018965133019711429 0 0.026827432309434896 -0.018810675040955585 0 0.026340406209393083 -0.018330412092216038 0 0.026975483920786466 -0.01805232715808686 0 0.026827432309434896 -0.018810675040955585 0 0.026340406209393083 -0.018330412092216038 0 0.025670090487621807 -0.018289667074924968 0 0.02501156425741783 -0.018596552207546576 0 0.025423043973308503 -0.017790195938497663 0 0.025974925070797069 -0.018965133019711429 0 0.026340406209393083 -0.018330412092216038 0 0.025670090487621807 -0.018289667074924968 0 0.025473037563972813 -0.019003288901536013 0 0.025974925070797069 -0.018965133019711429 0 0.025670090487621807 -0.018289667074924968 0 0.026148348988346188 -0.01760106132629476 0 0.026340406209393083 -0.018330412092216038 0 0.025670090487621807 -0.018289667074924968 0 0.025473037563972813 -0.019003288901536013 0 0.025670090487621807 -0.018289667074924968 0 0.02501156425741783 -0.018596552207546576 0 0.02501156425741783 -0.018596552207546576 0 0.024999357106905359 -0.017528562376971299 0 0.025423043973308503 -0.017790195938497663 0 0.024999857772228854 -0.018894850798973024 0 0.025468064750164263 -0.018626420283139863 0 0.025000055749533158 -0.017528606552402255 0 0.025259717130266729 -0.01867905288676943 0 0.025000071895463129 -0.017530044035074504 0 0.025569467703426732 -0.017121564000434717 0 0.024999357106905359 -0.017528562376971299 0 0.025423043973308503 -0.017790195938497663 0 0.025569467703426732 -0.017121564000434717 0 0.026148348988346188 -0.01760106132629476 0 0.025423043973308503 -0.017790195938497663 0 0.026148348988346188 -0.01760106132629476 0 0.025670090487621807 -0.018289667074924968 0 0.025423043973308503 -0.017790195938497663 0 0.025858809287240513 -0.007082502994716273 0 0.026187399638297394 -0.0073364798651531869 0 0.026317456971458514 -0.0068744886089565013 0 0.025858809287240513 -0.007082502994716273 0 0.026187399638297394 -0.0073364798651531869 0 0.025658247529396768 -0.0076360658015004424 0 0.026187399638297394 -0.0073364798651531869 0 0.026317456971458514 -0.0068744886089565013 0 0.026693893906612039 -0.0071807600327166068 0 0.026187399638297394 -0.0073364798651531869 0 0.026693893906612039 -0.0071807600327166068 0 0.026286051084730561 -0.0078656029724512334 0 0.026187399638297394 -0.0073364798651531869 0 0.025658247529396768 -0.0076360658015004424 0 0.026286051084730561 -0.0078656029724512334 0 0.025858809287240513 -0.007082502994716273 0 0.025658247529396768 -0.0076360658015004424 0 0.02499998203971384 -0.0069018988606794817 0 0.025658247529396768 -0.0076360658015004424 0 0.02499998203971384 -0.0069018988606794817 0 0.024999975902301141 -0.0083154931737636877 0 0.025858809287240513 -0.007082502994716273 0 0.02499998203971384 -0.0069018988606794817 0 0.026077703976958071 -0.0064408903055045283 0 0.02499998203971384 -0.0069018988606794817 0 0.026077703976958071 -0.0064408903055045283 0 0.025722711328927294 -0.0058026402367083894 0 0.025858809287240513 -0.007082502994716273 0 0.026077703976958071 -0.0064408903055045283 0 0.026317456971458514 -0.0068744886089565013 0 0.026077703976958071 -0.0064408903055045283 0 0.026317456971458514 -0.0068744886089565013 0 0.026683539006690762 -0.0065247748021114585 0 0.026077703976958071 -0.0064408903055045283 0 0.026683539006690762 -0.0065247748021114585 0 0.026491324447767972 -0.0058836597648687398 0 0.026683539006690762 -0.0065247748021114585 0 0.027209291771355094 -0.0067157204475488995 0 0.027115417576201839 -0.006019674398550866 0 0.026683539006690762 -0.0065247748021114585 0 0.027209291771355094 -0.0067157204475488995 0 0.026693893906612039 -0.0071807600327166068 0 0.026317456971458514 -0.0068744886089565013 0 0.026683539006690762 -0.0065247748021114585 0 0.026693893906612039 -0.0071807600327166068 0 0.027209291771355094 -0.0067157204475488995 0 0.027972346208299505 -0.006867251477494625 0 0.027802868580744725 -0.0062012643596655315 0 0.027209291771355094 -0.0067157204475488995 0 0.027802868580744725 -0.0062012643596655315 0 0.027115417576201839 -0.006019674398550866 0 0.023937968455841688 -0.0078272424958301355 0 0.024116190324943998 -0.0071567091314343441 0 0.027209291771355094 -0.0067157204475488995 0 0.026994856088947319 -0.007415681023823696 0 0.027972346208299505 -0.006867251477494625 0 0.02237392595955677 -0.0075312684475015183 0 0.022297458138565707 -0.0075668349973739713 0 0.02231688633797093 -0.0076531267808552187 0 0.022447984833648665 -0.00758965473433561 0 0.02237392595955677 -0.0075312684475015183 0 0.02231688633797093 -0.0076531267808552187 0 0.023937968455841688 -0.0078272424958301355 0 0.022501973592427834 -0.0076536621788319175 0 0.024142167135135492 -0.0079071732196937302 0 0.023937968455841688 -0.0078272424958301355 0 0.027209291771355094 -0.0067157204475488995 0 0.026693893906612039 -0.0071807600327166068 0 0.026994856088947319 -0.007415681023823696 0 0.026693893906612039 -0.0071807600327166068 0 0.027027658414867935 -0.0074539740066651939 0 0.026286051084730561 -0.0078656029724512334 0 0.022123104264071602 -0.010569489841767541 0 0.022820945225503996 -0.0097830450942083327 0 0.023552602171772602 -0.0098312583541264043 0 0.023937968455841688 -0.0078272424958301355 0 0.024424492589116383 -0.0082052540323859849 0 0.022371286996990373 -0.0096109048362775125 0 0.021489937981455019 -0.0091516544752089386 0 0.023237820021299621 -0.009117800671891052 0 0.021489937981455019 -0.0091516544752089386 0 0.022396177039492968 -0.0079689209045200032 0 0.02316517076856945 -0.0091249022988954195 0 0.022937980906582837 -0.0087452051697281472 0 0.023552481485230987 -0.0086789420882933833 0 0.022820945225503996 -0.0097830450942083327 0 0.022371286996990373 -0.0096109048362775125 0 0.023237820021299621 -0.009117800671891052 0 0.022123104264071602 -0.010569489841767541 0 0.022820945225503996 -0.0097830450942083327 0 0.022371286996990373 -0.0096109048362775125 0 0.022123104264071602 -0.010569489841767541 0 0.022371286996990373 -0.0096109048362775125 0 0.021004648496965719 -0.0096678881013153931 0 0.021004648496965719 -0.0096678881013153931 0 0.021489937981455019 -0.0091516544752089386 0 0.019889855154984901 -0.0087635207087427315 0 0.022371286996990373 -0.0096109048362775125 0 0.021004648496965719 -0.0096678881013153931 0 0.021489937981455019 -0.0091516544752089386 0 0.022501973592427834 -0.0076536621788319175 0 0.021246593708325795 -0.0073071278964461795 0 0.021489937981455019 -0.0091516544752089386 0 0.02152981143000824 -0.0066356914703224737 0 0.019889855154984901 -0.0087635207087427315 0 0.021201369267639658 -0.0072737437892028342 0 0.021246593708325795 -0.0073071278964461795 0 0.02152981143000824 -0.0066356914703224737 0 0.020475954034413876 -0.0068783369984369994 0 0.020388536045212621 -0.0079147193786109332 0 0.021489937981455019 -0.0091516544752089386 0 0.022396177039492968 -0.0079689209045200032 0 0.02152981143000824 -0.0066356914703224737 0 0.022396177039492968 -0.0079689209045200032 0 0.023241373981447627 -0.0080062698077229873 0 0.02316517076856945 -0.0091249022988954195 0 0.022396177039492968 -0.0079689209045200032 0 0.022675077081459022 -0.0069681279814228277 0 0.02152981143000824 -0.0066356914703224737 0 0.022396177039492968 -0.0079689209045200032 0 0.023241373981447627 -0.0080062698077229873 0 0.022675077081459022 -0.0069681279814228277 0 0.023241373981447627 -0.0080062698077229873 0 0.023881088030180114 -0.006897947753001869 0 0.022675077081459022 -0.0069681279814228277 0 0.024094629319794478 -0.0083220336787072271 0 0.023241373981447627 -0.0080062698077229873 0 0.023881088030180114 -0.006897947753001869 0 0.024094629319794478 -0.0083220336787072271 0 0.023241373981447627 -0.0080062698077229873 0 0.02316517076856945 -0.0091249022988954195 0 0.023552481485230987 -0.0086789420882933833 0 0.024681982901645173 -0.0084757247514641899 0 0.023237820021299621 -0.009117800671891052 0 0.023552602171772602 -0.0098312583541264043 0 0.024983264132307566 -0.0090905970846077294 0 0.024094629319794478 -0.0083220336787072271 0 0.02316517076856945 -0.0091249022988954195 0 0.024756988936969041 -0.0090611309510243206 0 0.025658247529396768 -0.0076360658015004424 0 0.026286051084730561 -0.0078656029724512334 0 0.025549163635526034 -0.0082839915694236394 0 0.024424492589116383 -0.0082052540323859849 0 0.024681982901645173 -0.0084757247514641899 0 0.022820945225503996 -0.0097830450942083327 0 0.023237820021299621 -0.009117800671891052 0 0.023552602171772602 -0.0098312583541264043 0 0.025658247529396768 -0.0076360658015004424 0 0.025549163635526034 -0.0082839915694236394 0 0.024999975902301141 -0.0083154931737636877 0 0.024681982901645173 -0.0084757247514641899 0 0.024999151077083712 -0.0086008612994463926 0 0.025565143502888871 -0.0083071759413092632 0 0.024999997555961065 -0.0083155767055217763 0 0.025000000988601782 -0.0086015060072903628 0 0.024681982901645173 -0.0084757247514641899 0 0.024999435376867784 -0.0083162463663429692 0 0.024756988936969041 -0.0090611309510243206 0 0.025120985724265372 -0.0086537564636511386 0 0.025000289699272437 -0.0086013160866885274 0 0.025120985724265372 -0.0086537564636511386 0 0.025000289699272437 -0.0086013160866885274 0 0.024999802437710147 -0.0099143427737154403 0 0.024094629319794478 -0.0083220336787072271 0 0.025120985724265372 -0.0086537564636511386 0 0.023881088030180114 -0.006897947753001869 0 0.024825724331125634 -0.0084809608622874351 0 0.024692031266116073 -0.0083989683502531092 0 0.024094629319794478 -0.0083220336787072271 0 0.024756988936969041 -0.0090611309510243206 0 0.025120985724265372 -0.0086537564636511386 0 0.025120985724265372 -0.0086537564636511386 0 0.024999802437710147 -0.0099143427737154403 0 0.026067022211588024 -0.009563051429345425 0 0.024999802437710147 -0.0099143427737154403 0 0.026067022211588024 -0.009563051429345425 0 0.025969572380293834 -0.010608054662659913 0 0.024692031266116073 -0.0083989683502531092 0 0.024390883351019285 -0.0083441909006839888 0 0.026067022211588024 -0.009563051429345425 0 0.025969572380293834 -0.010608054662659913 0 0.026895268516726543 -0.010424830790436495 0 0.024999802437710147 -0.0099143427737154403 0 0.025969572380293834 -0.010608054662659913 0 0.025000042594044168 -0.011227221543380262 0 0.025000042594044168 -0.011227221543380262 0 0.026145974660545818 -0.011441210151194977 0 0.025915157058445149 -0.012330699224450769 0 0.025969572380293834 -0.010608054662659913 0 0.025000042594044168 -0.011227221543380262 0 0.026145974660545818 -0.011441210151194977 0 0.025969572380293834 -0.010608054662659913 0 0.026145974660545818 -0.011441210151194977 0 0.026868297457185504 -0.011160431451247052 0 0.02674474553544855 -0.012701874575396512 0 0.025915157058445149 -0.012330699224450769 0 0.026954635925739184 -0.011854732867779315 0 0.026145974660545818 -0.011441210151194977 0 0.025915157058445149 -0.012330699224450769 0 0.026954635925739184 -0.011854732867779315 0 0.024999978885556304 -0.01254005815882049 0 0.025000042594044168 -0.011227221543380262 0 0.025915157058445149 -0.012330699224450769 0 0.027539512401090406 -0.01216001867782672 0 0.027706675863119118 -0.011276424670646422 0 0.028509444058268725 -0.012109739956900392 0 0.027539512401090406 -0.01216001867782672 0 0.026954635925739184 -0.011854732867779315 0 0.027706675863119118 -0.011276424670646422 0 0.027773680704913772 -0.012858795824532653 0 0.027539512401090406 -0.01216001867782672 0 0.028509444058268725 -0.012109739956900392 0 0.02674474553544855 -0.012701874575396512 0 0.027539512401090406 -0.01216001867782672 0 0.026954635925739184 -0.011854732867779315 0 0.026145974660545818 -0.011441210151194977 0 0.026954635925739184 -0.011854732867779315 0 0.026868297457185504 -0.011160431451247052 0 0.026954635925739184 -0.011854732867779315 0 0.026868297457185504 -0.011160431451247052 0 0.027706675863119118 -0.011276424670646422 0 0.026868297457185504 -0.011160431451247052 0 0.027706675863119118 -0.011276424670646422 0 0.026895268516726543 -0.010424830790436495 0 0.02107175267271659 -0.0043804448612592356 0 0.021130534752475727 -0.0055251600971467094 0 0.020517124512178679 -0.0050930370277849323 0 0.02107175267271659 -0.0043804448612592356 0 0.021130534752475727 -0.0055251600971467094 0 0.022342788433326786 -0.0054434330047012074 0 0.024057930140073729 -0.0085703125232951538 0 0.024390883351019285 -0.0083441909006839888 0 0.025969572380293834 -0.010608054662659913 0 0.026868297457185504 -0.011160431451247052 0 0.026895268516726543 -0.010424830790436495 0 0.023881088030180114 -0.006897947753001869 0 0.022342788433326786 -0.0054434330047012074 0 0.022675077081459022 -0.0069681279814228277 0 0.022342788433326786 -0.0054434330047012074 0 0.022675077081459022 -0.0069681279814228277 0 0.02152981143000824 -0.0066356914703224737 0 0.021130534752475727 -0.0055251600971467094 0 0.02152981143000824 -0.0066356914703224737 0 0.020475954034413876 -0.0068783369984369994 0 0.021130534752475727 -0.0055251600971467094 0 0.022342788433326786 -0.0054434330047012074 0 0.02152981143000824 -0.0066356914703224737 0 0.019838422784709663 -0.0064967223102977258 0 0.020055028014444393 -0.0057006940508166218 0 0.020475954034413876 -0.0068783369984369994 0 0.021130534752475727 -0.0055251600971467094 0 0.020055028014444393 -0.0057006940508166218 0 0.020475954034413876 -0.0068783369984369994 0 0.019838422784709663 -0.0064967223102977258 0 0.019362324686603625 -0.0061139523742715024 0 0.020055028014444393 -0.0057006940508166218 0 0.019362324686603625 -0.0061139523742715024 0 0.018479384350428688 -0.0060922443253420208 0 0.019425721251851404 -0.0071116278846243587 0 0.019573382417995812 -0.0064097760757974966 0 0.020023509355600537 -0.0066737694034933728 0 0.019838422784709663 -0.0064967223102977258 0 0.019362324686603625 -0.0061139523742715024 0 0.019425721251851404 -0.0071116278846243587 0 0.019362324686603625 -0.0061139523742715024 0 0.019300605375171944 -0.0054660803634456294 0 0.020055028014444393 -0.0057006940508166218 0 0.019362324686603625 -0.0061139523742715024 0 0.019300605375171944 -0.0054660803634456294 0 0.018479384350428688 -0.0060922443253420208 0 0.019300605375171944 -0.0054660803634456294 0 0.019831778773457862 -0.0047605788120330481 0 0.018835323516155553 -0.0046620942494254589 0 0.019300605375171944 -0.0054660803634456294 0 0.018835323516155553 -0.0046620942494254589 0 0.018479384350428688 -0.0060922443253420208 0 0.021130534752475727 -0.0055251600971467094 0 0.020055028014444393 -0.0057006940508166218 0 0.020517124512178679 -0.0050930370277849323 0 0.019300605375171944 -0.0054660803634456294 0 0.020055028014444393 -0.0057006940508166218 0 0.019831778773457862 -0.0047605788120330481 0 0.020055028014444393 -0.0057006940508166218 0 0.020517124512178679 -0.0050930370277849323 0 0.019831778773457862 -0.0047605788120330481 0 0.024057930140073729 -0.0085703125232951538 0 0.023911814753732205 -0.0095257073816164776 0 0.02107175267271659 -0.0043804448612592356 0 0.020014186235903595 -0.0040884688201906034 0 0.020006595989639459 -0.0034510367424607346 0 0.02107175267271659 -0.0043804448612592356 0 0.020517124512178679 -0.0050930370277849323 0 0.019831778773457862 -0.0047605788120330481 0 0.02107175267271659 -0.0043804448612592356 0 0.020014186235903595 -0.0040884688201906034 0 0.019831778773457862 -0.0047605788120330481 0 0.020014186235903595 -0.0040884688201906034 0 0.019831778773457862 -0.0047605788120330481 0 0.019414181706601058 -0.0041731809803005008 0 0.020014186235903595 -0.0040884688201906034 0 0.019414181706601058 -0.0041731809803005008 0 0.019780120000294894 -0.0036832825982862395 0 0.019831778773457862 -0.0047605788120330481 0 0.018835323516155553 -0.0046620942494254589 0 0.019414181706601058 -0.0041731809803005008 0 0.018835323516155553 -0.0046620942494254589 0 0.019414181706601058 -0.0041731809803005008 0 0.019172455764535298 -0.0035890426399762419 0 0.018973195031805293 -0.0030674963703703623 0 0.019172455764535298 -0.0035890426399762419 0 0.019970076273994282 -0.0034946941202204204 0 0.019172455764535298 -0.0035890426399762419 0 0.019970076273994282 -0.0034946941202204204 0 0.019780120000294894 -0.0036832825982862395 0 0.018835323516155553 -0.0046620942494254589 0 0.019172455764535298 -0.0035890426399762419 0 0.018593424680269539 -0.0034471091159444024 0 0.019414181706601058 -0.0041731809803005008 0 0.019172455764535298 -0.0035890426399762419 0 0.019780120000294894 -0.0036832825982862395 0 0.018973195031805293 -0.0030674963703703623 0 0.019172455764535298 -0.0035890426399762419 0 0.018593424680269539 -0.0034471091159444024 0 0.020014186235903595 -0.0040884688201906034 0 0.020006595989639459 -0.0034510367424607346 0 0.019780120000294894 -0.0036832825982862395 0 0.023911814753732205 -0.0095257073816164776 0 0.02389659622117063 -0.0094262641658616024 0 0.017204913614648577 -0.0031306803418510239 0 0.017729893858351779 -0.0034261787103904771 0 0.017136290778253196 -0.0038986365535929293 0 0.017833209028751858 -0.00393802387609417 0 0.017729893858351779 -0.0034261787103904771 0 0.017136290778253196 -0.0038986365535929293 0 0.017833209028751858 -0.00393802387609417 0 0.017729893858351779 -0.0034261787103904771 0 0.018470378307298144 -0.0035979326730299389 0 0.019895278954705772 -0.0045590249234598148 0 0.020305986501585646 -0.0051199561910146262 0 0.018835323516155553 -0.0046620942494254589 0 0.017833209028751858 -0.00393802387609417 0 0.017441066719301516 -0.004595538897871565 0 0.018835323516155553 -0.0046620942494254589 0 0.017833209028751858 -0.00393802387609417 0 0.018470378307298144 -0.0035979326730299389 0 0.017833209028751858 -0.00393802387609417 0 0.017441066719301516 -0.004595538897871565 0 0.017136290778253196 -0.0038986365535929293 0 0.017441066719301516 -0.004595538897871565 0 0.017798466167609505 -0.0054873240329121357 0 0.016886041422505372 -0.0057460826734352316 0 0.018835323516155553 -0.0046620942494254589 0 0.017441066719301516 -0.004595538897871565 0 0.017798466167609505 -0.0054873240329121357 0 0.018835323516155553 -0.0046620942494254589 0 0.017798466167609505 -0.0054873240329121357 0 0.018479384350428688 -0.0060922443253420208 0 0.017798466167609505 -0.0054873240329121357 0 0.018479384350428688 -0.0060922443253420208 0 0.017620267047671681 -0.0062639220936206849 0 0.017798466167609505 -0.0054873240329121357 0 0.017620267047671681 -0.0062639220936206849 0 0.016886041422505372 -0.0057460826734352316 0 0.017620267047671681 -0.0062639220936206849 0 0.017690544522109164 -0.007199458771604543 0 0.018206994885391313 -0.0066965460635790147 0 0.017620267047671681 -0.0062639220936206849 0 0.017690544522109164 -0.007199458771604543 0 0.017098363448397557 -0.0067367334455980584 0 0.017690544522109164 -0.007199458771604543 0 0.018434618963876867 -0.0071838303066036604 0 0.01808257481609566 -0.0079095981298960318 0 0.017690544522109164 -0.007199458771604543 0 0.018434618963876867 -0.0071838303066036604 0 0.018206994885391313 -0.0066965460635790147 0 0.018479384350428688 -0.0060922443253420208 0 0.018206994885391313 -0.0066965460635790147 0 0.018612208930068493 -0.0066532636553740783 0 0.018479384350428688 -0.0060922443253420208 0 0.017620267047671681 -0.0062639220936206849 0 0.018206994885391313 -0.0066965460635790147 0 0.018434618963876867 -0.0071838303066036604 0 0.018206994885391313 -0.0066965460635790147 0 0.018612208930068493 -0.0066532636553740783 0 0.018479384350428688 -0.0060922443253420208 0 0.018970237580942392 -0.006503238958022281 0 0.018612208930068493 -0.0066532636553740783 0 0.018970237580942392 -0.006503238958022281 0 0.018976531762908241 -0.0068474777837862679 0 0.018612208930068493 -0.0066532636553740783 0 0.019838422784709663 -0.0064967223102977258 0 0.019425721251851404 -0.0071116278846243587 0 0.020475954034413876 -0.0068783369984369994 0 0.019425721251851404 -0.0071116278846243587 0 0.020475954034413876 -0.0068783369984369994 0 0.020388536045212621 -0.0079147193786109332 0 0.020023509355600537 -0.0066737694034933728 0 0.021246593708325795 -0.0073071278964461795 0 0.018970237580942392 -0.006503238958022281 0 0.018976531762908241 -0.0068474777837862679 0 0.019522416055077835 -0.0069415911735878138 0 0.02237392595955677 -0.0075312684475015183 0 0.02230145385454842 -0.0074741877239788207 0 0.022297458138565707 -0.0075668349973739713 0 0.02230145385454842 -0.0074741877239788207 0 0.022197769774780083 -0.0076086205441514712 0 0.022297458138565707 -0.0075668349973739713 0 0.021246593708325795 -0.0073071278964461795 0 0.020557949691279668 -0.0076666549091683562 0 0.018976531762908241 -0.0068474777837862679 0 0.019522416055077835 -0.0069415911735878138 0 0.018899400464968123 -0.0077608107181233602 0 0.020203126637473302 -0.0074118483662639579 0 0.020557949691279668 -0.0076666549091683562 0 0.018434618963876867 -0.0071838303066036604 0 0.018976531762908241 -0.0068474777837862679 0 0.018904809035091282 -0.0078260833940776309 0 0.018434618963876867 -0.0071838303066036604 0 0.018976531762908241 -0.0068474777837862679 0 0.018612208930068493 -0.0066532636553740783 0 0.022197769774780083 -0.0076086205441514712 0 0.022297458138565707 -0.0075668349973739713 0 0.02231688633797093 -0.0076531267808552187 0 0.024116190324943998 -0.0071567091314343441 0 0.021999137312849679 -0.0073405153551623914 0 0.022197769774780083 -0.0076086205441514712 0 0.02231688633797093 -0.0076531267808552187 0 0.022187531880628088 -0.0077162331615208178 0 0.027972346208299505 -0.006867251477494625 0 0.028927182253500713 -0.00634204412078065 0 0.027802868580744725 -0.0062012643596655315 0 0.018958845102211436 -0.0077993211389738954 0 0.018881787471726454 -0.0085700438630885584 0 0.018330122218230639 -0.0086226497212681611 0 0.020557949691279668 -0.0076666549091683562 0 0.019693774545146286 -0.0083685436786565173 0 0.020557949691279668 -0.0076666549091683562 0 0.021999137312849679 -0.0073405153551623914 0 0.018904809035091282 -0.0078260833940776309 0 0.018330122218230639 -0.0086226497212681611 0 0.01808257481609566 -0.0079095981298960318 0 0.018330122218230639 -0.0086226497212681611 0 0.017750527952592382 -0.0085534966926799627 0 0.01808257481609566 -0.0079095981298960318 0 0.017333205789891292 -0.0080751379486647488 0 0.017750527952592382 -0.0085534966926799627 0 0.017086342649033828 -0.0089087929784675297 0 0.017333205789891292 -0.0080751379486647488 0 0.017750527952592382 -0.0085534966926799627 0 0.01808257481609566 -0.0079095981298960318 0 0.017690544522109164 -0.007199458771604543 0 0.017333205789891292 -0.0080751379486647488 0 0.016798128705914819 -0.0073639113345971875 0 0.017690544522109164 -0.007199458771604543 0 0.017333205789891292 -0.0080751379486647488 0 0.01808257481609566 -0.0079095981298960318 0 0.018434618963876867 -0.0071838303066036604 0 0.018904809035091282 -0.0078260833940776309 0 0.01808257481609566 -0.0079095981298960318 0 0.016555806191388911 -0.0081918156212910792 0 0.015696250644222663 -0.0083052602014116409 0 0.015702885711738425 -0.0074398375748028411 0 0.016555806191388911 -0.0081918156212910792 0 0.015702885711738425 -0.0074398375748028411 0 0.016798128705914819 -0.0073639113345971875 0 0.017333205789891292 -0.0080751379486647488 0 0.016555806191388911 -0.0081918156212910792 0 0.016798128705914819 -0.0073639113345971875 0 0.017333205789891292 -0.0080751379486647488 0 0.016555806191388911 -0.0081918156212910792 0 0.017086342649033828 -0.0089087929784675297 0 0.016555806191388911 -0.0081918156212910792 0 0.015696250644222663 -0.0083052602014116409 0 0.016223138331413273 -0.0090237748942752546 0 0.015696250644222663 -0.0083052602014116409 0 0.014864231865515524 -0.0086211472655124983 0 0.015499405225134119 -0.009010841329149864 0 0.015696250644222663 -0.0083052602014116409 0 0.014864231865515524 -0.0086211472655124983 0 0.014599528040828305 -0.0075315022130707978 0 0.014864231865515524 -0.0086211472655124983 0 0.014599528040828305 -0.0075315022130707978 0 0.014130377575841133 -0.0083634109142079523 0 0.015696250644222663 -0.0083052602014116409 0 0.014599528040828305 -0.0075315022130707978 0 0.015702885711738425 -0.0074398375748028411 0 0.015702885711738425 -0.0074398375748028411 0 0.01498821137040109 -0.0066028842489753757 0 0.016236134790769102 -0.0064000789615528643 0 0.014599528040828305 -0.0075315022130707978 0 0.01498821137040109 -0.0066028842489753757 0 0.013781737925698248 -0.0066397809613018737 0 0.014599528040828305 -0.0075315022130707978 0 0.015702885711738425 -0.0074398375748028411 0 0.01498821137040109 -0.0066028842489753757 0 0.01498821137040109 -0.0066028842489753757 0 0.015281543010984165 -0.0057168424990989303 0 0.014044143091643728 -0.0055185766355903632 0 0.01498821137040109 -0.0066028842489753757 0 0.016236134790769102 -0.0064000789615528643 0 0.015281543010984165 -0.0057168424990989303 0 0.015702885711738425 -0.0074398375748028411 0 0.016362416598893006 -0.0066157351337077864 0 0.016798128705914819 -0.0073639113345971875 0 0.016042050685593476 -0.006925043411451449 0 0.016330714667863271 -0.0064483840721147713 0 0.016362416598893006 -0.0066157351337077864 0 0.016798128705914819 -0.0073639113345971875 0 0.017098363448397557 -0.0067367334455980584 0 0.017690544522109164 -0.007199458771604543 0 0.016798128705914819 -0.0073639113345971875 0 0.017098363448397557 -0.0067367334455980584 0 0.017620267047671681 -0.0062639220936206849 0 0.017098363448397557 -0.0067367334455980584 0 0.016886041422505372 -0.0057460826734352316 0 0.016362416598893006 -0.0066157351337077864 0 0.017098363448397557 -0.0067367334455980584 0 0.016886041422505372 -0.0057460826734352316 0 0.016330714667863271 -0.0064483840721147713 0 0.016811824894033985 -0.0056481896973826738 0 0.016236134790769102 -0.0064000789615528643 0 0.016033095440087974 -0.0053777442337682411 0 0.015281543010984165 -0.0057168424990989303 0 0.016236134790769102 -0.0064000789615528643 0 0.016804842149900575 -0.0054753132544420793 0 0.016033095440087974 -0.0053777442337682411 0 0.016804842149900575 -0.0054753132544420793 0 0.016033095440087974 -0.0053777442337682411 0 0.016312731079363488 -0.0044230960931938559 0 0.016033095440087974 -0.0053777442337682411 0 0.016312731079363488 -0.0044230960931938559 0 0.015522362084478259 -0.0048740527469604156 0 0.017106257583720051 -0.005154395545366044 0 0.016811824894033985 -0.0056481896973826738 0 0.017441066719301516 -0.004595538897871565 0 0.016804842149900575 -0.0054753132544420793 0 0.016312731079363488 -0.0044230960931938559 0 0.017441066719301516 -0.004595538897871565 0 0.016312731079363488 -0.0044230960931938559 0 0.017136290778253196 -0.0038986365535929293 0 0.015847942075980351 -0.0031707061215752079 0 0.016312731079363488 -0.0044230960931938559 0 0.016637599419779749 -0.0034119967267005036 0 0.016312731079363488 -0.0044230960931938559 0 0.016637599419779749 -0.0034119967267005036 0 0.017136290778253196 -0.0038986365535929293 0 0.017204913614648577 -0.0031306803418510239 0 0.016637599419779749 -0.0034119967267005036 0 0.017136290778253196 -0.0038986365535929293 0 0.014363630371105593 -0.0036603751210694743 0 0.014778356374906772 -0.0043601205703766256 0 0.013813315269473934 -0.0042952129357089535 0 0.015847942075980351 -0.0031707061215752079 0 0.016312731079363488 -0.0044230960931938559 0 0.015276869728765425 -0.0039719903232783033 0 0.017037817852178859 -0.0060138755578035118 0 0.016075257258833527 -0.0052197630046261628 0 0.014363630371105593 -0.0036603751210694743 0 0.015174985249081185 -0.0037905726172934159 0 0.014778356374906772 -0.0043601205703766256 0 0.015276869728765425 -0.0039719903232783033 0 0.014691163894679411 -0.0047310676255636879 0 0.015522362084478259 -0.0048740527469604156 0 0.016312731079363488 -0.0044230960931938559 0 0.015276869728765425 -0.0039719903232783033 0 0.015522362084478259 -0.0048740527469604156 0 0.014778356374906772 -0.0043601205703766256 0 0.014387415677921699 -0.0049390988609034365 0 0.013813315269473934 -0.0042952129357089535 0 0.016075257258833527 -0.0052197630046261628 0 0.015306793873101814 -0.0053131780394663495 0 0.014691163894679411 -0.0047310676255636879 0 0.015522362084478259 -0.0048740527469604156 0 0.015281543010984165 -0.0057168424990989303 0 0.016033095440087974 -0.0053777442337682411 0 0.015522362084478259 -0.0048740527469604156 0 0.015281543010984165 -0.0057168424990989303 0 0.014691163894679411 -0.0047310676255636879 0 0.015281543010984165 -0.0057168424990989303 0 0.014044143091643728 -0.0055185766355903632 0 0.014044143091643728 -0.0055185766355903632 0 0.012960366782434599 -0.0052946963578576296 0 0.013267639432533023 -0.0059285525798943826 0 0.014044143091643728 -0.0055185766355903632 0 0.013639738619788103 -0.004923545269685403 0 0.012960366782434599 -0.0052946963578576296 0 0.014387415677921699 -0.0049390988609034365 0 0.014044143091643728 -0.0055185766355903632 0 0.013639738619788103 -0.004923545269685403 0 0.015306793873101814 -0.0053131780394663495 0 0.014970593472773084 -0.0055018303592585683 0 0.014387415677921699 -0.0049390988609034365 0 0.013639738619788103 -0.004923545269685403 0 0.013813315269473934 -0.0042952129357089535 0 0.013639738619788103 -0.004923545269685403 0 0.013813315269473934 -0.0042952129357089535 0 0.012938874477978162 -0.0047243363036340164 0 0.01349592101762037 -0.0034830929715589849 0 0.013813315269473934 -0.0042952129357089535 0 0.012880820266630719 -0.0040337633314898947 0 0.013813315269473934 -0.0042952129357089535 0 0.012880820266630719 -0.0040337633314898947 0 0.012938874477978162 -0.0047243363036340164 0 0.012120862761252935 -0.0041407078068658419 0 0.012134038241520069 -0.0044099094174746964 0 0.01247213102878823 -0.0043602601732135558 0 0.012134038241520069 -0.0044099094174746964 0 0.01247213102878823 -0.0043602601732135558 0 0.012221426230488148 -0.0046751234021275663 0 0.013281383567636355 -0.0049140373984677905 0 0.012967312029039441 -0.0049322272449139129 0 0.012880820266630719 -0.0040337633314898947 0 0.012938874477978162 -0.0047243363036340164 0 0.012221426230488148 -0.0046751234021275663 0 0.012938874477978162 -0.0047243363036340164 0 0.012221426230488148 -0.0046751234021275663 0 0.012115804078232102 -0.0050838222113670437 0 0.012960366782434599 -0.0052946963578576296 0 0.012396002973688494 -0.0056169503155602245 0 0.012129642003393438 -0.0050067473559076529 0 0.012457622172899767 -0.005157638194439507 0 0.012096854187294457 -0.0050513739637192195 0 0.012938874477978162 -0.0047243363036340164 0 0.012960366782434599 -0.0052946963578576296 0 0.012115804078232102 -0.0050838222113670437 0 0.013639738619788103 -0.004923545269685403 0 0.012938874477978162 -0.0047243363036340164 0 0.012960366782434599 -0.0052946963578576296 0 0.012960366782434599 -0.0052946963578576296 0 0.012396002973688494 -0.0056169503155602245 0 0.013267639432533023 -0.0059285525798943826 0 0.012396002973688494 -0.0056169503155602245 0 0.012619878590966332 -0.0065046667512744984 0 0.011698858367098242 -0.0057304149410919002 0 0.012396002973688494 -0.0056169503155602245 0 0.012619878590966332 -0.0065046667512744984 0 0.013267639432533023 -0.0059285525798943826 0 0.012619878590966332 -0.0065046667512744984 0 0.013781737925698248 -0.0066397809613018737 0 0.013218685293198851 -0.0072174211431002789 0 0.012619878590966332 -0.0065046667512744984 0 0.013267639432533023 -0.0059285525798943826 0 0.013781737925698248 -0.0066397809613018737 0 0.014044143091643728 -0.0055185766355903632 0 0.013267639432533023 -0.0059285525798943826 0 0.013781737925698248 -0.0066397809613018737 0 0.01498821137040109 -0.0066028842489753757 0 0.014044143091643728 -0.0055185766355903632 0 0.013781737925698248 -0.0066397809613018737 0 0.013780548887099524 -0.0071010661452074594 0 0.013737616529509384 -0.0073800797116647899 0 0.014599528040828305 -0.0075315022130707978 0 0.013781737925698248 -0.0066397809613018737 0 0.013176303422179592 -0.0079130281690786928 0 0.014599528040828305 -0.0075315022130707978 0 0.013176303422179592 -0.0079130281690786928 0 0.014130377575841133 -0.0083634109142079523 0 0.014864231865515524 -0.0086211472655124983 0 0.014130377575841133 -0.0083634109142079523 0 0.014314317832666477 -0.0090161582859934249 0 0.013176303422179592 -0.0079130281690786928 0 0.014130377575841133 -0.0083634109142079523 0 0.013637599165094357 -0.008879821368138063 0 0.013176303422179592 -0.0079130281690786928 0 0.013118376094503559 -0.0089038726228597952 0 0.013637599165094357 -0.008879821368138063 0 0.013176303422179592 -0.0079130281690786928 0 0.012576705300679154 -0.0090888135305524451 0 0.013118376094503559 -0.0089038726228597952 0 0.013737616529509384 -0.0073800797116647899 0 0.014835773014468525 -0.0061553811188288709 0 0.012386466536248841 -0.0074763951085655899 0 0.012670712898694557 -0.0071658697008946393 0 0.012745858091922135 -0.0078851520374220285 0 0.013218685293198851 -0.0072174211431002789 0 0.012670712898694557 -0.0071658697008946393 0 0.012745858091922135 -0.0078851520374220285 0 0.012386466536248841 -0.0074763951085655899 0 0.012193049245309872 -0.0070524539874670163 0 0.012670712898694557 -0.0071658697008946393 0 0.012386466536248841 -0.0074763951085655899 0 0.012193049245309872 -0.0070524539874670163 0 0.012020795328969641 -0.0075036255938906969 0 0.012619878590966332 -0.0065046667512744984 0 0.012193049245309872 -0.0070524539874670163 0 0.012670712898694557 -0.0071658697008946393 0 0.012619878590966332 -0.0065046667512744984 0 0.013218685293198851 -0.0072174211431002789 0 0.012670712898694557 -0.0071658697008946393 0 0.012880117047316673 -0.0071837798747156527 0 0.012778716907604612 -0.0072833969022431458 0 0.01287230535329828 -0.007627867393581139 0 0.012692850989538458 -0.0074191926128715719 0 0.012752809284294803 -0.0071431411853590896 0 0.012367290277434476 -0.0076216928394249647 0 0.012713679328797736 -0.0069842714576355937 0 0.012752809284294803 -0.0071431411853590896 0 0.012367290277434476 -0.0076216928394249647 0 0.012692850989538458 -0.0074191926128715719 0 0.01287230535329828 -0.007627867393581139 0 0.012367290277434476 -0.0076216928394249647 0 0.012778716907604612 -0.0072833969022431458 0 0.012692850989538458 -0.0074191926128715719 0 0.012752809284294803 -0.0071431411853590896 0 0.016325523976366302 -0.0046832578930490996 0 0.016218524904269855 -0.0046853114341645491 0 0.012880117047316673 -0.0071837798747156527 0 0.012778716907604612 -0.0072833969022431458 0 0.012752809284294803 -0.0071431411853590896 0 0.012778716907604612 -0.0072833969022431458 0 0.012692850989538458 -0.0074191926128715719 0 0.01287230535329828 -0.007627867393581139 0 0.014835773014468525 -0.0061553811188288709 0 0.013111035111429794 -0.0078321127307669561 0 0.01215803620495194 -0.0077568365001390365 0 0.012528544708658499 -0.0076742609646468698 0 0.012267685207480023 -0.0081108694284703978 0 0.01215803620495194 -0.0077568365001390365 0 0.012288028921107353 -0.0076085991868880274 0 0.012528544708658499 -0.0076742609646468698 0 0.012386466536248841 -0.0074763951085655899 0 0.012288028921107353 -0.0076085991868880274 0 0.012020795328969641 -0.0075036255938906969 0 0.01215803620495194 -0.0077568365001390365 0 0.012288028921107353 -0.0076085991868880274 0 0.012020795328969641 -0.0075036255938906969 0 0.012386466536248841 -0.0074763951085655899 0 0.012288028921107353 -0.0076085991868880274 0 0.012528544708658499 -0.0076742609646468698 0 0.014491501550105233 -0.0062219048689774858 0 0.014835773014468525 -0.0061553811188288709 0 0.012857036162625174 -0.0094160459317077574 0 0.012576705300679154 -0.0090888135305524451 0 0.013118376094503559 -0.0089038726228597952 0 0.012886513455991372 -0.0071815368238415918 0 0.012713679328797736 -0.0069842714576355937 0 0.012752809284294803 -0.0071431411853590896 0 0.016325523976366302 -0.0046832578930490996 0 0.014835773014468525 -0.0061553811188288709 0 0.012857036162625174 -0.0094160459317077574 0 0.013637599165094357 -0.008879821368138063 0 0.014081150431772611 -0.0097865162686148408 0 0.012857036162625174 -0.0094160459317077574 0 0.013118376094503559 -0.0089038726228597952 0 0.013637599165094357 -0.008879821368138063 0 0.013637599165094357 -0.008879821368138063 0 0.014314317832666477 -0.0090161582859934249 0 0.014081150431772611 -0.0097865162686148408 0 0.014130377575841133 -0.0083634109142079523 0 0.013637599165094357 -0.008879821368138063 0 0.014314317832666477 -0.0090161582859934249 0 0.014314317832666477 -0.0090161582859934249 0 0.014081150431772611 -0.0097865162686148408 0 0.014852653473789633 -0.0094292006799541368 0 0.012880117047316673 -0.0071837798747156527 0 0.013334074041778334 -0.0077273890229433186 0 0.01287230535329828 -0.007627867393581139 0 0.023710938293910012 0.0015169828154871286 0 0.024018302060448079 0.0014513900166099091 0 0.023926688733403034 0.0013324203915774577 0 0.016325523976366302 -0.0046832578930490996 0 0.018663049191551376 -0.0044665403566120331 0 0.016325523976366302 -0.0046832578930490996 0 0.018503951668138126 -0.0033933429410844249 0 0.013334074041778334 -0.0077273890229433186 0 0.013073285043456163 -0.0079703758045905331 0 0.01287230535329828 -0.007627867393581139 0 0.013334074041778334 -0.0077273890229433186 0 0.013447739179639571 -0.0081469176733351984 0 0.013300789778769098 -0.0080126245600333195 0 0.013334074041778334 -0.0077273890229433186 0 0.013073285043456163 -0.0079703758045905331 0 0.013300789778769098 -0.0080126245600333195 0 0.023926688733403034 0.0013324203915774577 0 0.024102643733456521 0.0013446463492518554 0 0.02408756513623931 0.0012949923681216369 0 0.018503951668138126 -0.0033933429410844249 0 0.020778289602388426 -0.0024281974038449557 0 0.024018302060448079 0.0014513900166099091 0 0.023926688733403034 0.0013324203915774577 0 0.024102643733456521 0.0013446463492518554 0 0.023926688733403034 0.0013324203915774577 0 0.02408756513623931 0.0012949923681216369 0 0.024122240832527498 0.0012163572459145172 0 0.023926688733403034 0.0013324203915774577 0 0.024122939005837035 0.00120459419459887 0 0.024122240832527498 0.0012163572459145172 0 0.013334074041778334 -0.0077273890229433186 0 0.013447739179639571 -0.0081469176733351984 0 0.013781099141781827 -0.0082516881705619605 0 0.013447739179639571 -0.0081469176733351984 0 0.013397098348915943 -0.0083660270495564057 0 0.013562733177823727 -0.0083686691152628102 0 0.013447739179639571 -0.0081469176733351984 0 0.013562733177823727 -0.0083686691152628102 0 0.013781099141781827 -0.0082516881705619605 0 0.020778289602388426 -0.0024281974038449557 0 0.020782134439273046 -0.0024139561813688818 0 0.013073285043456163 -0.0079703758045905331 0 0.013259806332606587 -0.0082022884632946009 0 0.012960641049065096 -0.0082903192610852272 0 0.013073285043456163 -0.0079703758045905331 0 0.013300789778769098 -0.0080126245600333195 0 0.013259806332606587 -0.0082022884632946009 0 0.013447739179639571 -0.0081469176733351984 0 0.013300789778769098 -0.0080126245600333195 0 0.013259806332606587 -0.0082022884632946009 0 0.013397098348915943 -0.0083660270495564057 0 0.013259806332606587 -0.0082022884632946009 0 0.013212638161736052 -0.0084851363084935214 0 0.013447739179639571 -0.0081469176733351984 0 0.013397098348915943 -0.0083660270495564057 0 0.013259806332606587 -0.0082022884632946009 0 0.013259806332606587 -0.0082022884632946009 0 0.012960641049065096 -0.0082903192610852272 0 0.013212638161736052 -0.0084851363084935214 0 0.013073285043456163 -0.0079703758045905331 0 0.012651891916237851 -0.0080384959157534623 0 0.012960641049065096 -0.0082903192610852272 0 0.012651891916237851 -0.0080384959157534623 0 0.012960641049065096 -0.0082903192610852272 0 0.012585566207837514 -0.008497869112844704 0 0.013073285043456163 -0.0079703758045905331 0 0.012651891916237851 -0.0080384959157534623 0 0.01287230535329828 -0.007627867393581139 0 0.012651891916237851 -0.0080384959157534623 0 0.01287230535329828 -0.007627867393581139 0 0.012367290277434476 -0.0076216928394249647 0 0.013111035111429794 -0.0078321127307669561 0 0.012419791787409044 -0.0084598523563975438 0 0.012651891916237851 -0.0080384959157534623 0 0.012367290277434476 -0.0076216928394249647 0 0.012029654514952642 -0.0082697797533716703 0 0.012651891916237851 -0.0080384959157534623 0 0.012585566207837514 -0.008497869112844704 0 0.012029654514952642 -0.0082697797533716703 0 0.012252044457537142 -0.0088503225387238805 0 0.012585566207837514 -0.008497869112844704 0 0.012029654514952642 -0.0082697797533716703 0 0.012252044457537142 -0.0088503225387238805 0 0.012585566207837514 -0.008497869112844704 0 0.01269667119544248 -0.0089668242875362743 0 0.012920532886703763 -0.0086090907077405535 0 0.012585566207837514 -0.008497869112844704 0 0.01269667119544248 -0.0089668242875362743 0 0.012920532886703763 -0.0086090907077405535 0 0.01269667119544248 -0.0089668242875362743 0 0.013196129613999645 -0.0088854094067508018 0 0.012960641049065096 -0.0082903192610852272 0 0.012920532886703763 -0.0086090907077405535 0 0.012585566207837514 -0.008497869112844704 0 0.01269667119544248 -0.0089668242875362743 0 0.012312285184111739 -0.0092974375215658812 0 0.012692388916892498 -0.0093733613521392485 0 0.01269667119544248 -0.0089668242875362743 0 0.012692388916892498 -0.0093733613521392485 0 0.012985651430769679 -0.0092306052660975826 0 0.012252044457537142 -0.0088503225387238805 0 0.01269667119544248 -0.0089668242875362743 0 0.012312285184111739 -0.0092974375215658812 0 0.012252044457537142 -0.0088503225387238805 0 0.012312285184111739 -0.0092974375215658812 0 0.011987958554986881 -0.0092092833727695899 0 0.012312285184111739 -0.0092974375215658812 0 0.012390660628018517 -0.0095030595788025748 0 0.011992590151159103 -0.0094108288368659147 0 0.013170223482960543 -0.0052047687136979369 0 0.012814583820619761 -0.0058664054301256693 0 0.012312285184111739 -0.0092974375215658812 0 0.012692388916892498 -0.0093733613521392485 0 0.012458818602714904 -0.009652659292141234 0 0.01334521122874399 -0.006131937540775451 0 0.013170223482960543 -0.0052047687136979369 0 0.012692388916892498 -0.0093733613521392485 0 0.013071156655126591 -0.0097185140195736788 0 0.012985651430769679 -0.0092306052660975826 0 0.012692388916892498 -0.0093733613521392485 0 0.012458818602714904 -0.009652659292141234 0 0.013071156655126591 -0.0097185140195736788 0 0.010554223980325392 0.0017041258123357507 0 0.0090455469970046297 0.0031659742626160051 0 0.01145126509065186 0.0028820270111305519 0 0.013170223482960543 -0.0052047687136979369 0 0.01362876782333414 -0.0035654112190615125 0 0.011887649671450725 -0.0087392286604870747 0 0.011796433438195524 -0.0092478355140588105 0 0.011592214704938883 -0.0082130282870818208 0 0.010554223980325392 0.0017041258123357507 0 0.0090455469970046297 0.0031659742626160051 0 0.01002918854722081 0.00040142474108660771 0 0.013170223482960543 -0.0052047687136979369 0 0.011885733432227952 -0.0042765954724612778 0 0.011978791739318328 -0.0091392134871104043 0 0.011796433438195524 -0.0092478355140588105 0 0.011992590151159103 -0.0094108288368659147 0 0.011887649671450725 -0.0087392286604870747 0 0.011978791739318328 -0.0091392134871104043 0 0.012040535108003682 -0.0086327539112666125 0 0.011887649671450725 -0.0087392286604870747 0 0.011978791739318328 -0.0091392134871104043 0 0.011796433438195524 -0.0092478355140588105 0 0.013943607951102036 0.0025639721388923185 0 0.01145126509065186 0.0028820270111305519 0 0.012698006023826857 0.0011294021776786945 0 0.017135386279966549 -0.0023065858976827366 0 0.01362876782333414 -0.0035654112190615125 0 0.01145126509065186 0.0028820270111305519 0 0.011488392771195051 0.0012955419065098265 0 0.012698006023826857 0.0011294021776786945 0 0.010554223980325392 0.0017041258123357507 0 0.01145126509065186 0.0028820270111305519 0 0.011488392771195051 0.0012955419065098265 0 0.013666445082772632 -0.0097787685958158604 0 0.013071156655126591 -0.0097185140195736788 0 0.013328124242212103 -0.0093263411847403221 0 0.013071156655126591 -0.0097185140195736788 0 0.012985651430769679 -0.0092306052660975826 0 0.013328124242212103 -0.0093263411847403221 0 0.013666445082772632 -0.0097787685958158604 0 0.013328124242212103 -0.0093263411847403221 0 0.01371807927505269 -0.0090194944102389655 0 0.017135386279966549 -0.0023065858976827366 0 0.018826806951106258 -0.0035198547463934447 0 0.013328124242212103 -0.0093263411847403221 0 0.01371807927505269 -0.0090194944102389655 0 0.013196129613999645 -0.0088854094067508018 0 0.01371807927505269 -0.0090194944102389655 0 0.013196129613999645 -0.0088854094067508018 0 0.013501957759586796 -0.0086247348096863009 0 0.012985651430769679 -0.0092306052660975826 0 0.013328124242212103 -0.0093263411847403221 0 0.013196129613999645 -0.0088854094067508018 0 0.01269667119544248 -0.0089668242875362743 0 0.012985651430769679 -0.0092306052660975826 0 0.013196129613999645 -0.0088854094067508018 0 0.012920532886703763 -0.0086090907077405535 0 0.013196129613999645 -0.0088854094067508018 0 0.013212638161736052 -0.0084851363084935214 0 0.013196129613999645 -0.0088854094067508018 0 0.013212638161736052 -0.0084851363084935214 0 0.013501957759586796 -0.0086247348096863009 0 0.013397098348915943 -0.0083660270495564057 0 0.013212638161736052 -0.0084851363084935214 0 0.013501957759586796 -0.0086247348096863009 0 0.012960641049065096 -0.0082903192610852272 0 0.012920532886703763 -0.0086090907077405535 0 0.013212638161736052 -0.0084851363084935214 0 0.020778289602388426 -0.0024281974038449557 0 0.018826806951106258 -0.0035198547463934447 0 0.013781099141781827 -0.0082516881705619605 0 0.01371807927505269 -0.0090194944102389655 0 0.013501957759586796 -0.0086247348096863009 0 0.013397098348915943 -0.0083660270495564057 0 0.013562733177823727 -0.0083686691152628102 0 0.013501957759586796 -0.0086247348096863009 0 0.013562733177823727 -0.0083686691152628102 0 0.013781099141781827 -0.0082516881705619605 0 0.013501957759586796 -0.0086247348096863009 0 0.023651710486340707 0.0018140860691729496 0 0.023603812927207826 0.0011199609131839813 0 0.023951708932047816 0.0014825111315650327 0 0.020778289602388426 -0.0024281974038449557 0 0.02165255152499122 -0.0011251176597142933 0 0.024327272210998323 0.0012002036106315188 0 0.024379352846443988 0.0012068813558334037 0 0.024365864062065042 0.0012266445363992443 0 0.024239020913253775 0.0011655794523017422 0 0.024327272210998323 0.0012002036106315188 0 0.024235771210107098 0.0012257676583051031 0 0.024239020913253775 0.0011655794523017422 0 0.024327272210998323 0.0012002036106315188 0 0.024335377638737558 0.0011793775235652288 0 0.024239020913253775 0.0011655794523017422 0 0.024335377638737558 0.0011793775235652288 0 0.024290300400983594 0.0011303444125934446 0 0.024327272210998323 0.0012002036106315188 0 0.024335377638737558 0.0011793775235652288 0 0.024403364754417418 0.0011946352626256563 0 0.024335377638737558 0.0011793775235652288 0 0.024290300400983594 0.0011303444125934446 0 0.024448554001601477 0.0011878224909799978 0 0.023951708932047816 0.0014825111315650327 0 0.024290300400983594 0.0011303444125934446 0 0.023952558772219176 0.0011350944518057271 0 0.02165255152499122 -0.0011251176597142933 0 0.021980107124017562 -0.00080179410442563956 0 0.024290300400983594 0.0011303444125934446 0 0.023952558772219176 0.0011350944518057271 0 0.024291163575840574 0.00085202692532670044 0 0.024290300400983594 0.0011303444125934446 0 0.024291163575840574 0.00085202692532670044 0 0.024479191098864407 0.001044438116988794 0 0.023603812927207826 0.0011199609131839813 0 0.023951708932047816 0.0014825111315650327 0 0.023952558772219176 0.0011350944518057271 0 0.023603812927207826 0.0011199609131839813 0 0.023952558772219176 0.0011350944518057271 0 0.0238918124560073 0.0007838610106034676 0 0.023533005509802706 0.00042854234880388889 0 0.023603812927207826 0.0011199609131839813 0 0.0238918124560073 0.0007838610106034676 0 0.0238918124560073 0.0007838610106034676 0 0.024291163575840574 0.00085202692532670044 0 0.024135854620640686 0.00032239780513007235 0 0.023952558772219176 0.0011350944518057271 0 0.0238918124560073 0.0007838610106034676 0 0.024291163575840574 0.00085202692532670044 0 0.024135854620640686 0.00032239780513007235 0 0.02467189136648781 0.00039739351428500928 0 0.024543083917858619 -0.00043405986728492805 0 0.024291163575840574 0.00085202692532670044 0 0.024135854620640686 0.00032239780513007235 0 0.02467189136648781 0.00039739351428500928 0 0.022412464739479242 0.0005573846617246169 0 0.024135854620640686 0.00032239780513007235 0 0.023369385037177406 -0.00057275521211870616 0 0.017135386279966549 -0.0023065858976827366 0 0.02132858143578268 -0.0019729595039497242 0 0.023533005509802706 0.00042854234880388889 0 0.0238918124560073 0.0007838610106034676 0 0.024135854620640686 0.00032239780513007235 0 0.026093650355540184 0.00062387044025167344 0 0.026928752649283887 0.00092365400351968789 0 0.025987816550838153 -0.00024457720385950762 0 0.026093650355540184 0.00062387044025167344 0 0.025360946217977565 0.0017342434890331854 0 0.026928752649283887 0.00092365400351968789 0 0.027109818964849056 0.00033894872141533144 0 0.026806015266655804 8.4314870011284918e-05 0 0.02467189136648781 0.00039739351428500928 0 0.02481272618517763 0.00076061752063957897 0 0.025318284380308954 -4.5207591151396574e-05 0 0.025273174735775443 0.001007069651307612 0 0.025275585770449929 0.00057817478578960568 0 0.026093650355540184 0.00062387044025167344 0 0.025360946217977565 0.0017342434890331854 0 0.025318284380308954 -4.5207591151396574e-05 0 0.024291163575840574 0.00085202692532670044 0 0.02481272618517763 0.00076061752063957897 0 0.024479191098864407 0.001044438116988794 0 0.024291163575840574 0.00085202692532670044 0 0.02467189136648781 0.00039739351428500928 0 0.02481272618517763 0.00076061752063957897 0 0.025360946217977565 0.0017342434890331854 0 0.026622685410666862 0.0027629410716322384 0 0.026928752649283887 0.00092365400351968789 0 0.025360946217977565 0.0017342434890331854 0 0.026622685410666862 0.0027629410716322384 0 0.025321176963900936 0.0033990255023071945 0 0.024887443960937197 0.00016788666096679793 0 0.024753394577644774 0.00051935251116505131 0 0.025135524011711843 0.00071457729039887073 0 0.02596318094029422 0.00090286794444286106 0 0.025355772186324458 0.0012024125048615381 0 0.024887443960937197 0.00016788666096679793 0 0.02439532897639678 0.00041397350073639434 0 0.024753394577644774 0.00051935251116505131 0 0.025273174735775443 0.001007069651307612 0 0.025355772186324458 0.0012024125048615381 0 0.02481272618517763 0.00076061752063957897 0 0.024479191098864407 0.001044438116988794 0 0.024572805180342997 0.0011735315965735052 0 0.025355772186324458 0.0012024125048615381 0 0.02531516821795031 0.0012156998585291113 0 0.024290300400983594 0.0011303444125934446 0 0.024479191098864407 0.001044438116988794 0 0.024448554001601477 0.0011878224909799978 0 0.024479191098864407 0.001044438116988794 0 0.024572805180342997 0.0011735315965735052 0 0.024448554001601477 0.0011878224909799978 0 0.024453734714988622 0.0011794293374995386 0 0.024403364754417418 0.0011946352626256563 0 0.024406066055157598 0.0012059513620044709 0 0.02439532897639678 0.00041397350073639434 0 0.02439392973635314 0.00086407853577001386 0 0.024545177117593738 0.00064909561556350114 0 0.025355772186324458 0.0012024125048615381 0 0.025115794633525267 0.0011225449504143345 0 0.024453734714988622 0.0011794293374995386 0 0.024448554001601477 0.0011878224909799978 0 0.024403364754417418 0.0011946352626256563 0 0.024335377638737558 0.0011793775235652288 0 0.024448554001601477 0.0011878224909799978 0 0.024403364754417418 0.0011946352626256563 0 0.02439392973635314 0.00086407853577001386 0 0.024545177117593738 0.00064909561556350114 0 0.024536512441287451 0.00083272072374708452 0 0.024327272210998323 0.0012002036106315188 0 0.024403364754417418 0.0011946352626256563 0 0.024379352846443988 0.0012068813558334037 0 0.024403364754417418 0.0011946352626256563 0 0.024406066055157598 0.0012059513620044709 0 0.024379352846443988 0.0012068813558334037 0 0.024753394577644774 0.00051935251116505131 0 0.024680520798897508 0.00070790978801771049 0 0.024853825407248866 0.00081293781806640662 0 0.024753394577644774 0.00051935251116505131 0 0.024853825407248866 0.00081293781806640662 0 0.025135524011711843 0.00071457729039887073 0 0.02439532897639678 0.00041397350073639434 0 0.024753394577644774 0.00051935251116505131 0 0.024545177117593738 0.00064909561556350114 0 0.024753394577644774 0.00051935251116505131 0 0.024545177117593738 0.00064909561556350114 0 0.024680520798897508 0.00070790978801771049 0 0.024680520798897508 0.00070790978801771049 0 0.024536512441287451 0.00083272072374708452 0 0.024853825407248866 0.00081293781806640662 0 0.024545177117593738 0.00064909561556350114 0 0.024680520798897508 0.00070790978801771049 0 0.024536512441287451 0.00083272072374708452 0 0.024536512441287451 0.00083272072374708452 0 0.024853825407248866 0.00081293781806640662 0 0.025161882534496714 0.0012870464469419672 0 0.024536512441287451 0.00083272072374708452 0 0.024555888713240711 0.0011071788699008086 0 0.024974251625144179 0.0012012824598175021 0 0.024555888713240711 0.0011071788699008086 0 0.024450334306909842 0.0013378017551592795 0 0.024974251625144179 0.0012012824598175021 0 0.025078504674434697 -0.0010983167724966975 0 0.023643329444903428 -0.0030888347646192008 0 0.016485924637704541 -0.010465150827339292 0 0.017396225571953659 -0.010236761546722987 0 0.017663628726758605 -0.010813504550461584 0 0.021053341406222864 -0.0037605563174176499 0 0.023643329444903428 -0.0030888347646192008 0 0.016853012849467067 -0.010060121052971795 0 0.016485924637704541 -0.010465150827339292 0 0.017396225571953659 -0.010236761546722987 0 0.024450334306909842 0.0013378017551592795 0 0.024411950490054863 0.0012397195805423568 0 0.024319491737582133 0.0012960717760340721 0 0.016485924637704541 -0.010465150827339292 0 0.015300727196745897 -0.010133396945494189 0 0.016221163367955871 -0.0099946327692899042 0 0.016853012849467067 -0.010060121052971795 0 0.016485924637704541 -0.010465150827339292 0 0.016221163367955871 -0.0099946327692899042 0 0.02439392973635314 0.00086407853577001386 0 0.024555888713240711 0.0011071788699008086 0 0.024411950490054863 0.0012397195805423568 0 0.024411950490054863 0.0012397195805423568 0 0.024365864062065042 0.0012266445363992443 0 0.024319491737582133 0.0012960717760340721 0 0.024406066055157598 0.0012059513620044709 0 0.024411950490054863 0.0012397195805423568 0 0.024365864062065042 0.0012266445363992443 0 0.025115794633525267 0.0011225449504143345 0 0.025040842051238806 0.0011415239683394728 0 0.024555888713240711 0.0011071788699008086 0 0.024450334306909842 0.0013378017551592795 0 0.024411950490054863 0.0012397195805423568 0 0.02439392973635314 0.00086407853577001386 0 0.024536512441287451 0.00083272072374708452 0 0.024555888713240711 0.0011071788699008086 0 0.024406066055157598 0.0012059513620044709 0 0.024379352846443988 0.0012068813558334037 0 0.024365864062065042 0.0012266445363992443 0 0.024235771210107098 0.0012257676583051031 0 0.024187125878928951 0.0012860579415695651 0 0.024319491737582133 0.0012960717760340721 0 0.024365864062065042 0.0012266445363992443 0 0.024235771210107098 0.0012257676583051031 0 0.024319491737582133 0.0012960717760340721 0 0.024327272210998323 0.0012002036106315188 0 0.024365864062065042 0.0012266445363992443 0 0.024235771210107098 0.0012257676583051031 0 0.024124502832602382 0.001208706379571901 0 0.024122240832527498 0.0012163572459145172 0 0.024235771210107098 0.0012257676583051031 0 0.024124502832602382 0.001208706379571901 0 0.024239020913253775 0.0011655794523017422 0 0.024235771210107098 0.0012257676583051031 0 0.02408756513623931 0.0012949923681216369 0 0.024122240832527498 0.0012163572459145172 0 0.024187125878928951 0.0012860579415695651 0 0.024122240832527498 0.0012163572459145172 0 0.024235771210107098 0.0012257676583051031 0 0.024187125878928951 0.0012860579415695651 0 0.024102643733456521 0.0013446463492518554 0 0.024187125878928951 0.0012860579415695651 0 0.024247707753454386 0.0013787253533177142 0 0.024018302060448079 0.0014513900166099091 0 0.024102643733456521 0.0013446463492518554 0 0.024247707753454386 0.0013787253533177142 0 0.024102643733456521 0.0013446463492518554 0 0.02408756513623931 0.0012949923681216369 0 0.024187125878928951 0.0012860579415695651 0 0.021053341406222864 -0.0037605563174176499 0 0.019829308737775456 -0.0041776672662287746 0 0.024187125878928951 0.0012860579415695651 0 0.024247707753454386 0.0013787253533177142 0 0.024319491737582133 0.0012960717760340721 0 0.024450334306909842 0.0013378017551592795 0 0.024247707753454386 0.0013787253533177142 0 0.024319491737582133 0.0012960717760340721 0 0.015300727196745897 -0.010133396945494189 0 0.015805652641904748 -0.0095784643001582161 0 0.016221163367955871 -0.0099946327692899042 0 0.015300727196745897 -0.010133396945494189 0 0.015805652641904748 -0.0095784643001582161 0 0.014852653473789633 -0.0094292006799541368 0 0.018663049191551376 -0.0044665403566120331 0 0.019829308737775456 -0.0041776672662287746 0 0.014081150431772611 -0.0097865162686148408 0 0.015300727196745897 -0.010133396945494189 0 0.014852653473789633 -0.0094292006799541368 0 0.014864231865515524 -0.0086211472655124983 0 0.014314317832666477 -0.0090161582859934249 0 0.014852653473789633 -0.0094292006799541368 0 0.014864231865515524 -0.0086211472655124983 0 0.014852653473789633 -0.0094292006799541368 0 0.015499405225134119 -0.009010841329149864 0 0.015696250644222663 -0.0083052602014116409 0 0.015499405225134119 -0.009010841329149864 0 0.016223138331413273 -0.0090237748942752546 0 0.015805652641904748 -0.0095784643001582161 0 0.014852653473789633 -0.0094292006799541368 0 0.015499405225134119 -0.009010841329149864 0 0.015805652641904748 -0.0095784643001582161 0 0.015499405225134119 -0.009010841329149864 0 0.016223138331413273 -0.0090237748942752546 0 0.016223138331413273 -0.0090237748942752546 0 0.017086342649033828 -0.0089087929784675297 0 0.016610648634115863 -0.00964337089120244 0 0.016555806191388911 -0.0081918156212910792 0 0.016223138331413273 -0.0090237748942752546 0 0.017086342649033828 -0.0089087929784675297 0 0.017086342649033828 -0.0089087929784675297 0 0.016610648634115863 -0.00964337089120244 0 0.017264814651549169 -0.0097576194558759589 0 0.016853012849467067 -0.010060121052971795 0 0.017264814651549169 -0.0097576194558759589 0 0.017396225571953659 -0.010236761546722987 0 0.016853012849467067 -0.010060121052971795 0 0.016610648634115863 -0.00964337089120244 0 0.017264814651549169 -0.0097576194558759589 0 0.015805652641904748 -0.0095784643001582161 0 0.016610648634115863 -0.00964337089120244 0 0.016221163367955871 -0.0099946327692899042 0 0.016853012849467067 -0.010060121052971795 0 0.016610648634115863 -0.00964337089120244 0 0.016221163367955871 -0.0099946327692899042 0 0.015805652641904748 -0.0095784643001582161 0 0.016223138331413273 -0.0090237748942752546 0 0.016610648634115863 -0.00964337089120244 0 0.018306046905947372 -0.0097170539294208109 0 0.017814433846608396 -0.009148366711551531 0 0.018602409709948142 -0.009187076789522226 0 0.018306046905947372 -0.0097170539294208109 0 0.017832231792602949 -0.0099803415073767866 0 0.017814433846608396 -0.009148366711551531 0 0.018306046905947372 -0.0097170539294208109 0 0.018602409709948142 -0.009187076789522226 0 0.018944358809078032 -0.0098703348102326376 0 0.018306046905947372 -0.0097170539294208109 0 0.018944358809078032 -0.0098703348102326376 0 0.018290743969901012 -0.010346042045365218 0 0.018306046905947372 -0.0097170539294208109 0 0.017832231792602949 -0.0099803415073767866 0 0.018290743969901012 -0.010346042045365218 0 0.017264814651549169 -0.0097576194558759589 0 0.017832231792602949 -0.0099803415073767866 0 0.017814433846608396 -0.009148366711551531 0 0.017264814651549169 -0.0097576194558759589 0 0.017832231792602949 -0.0099803415073767866 0 0.017396225571953659 -0.010236761546722987 0 0.017086342649033828 -0.0089087929784675297 0 0.017264814651549169 -0.0097576194558759589 0 0.017814433846608396 -0.009148366711551531 0 0.017750527952592382 -0.0085534966926799627 0 0.017086342649033828 -0.0089087929784675297 0 0.017814433846608396 -0.009148366711551531 0 0.018330122218230639 -0.0086226497212681611 0 0.017750527952592382 -0.0085534966926799627 0 0.017814433846608396 -0.009148366711551531 0 0.021999137312849679 -0.0073405153551623914 0 0.019267500176750482 -0.008648038180156737 0 0.018881787471726454 -0.0085700438630885584 0 0.018330122218230639 -0.0086226497212681611 0 0.017814433846608396 -0.009148366711551531 0 0.019086054427124022 -0.0084769924679304557 0 0.017814433846608396 -0.009148366711551531 0 0.018602409709948142 -0.009187076789522226 0 0.019086054427124022 -0.0084769924679304557 0 0.018602409709948142 -0.009187076789522226 0 0.018944358809078032 -0.0098703348102326376 0 0.028927182253500713 -0.00634204412078065 0 0.028202042659813343 -0.0056730659633260601 0 0.029028281141363573 -0.0050374593458976978 0 0.021999137312849679 -0.0073405153551623914 0 0.024621708612437326 -0.0063957630178983612 0 0.028927182253500713 -0.00634204412078065 0 0.028202042659813343 -0.0056730659633260601 0 0.027802868580744725 -0.0062012643596655315 0 0.028202042659813343 -0.0056730659633260601 0 0.02856794251662596 -0.0048968296359764999 0 0.027980571475314187 -0.0049314787405095248 0 0.028202042659813343 -0.0056730659633260601 0 0.027980571475314187 -0.0049314787405095248 0 0.027740352254010739 -0.005229181533970945 0 0.026509066997044115 -0.00536539411606036 0 0.024621708612437326 -0.0063957630178983612 0 0.028202042659813343 -0.0056730659633260601 0 0.02856794251662596 -0.0048968296359764999 0 0.029127996349883677 -0.0049511912544302917 0 0.02856794251662596 -0.0048968296359764999 0 0.029127996349883677 -0.0049511912544302917 0 0.029159592787049108 -0.0045909913691146755 0 0.024621708612437326 -0.0063957630178983612 0 0.024725802022370347 -0.0062398509474064978 0 0.02856794251662596 -0.0048968296359764999 0 0.029159592787049108 -0.0045909913691146755 0 0.02838636529747348 -0.00433085695169921 0 0.029159592787049108 -0.0045909913691146755 0 0.029228720655479237 -0.0042734844439451646 0 0.02838636529747348 -0.00433085695169921 0 0.028353494520741318 -0.0043159141828242537 0 0.02889359292089105 -0.0040865781267146028 0 0.029228720655479237 -0.0042734844439451646 0 0.02838636529747348 -0.00433085695169921 0 0.029556413071325255 -0.0037828438313429456 0 0.029124732227757383 -0.0049523538940904879 0 0.029159592787049108 -0.0045909913691146755 0 0.029816446501102711 -0.0043931883085182224 0 0.02856794251662596 -0.0048968296359764999 0 0.027980571475314187 -0.0049314787405095248 0 0.02838636529747348 -0.00433085695169921 0 0.028526243267981859 -0.0041835309394957073 0 0.028024435600713635 -0.0038600141197400418 0 0.028367511232819543 -0.003678107302492815 0 0.028526243267981859 -0.0041835309394957073 0 0.028024435600713635 -0.0038600141197400418 0 0.02783857986892815 -0.0042454314784401278 0 0.028024435600713635 -0.0038600141197400418 0 0.028367511232819543 -0.003678107302492815 0 0.028049953653083784 -0.0034559384337606767 0 0.028526243267981859 -0.0041835309394957073 0 0.028367511232819543 -0.003678107302492815 0 0.02865682994889298 -0.0037431097840690533 0 0.028526243267981859 -0.0041835309394957073 0 0.02865682994889298 -0.0037431097840690533 0 0.028995934177445858 -0.0037231078644198012 0 0.028367511232819543 -0.003678107302492815 0 0.028594307515206904 -0.0035728407637397241 0 0.028528305607897823 -0.0033633568986768496 0 0.028367511232819543 -0.003678107302492815 0 0.02865682994889298 -0.0037431097840690533 0 0.028594307515206904 -0.0035728407637397241 0 0.02865682994889298 -0.0037431097840690533 0 0.028594307515206904 -0.0035728407637397241 0 0.02880283061557988 -0.0035182345053995658 0 0.02864113869209713 -0.0034226845349921678 0 0.028637089054209804 -0.0032440766558548186 0 0.02880283061557988 -0.0035182345053995658 0 0.028594307515206904 -0.0035728407637397241 0 0.02864113869209713 -0.0034226845349921678 0 0.028528305607897823 -0.0033633568986768496 0 0.028594307515206904 -0.0035728407637397241 0 0.02864113869209713 -0.0034226845349921678 0 0.02880283061557988 -0.0035182345053995658 0 0.02864113869209713 -0.0034226845349921678 0 0.028637089054209804 -0.0032440766558548186 0 0.028528305607897823 -0.0033633568986768496 0 0.027150756774608369 -0.0012553786116765396 0 0.027151954993213705 -0.0012793532232352473 0 0.028528305607897823 -0.0033633568986768496 0 0.028286702488488243 -0.0033257335033833792 0 0.028427429817498771 -0.003107543340694852 0 0.028675945050645225 -0.0031932437674968357 0 0.028528305607897823 -0.0033633568986768496 0 0.028427429817498771 -0.003107543340694852 0 0.027150756774608369 -0.0012553786116765396 0 0.027220104411120244 -0.0012921100376982186 0 0.028367511232819543 -0.003678107302492815 0 0.028528305607897823 -0.0033633568986768496 0 0.028286702488488243 -0.0033257335033833792 0 0.028367511232819543 -0.003678107302492815 0 0.028286702488488243 -0.0033257335033833792 0 0.028049953653083784 -0.0034559384337606767 0 0.028286702488488243 -0.0033257335033833792 0 0.028108798150091308 -0.0031215502058868283 0 0.028427429817498771 -0.003107543340694852 0 0.028286702488488243 -0.0033257335033833792 0 0.028108798150091308 -0.0031215502058868283 0 0.028049953653083784 -0.0034559384337606767 0 0.028637089054209804 -0.0032440766558548186 0 0.02880283061557988 -0.0035182345053995658 0 0.029511449185203414 -0.0035549229344866299 0 0.028995934177445858 -0.0037231078644198012 0 0.02880283061557988 -0.0035182345053995658 0 0.029511449185203414 -0.0035549229344866299 0 0.026258841793096815 0.00095007661519653499 0 0.025711667468354023 0.0011186549319804995 0 0.025826109449364865 0.00082142798804842162 0 0.027150756774608369 -0.0012553786116765396 0 0.026337705580157651 -0.0021917403873345323 0 0.028526243267981859 -0.0041835309394957073 0 0.028995934177445858 -0.0037231078644198012 0 0.029556413071325255 -0.0037828438313429456 0 0.028995934177445858 -0.0037231078644198012 0 0.029511449185203414 -0.0035549229344866299 0 0.029556413071325255 -0.0037828438313429456 0 0.02865682994889298 -0.0037431097840690533 0 0.028995934177445858 -0.0037231078644198012 0 0.02880283061557988 -0.0035182345053995658 0 0.025711667468354023 0.0011186549319804995 0 0.025381297039964796 0.00097415197098787781 0 0.025161882534496714 0.0012870464469419672 0 0.029511449185203414 -0.0035549229344866299 0 0.029556413071325255 -0.0037828438313429456 0 0.030480943877868209 -0.0038540775049737889 0 0.026337705580157651 -0.0021917403873345323 0 0.023643329444903428 -0.0030888347646192008 0 0.025711667468354023 0.0011186549319804995 0 0.025381297039964796 0.00097415197098787781 0 0.025516482535107975 0.00077636705927421317 0 0.029556413071325255 -0.0037828438313429456 0 0.029816446501102711 -0.0043931883085182224 0 0.030480943877868209 -0.0038540775049737889 0 0.029228720655479237 -0.0042734844439451646 0 0.029556413071325255 -0.0037828438313429456 0 0.029816446501102711 -0.0043931883085182224 0 0.024621708612437326 -0.0063957630178983612 0 0.023778997757996575 -0.0053103511191083287 0 0.029159592787049108 -0.0045909913691146755 0 0.029228720655479237 -0.0042734844439451646 0 0.029816446501102711 -0.0043931883085182224 0 0.018290743969901012 -0.010346042045365218 0 0.017396225571953659 -0.010236761546722987 0 0.017663628726758605 -0.010813504550461584 0 0.017832231792602949 -0.0099803415073767866 0 0.018290743969901012 -0.010346042045365218 0 0.017396225571953659 -0.010236761546722987 0 0.023778997757996575 -0.0053103511191083287 0 0.023643329444903428 -0.0030888347646192008 0 0.025381297039964796 0.00097415197098787781 0 0.025161882534496714 0.0012870464469419672 0 0.025135524011711843 0.00071457729039887073 0 0.024853825407248866 0.00081293781806640662 0 0.025161882534496714 0.0012870464469419672 0 0.025135524011711843 0.00071457729039887073 0 0.025381297039964796 0.00097415197098787781 0 0.025135524011711843 0.00071457729039887073 0 0.025516482535107975 0.00077636705927421317 0 0.025135524011711843 0.00071457729039887073 0 0.025516482535107975 0.00077636705927421317 0 0.025370270590187961 0.00038673746157016572 0 0.025516482535107975 0.00077636705927421317 0 0.025370270590187961 0.00038673746157016572 0 0.025817254493102973 0.00044045232098005599 0 0.025711667468354023 0.0011186549319804995 0 0.025516482535107975 0.00077636705927421317 0 0.025826109449364865 0.00082142798804842162 0 0.025516482535107975 0.00077636705927421317 0 0.025817254493102973 0.00044045232098005599 0 0.025826109449364865 0.00082142798804842162 0 0.027162000728358771 0.00015218345773607855 0 0.027308145941444675 -0.00058235889070199116 0 0.025370270590187961 0.00038673746157016572 0 0.025377500351819245 -7.2939929396361995e-05 0 0.025817254493102973 0.00044045232098005599 0 0.024887443960937197 0.00016788666096679793 0 0.025135524011711843 0.00071457729039887073 0 0.025370270590187961 0.00038673746157016572 0 0.024887443960937197 0.00016788666096679793 0 0.025370270590187961 0.00038673746157016572 0 0.025377500351819245 -7.2939929396361995e-05 0 0.02596318094029422 0.00090286794444286106 0 0.027162000728358771 0.00015218345773607855 0 0.026622685410666862 0.0027629410716322384 0 0.027940337294985827 0.0021105283261106961 0 0.026928752649283887 0.00092365400351968789 0 0.027162000728358771 0.00015218345773607855 0 0.027109818964849056 0.00033894872141533144 0 0.027162000728358771 0.00015218345773607855 0 0.028216386132900829 -0.0001171988596345587 0 0.030480685794399654 -0.0010991320439999073 0 0.029350163631939322 -0.00053650799514242016 0 0.02958248889837491 -0.0021579721792130704 0 0.028463812283450986 0.00057065452625044706 0 0.02857378455556292 0.00044849528468995925 0 0.02856457894240981 0.00039664428777706561 0 0.028336244021095532 0.0010400404921492325 0 0.028463812283450986 0.00057065452625044706 0 0.02857378455556292 0.00044849528468995925 0 0.028336244021095532 0.0010400404921492325 0 0.028463812283450986 0.00057065452625044706 0 0.027560650145568091 0.00079497683690857854 0 0.028463812283450986 0.00057065452625044706 0 0.027560650145568091 0.00079497683690857854 0 0.027395348626850086 1.5304427507447246e-05 0 0.028214896751946158 -6.9951755663513163e-05 0 0.028216386132900829 -0.0001171988596345587 0 0.028128652875530315 7.1000711806897568e-05 0 0.029350163631939322 -0.00053650799514242016 0 0.02866341073268466 -0.0011680663718713212 0 0.028128652875530315 7.1000711806897568e-05 0 0.02857378455556292 0.00044849528468995925 0 0.02856457894240981 0.00039664428777706561 0 0.029350163631939322 -0.00053650799514242016 0 0.02866341073268466 -0.0011680663718713212 0 0.02958248889837491 -0.0021579721792130704 0 0.028128652875530315 7.1000711806897568e-05 0 0.02866341073268466 -0.0011680663718713212 0 0.027790296178559184 -0.0011855627733767607 0 0.02866341073268466 -0.0011680663718713212 0 0.028435792041591326 -0.0019487252074201506 0 0.027790296178559184 -0.0011855627733767607 0 0.028435792041591326 -0.0019487252074201506 0 0.027948604755131563 -0.0023616736038543757 0 0.027694143681706602 -0.0018757060325380423 0 0.02866341073268466 -0.0011680663718713212 0 0.028435792041591326 -0.0019487252074201506 0 0.02958248889837491 -0.0021579721792130704 0 0.028435792041591326 -0.0019487252074201506 0 0.02958248889837491 -0.0021579721792130704 0 0.028736549640670562 -0.0025509785721204658 0 0.026258841793096815 0.00095007661519653499 0 0.025817254493102973 0.00044045232098005599 0 0.025826109449364865 0.00082142798804842162 0 0.028693745769095752 -0.003187866892862155 0 0.02958248889837491 -0.0021579721792130704 0 0.028736549640670562 -0.0025509785721204658 0 0.027150756774608369 -0.0012553786116765396 0 0.027308145941444675 -0.00058235889070199116 0 0.028310666321328452 -0.0026599388419633026 0 0.027842401916778295 -0.0028507311061232408 0 0.027948604755131563 -0.0023616736038543757 0 0.028435792041591326 -0.0019487252074201506 0 0.028310666321328452 -0.0026599388419633026 0 0.027948604755131563 -0.0023616736038543757 0 0.028435792041591326 -0.0019487252074201506 0 0.028310666321328452 -0.0026599388419633026 0 0.028736549640670562 -0.0025509785721204658 0 0.028310666321328452 -0.0026599388419633026 0 0.028736549640670562 -0.0025509785721204658 0 0.028427429817498771 -0.003107543340694852 0 0.028693745769095752 -0.003187866892862155 0 0.028736549640670562 -0.0025509785721204658 0 0.028427429817498771 -0.003107543340694852 0 0.028108798150091308 -0.0031215502058868283 0 0.028310666321328452 -0.0026599388419633026 0 0.028427429817498771 -0.003107543340694852 0 0.028108798150091308 -0.0031215502058868283 0 0.028310666321328452 -0.0026599388419633026 0 0.027842401916778295 -0.0028507311061232408 0 0.028108798150091308 -0.0031215502058868283 0 0.027842401916778295 -0.0028507311061232408 0 0.027790798305567622 -0.003253253618697929 0 0.027842401916778295 -0.0028507311061232408 0 0.027397296377433263 -0.0030900051257299649 0 0.027790798305567622 -0.003253253618697929 0 0.027842401916778295 -0.0028507311061232408 0 0.027397296377433263 -0.0030900051257299649 0 0.027471055884035235 -0.0024640526954347198 0 0.027842401916778295 -0.0028507311061232408 0 0.027471055884035235 -0.0024640526954347198 0 0.027948604755131563 -0.0023616736038543757 0 0.027397296377433263 -0.0030900051257299649 0 0.026772413691965223 -0.0024684359540913118 0 0.026644862890145629 -0.0031944478201699012 0 0.027397296377433263 -0.0030900051257299649 0 0.027471055884035235 -0.0024640526954347198 0 0.026772413691965223 -0.0024684359540913118 0 0.026772413691965223 -0.0024684359540913118 0 0.026952653746893936 -0.0017141915768647924 0 0.026015861075578267 -0.0022696204830234567 0 0.027471055884035235 -0.0024640526954347198 0 0.026772413691965223 -0.0024684359540913118 0 0.026952653746893936 -0.0017141915768647924 0 0.026952653746893936 -0.0017141915768647924 0 0.027694143681706602 -0.0018757060325380423 0 0.027790296178559184 -0.0011855627733767607 0 0.027471055884035235 -0.0024640526954347198 0 0.027948604755131563 -0.0023616736038543757 0 0.027694143681706602 -0.0018757060325380423 0 0.027471055884035235 -0.0024640526954347198 0 0.026952653746893936 -0.0017141915768647924 0 0.027694143681706602 -0.0018757060325380423 0 0.028435792041591326 -0.0019487252074201506 0 0.027694143681706602 -0.0018757060325380423 0 0.027790296178559184 -0.0011855627733767607 0 0.026952653746893936 -0.0017141915768647924 0 0.027790296178559184 -0.0011855627733767607 0 0.027079006616869974 -0.00074122787509079259 0 0.028128652875530315 7.1000711806897568e-05 0 0.027790296178559184 -0.0011855627733767607 0 0.027079006616869974 -0.00074122787509079259 0 0.026952653746893936 -0.0017141915768647924 0 0.027079006616869974 -0.00074122787509079259 0 0.026052015336355153 -0.0010871639851660576 0 0.027079006616869974 -0.00074122787509079259 0 0.026627084756181585 -0.00022935762213762716 0 0.027264277725270711 0.0004243849021186211 0 0.027079006616869974 -0.00074122787509079259 0 0.026627084756181585 -0.00022935762213762716 0 0.026052015336355153 -0.0010871639851660576 0 0.028128652875530315 7.1000711806897568e-05 0 0.027079006616869974 -0.00074122787509079259 0 0.027264277725270711 0.0004243849021186211 0 0.026627084756181585 -0.00022935762213762716 0 0.026052015336355153 -0.0010871639851660576 0 0.026038478203954916 0.00050842252443479661 0 0.026052015336355153 -0.0010871639851660576 0 0.024999954040349777 -0.0010713206996476959 0 0.026038478203954916 0.00050842252443479661 0 0.024999954040349777 -0.0010713206996476959 0 0.026038478203954916 0.00050842252443479661 0 0.024999957439991245 0.00043027592372241001 0 0.026052015336355153 -0.0010871639851660576 0 0.024999954040349777 -0.0010713206996476959 0 0.026015861075578267 -0.0022696204830234567 0 0.024999954040349777 -0.0010713206996476959 0 0.026015861075578267 -0.0022696204830234567 0 0.024999953941153175 -0.0025729954506437521 0 0.026952653746893936 -0.0017141915768647924 0 0.026052015336355153 -0.0010871639851660576 0 0.026015861075578267 -0.0022696204830234567 0 0.026015861075578267 -0.0022696204830234567 0 0.025809284166281636 -0.0033787958743498802 0 0.026644862890145629 -0.0031944478201699012 0 0.026772413691965223 -0.0024684359540913118 0 0.026015861075578267 -0.0022696204830234567 0 0.026644862890145629 -0.0031944478201699012 0 0.026015861075578267 -0.0022696204830234567 0 0.024999953941153175 -0.0025729954506437521 0 0.025809284166281636 -0.0033787958743498802 0 0.024999953941153175 -0.0025729954506437521 0 0.024999965466114809 -0.0040745194695939796 0 0.025809284166281636 -0.0033787958743498802 0 0.024999965466114809 -0.0040745194695939796 0 0.026099837866979756 -0.004252027585761672 0 0.025809284166281636 -0.0033787958743498802 0 0.024999981629919812 -0.0040746781605876699 0 0.026122524051847583 -0.0043106714184268933 0 0.025606042851509577 -0.0049763342449867685 0 0.025001038496433797 -0.0040748177019494592 0 0.025947456966391075 -0.0042516877814187184 0 0.026099837866979756 -0.004252027585761672 0 0.026459403219391189 -0.0037410330906143497 0 0.025809284166281636 -0.0033787958743498802 0 0.026459403219391189 -0.0037410330906143497 0 0.025809284166281636 -0.0033787958743498802 0 0.026644862890145629 -0.0031944478201699012 0 0.026644862890145629 -0.0031944478201699012 0 0.02695772143504958 -0.0037306830405518538 0 0.027237303193675715 -0.003487623080453672 0 0.027397296377433263 -0.0030900051257299649 0 0.026644862890145629 -0.0031944478201699012 0 0.027237303193675715 -0.003487623080453672 0 0.02695772143504958 -0.0037306830405518538 0 0.027237303193675715 -0.003487623080453672 0 0.027419309495737062 -0.004042520038495135 0 0.026459403219391189 -0.0037410330906143497 0 0.026644862890145629 -0.0031944478201699012 0 0.02695772143504958 -0.0037306830405518538 0 0.026459403219391189 -0.0037410330906143497 0 0.02695772143504958 -0.0037306830405518538 0 0.026914900902504004 -0.0040945861980471523 0 0.028049953653083784 -0.0034559384337606767 0 0.027790798305567622 -0.003253253618697929 0 0.027643379006212828 -0.0036285565180809282 0 0.028108798150091308 -0.0031215502058868283 0 0.028049953653083784 -0.0034559384337606767 0 0.027790798305567622 -0.003253253618697929 0 0.027397296377433263 -0.0030900051257299649 0 0.027790798305567622 -0.003253253618697929 0 0.027643379006212828 -0.0036285565180809282 0 0.027397296377433263 -0.0030900051257299649 0 0.027237303193675715 -0.003487623080453672 0 0.027643379006212828 -0.0036285565180809282 0 0.027237303193675715 -0.003487623080453672 0 0.027643379006212828 -0.0036285565180809282 0 0.027419309495737062 -0.004042520038495135 0 0.027643379006212828 -0.0036285565180809282 0 0.027726663105053919 -0.0039431288176971311 0 0.027419309495737062 -0.004042520038495135 0 0.028024435600713635 -0.0038600141197400418 0 0.028049953653083784 -0.0034559384337606767 0 0.027643379006212828 -0.0036285565180809282 0 0.028024435600713635 -0.0038600141197400418 0 0.027643379006212828 -0.0036285565180809282 0 0.027726663105053919 -0.0039431288176971311 0 0.027980571475314187 -0.0049314787405095248 0 0.02838636529747348 -0.00433085695169921 0 0.027296396831413643 -0.0048302241050355724 0 0.028353494520741318 -0.0043159141828242537 0 0.027434772604687671 -0.0047080897596726463 0 0.028526243267981859 -0.0041835309394957073 0 0.02783857986892815 -0.0042454314784401278 0 0.027378329503701657 -0.0047034099617979377 0 0.02783857986892815 -0.0042454314784401278 0 0.027726663105053919 -0.0039431288176971311 0 0.027419309495737062 -0.004042520038495135 0 0.028024435600713635 -0.0038600141197400418 0 0.02783857986892815 -0.0042454314784401278 0 0.027726663105053919 -0.0039431288176971311 0 0.02783857986892815 -0.0042454314784401278 0 0.027419309495737062 -0.004042520038495135 0 0.027483063802537695 -0.0043737549177314738 0 0.027419309495737062 -0.004042520038495135 0 0.027345808999831387 -0.0042738309816047013 0 0.027483063802537695 -0.0043737549177314738 0 0.02783857986892815 -0.0042454314784401278 0 0.027483063802537695 -0.0043737549177314738 0 0.027378329503701657 -0.0047034099617979377 0 0.027345808999831387 -0.0042738309816047013 0 0.027483063802537695 -0.0043737549177314738 0 0.027240974974238594 -0.0044891015926870571 0 0.027483063802537695 -0.0043737549177314738 0 0.027240974974238594 -0.0044891015926870571 0 0.027378329503701657 -0.0047034099617979377 0 0.026099837866979756 -0.004252027585761672 0 0.026459403219391189 -0.0037410330906143497 0 0.026914900902504004 -0.0040945861980471523 0 0.025947456966391075 -0.0042516877814187184 0 0.026468877816617675 -0.0043491463180709341 0 0.026122524051847583 -0.0043106714184268933 0 0.027240974974238594 -0.0044891015926870571 0 0.026706594001583546 -0.0046923161171053525 0 0.026099837866979756 -0.004252027585761672 0 0.026914900902504004 -0.0040945861980471523 0 0.027240974974238594 -0.0044891015926870571 0 0.027419309495737062 -0.004042520038495135 0 0.027345808999831387 -0.0042738309816047013 0 0.026914900902504004 -0.0040945861980471523 0 0.02695772143504958 -0.0037306830405518538 0 0.027419309495737062 -0.004042520038495135 0 0.026914900902504004 -0.0040945861980471523 0 0.027240974974238594 -0.0044891015926870571 0 0.026706594001583546 -0.0046923161171053525 0 0.027378329503701657 -0.0047034099617979377 0 0.027345808999831387 -0.0042738309816047013 0 0.026914900902504004 -0.0040945861980471523 0 0.027240974974238594 -0.0044891015926870571 0 0.026706594001583546 -0.0046923161171053525 0 0.027378329503701657 -0.0047034099617979377 0 0.02621513069806506 -0.0052429836006002827 0 0.027434772604687671 -0.0047080897596726463 0 0.026888751498211919 -0.0049392633782632664 0 0.026940112082007694 -0.0054683320801052577 0 0.027296396831413643 -0.0048302241050355724 0 0.02621513069806506 -0.0052429836006002827 0 0.028202042659813343 -0.0056730659633260601 0 0.027487958635032193 -0.0054925240089700872 0 0.027740352254010739 -0.005229181533970945 0 0.027980571475314187 -0.0049314787405095248 0 0.027296396831413643 -0.0048302241050355724 0 0.027740352254010739 -0.005229181533970945 0 0.026940112082007694 -0.0054683320801052577 0 0.027296396831413643 -0.0048302241050355724 0 0.027487958635032193 -0.0054925240089700872 0 0.027296396831413643 -0.0048302241050355724 0 0.027487958635032193 -0.0054925240089700872 0 0.027740352254010739 -0.005229181533970945 0 0.028202042659813343 -0.0056730659633260601 0 0.027487958635032193 -0.0054925240089700872 0 0.027802868580744725 -0.0062012643596655315 0 0.027487958635032193 -0.0054925240089700872 0 0.027802868580744725 -0.0062012643596655315 0 0.027115417576201839 -0.006019674398550866 0 0.026940112082007694 -0.0054683320801052577 0 0.026491324447767972 -0.0058836597648687398 0 0.02621513069806506 -0.0052429836006002827 0 0.026940112082007694 -0.0054683320801052577 0 0.027115417576201839 -0.006019674398550866 0 0.026491324447767972 -0.0058836597648687398 0 0.026940112082007694 -0.0054683320801052577 0 0.027487958635032193 -0.0054925240089700872 0 0.027115417576201839 -0.006019674398550866 0 0.026683539006690762 -0.0065247748021114585 0 0.027115417576201839 -0.006019674398550866 0 0.026491324447767972 -0.0058836597648687398 0 0.026077703976958071 -0.0064408903055045283 0 0.026491324447767972 -0.0058836597648687398 0 0.025722711328927294 -0.0058026402367083894 0 0.026491324447767972 -0.0058836597648687398 0 0.025722711328927294 -0.0058026402367083894 0 0.02621513069806506 -0.0052429836006002827 0 0.02499998203971384 -0.0069018988606794817 0 0.024999975813920026 -0.0054882800224169623 0 0.025722711328927294 -0.0058026402367083894 0 0.024999975813920026 -0.0054882800224169623 0 0.025722711328927294 -0.0058026402367083894 0 0.025606042851509577 -0.0049763342449867685 0 0.024999981629919812 -0.0040746781605876699 0 0.024999975813920026 -0.0054882800224169623 0 0.025606042851509577 -0.0049763342449867685 0 0.026122524051847583 -0.0043106714184268933 0 0.026706594001583546 -0.0046923161171053525 0 0.02621513069806506 -0.0052429836006002827 0 0.026122524051847583 -0.0043106714184268933 0 0.025606042851509577 -0.0049763342449867685 0 0.02621513069806506 -0.0052429836006002827 0 0.025722711328927294 -0.0058026402367083894 0 0.025606042851509577 -0.0049763342449867685 0 0.02621513069806506 -0.0052429836006002827 0 0.001085615742133633 -0.0065310345005258393 0 0.0010519167931934842 -0.0059382987207064657 0 0.0016380465603762068 -0.0066329991809823729 0 0.0017083505845490227 -0.0066370095549555313 0 0.0012172094233159634 -0.0063858374856047683 0 0.0016968930170464791 -0.0071499282947510082 0 0.0013259932309274663 -0.0063247371647978338 0 0.0016796012270675295 -0.0069382841218476573 0 0.001085615742133633 -0.0065310345005258393 0 0.00085997004237971133 -0.0061560296375757079 0 0.0010519167931934842 -0.0059382987207064657 0 0.001085615742133633 -0.0065310345005258393 0 0.00051400083370669203 -0.0065716336498142843 0 0.00085997004237971133 -0.0061560296375757079 0 0.00085997004237971133 -0.0061560296375757079 0 0.00082582818794724698 -0.0059582782996076807 0 0.0010519167931934842 -0.0059382987207064657 0 0.00085997004237971133 -0.0061560296375757079 0 0.00082582818794724698 -0.0059582782996076807 0 0.00055698521019625262 -0.005994927711760442 0 0.00082582818794724698 -0.0059582782996076807 0 0.0010519167931934842 -0.0059382987207064657 0 0.00082921946094902132 -0.0057536319856399485 0 0.00082582818794724698 -0.0059582782996076807 0 0.00055698521019625262 -0.005994927711760442 0 0.00069503246130226293 -0.0058983326240241649 0 0.0017083505845490227 -0.0066370095549555313 0 0.0012106020300374136 -0.0061955485691350771 0 0.0022412926759207237 -0.0064841681637154008 0 0.0017083505845490227 -0.0066370095549555313 0 0.0012106020300374136 -0.0061955485691350771 0 0.0012172094233159634 -0.0063858374856047683 0 0.0012106020300374136 -0.0061955485691350771 0 0.0022412926759207237 -0.0064841681637154008 0 0.0022555601632999389 -0.0057357863606032041 0 0.0022412926759207237 -0.0064841681637154008 0 0.0028333437727057573 -0.0068706869817961027 0 0.0029535505131778744 -0.0063879602629263081 0 0.0022412926759207237 -0.0064841681637154008 0 0.0022555601632999389 -0.0057357863606032041 0 0.0029535505131778744 -0.0063879602629263081 0 0.0028333437727057573 -0.0068706869817961027 0 0.0021590241437445712 -0.0069643235531050354 0 0.0025850953429875055 -0.0072111792832928994 0 0.0022412926759207237 -0.0064841681637154008 0 0.0028333437727057573 -0.0068706869817961027 0 0.0021590241437445712 -0.0069643235531050354 0 0.0017083505845490227 -0.0066370095549555313 0 0.0022412926759207237 -0.0064841681637154008 0 0.0021590241437445712 -0.0069643235531050354 0 0.0017083505845490227 -0.0066370095549555313 0 0.0021590241437445712 -0.0069643235531050354 0 0.0016968930170464791 -0.0071499282947510082 0 0.0021590241437445712 -0.0069643235531050354 0 0.0021446505275974212 -0.0078307019700909978 0 0.0016968930170464791 -0.0071499282947510082 0 0.0021590241437445712 -0.0069643235531050354 0 0.0025850953429875055 -0.0072111792832928994 0 0.0021446505275974212 -0.0078307019700909978 0 0.0020544204768383331 -0.0075986023356527611 0 0.0016796012270675295 -0.0069382841218476573 0 0.0025850953429875055 -0.0072111792832928994 0 0.0026214892898269574 -0.0076318972326481918 0 0.003311078930771867 -0.0071665731173953763 0 0.0025850953429875055 -0.0072111792832928994 0 0.0026214892898269574 -0.0076318972326481918 0 0.0021446505275974212 -0.0078307019700909978 0 0.0026214892898269574 -0.0076318972326481918 0 0.0026689572045525412 -0.0080405490577117236 0 0.0029304427836531672 -0.0079140366826282605 0 0.0026214892898269574 -0.0076318972326481918 0 0.0026689572045525412 -0.0080405490577117236 0 0.0021446505275974212 -0.0078307019700909978 0 0.0022052866373691777 -0.0076005346988620463 0 0.001718194939426777 -0.0078850494861220678 0 0.001416973307356484 -0.0073032735304056663 0 0.001718194939426777 -0.0078850494861220678 0 0.001416973307356484 -0.0073032735304056663 0 0.0012189510695305827 -0.0079675309064384248 0 0.001085615742133633 -0.0065310345005258393 0 0.001416973307356484 -0.0073032735304056663 0 0.0016380465603762068 -0.0066329991809823729 0 0.0022052866373691777 -0.0076005346988620463 0 0.001416973307356484 -0.0073032735304056663 0 0.0016380465603762068 -0.0066329991809823729 0 0.001085615742133633 -0.0065310345005258393 0 0.001416973307356484 -0.0073032735304056663 0 0.00086000682298098075 -0.0070128270923834977 0 0.00051400083370669203 -0.0065716336498142843 0 0.00086000682298098075 -0.0070128270923834977 0 0.00022619195403160826 -0.0070446275543319175 0 0.001085615742133633 -0.0065310345005258393 0 0.00051400083370669203 -0.0065716336498142843 0 0.00086000682298098075 -0.0070128270923834977 0 0.001416973307356484 -0.0073032735304056663 0 0.00086000682298098075 -0.0070128270923834977 0 0.00078275244813746545 -0.0075382176461296036 0 0.00086000682298098075 -0.0070128270923834977 0 0.00078275244813746545 -0.0075382176461296036 0 0.00022619195403160826 -0.0070446275543319175 0 0.001416973307356484 -0.0073032735304056663 0 0.00078275244813746545 -0.0075382176461296036 0 0.0012189510695305827 -0.0079675309064384248 0 0.00078275244813746545 -0.0075382176461296036 0 0.0012189510695305827 -0.0079675309064384248 0 0.00055740068376826856 -0.0081905379477093098 0 0.00078275244813746545 -0.0075382176461296036 0 0.00055740068376826856 -0.0081905379477093098 0 9.2425269638997406e-05 -0.007827908841370728 0 9.2425269638997406e-05 -0.007827908841370728 0 8.4713326575098968e-05 -0.0085597602053523805 0 -0.00034373932256956207 -0.0083097655083088726 0 0.00055740068376826856 -0.0081905379477093098 0 9.2425269638997406e-05 -0.007827908841370728 0 8.4713326575098968e-05 -0.0085597602053523805 0 0.00078275244813746545 -0.0075382176461296036 0 9.2425269638997406e-05 -0.007827908841370728 0 0.00022619195403160826 -0.0070446275543319175 0 9.2425269638997406e-05 -0.007827908841370728 0 -0.00075502175816378895 -0.0079451531274603946 0 -0.00047154682885990057 -0.0072483376172053811 0 9.2425269638997406e-05 -0.007827908841370728 0 -0.00075502175816378895 -0.0079451531274603946 0 -0.00034373932256956207 -0.0083097655083088726 0 -0.00075502175816378895 -0.0079451531274603946 0 -0.0012293813267566002 -0.0073494740797955095 0 -0.001736748806352856 -0.0084037398981023914 0 -0.00075502175816378895 -0.0079451531274603946 0 -0.001736748806352856 -0.0084037398981023914 0 -0.0008926801224627219 -0.0085564085418841779 0 -0.00075502175816378895 -0.0079451531274603946 0 -0.0008926801224627219 -0.0085564085418841779 0 -0.00034373932256956207 -0.0083097655083088726 0 -0.00075502175816378895 -0.0079451531274603946 0 -0.0012293813267566002 -0.0073494740797955095 0 -0.00047154682885990057 -0.0072483376172053811 0 -0.0012293813267566002 -0.0073494740797955095 0 -0.0018718677466328464 -0.0068002128908056627 0 -0.00057148802101354094 -0.0061169547037233443 0 -0.0012293813267566002 -0.0073494740797955095 0 -0.00047154682885990057 -0.0072483376172053811 0 -0.00057148802101354094 -0.0061169547037233443 0 0.00051400083370669203 -0.0065716336498142843 0 0.00022619195403160826 -0.0070446275543319175 0 -0.00057148802101354094 -0.0061169547037233443 0 0.00022619195403160826 -0.0070446275543319175 0 -0.00047154682885990057 -0.0072483376172053811 0 -0.00057148802101354094 -0.0061169547037233443 0 9.2425269638997406e-05 -0.007827908841370728 0 0.00022619195403160826 -0.0070446275543319175 0 -0.00047154682885990057 -0.0072483376172053811 0 -0.0035339679274649853 -0.0084919160371378487 0 -0.0024097977489946415 -0.0080270729232850939 0 -0.001736748806352856 -0.0084037398981023914 0 -0.0035339679274649853 -0.0084919160371378487 0 -0.0030321734343037648 -0.007931546066965927 0 -0.0024097977489946415 -0.0080270729232850939 0 -0.0035263754103766472 -0.00762811376667145 0 -0.0030321734343037648 -0.007931546066965927 0 -0.0026684323253264061 -0.0075819216219210799 0 -0.0035339679274649853 -0.0084919160371378487 0 -0.0035263754103766472 -0.00762811376667145 0 -0.0030321734343037648 -0.007931546066965927 0 -0.0030321734343037648 -0.007931546066965927 0 -0.0026684323253264061 -0.0075819216219210799 0 -0.0024097977489946415 -0.0080270729232850939 0 -0.0012293813267566002 -0.0073494740797955095 0 -0.0019781935352580259 -0.0075090228809511165 0 -0.001736748806352856 -0.0084037398981023914 0 -0.0026684323253264061 -0.0075819216219210799 0 -0.0019781935352580259 -0.0075090228809511165 0 -0.0024097977489946415 -0.0080270729232850939 0 -0.0019781935352580259 -0.0075090228809511165 0 -0.0024097977489946415 -0.0080270729232850939 0 -0.001736748806352856 -0.0084037398981023914 0 -0.0012293813267566002 -0.0073494740797955095 0 -0.0019781935352580259 -0.0075090228809511165 0 -0.0018718677466328464 -0.0068002128908056627 0 -0.0018718677466328464 -0.0068002128908056627 0 -0.0023347360691010886 -0.0067615243365855377 0 -0.0024090553642286865 -0.007093725378772048 0 -0.0018718677466328464 -0.0068002128908056627 0 -0.0023102428572773178 -0.0063384876566252172 0 -0.0023327393419180849 -0.0064400043283676309 0 -0.0018718677466328464 -0.0068002128908056627 0 -0.0023347360691010886 -0.0067615243365855377 0 -0.0023327393419180849 -0.0064400043283676309 0 -0.0024809879527179662 -0.006606233546446765 0 -0.0023347360691010886 -0.0067615243365855377 0 -0.0023327393419180849 -0.0064400043283676309 0 -0.0026684323253264061 -0.0075819216219210799 0 -0.0019781935352580259 -0.0075090228809511165 0 -0.0024090553642286865 -0.007093725378772048 0 -0.0019781935352580259 -0.0075090228809511165 0 -0.0018718677466328464 -0.0068002128908056627 0 -0.0024090553642286865 -0.007093725378772048 0 -0.0038461389795517963 -0.0067379179019238589 0 -0.0035263754103766472 -0.00762811376667145 0 -0.0030275651637340761 -0.0071478548359652115 0 -0.003391113671336694 -0.0070804285328054054 0 -0.0018573735588492406 -0.0068478061206284366 0 -0.0038461389795517963 -0.0067379179019238589 0 -0.0027387262977965087 -0.0067789063008513563 0 -0.0023185294179531935 -0.0063274572568642771 0 -0.0038461389795517963 -0.0067379179019238589 0 -0.0027387262977965087 -0.0067789063008513563 0 -0.0030275651637340761 -0.0071478548359652115 0 -0.0026684323253264061 -0.0075819216219210799 0 -0.0024090553642286865 -0.007093725378772048 0 -0.0030275651637340761 -0.0071478548359652115 0 -0.0024090553642286865 -0.007093725378772048 0 -0.0027387262977965087 -0.0067789063008513563 0 -0.0030275651637340761 -0.0071478548359652115 0 -0.0023347360691010886 -0.0067615243365855377 0 -0.0024090553642286865 -0.007093725378772048 0 -0.0027387262977965087 -0.0067789063008513563 0 -0.0024809879527179662 -0.006606233546446765 0 -0.0027387262977965087 -0.0067789063008513563 0 -0.0023185294179531935 -0.0063274572568642771 0 -0.0024809879527179662 -0.006606233546446765 0 -0.0023347360691010886 -0.0067615243365855377 0 -0.0027387262977965087 -0.0067789063008513563 0 -0.0035263754103766472 -0.00762811376667145 0 -0.0026684323253264061 -0.0075819216219210799 0 -0.0030275651637340761 -0.0071478548359652115 0 -0.0040121540845356211 -0.0074438471692026675 0 -0.0033727541918298167 -0.0068097339963588462 0 -0.0028096752629614241 -0.0072848098565834619 0 -0.0033727541918298167 -0.0068097339963588462 0 -0.0028096752629614241 -0.0072848098565834619 0 -0.0028442055019906802 -0.0066424336232916931 0 -0.00015325030913301447 -0.0064327664987921382 0 6.8026116717168227e-05 -0.0062093420560551029 0 -6.571259581545284e-05 -0.0059796971885395442 0 -0.00015325030913301447 -0.0064327664987921382 0 6.8026116717168227e-05 -0.0062093420560551029 0 0.0003382782528696811 -0.0063333829889786804 0 -0.0018718677466328464 -0.0068002128908056627 0 -0.0023102428572773178 -0.0063384876566252172 0 -0.00057148802101354094 -0.0061169547037233443 0 -0.0018573735588492406 -0.0068478061206284366 0 -0.0014926416581439797 -0.0061558420360954746 0 -0.0024809879527179662 -0.006606233546446765 0 -0.0023185294179531935 -0.0063274572568642771 0 -0.0023327393419180849 -0.0064400043283676309 0 -0.0018573735588492406 -0.0068478061206284366 0 -0.0018576983773979832 -0.0068464125202559066 0 -0.0028096752629614241 -0.0072848098565834619 0 -0.0026086905190873593 -0.0061813592436563243 0 -0.0028442055019906802 -0.0066424336232916931 0 6.8026116717168227e-05 -0.0062093420560551029 0 -6.571259581545284e-05 -0.0059796971885395442 0 0.00019571686406916157 -0.0060215719446909495 0 -0.0026086905190873593 -0.0061813592436563243 0 -0.0027791981266710865 -0.006388547326421596 0 -0.0027765545454060282 -0.0061620447087641092 0 -0.0026086905190873593 -0.0061813592436563243 0 -0.0028442055019906802 -0.0066424336232916931 0 -0.0027791981266710865 -0.006388547326421596 0 -0.0040906789716823417 -0.0063871673893954655 0 -0.0033727541918298167 -0.0068097339963588462 0 -0.0038077767737469083 -0.0057892558782468538 0 -0.003605230818045342 -0.0064264346555177486 0 -0.0036996665058540959 -0.0061945577350670218 0 -0.0033727541918298167 -0.0068097339963588462 0 -0.0027765545454060282 -0.0061620447087641092 0 -0.0034533540366691031 -0.0058033265333963021 0 -0.0033727541918298167 -0.0068097339963588462 0 -0.0027791981266710865 -0.006388547326421596 0 -0.0027765545454060282 -0.0061620447087641092 0 -0.0033727541918298167 -0.0068097339963588462 0 -0.0028442055019906802 -0.0066424336232916931 0 -0.0027791981266710865 -0.006388547326421596 0 0.00085997004237971133 -0.0061560296375757079 0 0.0003382782528696811 -0.0063333829889786804 0 0.00055698521019625262 -0.005994927711760442 0 0.00051400083370669203 -0.0065716336498142843 0 0.00085997004237971133 -0.0061560296375757079 0 -0.00057148802101354094 -0.0061169547037233443 0 0.00017415011029100124 -0.0063070912398684878 0 -0.00039494080749587023 -0.0064390921331378909 0 -0.0018573735588492406 -0.0068478061206284366 0 -0.00039494080749587023 -0.0064390921331378909 0 6.8026116717168227e-05 -0.0062093420560551029 0 0.0003382782528696811 -0.0063333829889786804 0 0.00019571686406916157 -0.0060215719446909495 0 0.00019571686406916157 -0.0060215719446909495 0 0.00055698521019625262 -0.005994927711760442 0 0.00033580566071867818 -0.0058082850283382717 0 0.0003382782528696811 -0.0063333829889786804 0 0.00019571686406916157 -0.0060215719446909495 0 0.00055698521019625262 -0.005994927711760442 0 -6.571259581545284e-05 -0.0059796971885395442 0 0.00019571686406916157 -0.0060215719446909495 0 0.00012757703475859954 -0.0058013735103334936 0 0.00059272526214597138 -0.0057936745015231125 0 0.00049097727047595747 -0.0055974290196617593 0 0.00082921946094902132 -0.0057536319856399485 0 0.00055698521019625262 -0.005994927711760442 0 0.00059272526214597138 -0.0057936745015231125 0 0.00069503246130226293 -0.0058983326240241649 0 0.00059272526214597138 -0.0057936745015231125 0 0.00033580566071867818 -0.0058082850283382717 0 0.00049097727047595747 -0.0055974290196617593 0 0.00055698521019625262 -0.005994927711760442 0 0.00059272526214597138 -0.0057936745015231125 0 0.00033580566071867818 -0.0058082850283382717 0 0.00019571686406916157 -0.0060215719446909495 0 0.00033580566071867818 -0.0058082850283382717 0 0.00012757703475859954 -0.0058013735103334936 0 0.00033580566071867818 -0.0058082850283382717 0 0.00012757703475859954 -0.0058013735103334936 0 0.00021625140407406524 -0.0056261525464223515 0 0.00021625140407406524 -0.0056261525464223515 0 -3.6836163358929192e-05 -0.0055703502362429705 0 0.00021664994450028508 -0.0053866417457154071 0 0.00012757703475859954 -0.0058013735103334936 0 0.00021625140407406524 -0.0056261525464223515 0 -3.6836163358929192e-05 -0.0055703502362429705 0 0.00021625140407406524 -0.0056261525464223515 0 0.00049097727047595747 -0.0055974290196617593 0 0.00021664994450028508 -0.0053866417457154071 0 0.00049097727047595747 -0.0055974290196617593 0 0.00054228609973734274 -0.0052822195277924784 0 0.00085110490822657868 -0.0054412980234309722 0 0.00033580566071867818 -0.0058082850283382717 0 0.00021625140407406524 -0.0056261525464223515 0 0.00049097727047595747 -0.0055974290196617593 0 -0.0027844122639302123 -0.0059657128833570791 0 -0.0026136795557707686 -0.0060638022732323396 0 -0.0027494567739836493 -0.0061235118091534585 0 -0.0027765545454060282 -0.0061620447087641092 0 -0.0026136795557707686 -0.0060638022732323396 0 -0.0027494567739836493 -0.0061235118091534585 0 -0.0034658989177447476 -0.0062632272198217395 0 -0.0036996665058540959 -0.0061945577350670218 0 -0.0014926416581439797 -0.0061558420360954746 0 -0.0012531561937104249 -0.0056347340328165713 0 -0.0026086905190873593 -0.0061813592436563243 0 -0.0027765545454060282 -0.0061620447087641092 0 -0.0026136795557707686 -0.0060638022732323396 0 -0.0026086905190873593 -0.0061813592436563243 0 -0.0026136795557707686 -0.0060638022732323396 0 -0.0023384948965222436 -0.0060023826556847909 0 -6.571259581545284e-05 -0.0059796971885395442 0 0.00012757703475859954 -0.0058013735103334936 0 -3.6836163358929192e-05 -0.0055703502362429705 0 -0.0026136795557707686 -0.0060638022732323396 0 -0.0023384948965222436 -0.0060023826556847909 0 -0.0026315865747577527 -0.0058948987728850034 0 -0.0027844122639302123 -0.0059657128833570791 0 -0.0026136795557707686 -0.0060638022732323396 0 -0.0026315865747577527 -0.0058948987728850034 0 -0.0028530927899404167 -0.0057293850664372863 0 -0.0026315865747577527 -0.0058948987728850034 0 -0.0025465464269696682 -0.0056596954417111349 0 -0.0037077617263687876 -0.0056159873452169334 0 -0.0033082674031594526 -0.005572496971437667 0 -0.0023384948965222436 -0.0060023826556847909 0 -0.0026315865747577527 -0.0058948987728850034 0 -0.0025465464269696682 -0.0056596954417111349 0 -0.0012531561937104249 -0.0056347340328165713 0 -0.0010587865142296614 -0.0050570049093264131 0 -0.0023384948965222436 -0.0060023826556847909 0 -0.0025465464269696682 -0.0056596954417111349 0 -0.0019061018790325619 -0.0055064801399218192 0 -0.0025465464269696682 -0.0056596954417111349 0 -0.0021628106167560788 -0.00507155389972093 0 -0.0019061018790325619 -0.0055064801399218192 0 -0.0013680098129406997 -0.0045920172022556448 0 -0.0021628106167560788 -0.00507155389972093 0 -0.0019061018790325619 -0.0055064801399218192 0 -0.0025465464269696682 -0.0056596954417111349 0 -0.0021628106167560788 -0.00507155389972093 0 -0.0028239250044523774 -0.0051434562821214367 0 -0.0032664681812185526 -0.0058544866488608625 0 -0.0025465464269696682 -0.0056596954417111349 0 -0.0028239250044523774 -0.0051434562821214367 0 0.00049097727047595747 -0.0055974290196617593 0 0.00054228609973734274 -0.0052822195277924784 0 0.00021664994450028508 -0.0053866417457154071 0 0.00054228609973734274 -0.0052822195277924784 0 0.00021664994450028508 -0.0053866417457154071 0 0.0002143501216798852 -0.0050295733837568742 0 0.00021664994450028508 -0.0053866417457154071 0 -0.00011676967676934875 -0.0051051744322838689 0 0.0002143501216798852 -0.0050295733837568742 0 -3.6836163358929192e-05 -0.0055703502362429705 0 0.00021664994450028508 -0.0053866417457154071 0 -0.00011676967676934875 -0.0051051744322838689 0 -0.00088419808578289912 -0.0043151265490706994 0 -0.0010587865142296614 -0.0050570049093264131 0 -0.00032116655947766711 -0.0044499598990300317 0 -0.00011676967676934875 -0.0051051744322838689 0 0.0002143501216798852 -0.0050295733837568742 0 0.0003239558688106248 -0.0047367364332371494 0 0.0002143501216798852 -0.0050295733837568742 0 0.00056665929601625595 -0.0050114946018945923 0 0.00054228609973734274 -0.0052822195277924784 0 0.0002143501216798852 -0.0050295733837568742 0 0.00056665929601625595 -0.0050114946018945923 0 0.0003239558688106248 -0.0047367364332371494 0 0.00056665929601625595 -0.0050114946018945923 0 0.00069231168176469009 -0.0048438684166877593 0 0.00054228609973734274 -0.0052822195277924784 0 0.00056665929601625595 -0.0050114946018945923 0 0.00094943833224129192 -0.0050617325458198982 0 0.00056665929601625595 -0.0050114946018945923 0 0.00069231168176469009 -0.0048438684166877593 0 0.00094943833224129192 -0.0050617325458198982 0 0.00097396089021115919 -0.0048245638517108317 0 0.00094943833224129192 -0.0050617325458198982 0 0.0011135094024330909 -0.0048826224171541841 0 0.00097396089021115919 -0.0048245638517108317 0 0.00069231168176469009 -0.0048438684166877593 0 0.00094943833224129192 -0.0050617325458198982 0 0.00094943833224129192 -0.0050617325458198982 0 0.0012595638023361882 -0.004966653453806218 0 0.0011433218313002941 -0.0052557555222078924 0 0.0012296677682855426 -0.0048561906688154213 0 0.0012595638023361882 -0.004966653453806218 0 0.0011135094024330909 -0.0048826224171541841 0 0.00094943833224129192 -0.0050617325458198982 0 0.0012595638023361882 -0.004966653453806218 0 0.0011135094024330909 -0.0048826224171541841 0 0.00054228609973734274 -0.0052822195277924784 0 0.00094943833224129192 -0.0050617325458198982 0 0.00085110490822657868 -0.0054412980234309722 0 0.00094943833224129192 -0.0050617325458198982 0 0.0011433218313002941 -0.0052557555222078924 0 0.00085110490822657868 -0.0054412980234309722 0 0.00049097727047595747 -0.0055974290196617593 0 0.00085110490822657868 -0.0054412980234309722 0 0.00082921946094902132 -0.0057536319856399485 0 0.00085110490822657868 -0.0054412980234309722 0 0.0011977565154334369 -0.0057036419777821068 0 0.00082921946094902132 -0.0057536319856399485 0 0.0011433218313002941 -0.0052557555222078924 0 0.00085110490822657868 -0.0054412980234309722 0 0.0011977565154334369 -0.0057036419777821068 0 0.0011433218313002941 -0.0052557555222078924 0 0.0011977565154334369 -0.0057036419777821068 0 0.00144379659318048 -0.0054715561297616032 0 0.0012106020300374136 -0.0061955485691350771 0 0.0011977565154334369 -0.0057036419777821068 0 0.00082921946094902132 -0.0057536319856399485 0 0.0012106020300374136 -0.0061955485691350771 0 0.0011977565154334369 -0.0057036419777821068 0 0.0016372084489059276 -0.0058926045472866015 0 0.0013259932309274663 -0.0063247371647978338 0 0.0011673944412661358 -0.0060478086039188802 0 0.0012106020300374136 -0.0061955485691350771 0 0.0012172094233159634 -0.0063858374856047683 0 0.00082921946094902132 -0.0057536319856399485 0 0.00082582818794724698 -0.0059582782996076807 0 0.00069503246130226293 -0.0058983326240241649 0 0.00082921946094902132 -0.0057536319856399485 0 0.00059272526214597138 -0.0057936745015231125 0 0.00069503246130226293 -0.0058983326240241649 0 0.00082921946094902132 -0.0057536319856399485 0 0.0016372084489059276 -0.0058926045472866015 0 0.00144379659318048 -0.0054715561297616032 0 0.0024452757788827393 -0.0056020810798374093 0 0.0022555601632999389 -0.0057357863606032041 0 0.0028753454865640521 -0.0058531844073322764 0 0.0029535505131778744 -0.0063879602629263081 0 0.0015936722961746323 -0.0060428080399956442 0 0.0020092295758784209 -0.0058267838321417872 0 0.0011977565154334369 -0.0057036419777821068 0 0.0016372084489059276 -0.0058926045472866015 0 0.00144379659318048 -0.0054715561297616032 0 0.0020092295758784209 -0.0058267838321417872 0 0.0027181639659432212 -0.0054684607084789305 0 0.0022555601632999389 -0.0057357863606032041 0 0.0028753454865640521 -0.0058531844073322764 0 0.0030360047724256973 -0.005404597931330384 0 0.00144379659318048 -0.0054715561297616032 0 0.0015684151274120929 -0.0050380900584134384 0 0.0024452757788827393 -0.0056020810798374093 0 0.0012595638023361882 -0.004966653453806218 0 0.0011433218313002941 -0.0052557555222078924 0 0.0015684151274120929 -0.0050380900584134384 0 0.0011433218313002941 -0.0052557555222078924 0 0.00144379659318048 -0.0054715561297616032 0 0.0015684151274120929 -0.0050380900584134384 0 0.0013882725005059154 -0.0048865416038038657 0 0.0012595638023361882 -0.004966653453806218 0 0.0015684151274120929 -0.0050380900584134384 0 0.0013882725005059154 -0.0048865416038038657 0 0.0015684151274120929 -0.0050380900584134384 0 0.0015232340872446211 -0.0049713498648020459 0 0.0015684151274120929 -0.0050380900584134384 0 0.0015232340872446211 -0.0049713498648020459 0 0.0015024004654333116 -0.004863643548968637 0 0.002094301015763645 -0.0057874174758093264 0 0.0026043940976710504 -0.0060267201757707714 0 0.0015198299696735998 -0.0050578716192553165 0 0.0015232340872446211 -0.0049713498648020459 0 0.0015024004654333116 -0.004863643548968637 0 0.0015684151274120929 -0.0050380900584134384 0 0.0026481298039083534 -0.0046672790906025462 0 0.0024452757788827393 -0.0056020810798374093 0 0.0026481298039083534 -0.0046672790906025462 0 0.0036426872255516368 -0.00502955936024702 0 0.0024452757788827393 -0.0056020810798374093 0 0.0031788790392854364 -0.0052268807272026208 0 0.0027181639659432212 -0.0054684607084789305 0 0.001176411151429728 -0.0051092749319909345 0 0.0015024004654333116 -0.004863643548968637 0 0.00078704291636650509 -0.0048610488029962031 0 0.0026481298039083534 -0.0046672790906025462 0 0.0038897134969145208 -0.0044187225367977078 0 0.0036426872255516368 -0.00502955936024702 0 0.001176411151429728 -0.0051092749319909345 0 0.0015198299696735998 -0.0050578716192553165 0 0.0015024004654333116 -0.004863643548968637 0 0.0026043940976710504 -0.0060267201757707714 0 0.0048657123054428042 -0.006923630972313171 0 0.0068294724120504038 -0.006492743761571414 0 0.0068351654468937267 -0.0064935747600231436 0 0.0068336006292221167 -0.0064931460513325536 0 0.0068294724120504038 -0.006492743761571414 0 0.0068376766926023045 -0.0064911587322627837 0 0.0068351654468937267 -0.0064935747600231436 0 0.0048657123054428042 -0.006923630972313171 0 0.0063637069972563333 -0.0073658101007444332 0 0.0068351654468937267 -0.0064935747600231436 0 0.0068349408815659143 -0.0064927600353517165 0 0.0068336006292221167 -0.0064931460513325536 0 0.0038897134969145208 -0.0044187225367977078 0 0.003993467735151985 -0.0051961109523423884 0 0.0036426872255516368 -0.00502955936024702 0 0.003993467735151985 -0.0051961109523423884 0 0.0036426872255516368 -0.00502955936024702 0 0.0036236278417330829 -0.0055433550578064738 0 0.0048657123054428042 -0.006923630972313171 0 0.0056224408704674805 -0.0060665752382298493 0 0.003993467735151985 -0.0051961109523423884 0 0.004126388803164403 -0.005734980021526585 0 0.0036236278417330829 -0.0055433550578064738 0 0.004126388803164403 -0.005734980021526585 0 0.0036236278417330829 -0.0055433550578064738 0 0.0037250589451577063 -0.006408643554359994 0 0.0056224408704674805 -0.0060665752382298493 0 0.0065536641065407127 -0.0057398830715402905 0 0.0068349408815659143 -0.0064927600353517165 0 0.0068336006292221167 -0.0064931460513325536 0 0.0068335153873218943 -0.0064882532829201043 0 0.0077808546985352299 -0.0055728592569427469 0 0.0065536641065407127 -0.0057398830715402905 0 0.010607122456768319 -0.0048946255521409082 0 0.010383948287424437 -0.0052269490883285223 0 0.010736630989456909 -0.0051794909458013749 0 0.0065536641065407127 -0.0057398830715402905 0 0.0084226006591593371 -0.0057974255974863687 0 0.010383948287424437 -0.0052269490883285223 0 0.010786338976664355 -0.0054748966110018688 0 0.010500280411687516 -0.0057543561836137192 0 0.010383948287424437 -0.0052269490883285223 0 0.010736630989456909 -0.0051794909458013749 0 0.010786338976664355 -0.0054748966110018688 0 0.0065536641065407127 -0.0057398830715402905 0 0.0047043670016354332 -0.0065880106191419253 0 0.0032397243611550952 -0.005909427476664164 0 0.0036236278417330829 -0.0055433550578064738 0 0.0037250589451577063 -0.006408643554359994 0 0.0028753454865640521 -0.0058531844073322764 0 0.0032397243611550952 -0.005909427476664164 0 0.0029535505131778744 -0.0063879602629263081 0 0.0028753454865640521 -0.0058531844073322764 0 0.0032397243611550952 -0.005909427476664164 0 0.0030360047724256973 -0.005404597931330384 0 0.0036426872255516368 -0.00502955936024702 0 0.0030360047724256973 -0.005404597931330384 0 0.0036236278417330829 -0.0055433550578064738 0 0.0032397243611550952 -0.005909427476664164 0 0.0030360047724256973 -0.005404597931330384 0 0.0036236278417330829 -0.0055433550578064738 0 0.011862370699323221 -0.0045837103056069516 0 0.01152427877901166 -0.0049055253415041539 0 0.012115804078232102 -0.0050838222113670437 0 0.012221426230488148 -0.0046751234021275663 0 0.011862370699323221 -0.0045837103056069516 0 0.012115804078232102 -0.0050838222113670437 0 0.012134038241520069 -0.0044099094174746964 0 0.012221426230488148 -0.0046751234021275663 0 0.011862370699323221 -0.0045837103056069516 0 0.012134038241520069 -0.0044099094174746964 0 0.011862370699323221 -0.0045837103056069516 0 0.011919025733010138 -0.0043117924824397106 0 0.012120862761252935 -0.0041407078068658419 0 0.012134038241520069 -0.0044099094174746964 0 0.011919025733010138 -0.0043117924824397106 0 0.011748557691777706 -0.0042345812509374161 0 0.011919025733010138 -0.0043117924824397106 0 0.011733892862290009 -0.004363250901458067 0 0.011862370699323221 -0.0045837103056069516 0 0.011919025733010138 -0.0043117924824397106 0 0.011733892862290009 -0.004363250901458067 0 0.011862370699323221 -0.0045837103056069516 0 0.011733892862290009 -0.004363250901458067 0 0.011537941403590973 -0.0044551329347318966 0 0.011733892862290009 -0.004363250901458067 0 0.011604464136613533 -0.0042520523078213536 0 0.011537941403590973 -0.0044551329347318966 0 0.011748557691777706 -0.0042345812509374161 0 0.011733892862290009 -0.004363250901458067 0 0.011604464136613533 -0.0042520523078213536 0 0.011604464136613533 -0.0042520523078213536 0 0.0114577459732791 -0.0042622405505965992 0 0.011537941403590973 -0.0044551329347318966 0 0.0114577459732791 -0.0042622405505965992 0 0.011537941403590973 -0.0044551329347318966 0 0.01125205047674576 -0.0043823198907092849 0 0.011537941403590973 -0.0044551329347318966 0 0.01152427877901166 -0.0049055253415041539 0 0.011263700080598541 -0.0046076528202415026 0 0.011862370699323221 -0.0045837103056069516 0 0.011537941403590973 -0.0044551329347318966 0 0.01152427877901166 -0.0049055253415041539 0 0.011401037801804676 -0.0048421797223663276 0 0.010893933167434413 -0.0047318071586785262 0 0.010991760423331682 -0.0050768487942269734 0 0.01152427877901166 -0.0049055253415041539 0 0.011263700080598541 -0.0046076528202415026 0 0.010893933167434413 -0.0047318071586785262 0 0.011556679046485829 -0.0048962489882180913 0 0.011260373971850516 -0.0048118940493671941 0 0.011263700080598541 -0.0046076528202415026 0 0.01106186221433304 -0.0045735752508344937 0 0.010893933167434413 -0.0047318071586785262 0 0.0081515630097084412 -0.0070293034006827871 0 0.0083116130062888972 -0.005876517355308677 0 0.011537941403590973 -0.0044551329347318966 0 0.011263700080598541 -0.0046076528202415026 0 0.01125205047674576 -0.0043823198907092849 0 0.011203832871611618 -0.0041394143543001041 0 0.01125205047674576 -0.0043823198907092849 0 0.0108785274283513 -0.0045189769980337399 0 0.01137014826324487 -0.0041228543450320737 0 0.0114577459732791 -0.0042622405505965992 0 0.01125205047674576 -0.0043823198907092849 0 0.01125205047674576 -0.0043823198907092849 0 0.01106186221433304 -0.0045735752508344937 0 0.0108785274283513 -0.0045189769980337399 0 0.011263700080598541 -0.0046076528202415026 0 0.01125205047674576 -0.0043823198907092849 0 0.01106186221433304 -0.0045735752508344937 0 0.0068520414417972833 -0.0064909802796953835 0 0.0068376766926023045 -0.0064911587322627837 0 0.006842438725526887 -0.0064944635244475694 0 0.0068376766926023045 -0.0064911587322627837 0 0.0068351654468937267 -0.0064935747600231436 0 0.006842438725526887 -0.0064944635244475694 0 0.0077808546985352299 -0.0055728592569427469 0 0.0083116130062888972 -0.005876517355308677 0 0.010607122456768319 -0.0048946255521409082 0 0.0108785274283513 -0.0045189769980337399 0 0.010893933167434413 -0.0047318071586785262 0 0.0068351654468937267 -0.0064935747600231436 0 0.0068349408815659143 -0.0064927600353517165 0 0.006842438725526887 -0.0064944635244475694 0 0.01106186221433304 -0.0045735752508344937 0 0.0108785274283513 -0.0045189769980337399 0 0.010893933167434413 -0.0047318071586785262 0 0.010607122456768319 -0.0048946255521409082 0 0.010893933167434413 -0.0047318071586785262 0 0.010808948558326795 -0.0049723009568482064 0 0.010893933167434413 -0.0047318071586785262 0 0.010808948558326795 -0.0049723009568482064 0 0.010991760423331682 -0.0050768487942269734 0 0.010607122456768319 -0.0048946255521409082 0 0.010808948558326795 -0.0049723009568482064 0 0.010736630989456909 -0.0051794909458013749 0 0.010808948558326795 -0.0049723009568482064 0 0.010736630989456909 -0.0051794909458013749 0 0.010991760423331682 -0.0050768487942269734 0 0.010736630989456909 -0.0051794909458013749 0 0.010912339189946446 -0.0053385222471224493 0 0.010991760423331682 -0.0050768487942269734 0 0.010736630989456909 -0.0051794909458013749 0 0.010786338976664355 -0.0054748966110018688 0 0.010912339189946446 -0.0053385222471224493 0 0.010786338976664355 -0.0054748966110018688 0 0.010912339189946446 -0.0053385222471224493 0 0.010877077247718848 -0.005543508126336881 0 0.010912339189946446 -0.0053385222471224493 0 0.011251807408202245 -0.005356448898013553 0 0.010991760423331682 -0.0050768487942269734 0 0.010912339189946446 -0.0053385222471224493 0 0.011251807408202245 -0.005356448898013553 0 0.010877077247718848 -0.005543508126336881 0 0.011251807408202245 -0.005356448898013553 0 0.011292536587735753 -0.005747657903983943 0 0.010877077247718848 -0.005543508126336881 0 0.011401037801804676 -0.0048421797223663276 0 0.011251807408202245 -0.005356448898013553 0 0.010991760423331682 -0.0050768487942269734 0 0.011401037801804676 -0.0048421797223663276 0 0.011251807408202245 -0.005356448898013553 0 0.011714489643139415 -0.0052618203772308008 0 0.011251807408202245 -0.005356448898013553 0 0.011698858367098242 -0.0057304149410919002 0 0.011292536587735753 -0.005747657903983943 0 0.011251807408202245 -0.005356448898013553 0 0.011714489643139415 -0.0052618203772308008 0 0.011698858367098242 -0.0057304149410919002 0 0.012396002973688494 -0.0056169503155602245 0 0.011714489643139415 -0.0052618203772308008 0 0.011698858367098242 -0.0057304149410919002 0 0.012396002973688494 -0.0056169503155602245 0 0.011714489643139415 -0.0052618203772308008 0 0.012129642003393438 -0.0050067473559076529 0 0.011556679046485829 -0.0048962489882180913 0 0.012096854187294457 -0.0050513739637192195 0 0.011401037801804676 -0.0048421797223663276 0 0.011714489643139415 -0.0052618203772308008 0 0.012129642003393438 -0.0050067473559076529 0 0.012619878590966332 -0.0065046667512744984 0 0.011698858367098242 -0.0057304149410919002 0 0.011664155947122655 -0.0066117481461153245 0 0.012619878590966332 -0.0065046667512744984 0 0.012193049245309872 -0.0070524539874670163 0 0.011664155947122655 -0.0066117481461153245 0 0.011695796408469654 -0.0061760153994073023 0 0.011676725468928763 -0.0065115657321597733 0 0.011698858367098242 -0.0057304149410919002 0 0.011292536587735753 -0.005747657903983943 0 0.011668094437049338 -0.0063170672707136433 0 0.011668094437049338 -0.0063170672707136433 0 0.011180444281641817 -0.0061459237701348311 0 0.01116521197306861 -0.0067339959165203444 0 0.011292536587735753 -0.005747657903983943 0 0.011668094437049338 -0.0063170672707136433 0 0.011180444281641817 -0.0061459237701348311 0 0.011180444281641817 -0.0061459237701348311 0 0.010749007368627128 -0.0064230649942097796 0 0.01116521197306861 -0.0067339959165203444 0 0.011180444281641817 -0.0061459237701348311 0 0.010877077247718848 -0.005543508126336881 0 0.010749007368627128 -0.0064230649942097796 0 0.011292536587735753 -0.005747657903983943 0 0.011180444281641817 -0.0061459237701348311 0 0.010877077247718848 -0.005543508126336881 0 0.010877077247718848 -0.005543508126336881 0 0.010786885997332761 -0.0053604748471768925 0 0.010802402284308317 -0.0052042588451057656 0 0.010786338976664355 -0.0054748966110018688 0 0.010877077247718848 -0.005543508126336881 0 0.010786885997332761 -0.0053604748471768925 0 0.010786338976664355 -0.0054748966110018688 0 0.010786885997332761 -0.0053604748471768925 0 0.01083716647663927 -0.0053360191380058455 0 0.010786885997332761 -0.0053604748471768925 0 0.010717638873199962 -0.0052426685225372078 0 0.01083716647663927 -0.0053360191380058455 0 0.010846865714700019 -0.005700985566591636 0 0.01078455432021184 -0.0059992216010203766 0 0.010786885997332761 -0.0053604748471768925 0 0.010717638873199962 -0.0052426685225372078 0 0.010802402284308317 -0.0052042588451057656 0 0.010717638873199962 -0.0052426685225372078 0 0.010802402284308317 -0.0052042588451057656 0 0.010528969138017553 -0.0051650334958590737 0 0.010802402284308317 -0.0052042588451057656 0 0.010769903049666097 -0.0061995263139405649 0 0.010528969138017553 -0.0051650334958590737 0 0.010749007368627128 -0.0064230649942097796 0 0.010610909871368087 -0.0071805866973713318 0 0.01116521197306861 -0.0067339959165203444 0 0.01078455432021184 -0.0059992216010203766 0 0.010632741854675051 -0.0067673428136371819 0 0.010610909871368087 -0.0071805866973713318 0 0.01116521197306861 -0.0067339959165203444 0 0.01121696169184201 -0.0072954920988159812 0 0.011668094437049338 -0.0063170672707136433 0 0.01116521197306861 -0.0067339959165203444 0 0.011640426323739766 -0.0070041381603879313 0 0.011676725468928763 -0.0065115657321597733 0 0.011647384568117987 -0.007056106684215681 0 0.01116521197306861 -0.0067339959165203444 0 0.011640426323739766 -0.0070041381603879313 0 0.01121696169184201 -0.0072954920988159812 0 0.012193049245309872 -0.0070524539874670163 0 0.011685180764850287 -0.0072846935159430644 0 0.012020795328969641 -0.0075036255938906969 0 0.012193049245309872 -0.0070524539874670163 0 0.011664155947122655 -0.0066117481461153245 0 0.011685180764850287 -0.0072846935159430644 0 0.0042236685152394846 -0.006027395690305682 0 0.0043349482452272152 -0.0069314965414728064 0 0.0035351025155681915 -0.0070277072994328095 0 0.0029535505131778744 -0.0063879602629263081 0 0.0037250589451577063 -0.006408643554359994 0 0.003311078930771867 -0.0071665731173953763 0 0.0047043670016354332 -0.0065880106191419253 0 0.0037813010480744588 -0.0072353248377479513 0 0.0028333437727057573 -0.0068706869817961027 0 0.0025850953429875055 -0.0072111792832928994 0 0.003311078930771867 -0.0071665731173953763 0 0.0028333437727057573 -0.0068706869817961027 0 0.0029535505131778744 -0.0063879602629263081 0 0.003311078930771867 -0.0071665731173953763 0 0.0032397243611550952 -0.005909427476664164 0 0.0029535505131778744 -0.0063879602629263081 0 0.0037250589451577063 -0.006408643554359994 0 0.0049242245261417869 -0.0050178797050345917 0 0.0042236685152394846 -0.006027395690305682 0 0.0051610433556328892 -0.0061343056791287294 0 0.0091516591181601548 -0.0053640707554911621 0 0.0084226006591593371 -0.0057974255974863687 0 0.010717638873199962 -0.0052426685225372078 0 0.01083716647663927 -0.0053360191380058455 0 0.010528969138017553 -0.0051650334958590737 0 0.0084226006591593371 -0.0057974255974863687 0 0.0087148020737292334 -0.0056374316296664345 0 0.010324316013296714 -0.0042171518648064683 0 0.010528969138017553 -0.0051650334958590737 0 0.0093787584583804266 -0.0050113621618962795 0 0.0042236685152394846 -0.006027395690305682 0 0.0051610433556328892 -0.0061343056791287294 0 0.0043349482452272152 -0.0069314965414728064 0 0.0084226006591593371 -0.0057974255974863687 0 0.0070529265212453569 -0.0062432385635338037 0 0.0093787584583804266 -0.0050113621618962795 0 0.0099307891870702453 -0.0056699012734096731 0 0.0092341348606773573 -0.0057587665920233646 0 0.010528969138017553 -0.0051650334958590737 0 0.0093787584583804266 -0.0050113621618962795 0 0.0099307891870702453 -0.0056699012734096731 0 0.010769903049666097 -0.0061995263139405649 0 0.010528969138017553 -0.0051650334958590737 0 0.0099307891870702453 -0.0056699012734096731 0 0.010769903049666097 -0.0061995263139405649 0 0.0099307891870702453 -0.0056699012734096731 0 0.0097337732479135363 -0.0063923634880950703 0 0.0099307891870702453 -0.0056699012734096731 0 0.0092341348606773573 -0.0057587665920233646 0 0.0097337732479135363 -0.0063923634880950703 0 0.0092341348606773573 -0.0057587665920233646 0 0.0089741313515198685 -0.0063911711763963708 0 0.0097337732479135363 -0.0063923634880950703 0 0.0092341348606773573 -0.0057587665920233646 0 0.0082231004346561918 -0.0055728943530526081 0 0.0089741313515198685 -0.0063911711763963708 0 0.0070529265212453569 -0.0062432385635338037 0 0.0058390905560797022 -0.0068845426077882134 0 0.0043349482452272152 -0.0069314965414728064 0 0.003523069784288381 -0.0076679886238982557 0 0.0035351025155681915 -0.0070277072994328095 0 0.0093787584583804266 -0.0050113621618962795 0 0.0092341348606773573 -0.0057587665920233646 0 0.0082231004346561918 -0.0055728943530526081 0 0.0033941725709929517 -0.0076295028788891921 0 0.0037813010480744588 -0.0072353248377479513 0 0.0026214892898269574 -0.0076318972326481918 0 0.0029304427836531672 -0.0079140366826282605 0 0.003311078930771867 -0.0071665731173953763 0 0.0058390905560797022 -0.0068845426077882134 0 0.0046088531909106124 -0.007732838340550172 0 0.0029304427836531672 -0.0079140366826282605 0 0.003523069784288381 -0.0076679886238982557 0 0.0028342635125331579 -0.0082543777059972453 0 0.0029304427836531672 -0.0079140366826282605 0 0.003523069784288381 -0.0076679886238982557 0 0.0035351025155681915 -0.0070277072994328095 0 0.0082231004346561918 -0.0055728943530526081 0 0.0072932770504952095 -0.0068019639605290212 0 0.0082959613413061996 -0.0069791137947861747 0 0.0082231004346561918 -0.0055728943530526081 0 0.0072932770504952095 -0.0068019639605290212 0 0.0062347426854589142 -0.006435896670863089 0 0.0072932770504952095 -0.0068019639605290212 0 0.0071428781107979056 -0.007764864766588944 0 0.0082959613413061996 -0.0069791137947861747 0 0.0072932770504952095 -0.0068019639605290212 0 0.0071428781107979056 -0.007764864766588944 0 0.0061913938104890577 -0.0076772099486524066 0 0.0071428781107979056 -0.007764864766588944 0 0.0085123341099109656 -0.0083336833309112582 0 0.0054832946746261836 -0.0092994456746744222 0 0.0071428781107979056 -0.007764864766588944 0 0.0082959613413061996 -0.0069791137947861747 0 0.0085123341099109656 -0.0083336833309112582 0 0.0092696002405500012 -0.0073049628861873344 0 0.0094296535834431441 -0.008131548906756712 0 0.0085123341099109656 -0.0083336833309112582 0 0.0082959613413061996 -0.0069791137947861747 0 0.0092696002405500012 -0.0073049628861873344 0 0.0085123341099109656 -0.0083336833309112582 0 0.0082231004346561918 -0.0055728943530526081 0 0.0082959613413061996 -0.0069791137947861747 0 0.0089741313515198685 -0.0063911711763963708 0 0.0082959613413061996 -0.0069791137947861747 0 0.0089741313515198685 -0.0063911711763963708 0 0.0092696002405500012 -0.0073049628861873344 0 0.0097337732479135363 -0.0063923634880950703 0 0.01045095288095162 -0.0076708708078961629 0 0.0092696002405500012 -0.0073049628861873344 0 0.0089741313515198685 -0.0063911711763963708 0 0.0097337732479135363 -0.0063923634880950703 0 0.0092696002405500012 -0.0073049628861873344 0 0.010769903049666097 -0.0061995263139405649 0 0.0097337732479135363 -0.0063923634880950703 0 0.01045095288095162 -0.0076708708078961629 0 0.01045095288095162 -0.0076708708078961629 0 0.0092696002405500012 -0.0073049628861873344 0 0.0094296535834431441 -0.008131548906756712 0 0.0094296535834431441 -0.008131548906756712 0 0.010153790374914283 -0.0086538511110509208 0 0.0093133308373320282 -0.0085804974175112715 0 0.01045095288095162 -0.0076708708078961629 0 0.0094296535834431441 -0.008131548906756712 0 0.010153790374914283 -0.0086538511110509208 0 0.010431134713297764 -0.0076751651243612837 0 0.010305715830945417 -0.0081850657731630701 0 0.010153790374914283 -0.0086538511110509208 0 0.0093133308373320282 -0.0085804974175112715 0 0.009600799312792686 -0.0090019456444296007 0 0.0093133308373320282 -0.0085804974175112715 0 0.0090674761313004511 -0.0087886040060030802 0 0.009600799312792686 -0.0090019456444296007 0 0.0093133308373320282 -0.0085804974175112715 0 0.0090674761313004511 -0.0087886040060030802 0 0.0089070259992395234 -0.0085866011011223667 0 0.0093133308373320282 -0.0085804974175112715 0 0.0089070259992395234 -0.0085866011011223667 0 0.0089305020560199039 -0.0084208526268894981 0 0.0089070259992395234 -0.0085866011011223667 0 0.0086634324652001236 -0.0087427210472612177 0 0.008662955295632966 -0.0084482385956131667 0 0.0090674761313004511 -0.0087886040060030802 0 0.0089070259992395234 -0.0085866011011223667 0 0.0086634324652001236 -0.0087427210472612177 0 0.0090674761313004511 -0.0087886040060030802 0 0.0086634324652001236 -0.0087427210472612177 0 0.0092339081430548604 -0.0091090790969391312 0 0.011295334398108928 -0.0057063493583650888 0 0.010919645334815299 -0.0066088792044045157 0 0.0082917284463160847 -0.008043076043412643 0 0.008464013778448614 -0.0083059767098732865 0 0.0084468068304015594 -0.008152436386974592 0 0.0082917284463160847 -0.008043076043412643 0 0.0084172838486908982 -0.0079604596562019483 0 0.0084468068304015594 -0.008152436386974592 0 0.008464013778448614 -0.0083059767098732865 0 0.0085123341099109656 -0.0083336833309112582 0 0.008471222318904563 -0.0082903971626767953 0 0.0086634324652001236 -0.0087427210472612177 0 0.008662955295632966 -0.0084482385956131667 0 0.008464013778448614 -0.0083059767098732865 0 0.0070308229548247695 -0.006994003641913305 0 0.0059913656106269407 -0.0065820447571755527 0 0.008662955295632966 -0.0084482385956131667 0 0.008464013778448614 -0.0083059767098732865 0 0.0085123341099109656 -0.0083336833309112582 0 0.0094296535834431441 -0.008131548906756712 0 0.0085123341099109656 -0.0083336833309112582 0 0.0089305020560199039 -0.0084208526268894981 0 0.0094296535834431441 -0.008131548906756712 0 0.0093133308373320282 -0.0085804974175112715 0 0.0089305020560199039 -0.0084208526268894981 0 0.0089070259992395234 -0.0085866011011223667 0 0.008662955295632966 -0.0084482385956131667 0 0.0089305020560199039 -0.0084208526268894981 0 0.008662955295632966 -0.0084482385956131667 0 0.0085123341099109656 -0.0083336833309112582 0 0.0089305020560199039 -0.0084208526268894981 0 0.01215803620495194 -0.0077568365001390365 0 0.011615884787133667 -0.0077239186144808817 0 0.011754962457902222 -0.008123825015886748 0 0.01215803620495194 -0.0077568365001390365 0 0.012267685207480023 -0.0081108694284703978 0 0.011754962457902222 -0.008123825015886748 0 0.011685180764850287 -0.0072846935159430644 0 0.012020795328969641 -0.0075036255938906969 0 0.011615884787133667 -0.0077239186144808817 0 0.01215803620495194 -0.0077568365001390365 0 0.012020795328969641 -0.0075036255938906969 0 0.011615884787133667 -0.0077239186144808817 0 0.011647384568117987 -0.007056106684215681 0 0.011628584144430762 -0.0073606204165745388 0 0.011640426323739766 -0.0070041381603879313 0 0.011615884787133667 -0.0077239186144808817 0 0.01121696169184201 -0.0072954920988159812 0 0.011615884787133667 -0.0077239186144808817 0 0.011089890115157392 -0.0078276279796139214 0 0.011754962457902222 -0.008123825015886748 0 0.011615884787133667 -0.0077239186144808817 0 0.011089890115157392 -0.0078276279796139214 0 0.01121696169184201 -0.0072954920988159812 0 0.010610909871368087 -0.0071805866973713318 0 0.011089890115157392 -0.0078276279796139214 0 0.01121696169184201 -0.0072954920988159812 0 0.010632741854675051 -0.0067673428136371819 0 0.010431134713297764 -0.0076751651243612837 0 0.010610909871368087 -0.0071805866973713318 0 0.010435400244460354 -0.0078938435218809961 0 0.011089890115157392 -0.0078276279796139214 0 0.010435400244460354 -0.0078938435218809961 0 0.010153790374914283 -0.0086538511110509208 0 0.011139544163011774 -0.0084026195519672151 0 0.010153790374914283 -0.0086538511110509208 0 0.011139544163011774 -0.0084026195519672151 0 0.010624088177878186 -0.0089244088896612891 0 0.010435400244460354 -0.0078938435218809961 0 0.011089890115157392 -0.0078276279796139214 0 0.011139544163011774 -0.0084026195519672151 0 0.011139544163011774 -0.0084026195519672151 0 0.011332012340061814 -0.008862388537379173 0 0.010624088177878186 -0.0089244088896612891 0 0.011089890115157392 -0.0078276279796139214 0 0.011139544163011774 -0.0084026195519672151 0 0.011754962457902222 -0.008123825015886748 0 0.011139544163011774 -0.0084026195519672151 0 0.011982553440078245 -0.0085919632001549614 0 0.011754962457902222 -0.008123825015886748 0 0.011139544163011774 -0.0084026195519672151 0 0.011982553440078245 -0.0085919632001549614 0 0.011332012340061814 -0.008862388537379173 0 0.012267685207480023 -0.0081108694284703978 0 0.011982553440078245 -0.0085919632001549614 0 0.011754962457902222 -0.008123825015886748 0 0.011987958554986881 -0.0092092833727695899 0 0.011728649182503544 -0.0089907529780919974 0 0.011709142412903859 -0.0093807037956268931 0 0.012252044457537142 -0.0088503225387238805 0 0.011987958554986881 -0.0092092833727695899 0 0.011728649182503544 -0.0089907529780919974 0 0.012252044457537142 -0.0088503225387238805 0 0.012029654514952642 -0.0082697797533716703 0 0.011728649182503544 -0.0089907529780919974 0 0.012419791787409044 -0.0084598523563975438 0 0.012176359313206804 -0.0087337262210473773 0 0.011982553440078245 -0.0085919632001549614 0 0.011728649182503544 -0.0089907529780919974 0 0.011332012340061814 -0.008862388537379173 0 0.011728649182503544 -0.0089907529780919974 0 0.011304419754240749 -0.0092558971265533328 0 0.011709142412903859 -0.0093807037956268931 0 0.011728649182503544 -0.0089907529780919974 0 0.011304419754240749 -0.0092558971265533328 0 0.011332012340061814 -0.008862388537379173 0 0.011304419754240749 -0.0092558971265533328 0 0.011332012340061814 -0.008862388537379173 0 0.010923518872546922 -0.0091716067872404973 0 0.011304419754240749 -0.0092558971265533328 0 0.010923518872546922 -0.0091716067872404973 0 0.010852544886485512 -0.0094561432331270422 0 0.011332012340061814 -0.008862388537379173 0 0.010624088177878186 -0.0089244088896612891 0 0.010923518872546922 -0.0091716067872404973 0 0.010624088177878186 -0.0089244088896612891 0 0.010496513495256999 -0.0093320783426706737 0 0.010923518872546922 -0.0091716067872404973 0 0.010496513495256999 -0.0093320783426706737 0 0.010852544886485512 -0.0094561432331270422 0 0.01034321178843328 -0.0097222548115410163 0 0.010496513495256999 -0.0093320783426706737 0 0.010923518872546922 -0.0091716067872404973 0 0.010852544886485512 -0.0094561432331270422 0 0.01299561745424159 -0.0077678229959038305 0 0.013501590649061895 -0.0061147494463945845 0 0.010852544886485512 -0.0094561432331270422 0 0.01117124250568282 -0.0097191830399003445 0 0.01034321178843328 -0.0097222548115410163 0 0.014557232799106199 -0.0089120556999124512 0 0.01406857259412062 -0.0090446971362127156 0 0.014883253873577319 -0.0092272349307121557 0 0.014557232799106199 -0.0089120556999124512 0 0.014550632594063587 -0.0085233623352001624 0 0.015002337645924402 -0.0090512970472379668 0 0.014557232799106199 -0.0089120556999124512 0 0.014550632594063587 -0.0085233623352001624 0 0.014162976638205562 -0.0086777782683866087 0 0.014550632594063587 -0.0085233623352001624 0 0.014162976638205562 -0.0086777782683866087 0 0.014023733322899721 -0.0081759505005392259 0 0.014557232799106199 -0.0089120556999124512 0 0.014162976638205562 -0.0086777782683866087 0 0.01406857259412062 -0.0090446971362127156 0 0.013736613265357703 -0.0085923677745394448 0 0.01406857259412062 -0.0090446971362127156 0 0.013061774155810838 -0.0087466353579782486 0 0.014162976638205562 -0.0086777782683866087 0 0.013736613265357703 -0.0085923677745394448 0 0.01406857259412062 -0.0090446971362127156 0 0.014162976638205562 -0.0086777782683866087 0 0.013736613265357703 -0.0085923677745394448 0 0.014023733322899721 -0.0081759505005392259 0 0.011304419754240749 -0.0092558971265533328 0 0.01117124250568282 -0.0097191830399003445 0 0.011709142412903859 -0.0093807037956268931 0 0.011304419754240749 -0.0092558971265533328 0 0.010852544886485512 -0.0094561432331270422 0 0.01117124250568282 -0.0097191830399003445 0 0.01117124250568282 -0.0097191830399003445 0 0.011709142412903859 -0.0093807037956268931 0 0.011921018531913307 -0.0095332064318139221 0 0.01299561745424159 -0.0077678229959038305 0 0.012534359939267376 -0.0082955269353909029 0 0.013736613265357703 -0.0085923677745394448 0 0.013061774155810838 -0.0087466353579782486 0 0.013401221103103817 -0.0082978740451698386 0 0.013061774155810838 -0.0087466353579782486 0 0.012484385599919844 -0.0085539656293877608 0 0.012040535108003682 -0.0086327539112666125 0 0.012534359939267376 -0.0082955269353909029 0 0.01223428972663842 -0.0083368661351844835 0 0.011978791739318328 -0.0091392134871104043 0 0.011921018531913307 -0.0095332064318139221 0 0.011992590151159103 -0.0094108288368659147 0 0.011978791739318328 -0.0091392134871104043 0 0.011921018531913307 -0.0095332064318139221 0 0.012040535108003682 -0.0086327539112666125 0 0.011709142412903859 -0.0093807037956268931 0 0.011921018531913307 -0.0095332064318139221 0 0.011992590151159103 -0.0094108288368659147 0 0.012312285184111739 -0.0092974375215658812 0 0.011987958554986881 -0.0092092833727695899 0 0.011992590151159103 -0.0094108288368659147 0 0.011987958554986881 -0.0092092833727695899 0 0.011709142412903859 -0.0093807037956268931 0 0.011992590151159103 -0.0094108288368659147 0 0.020522766899475371 0.010458028480642942 0 0.020504942523285278 0.0113029178677657 0 0.021070918555265449 0.011821432291332165 0 0.020522766899475371 0.010458028480642942 0 0.020504942523285278 0.0113029178677657 0 0.02003544747707801 0.011480798816297471 0 0.020670879376649343 0.010171911520242105 0 0.020276235204482119 0.010651796918213699 0 0.020125479396533804 0.011439404438641144 0 0.0029727582652101588 0.00018497017412411743 0 0.0032300160619189622 0.00028278021824621797 0 0.0032989958426231404 0.00094650698497595286 0 0.011910773672550999 -0.00049637020123981907 0 0.013184195856074939 0.0053957811584743774 0 0.011910773672550999 -0.00049637020123981907 0 0.0084473572066224075 0.0057972530760688886 0 0.011910773672550999 -0.00049637020123981907 0 0.013823289615992716 -0.0019655452075234541 0 0.0091655141226119462 -0.0093520586141541753 0 0.0094694902475526126 -0.0092808382348955401 0 0.0094671776941263903 -0.0095712597134582252 0 0.020670879376649343 0.010171911520242105 0 0.020276235204482119 0.010651796918213699 0 0.0199903549786981 0.010767232266920583 0 0.020276235204482119 0.010651796918213699 0 0.019999206473053182 0.010781139347436988 0 0.020125479396533804 0.011439404438641144 0 0.013895306259718921 -0.0018860747802262523 0 0.013823289615992716 -0.0019655452075234541 0 0.0035095999532272111 0.00041494200985137369 0 0.0032300160619189622 0.00028278021824621797 0 0.0032989958426231404 0.00094650698497595286 0 0.0035095999532272111 0.00041494200985137369 0 0.0035961249225309397 0.00070897405995400066 0 0.0037326543397506601 0.00051104142316126975 0 0.0035095999532272111 0.00041494200985137369 0 0.0034525419736967469 7.6971612441827916e-05 0 0.0038569522385900386 9.870256058180273e-05 0 0.0035095999532272111 0.00041494200985137369 0 0.0032300160619189622 0.00028278021824621797 0 0.0034525419736967469 7.6971612441827916e-05 0 0.0029727582652101588 0.00018497017412411743 0 0.0032300160619189622 0.00028278021824621797 0 0.0034525419736967469 7.6971612441827916e-05 0 0.0082917284463160847 -0.008043076043412643 0 0.0081203952472131708 -0.0075963447872661235 0 0.0084172838486908982 -0.0079604596562019483 0 0.011910773672550999 -0.00049637020123981907 0 0.007902709936092954 -0.0025724436751505516 0 0.0029727582652101588 0.00018497017412411743 0 0.0034525419736967469 7.6971612441827916e-05 0 0.0035667766630841525 -0.00040585127695412493 0 0.0034525419736967469 7.6971612441827916e-05 0 0.0035667766630841525 -0.00040585127695412493 0 0.0038569522385900386 9.870256058180273e-05 0 0.0086634324652001236 -0.0087427210472612177 0 0.0091018880610914937 -0.0094194261876088953 0 0.0092339081430548604 -0.0091090790969391312 0 0.011295334398108928 -0.0057063493583650888 0 0.011910773672550999 -0.00049637020123981907 0 0.011910773672550999 -0.00049637020123981907 0 0.01134740477620491 -0.001901720227182593 0 0.0091655141226119462 -0.0093520586141541753 0 0.0092339081430548604 -0.0091090790969391312 0 0.0094694902475526126 -0.0092808382348955401 0 0.0090674761313004511 -0.0087886040060030802 0 0.0092339081430548604 -0.0091090790969391312 0 0.009600799312792686 -0.0090019456444296007 0 0.009600799312792686 -0.0090019456444296007 0 0.010150930337337631 -0.0091341690234969432 0 0.0097690138196859858 -0.0092930582631673194 0 0.0092339081430548604 -0.0091090790969391312 0 0.009600799312792686 -0.0090019456444296007 0 0.0094694902475526126 -0.0092808382348955401 0 0.009600799312792686 -0.0090019456444296007 0 0.0094694902475526126 -0.0092808382348955401 0 0.0097690138196859858 -0.0092930582631673194 0 0.010153790374914283 -0.0086538511110509208 0 0.010624088177878186 -0.0089244088896612891 0 0.010150930337337631 -0.0091341690234969432 0 0.010153790374914283 -0.0086538511110509208 0 0.009600799312792686 -0.0090019456444296007 0 0.010150930337337631 -0.0091341690234969432 0 0.010624088177878186 -0.0089244088896612891 0 0.010496513495256999 -0.0093320783426706737 0 0.010150930337337631 -0.0091341690234969432 0 0.010496513495256999 -0.0093320783426706737 0 0.010150930337337631 -0.0091341690234969432 0 0.010046490675826008 -0.009409234109348923 0 0.010150930337337631 -0.0091341690234969432 0 0.010046490675826008 -0.009409234109348923 0 0.0097690138196859858 -0.0092930582631673194 0 0.010496513495256999 -0.0093320783426706737 0 0.010046490675826008 -0.009409234109348923 0 0.01034321178843328 -0.0097222548115410163 0 0.010046490675826008 -0.009409234109348923 0 0.0094671776941263903 -0.0095712597134582252 0 0.01034321178843328 -0.0097222548115410163 0 0.013823289615992716 -0.0019655452075234541 0 0.013501590649061895 -0.0061147494463945845 0 0.010046490675826008 -0.009409234109348923 0 0.0097690138196859858 -0.0092930582631673194 0 0.0094671776941263903 -0.0095712597134582252 0 0.0094694902475526126 -0.0092808382348955401 0 0.0097690138196859858 -0.0092930582631673194 0 0.0094671776941263903 -0.0095712597134582252 0 0.018721377916501213 0.012114045537567175 0 0.019587815046383253 0.012642554206830239 0 0.020125479396533804 0.011439404438641144 0 0.013615664969612949 0.0071006513237576382 0 0.013184195856074939 0.0053957811584743774 0 0.013823289615992716 -0.0019655452075234541 0 0.015315697641861695 0.00014915752439527858 0 0.019999206473053182 0.010781139347436988 0 0.018721377916501213 0.012114045537567175 0 0.020125479396533804 0.011439404438641144 0 0.014557232799106199 -0.0089120556999124512 0 0.015002337645924402 -0.0090512970472379668 0 0.014883253873577319 -0.0092272349307121557 0 0.015354369028368882 -0.0093530702975638171 0 0.015002337645924402 -0.0090512970472379668 0 0.014883253873577319 -0.0092272349307121557 0 0.018721377916501213 0.012114045537567175 0 0.019587815046383253 0.012642554206830239 0 0.018702799933875913 0.013447694401994141 0 0.017570407367850642 0.013373006705380075 0 0.018721377916501213 0.012114045537567175 0 0.018702799933875913 0.013447694401994141 0 0.015331262266727824 0.0018875632750328015 0 0.015315697641861695 0.00014915752439527858 0 0.019587815046383253 0.012642554206830239 0 0.020066183444456959 0.013468202894055424 0 0.018702799933875913 0.013447694401994141 0 0.020434270497231424 0.012313314655107509 0 0.021364321885694176 0.01227076196362146 0 0.020066183444456959 0.013468202894055424 0 0.0016355534531361929 0.0083799545290078794 0 0.0024362539833769213 0.0077142044785345389 0 0.0018675427437502598 0.0073148230629564732 0 0.019587815046383253 0.012642554206830239 0 0.020434270497231424 0.012313314655107509 0 0.020066183444456959 0.013468202894055424 0 0.0067932645226049136 0.0054532980406918497 0 0.0092507183192088536 0.0083534596640754376 0 0.020434270497231424 0.012313314655107509 0 0.02048802588991136 0.01178571418443318 0 0.02003544747707801 0.011480798816297471 0 0.019587815046383253 0.012642554206830239 0 0.020434270497231424 0.012313314655107509 0 0.02003544747707801 0.011480798816297471 0 0.020434270497231424 0.012313314655107509 0 0.02048802588991136 0.01178571418443318 0 0.021208949453347597 0.011904350871465019 0 0.020434270497231424 0.012313314655107509 0 0.021208949453347597 0.011904350871465019 0 0.021364321885694176 0.01227076196362146 0 0.011059361314824085 0.0077108187348082953 0 0.0084473572066224075 0.0057972530760688886 0 0.02048802588991136 0.01178571418443318 0 0.020504942523285278 0.0113029178677657 0 0.021208949453347597 0.011904350871465019 0 0.02048802588991136 0.01178571418443318 0 0.020504942523285278 0.0113029178677657 0 0.02003544747707801 0.011480798816297471 0 0.0035961249225309397 0.00070897405995400066 0 0.0034442082704085721 0.001071624451384013 0 0.0039934692967881959 0.00059935489011790513 0 0.0035095999532272111 0.00041494200985137369 0 0.0035961249225309397 0.00070897405995400066 0 0.0032989958426231404 0.00094650698497595286 0 0.0074623429941029756 0.0036940970935429407 0 0.0080550805128363299 0.0050570634560023597 0 0.0085512693888632023 0.0046380578643867437 0 0.0084473572066224075 0.0057972530760688886 0 0.0067932645226049136 0.0054532980406918497 0 0.0084473572066224075 0.0057972530760688886 0 0.0066209229986496816 0.0050933247296058963 0 0.0067932645226049136 0.0054532980406918497 0 0.0066209229986496816 0.0050933247296058963 0 0.0035961249225309397 0.00070897405995400066 0 0.0032989958426231404 0.00094650698497595286 0 0.0034442082704085721 0.001071624451384013 0 0.0044562569660522803 0.0038434054012337774 0 0.004417066468843313 0.0038763775200554569 0 0.0041355903037402809 0.0036379186901147995 0 0.0044562569660522803 0.0038434054012337774 0 0.0041355903037402809 0.0036379186901147995 0 0.0042434338998375582 0.0033820851952461794 0 0.0066209229986496816 0.0050933247296058963 0 0.0016017995568444255 0.0024983006420512999 0 0.0067932645226049136 0.0054532980406918497 0 0.0027759556638791089 0.0049609547099959163 0 -0.0099518081829249334 -0.001855311409045147 0 -0.009734663688495241 -0.0018382977067399407 0 -0.0097667706444267456 -0.0022103335342637648 0 0.0032686648093178412 0.0011982417277576326 0 0.003851484621754294 0.001702510624119591 0 0.003815455309429356 0.0011180282106072223 0 -0.009734663688495241 -0.0018382977067399407 0 -0.0096184695315139068 -0.0020519080954104563 0 -0.0092389979985324343 -0.0016457773046962081 0 -0.0099518081829249334 -0.001855311409045147 0 -0.009734663688495241 -0.0018382977067399407 0 -0.0096736408763413925 -0.0015674102468541452 0 -0.009734663688495241 -0.0018382977067399407 0 -0.0096184695315139068 -0.0020519080954104563 0 -0.0097667706444267456 -0.0022103335342637648 0 -0.0096184695315139068 -0.0020519080954104563 0 -0.009623422056330995 -0.0022029021995004896 0 -0.0097667706444267456 -0.0022103335342637648 0 0.003851484621754294 0.001702510624119591 0 0.0042311763981937563 0.00076949192722116592 0 0.003815455309429356 0.0011180282106072223 0 0.0032686648093178412 0.0011982417277576326 0 0.003815455309429356 0.0011180282106072223 0 0.0039934692967881959 0.00059935489011790513 0 0.0042311763981937563 0.00076949192722116592 0 0.003815455309429356 0.0011180282106072223 0 0.0039934692967881959 0.00059935489011790513 0 0.0016017995568444255 0.0024983006420512999 0 -0.00044654638278936052 0.0004707083872641974 0 0.0066209229986496816 0.0050933247296058963 0 0.0062695167591838115 0.004174532187435887 0 -0.0094224721451784156 -0.0019345261699267422 0 -0.0095365181517853975 -0.0020315793427023569 0 -0.009435495962197565 -0.0021031612228871667 0 -0.0094224721451784156 -0.0019345261699267422 0 -0.0095365181517853975 -0.0020315793427023569 0 -0.0095356036508808684 -0.0018922369775200031 0 -0.0096184695315139068 -0.0020519080954104563 0 -0.0095365181517853975 -0.0020315793427023569 0 -0.0095258786291415251 -0.0019418652743065736 0 -0.0086067328819535577 -0.0015031410805180759 0 -0.0074287734020024102 -0.00028135368302478449 0 -0.0076669722704639258 -0.00087608525634895018 0 -0.0074287734020024102 -0.00028135368302478449 0 -0.009623422056330995 -0.0022029021995004896 0 -0.0095365181517853975 -0.0020315793427023569 0 -0.0095475692834273828 -0.0022621998107906602 0 -0.0096184695315139068 -0.0020519080954104563 0 -0.009623422056330995 -0.0022029021995004896 0 -0.0095365181517853975 -0.0020315793427023569 0 -0.009435495962197565 -0.0021031612228871667 0 -0.0094572780146745215 -0.0022530036242744745 0 -0.0093137209658324602 -0.0021896098390492718 0 -0.009435495962197565 -0.0021031612228871667 0 -0.0094572780146745215 -0.0022530036242744745 0 -0.0095475692834273828 -0.0022621998107906602 0 -0.0095365181517853975 -0.0020315793427023569 0 -0.009435495962197565 -0.0021031612228871667 0 -0.0095475692834273828 -0.0022621998107906602 0 -0.0094550135939004999 -0.0024489059069225392 0 -0.0095475692834273828 -0.0022621998107906602 0 -0.0095206621125571989 -0.0024406551528638829 0 -0.0094550135939004999 -0.0024489059069225392 0 -0.0094572780146745215 -0.0022530036242744745 0 -0.0093137209658324602 -0.0021896098390492718 0 -0.0094550135939004999 -0.0024489059069225392 0 -0.0094572780146745215 -0.0022530036242744745 0 -0.0095475692834273828 -0.0022621998107906602 0 -0.009623422056330995 -0.0022029021995004896 0 -0.0095475692834273828 -0.0022621998107906602 0 -0.0096270826577428935 -0.0024017390614665597 0 -0.0095475692834273828 -0.0022621998107906602 0 -0.0095206621125571989 -0.0024406551528638829 0 -0.0096270826577428935 -0.0024017390614665597 0 -0.0095206621125571989 -0.0024406551528638829 0 -0.0096270826577428935 -0.0024017390614665597 0 -0.0095209439310642678 -0.0024697098191395874 0 -0.0094550135939004999 -0.0024489059069225392 0 -0.0095206621125571989 -0.0024406551528638829 0 -0.009488520957786491 -0.0024433788476740637 0 0.0039934692967881959 0.00059935489011790513 0 0.0045308324680932337 -1.4567393729628072e-05 0 0.0038569522385900386 9.870256058180273e-05 0 0.0035095999532272111 0.00041494200985137369 0 0.0037326543397506601 0.00051104142316126975 0 0.0038569522385900386 9.870256058180273e-05 0 0.0035961249225309397 0.00070897405995400066 0 0.0037326543397506601 0.00051104142316126975 0 0.0039934692967881959 0.00059935489011790513 0 0.0037326543397506601 0.00051104142316126975 0 0.0039934692967881959 0.00059935489011790513 0 0.0038569522385900386 9.870256058180273e-05 0 -0.009623422056330995 -0.0022029021995004896 0 -0.0097667706444267456 -0.0022103335342637648 0 -0.0096270826577428935 -0.0024017390614665597 0 -0.00044654638278936052 0.0004707083872641974 0 -0.0013981340061863233 -0.0007017320425348559 0 0.0042311763981937563 0.00076949192722116592 0 0.0039934692967881959 0.00059935489011790513 0 0.0045308324680932337 -1.4567393729628072e-05 0 -0.0013981340061863233 -0.0007017320425348559 0 -0.0017224687330510309 -0.0016904302851343343 0 0.0045308324680932337 -1.4567393729628072e-05 0 0.0041759779044163387 -0.0004160866462330821 0 0.0048284644455634847 -0.000763485327178923 0 0.0035667766630841525 -0.00040585127695412493 0 0.0041759779044163387 -0.0004160866462330821 0 0.0038569522385900386 9.870256058180273e-05 0 0.0045308324680932337 -1.4567393729628072e-05 0 0.0041759779044163387 -0.0004160866462330821 0 0.0038569522385900386 9.870256058180273e-05 0 0.0035667766630841525 -0.00040585127695412493 0 0.0041759779044163387 -0.0004160866462330821 0 0.0041444370693363864 -0.0009533685642417434 0 0.007902709936092954 -0.0025724436751505516 0 0.0058083934050263556 -0.0042806756591892937 0 0.0084172838486908982 -0.0079604596562019483 0 0.0084468068304015594 -0.008152436386974592 0 0.0085380040969919874 -0.0082014980777286254 0 0.008464013778448614 -0.0083059767098732865 0 0.0084468068304015594 -0.008152436386974592 0 0.0084851399677682935 -0.0082423829164676096 0 0.0084851399677682935 -0.0082423829164676096 0 0.0085380040969919874 -0.0082014980777286254 0 0.008471222318904563 -0.0082903971626767953 0 0.0084468068304015594 -0.008152436386974592 0 0.0084851399677682935 -0.0082423829164676096 0 0.0085380040969919874 -0.0082014980777286254 0 0.008464013778448614 -0.0083059767098732865 0 0.0084851399677682935 -0.0082423829164676096 0 0.008471222318904563 -0.0082903971626767953 0 0.0041444370693363864 -0.0009533685642417434 0 0.0048284644455634847 -0.000763485327178923 0 0.0047136217746881455 -0.0014926548870290905 0 0.0085380040969919874 -0.0082014980777286254 0 0.0085928494130195626 -0.0082784914674610289 0 0.008471222318904563 -0.0082903971626767953 0 0.0058083934050263556 -0.0042806756591892937 0 0.002511878011664994 -0.0050005037693567189 0 0.0041759779044163387 -0.0004160866462330821 0 0.0041444370693363864 -0.0009533685642417434 0 0.0048284644455634847 -0.000763485327178923 0 -0.0095206621125571989 -0.0024406551528638829 0 -0.0095209439310642678 -0.0024697098191395874 0 -0.009488520957786491 -0.0024433788476740637 0 -0.0095209439310642678 -0.0024697098191395874 0 -0.009488520957786491 -0.0024433788476740637 0 -0.0094982429314554966 -0.0024534898220749074 0 -0.009488520957786491 -0.0024433788476740637 0 -0.0094982429314554966 -0.0024534898220749074 0 -0.0095270204122512199 -0.0024310616456369658 0 -0.0094982429314554966 -0.0024534898220749074 0 -0.009492934104586969 -0.0024645655107447071 0 -0.0094901621986905587 -0.0024585798075764443 0 -0.0095209439310642678 -0.0024697098191395874 0 -0.0094982429314554966 -0.0024534898220749074 0 -0.009492934104586969 -0.0024645655107447071 0 0.0048284644455634847 -0.000763485327178923 0 0.0047136217746881455 -0.0014926548870290905 0 0.0051269180168269568 -0.0015048827783125519 0 -0.0017224687330510309 -0.0016904302851343343 0 -0.0014076547685451138 -0.0034443022283835657 0 -0.00071876376895043087 -0.0041365977604649953 0 -0.0012095298286821305 -0.003807275692824462 0 -0.001305495505506065 -0.0036240664475237759 0 -0.00071876376895043087 -0.0041365977604649953 0 -0.0010629523978517349 -0.0041303424039353066 0 -0.0012095298286821305 -0.003807275692824462 0 0.002511878011664994 -0.0050005037693567189 0 -0.0014076547685451138 -0.0034443022283835657 0 0.0019219583865211221 -0.0092647678976729587 0 0.0010509474846308999 -0.0083501591923277503 0 0.0019899636243268176 -0.0084286212347804701 0 0.002511878011664994 -0.0050005037693567189 0 -0.001170781838112152 -0.0059432826796077479 0 -0.0014076547685451138 -0.0034443022283835657 0 -0.0042135564208461724 -0.0045944962624654738 0 -0.0010735740818358739 -0.0041252635555230691 0 -0.0015148975592176829 -0.0041182601217782796 0 -0.0012095298286821305 -0.003807275692824462 0 0.00038095754545502221 -0.010036878340681744 0 0.00088445641087946179 -0.0088763673856883402 0 0.00021077538793564415 -0.0092722235926061842 0 -0.0015148975592176829 -0.0041182601217782796 0 -0.0012095298286821305 -0.003807275692824462 0 -0.001305495505506065 -0.0036240664475237759 0 -0.0042135564208461724 -0.0045944962624654738 0 -0.001170781838112152 -0.0059432826796077479 0 -0.0014076547685451138 -0.0034443022283835657 0 -0.0013536717612346739 -0.0035622064304141011 0 0.00038623376204302367 -0.0089511266316719545 0 0.00074962153868506542 -0.0087482759410544373 0 0.00088445641087946179 -0.0088763673856883402 0 0.00038623376204302367 -0.0089511266316719545 0 0.00088445641087946179 -0.0088763673856883402 0 0.00021077538793564415 -0.0092722235926061842 0 0.00038623376204302367 -0.0089511266316719545 0 0.00074962153868506542 -0.0087482759410544373 0 0.0004430747514779555 -0.0086141511961839723 0 -0.0011369744794956823 -0.0059777093841106412 0 -0.001170781838112152 -0.0059432826796077479 0 -0.0010898176771965298 -0.0063049053820343403 0 -0.001170781838112152 -0.0059432826796077479 0 0.0012189510695305827 -0.0079675309064384248 0 0.0010509474846308999 -0.0083501591923277503 0 0.0015001616898572437 -0.0081520067442343545 0 0.0012189510695305827 -0.0079675309064384248 0 0.00074962153868506542 -0.0087482759410544373 0 0.00090575478867082563 -0.0088888846559728469 0 0.0012189510695305827 -0.0079675309064384248 0 0.00055740068376826856 -0.0081905379477093098 0 0.00074962153868506542 -0.0087482759410544373 0 0.00055740068376826856 -0.0081905379477093098 0 0.00074962153868506542 -0.0087482759410544373 0 0.0004430747514779555 -0.0086141511961839723 0 0.0022052866373691777 -0.0076005346988620463 0 0.001718194939426777 -0.0078850494861220678 0 0.0019899636243268176 -0.0084286212347804701 0 0.0010509474846308999 -0.0083501591923277503 0 0.0019899636243268176 -0.0084286212347804701 0 0.0015001616898572437 -0.0081520067442343545 0 0.001718194939426777 -0.0078850494861220678 0 0.0019899636243268176 -0.0084286212347804701 0 0.0015001616898572437 -0.0081520067442343545 0 0.001718194939426777 -0.0078850494861220678 0 0.0012189510695305827 -0.0079675309064384248 0 0.0015001616898572437 -0.0081520067442343545 0 0.0026689572045525412 -0.0080405490577117236 0 0.0021446505275974212 -0.0078307019700909978 0 0.0027620223255401593 -0.0084386322452100464 0 0.0022052866373691777 -0.0076005346988620463 0 0.0019899636243268176 -0.0084286212347804701 0 0.0027620223255401593 -0.0084386322452100464 0 0.0020544204768383331 -0.0075986023356527611 0 0.0022578204344551184 -0.0079595087333322722 0 0.0019899636243268176 -0.0084286212347804701 0 0.0027620223255401593 -0.0084386322452100464 0 0.0025239405623482011 -0.0085814592692014663 0 0.0026689572045525412 -0.0080405490577117236 0 0.0027620223255401593 -0.0084386322452100464 0 0.0028342635125331579 -0.0082543777059972453 0 0.0026689572045525412 -0.0080405490577117236 0 0.0029304427836531672 -0.0079140366826282605 0 0.0028342635125331579 -0.0082543777059972453 0 0.0072932770504952095 -0.0068019639605290212 0 0.0062347426854589142 -0.006435896670863089 0 0.0061913938104890577 -0.0076772099486524066 0 0.0052185691434277117 -0.0080560192458214355 0 0.0054832946746261836 -0.0092994456746744222 0 0.0029672260136678827 -0.0088973894579113481 0 0.0027620223255401593 -0.0084386322452100464 0 0.0028342635125331579 -0.0082543777059972453 0 0.0029672260136678827 -0.0088973894579113481 0 0.0062347426854589142 -0.006435896670863089 0 0.0052185691434277117 -0.0080560192458214355 0 0.0029672260136678827 -0.0088973894579113481 0 0.0046088531909106124 -0.007732838340550172 0 0.0038274466060191424 -0.0083870006554875535 0 0.0062347426854589142 -0.006435896670863089 0 0.0052185691434277117 -0.0080560192458214355 0 0.0061913938104890577 -0.0076772099486524066 0 0.0071428781107979056 -0.007764864766588944 0 0.0061913938104890577 -0.0076772099486524066 0 0.0054832946746261836 -0.0092994456746744222 0 0.0052185691434277117 -0.0080560192458214355 0 0.0061913938104890577 -0.0076772099486524066 0 0.0054832946746261836 -0.0092994456746744222 0 0.0019219583865211221 -0.0092647678976729587 0 0.0019899636243268176 -0.0084286212347804701 0 0.0025239405623482011 -0.0085814592692014663 0 0.002511878011664994 -0.0050005037693567189 0 0.0059913656106269407 -0.0065820447571755527 0 0.0019219583865211221 -0.0092647678976729587 0 0.0054832946746261836 -0.0092994456746744222 0 0.0029672260136678827 -0.0088973894579113481 0 0.0019219583865211221 -0.0092647678976729587 0 0.0029672260136678827 -0.0088973894579113481 0 0.0025239405623482011 -0.0085814592692014663 0 0.0027620223255401593 -0.0084386322452100464 0 0.0029672260136678827 -0.0088973894579113481 0 0.0025239405623482011 -0.0085814592692014663 0 -0.0097183848675372921 -0.0047412852799678246 0 -0.0094239668743089818 -0.0045260565163173392 0 -0.0096525906228355288 -0.0053403335363684159 0 -0.0097183848675372921 -0.0047412852799678246 0 -0.0096525906228355288 -0.0053403335363684159 0 -0.0099819190327414403 -0.004720903644946782 0 -0.002344750814851926 -0.0090363421981141459 0 -0.0012690849085152502 -0.0089604945711044687 0 -0.0013804157893227739 -0.0096833689072291038 0 -0.0052465369376137995 -0.0067988779485931078 0 -0.0052242572066603281 -0.0061053957519449495 0 -0.0097183848675372921 -0.0047412852799678246 0 -0.0099819190327414403 -0.004720903644946782 0 -0.0097622746565507491 -0.0044395856525396588 0 -0.0097183848675372921 -0.0047412852799678246 0 -0.0094239668743089818 -0.0045260565163173392 0 -0.0097622746565507491 -0.0044395856525396588 0 -0.0089104569703488384 -0.0047948880925235832 0 -0.0094239668743089818 -0.0045260565163173392 0 -0.0090509565942694901 -0.0042178202577799308 0 -0.0089104569703488384 -0.0047948880925235832 0 -0.0094239668743089818 -0.0045260565163173392 0 -0.0096525906228355288 -0.0053403335363684159 0 -0.0048210011681525475 -0.0074791746189526911 0 -0.0031480539308770665 -0.0077217901009217901 0 -0.003299775771069192 -0.0083778418453544414 0 -0.002344750814851926 -0.0090363421981141459 0 -0.001736748806352856 -0.0084037398981023914 0 -0.0048210011681525475 -0.0074791746189526911 0 -0.0052465369376137995 -0.0067988779485931078 0 -0.0086632557550462112 -0.0065473072777869051 0 -0.0089104569703488384 -0.0047948880925235832 0 -0.0096525906228355288 -0.0053403335363684159 0 -0.002344750814851926 -0.0090363421981141459 0 -0.001736748806352856 -0.0084037398981023914 0 -0.0012690849085152502 -0.0089604945711044687 0 -0.001736748806352856 -0.0084037398981023914 0 -0.0008926801224627219 -0.0085564085418841779 0 -0.0012690849085152502 -0.0089604945711044687 0 -0.0008926801224627219 -0.0085564085418841779 0 -0.00034373932256956207 -0.0083097655083088726 0 -0.00048451589740728068 -0.0088608091274272032 0 -0.0012690849085152502 -0.0089604945711044687 0 -0.00048451589740728068 -0.0088608091274272032 0 -0.00090372628434938116 -0.0093851500793070367 0 -0.0008926801224627219 -0.0085564085418841779 0 -0.0012690849085152502 -0.0089604945711044687 0 -0.00048451589740728068 -0.0088608091274272032 0 0.00055740068376826856 -0.0081905379477093098 0 0.0004430747514779555 -0.0086141511961839723 0 8.4713326575098968e-05 -0.0085597602053523805 0 8.4713326575098968e-05 -0.0085597602053523805 0 -0.00034373932256956207 -0.0083097655083088726 0 -0.00048451589740728068 -0.0088608091274272032 0 -0.00048451589740728068 -0.0088608091274272032 0 -8.529354365880821e-05 -0.0090032515172593364 0 -0.00035751535912652359 -0.0094449964380871124 0 8.4713326575098968e-05 -0.0085597602053523805 0 -0.00048451589740728068 -0.0088608091274272032 0 -8.529354365880821e-05 -0.0090032515172593364 0 0.00038623376204302367 -0.0089511266316719545 0 8.4713326575098968e-05 -0.0085597602053523805 0 -8.529354365880821e-05 -0.0090032515172593364 0 0.00038623376204302367 -0.0089511266316719545 0 -8.529354365880821e-05 -0.0090032515172593364 0 0.00021077538793564415 -0.0092722235926061842 0 0.00038623376204302367 -0.0089511266316719545 0 0.0004430747514779555 -0.0086141511961839723 0 8.4713326575098968e-05 -0.0085597602053523805 0 0.00038095754545502221 -0.010036878340681744 0 -0.00035751535912652359 -0.0094449964380871124 0 -0.00088667552052792661 -0.010025955879759319 0 -0.0042135564208461724 -0.0045944962624654738 0 -0.0052323002934908337 -0.0055667511937031611 0 -8.529354365880821e-05 -0.0090032515172593364 0 0.00021077538793564415 -0.0092722235926061842 0 -0.00035751535912652359 -0.0094449964380871124 0 0.00038095754545502221 -0.010036878340681744 0 0.00021077538793564415 -0.0092722235926061842 0 -0.00035751535912652359 -0.0094449964380871124 0 -0.0012690849085152502 -0.0089604945711044687 0 -0.00090372628434938116 -0.0093851500793070367 0 -0.0013804157893227739 -0.0096833689072291038 0 -0.00035751535912652359 -0.0094449964380871124 0 -0.00090372628434938116 -0.0093851500793070367 0 -0.00088667552052792661 -0.010025955879759319 0 -0.00048451589740728068 -0.0088608091274272032 0 -0.00035751535912652359 -0.0094449964380871124 0 -0.00090372628434938116 -0.0093851500793070367 0 -0.010119231878963833 -0.0045400464741923094 0 -0.0099819190327414403 -0.004720903644946782 0 -0.01000824040048022 -0.0043756171792952853 0 -0.00090372628434938116 -0.0093851500793070367 0 -0.00088667552052792661 -0.010025955879759319 0 -0.0013804157893227739 -0.0096833689072291038 0 -0.0052323002934908337 -0.0055667511937031611 0 -0.0052242572066603281 -0.0061053957519449495 0 -0.0099819190327414403 -0.004720903644946782 0 -0.01000824040048022 -0.0043756171792952853 0 -0.0097622746565507491 -0.0044395856525396588 0 -0.01000824040048022 -0.0043756171792952853 0 -0.0098732437827432924 -0.004184419791571894 0 -0.0097622746565507491 -0.0044395856525396588 0 -0.01000824040048022 -0.0043756171792952853 0 -0.010131676390908196 -0.0041586811912856748 0 -0.010276697442575287 -0.0043970866513369329 0 -0.010119231878963833 -0.0045400464741923094 0 -0.01000824040048022 -0.0043756171792952853 0 -0.010276697442575287 -0.0043970866513369329 0 -0.0052323002934908337 -0.0055667511937031611 0 -0.0058379475551702262 -0.0052382249303055753 0 -0.01000824040048022 -0.0043756171792952853 0 -0.010131676390908196 -0.0041586811912856748 0 -0.0098732437827432924 -0.004184419791571894 0 -0.010582126676162059 -0.0045287990536130975 0 -0.010276697442575287 -0.0043970866513369329 0 -0.010357137540569765 -0.0039808204143977587 0 -0.010582126676162059 -0.0045287990536130975 0 -0.010074483383580394 -0.0045370640970679374 0 -0.010276697442575287 -0.0043970866513369329 0 -0.0042135564208461724 -0.0045944962624654738 0 -0.0071181445284774596 -0.0041555106827784356 0 -0.0094982429314554966 -0.0024534898220749074 0 -0.0094901621986905587 -0.0024585798075764443 0 -0.0095270204122512199 -0.0024310616456369658 0 -0.010131676390908196 -0.0041586811912856748 0 -0.010276697442575287 -0.0043970866513369329 0 -0.010357137540569765 -0.0039808204143977587 0 -0.010131676390908196 -0.0041586811912856748 0 -0.010357137540569765 -0.0039808204143977587 0 -0.0099532728527426916 -0.0038140286975583016 0 -0.010357137540569765 -0.0039808204143977587 0 -0.0099532728527426916 -0.0038140286975583016 0 -0.01008402826265881 -0.0034324233068662949 0 -0.010131676390908196 -0.0041586811912856748 0 -0.0098732437827432924 -0.004184419791571894 0 -0.0099532728527426916 -0.0038140286975583016 0 -0.0098732437827432924 -0.004184419791571894 0 -0.0099532728527426916 -0.0038140286975583016 0 -0.0096968864526938373 -0.0038920813941173446 0 -0.0096968864526938373 -0.0038920813941173446 0 -0.0094269815298072285 -0.0040216861539359369 0 -0.0095408263404175939 -0.0035684374851572605 0 -0.0099532728527426916 -0.0038140286975583016 0 -0.0096968864526938373 -0.0038920813941173446 0 -0.0095408263404175939 -0.0035684374851572605 0 -0.0098732437827432924 -0.004184419791571894 0 -0.0096968864526938373 -0.0038920813941173446 0 -0.0094269815298072285 -0.0040216861539359369 0 -0.0098732437827432924 -0.004184419791571894 0 -0.0097622746565507491 -0.0044395856525396588 0 -0.0094269815298072285 -0.0040216861539359369 0 -0.0094239668743089818 -0.0045260565163173392 0 -0.0097622746565507491 -0.0044395856525396588 0 -0.0094269815298072285 -0.0040216861539359369 0 -0.0094239668743089818 -0.0045260565163173392 0 -0.0090509565942694901 -0.0042178202577799308 0 -0.0094269815298072285 -0.0040216861539359369 0 -0.0094269815298072285 -0.0040216861539359369 0 -0.0090974823573431868 -0.0037861777447051113 0 -0.0095408263404175939 -0.0035684374851572605 0 -0.0090509565942694901 -0.0042178202577799308 0 -0.0094269815298072285 -0.0040216861539359369 0 -0.0090974823573431868 -0.0037861777447051113 0 -0.0090968233816278929 -0.003384196984956359 0 -0.0090974823573431868 -0.0037861777447051113 0 -0.0095408263404175939 -0.0035684374851572605 0 -0.0095408263404175939 -0.0035684374851572605 0 -0.0096869956038848973 -0.0032370286877539535 0 -0.01008402826265881 -0.0034324233068662949 0 -0.0095408263404175939 -0.0035684374851572605 0 -0.0094248525332016348 -0.0030938215322385558 0 -0.0096869956038848973 -0.0032370286877539535 0 -0.0094248525332016348 -0.0030938215322385558 0 -0.0096869956038848973 -0.0032370286877539535 0 -0.0097518873728159663 -0.0028695726274145907 0 -0.0090968233816278929 -0.003384196984956359 0 -0.0095408263404175939 -0.0035684374851572605 0 -0.0094248525332016348 -0.0030938215322385558 0 -0.0090968233816278929 -0.003384196984956359 0 -0.0089817966271060288 -0.0030570623834898919 0 -0.0094248525332016348 -0.0030938215322385558 0 -0.009488520957786491 -0.0024433788476740637 0 -0.0095270204122512199 -0.0024310616456369658 0 -0.0096475917114430005 -0.0025075141412503545 0 -0.0094550135939004999 -0.0024489059069225392 0 -0.009488520957786491 -0.0024433788476740637 0 -0.0096475917114430005 -0.0025075141412503545 0 -0.0071181445284774596 -0.0041555106827784356 0 -0.0082823473215226165 -0.0036593416821040993 0 -0.0099532728527426916 -0.0038140286975583016 0 -0.0095408263404175939 -0.0035684374851572605 0 -0.01008402826265881 -0.0034324233068662949 0 -0.0082823473215226165 -0.0036593416821040993 0 -0.0085852699866903852 -0.0034670671754612695 0 -0.0096869956038848973 -0.0032370286877539535 0 -0.01008402826265881 -0.0034324233068662949 0 -0.0097518873728159663 -0.0028695726274145907 0 -0.0096475917114430005 -0.0025075141412503545 0 -0.009599241772137411 -0.0027823533703501446 0 -0.0097518873728159663 -0.0028695726274145907 0 -0.0095302431497889199 -0.0024110059194420203 0 -0.0095214528189387203 -0.0023672378156126515 0 -0.0094550135939004999 -0.0024489059069225392 0 -0.0096475917114430005 -0.0025075141412503545 0 -0.009599241772137411 -0.0027823533703501446 0 -0.0093137209658324602 -0.0021896098390492718 0 -0.0092586021274397023 -0.0020353570839796646 0 -0.0093493358779877869 -0.002012762512361016 0 -0.009435495962197565 -0.0021031612228871667 0 -0.0093137209658324602 -0.0021896098390492718 0 -0.0093493358779877869 -0.002012762512361016 0 -0.0095214528189387203 -0.0023672378156126515 0 -0.0094722859988559151 -0.0021955840062964286 0 -0.0097518873728159663 -0.0028695726274145907 0 -0.0097576302056206835 -0.0027748543092618902 0 -0.0095567938712492837 -0.0028600082810491933 0 -0.009599241772137411 -0.0027823533703501446 0 -0.0097518873728159663 -0.0028695726274145907 0 -0.0097576302056206835 -0.0027748543092618902 0 -0.0094722859988559151 -0.0021955840062964286 0 -0.0093248223617172846 -0.0018165265670540085 0 -0.0092586021274397023 -0.0020353570839796646 0 -0.0093093839733924735 -0.001933599447905487 0 -0.0092505750124791328 -0.0017805075149766615 0 -0.0092586021274397023 -0.0020353570839796646 0 -0.0093093839733924735 -0.001933599447905487 0 -0.0093493358779877869 -0.002012762512361016 0 -0.0094224721451784156 -0.0019345261699267422 0 -0.009435495962197565 -0.0021031612228871667 0 -0.0093493358779877869 -0.002012762512361016 0 -0.0093093839733924735 -0.001933599447905487 0 -0.0093493358779877869 -0.002012762512361016 0 -0.0093539347740921042 -0.0018879206474431713 0 -0.0094224721451784156 -0.0019345261699267422 0 -0.0093493358779877869 -0.002012762512361016 0 -0.0093539347740921042 -0.0018879206474431713 0 -0.0089817966271060288 -0.0030570623834898919 0 -0.0094248525332016348 -0.0030938215322385558 0 -0.0093322830678079262 -0.0028114214146257219 0 -0.0094248525332016348 -0.0030938215322385558 0 -0.0097518873728159663 -0.0028695726274145907 0 -0.0095567938712492837 -0.0028600082810491933 0 -0.0094248525332016348 -0.0030938215322385558 0 -0.0093322830678079262 -0.0028114214146257219 0 -0.0095567938712492837 -0.0028600082810491933 0 -0.0097576302056206835 -0.0027748543092618902 0 -0.0095567938712492837 -0.0028600082810491933 0 -0.0095400968528256639 -0.0026937409529993899 0 -0.0093322830678079262 -0.0028114214146257219 0 -0.0095567938712492837 -0.0028600082810491933 0 -0.0095400968528256639 -0.0026937409529993899 0 -0.0097576302056206835 -0.0027748543092618902 0 -0.0095400968528256639 -0.0026937409529993899 0 -0.0095656288335531966 -0.0024308250243863325 0 -0.0090787051441702949 -0.00271492599435869 0 -0.0093322830678079262 -0.0028114214146257219 0 -0.0093145558173426922 -0.002536717449405426 0 -0.0090787051441702949 -0.00271492599435869 0 -0.0093145558173426922 -0.002536717449405426 0 -0.0090428798886277029 -0.0024281262586847044 0 -0.0093322830678079262 -0.0028114214146257219 0 -0.0095400968528256639 -0.0026937409529993899 0 -0.0093145558173426922 -0.002536717449405426 0 -0.0093145558173426922 -0.002536717449405426 0 -0.0095656288335531966 -0.0024308250243863325 0 -0.0093112879515917426 -0.0021043441102121291 0 -0.0093145558173426922 -0.002536717449405426 0 -0.0093112879515917426 -0.0021043441102121291 0 -0.0090428798886277029 -0.0024281262586847044 0 -0.0095400968528256639 -0.0026937409529993899 0 -0.0093145558173426922 -0.002536717449405426 0 -0.0095656288335531966 -0.0024308250243863325 0 -0.0089194354955789978 -0.0016881096426973104 0 -0.0089895890990424557 -0.00099197324157954277 0 -0.009273372977487853 -0.0013471281952593911 0 -0.0089895890990424557 -0.00099197324157954277 0 -0.0083092049309427003 -0.00094751129339035233 0 -0.0087383661018239737 -0.00042103177383924641 0 -0.0089194354955789978 -0.0016881096426973104 0 -0.0089895890990424557 -0.00099197324157954277 0 -0.0083092049309427003 -0.00094751129339035233 0 -0.0093248223617172846 -0.0018165265670540085 0 -0.0091380511531494856 -0.0012283733677308467 0 -0.0091380511531494856 -0.0012283733677308467 0 -0.0089126302865133664 -0.0019625315160477427 0 -0.0075512346855353789 0.00055169609913563249 0 -0.0083977712560642723 0.00012886993937321058 0 -0.0094224721451784156 -0.0019345261699267422 0 -0.0094181894952705698 -0.0018191842595986303 0 -0.0093539347740921042 -0.0018879206474431713 0 -0.0094181894952705698 -0.0018191842595986303 0 -0.0093539347740921042 -0.0018879206474431713 0 -0.0092505750124791328 -0.0017805075149766615 0 -0.010400631223919529 -0.0013926711101884808 0 -0.0092505750124791328 -0.0017805075149766615 0 -0.0096997034284707715 -0.0013030398794867176 0 -0.0092586021274397023 -0.0020353570839796646 0 -0.0089194354955789978 -0.0016881096426973104 0 -0.0092505750124791328 -0.0017805075149766615 0 -0.0093093839733924735 -0.001933599447905487 0 -0.0093539347740921042 -0.0018879206474431713 0 -0.0092505750124791328 -0.0017805075149766615 0 -0.0092505750124791328 -0.0017805075149766615 0 -0.009273372977487853 -0.0013471281952593911 0 -0.0096997034284707715 -0.0013030398794867176 0 -0.0089194354955789978 -0.0016881096426973104 0 -0.0092505750124791328 -0.0017805075149766615 0 -0.009273372977487853 -0.0013471281952593911 0 -0.0089895890990424557 -0.00099197324157954277 0 -0.009273372977487853 -0.0013471281952593911 0 -0.0094881097127704275 -0.00092459614084378007 0 -0.0089895890990424557 -0.00099197324157954277 0 -0.0094881097127704275 -0.00092459614084378007 0 -0.0093671959750544764 -0.00041651337830536991 0 -0.009273372977487853 -0.0013471281952593911 0 -0.0094881097127704275 -0.00092459614084378007 0 -0.0096997034284707715 -0.0013030398794867176 0 -0.0094881097127704275 -0.00092459614084378007 0 -0.0096997034284707715 -0.0013030398794867176 0 -0.010087138727295983 -0.0010877819906657653 0 -0.010400631223919529 -0.0013926711101884808 0 -0.0096997034284707715 -0.0013030398794867176 0 -0.010087138727295983 -0.0010877819906657653 0 -0.010400631223919529 -0.0013926711101884808 0 -0.010087138727295983 -0.0010877819906657653 0 -0.010299431307695369 -0.00072480871590608394 0 -0.0075512346855353789 0.00055169609913563249 0 -0.0072154451452458935 0.0013499118751529339 0 -0.010087138727295983 -0.0010877819906657653 0 -0.010299431307695369 -0.00072480871590608394 0 -0.009794543580745451 -0.00063844590257739788 0 -0.0094881097127704275 -0.00092459614084378007 0 -0.010087138727295983 -0.0010877819906657653 0 -0.009794543580745451 -0.00063844590257739788 0 -0.010299431307695369 -0.00072480871590608394 0 -0.009794543580745451 -0.00063844590257739788 0 -0.0097551954532959246 -5.9380107079867309e-05 0 -0.0072154451452458935 0.0013499118751529339 0 -0.0063378739605868713 0.0030477625485564007 0 -0.0066347246693101783 0.0024713394122639013 0 -0.006638780801393792 0.0024536118039892385 0 -0.0066226378663240505 0.0024743254429406883 0 -0.0059928783752314085 0.0043163449161423362 0 -0.0068816894379026914 0.0032608032447105488 0 -0.0061384625503431659 0.0032093696888517219 0 -0.0072154451452458935 0.0013499118751529339 0 -0.0078536847377758436 0.0012502656624841107 0 -0.0093671959750544764 -0.00041651337830536991 0 -0.0097551954532959246 -5.9380107079867309e-05 0 -0.0092453720324708819 9.4313709637439445e-05 0 -0.009794543580745451 -0.00063844590257739788 0 -0.0093671959750544764 -0.00041651337830536991 0 -0.0097551954532959246 -5.9380107079867309e-05 0 -0.0094881097127704275 -0.00092459614084378007 0 -0.009794543580745451 -0.00063844590257739788 0 -0.0093671959750544764 -0.00041651337830536991 0 -0.0072217447817846756 0.0022662547329404116 0 -0.0068816894379026914 0.0032608032447105488 0 -0.0078287088638694293 0.0021493131539057752 0 -0.0078536847377758436 0.0012502656624841107 0 -0.0082420374255164353 0.0010856289396322853 0 -0.0097551954532959246 -5.9380107079867309e-05 0 -0.0092453720324708819 9.4313709637439445e-05 0 -0.0093329430932781975 0.00044804686768352227 0 -0.0073718268855845577 0.002115770434613219 0 -0.006459321233199403 0.0029051604557609606 0 -0.0066428922156134811 0.0015527406600434198 0 -0.0063378739605868713 0.0030477625485564007 0 -0.006381427040247625 0.0024525642362980492 0 -0.007147618458031353 0.0023242598204855757 0 -0.0063378739605868713 0.0030477625485564007 0 -0.0072217447817846756 0.0022662547329404116 0 -0.0068816894379026914 0.0032608032447105488 0 -0.0061384625503431659 0.0032093696888517219 0 -0.0055883901028702361 0.006185496014517 0 -0.0059837008129567746 0.0036331505447760436 0 -0.0046682997324715529 0.0048398185074755165 0 -0.0090836882095720068 -8.8253117549167174e-05 0 -0.0091515099957513099 -7.8941475837503489e-05 0 -0.0091051055446296839 0.00014384556385003028 0 -0.0090836882095720068 -8.8253117549167174e-05 0 -0.0090268028642856556 -8.0354233600481989e-06 0 -0.0090827377041168226 -0.00019883194631122673 0 -0.0091380511531494856 -0.0012283733677308467 0 -0.0090290636320428316 -0.00096632703189537426 0 -0.0090891152319583501 -0.00013551948576847445 0 -0.0090836882095720068 -8.8253117549167174e-05 0 -0.0090827377041168226 -0.00019883194631122673 0 -0.0090891152319583501 -0.00013551948576847445 0 -0.0090836882095720068 -8.8253117549167174e-05 0 -0.0091515099957513099 -7.8941475837503489e-05 0 -0.0091380511531494856 -0.0012283733677308467 0 -0.009245406263258692 -0.00080285400388461288 0 -0.0089895890990424557 -0.00099197324157954277 0 -0.0093671959750544764 -0.00041651337830536991 0 -0.0087383661018239737 -0.00042103177383924641 0 -0.009245406263258692 -0.00080285400388461288 0 -0.0093060821357822954 -0.00063780844316498259 0 -0.0093671959750544764 -0.00041651337830536991 0 -0.0087383661018239737 -0.00042103177383924641 0 -0.0092453720324708819 9.4313709637439445e-05 0 -0.0091515099957513099 -7.8941475837503489e-05 0 -0.0091051055446296839 0.00014384556385003028 0 -0.0092453720324708819 9.4313709637439445e-05 0 -0.0092453720324708819 9.4313709637439445e-05 0 -0.0091233057414573191 0.00039032672545115865 0 -0.0093329430932781975 0.00044804686768352227 0 -0.0091051055446296839 0.00014384556385003028 0 -0.0091233057414573191 0.00039032672545115865 0 -0.0090043299519345175 0.00047025074453979648 0 -0.0091051055446296839 0.00014384556385003028 0 -0.0092453720324708819 9.4313709637439445e-05 0 -0.0091233057414573191 0.00039032672545115865 0 -0.0090104990637938885 0.00022629368178771726 0 -0.0089169026730523022 0.00075380940987977696 0 -0.0088639420660952713 6.8154988917881474e-05 0 -0.0091051055446296839 0.00014384556385003028 0 -0.0090104990637938885 0.00022629368178771726 0 -0.0090043299519345175 0.00047025074453979648 0 -0.0090836882095720068 -8.8253117549167174e-05 0 -0.0091051055446296839 0.00014384556385003028 0 -0.0090104990637938885 0.00022629368178771726 0 -0.0090268028642856556 -8.0354233600481989e-06 0 -0.0090104990637938885 0.00022629368178771726 0 -0.0088639420660952713 6.8154988917881474e-05 0 -0.0090836882095720068 -8.8253117549167174e-05 0 -0.0090268028642856556 -8.0354233600481989e-06 0 -0.0090104990637938885 0.00022629368178771726 0 -0.0089169026730523022 0.00075380940987977696 0 -0.0090043299519345175 0.00047025074453979648 0 -0.008769115105811489 0.00080099020253805264 0 -0.0090104990637938885 0.00022629368178771726 0 -0.0089169026730523022 0.00075380940987977696 0 -0.0090043299519345175 0.00047025074453979648 0 -0.0083625249724901922 0.0011767547777559223 0 -0.0077422499183332702 0.0018003108121936362 0 -0.0093541763693178598 0.0011171797453063831 0 -0.009815587160992954 0.0021676420326910747 0 -0.0089331238306748599 0.0020437185487187318 0 -0.0089169026730523022 0.00075380940987977696 0 -0.008769115105811489 0.00080099020253805264 0 -0.008814038383792501 7.5246986763403482e-05 0 -0.0081968880311552514 0.00061969056886161385 0 -0.008769115105811489 0.00080099020253805264 0 -0.008814038383792501 7.5246986763403482e-05 0 -0.0081968880311552514 0.00061969056886161385 0 -0.008769115105811489 0.00080099020253805264 0 -0.0083638792502504777 0.0011586221085515202 0 -0.0081968880311552514 0.00061969056886161385 0 -0.0083638792502504777 0.0011586221085515202 0 -0.0078549238849773082 0.00097244469958556606 0 -0.008769115105811489 0.00080099020253805264 0 -0.0083638792502504777 0.0011586221085515202 0 -0.0078287088638694293 0.0021493131539057752 0 -0.0091233057414573191 0.00039032672545115865 0 -0.0090043299519345175 0.00047025074453979648 0 -0.008769115105811489 0.00080099020253805264 0 -0.0084093578880415683 0.00095711729987240605 0 -0.0082420374255164353 0.0010856289396322853 0 -0.0091233057414573191 0.00039032672545115865 0 -0.008769115105811489 0.00080099020253805264 0 -0.0093329430932781975 0.00044804686768352227 0 -0.007147618458031353 0.0023242598204855757 0 -0.0076007608269188821 0.001918673461251642 0 -0.0073718268855845577 0.002115770434613219 0 -0.0083638792502504777 0.0011586221085515202 0 -0.0074984200291930625 0.0013074673796944162 0 -0.0072217447817846756 0.0022662547329404116 0 -0.0083638792502504777 0.0011586221085515202 0 -0.0078287088638694293 0.0021493131539057752 0 -0.0073718268855845577 0.002115770434613219 0 -0.0074984200291930625 0.0013074673796944162 0 -0.0066428922156134811 0.0015527406600434198 0 -0.0066428922156134811 0.0015527406600434198 0 -0.0073552987849290451 0.00078461810081443064 0 -0.0066091515138695595 0.00050690315067762777 0 -0.006381427040247625 0.0024525642362980492 0 -0.0064778964025441711 0.0016611669112154108 0 -0.0059837008129567746 0.0036331505447760436 0 -0.0066091515138695595 0.00050690315067762777 0 -0.0043840819914561444 0.0016836777643465556 0 -0.0074984200291930625 0.0013074673796944162 0 -0.0066428922156134811 0.0015527406600434198 0 -0.0073552987849290451 0.00078461810081443064 0 -0.0074984200291930625 0.0013074673796944162 0 -0.0078549238849773082 0.00097244469958556606 0 -0.0073552987849290451 0.00078461810081443064 0 -0.0083638792502504777 0.0011586221085515202 0 -0.0074984200291930625 0.0013074673796944162 0 -0.0078549238849773082 0.00097244469958556606 0 -0.0081968880311552514 0.00061969056886161385 0 -0.0073552987849290451 0.00078461810081443064 0 -0.0078794981320987716 0.00015662839832162494 0 -0.0081968880311552514 0.00061969056886161385 0 -0.0078549238849773082 0.00097244469958556606 0 -0.0073552987849290451 0.00078461810081443064 0 -0.0078794981320987716 0.00015662839832162494 0 -0.0072582588695194114 0.00020634691428634067 0 -0.0074631913792022643 -0.00035683116113655272 0 -0.0073552987849290451 0.00078461810081443064 0 -0.0078794981320987716 0.00015662839832162494 0 -0.0072582588695194114 0.00020634691428634067 0 -0.0073552987849290451 0.00078461810081443064 0 -0.0072582588695194114 0.00020634691428634067 0 -0.0066091515138695595 0.00050690315067762777 0 -0.0072582588695194114 0.00020634691428634067 0 -0.0069064306293830707 -0.00015839557498335805 0 -0.0066091515138695595 0.00050690315067762777 0 -0.0069064306293830707 -0.00015839557498335805 0 -0.0069774373363139415 -0.00059002893931662257 0 -0.0074631913792022643 -0.00035683116113655272 0 -0.0072582588695194114 0.00020634691428634067 0 -0.0069064306293830707 -0.00015839557498335805 0 -0.0074631913792022643 -0.00035683116113655272 0 -0.0078794981320987716 0.00015662839832162494 0 -0.0074631913792022643 -0.00035683116113655272 0 -0.0080426287816859638 -0.00043664306413566603 0 -0.0074631913792022643 -0.00035683116113655272 0 -0.0075820160268865672 -0.00083741587020308276 0 -0.0080426287816859638 -0.00043664306413566603 0 -0.0058827733289357137 8.6458600953083552e-05 0 -0.0055639247562514291 -0.00070259198532241591 0 -0.0043840819914561444 0.0016836777643465556 0 -0.0058827733289357137 8.6458600953083552e-05 0 -0.0066091515138695595 0.00050690315067762777 0 -0.0043840819914561444 0.0016836777643465556 0 -0.0058827733289357137 8.6458600953083552e-05 0 -0.0066091515138695595 0.00050690315067762777 0 -0.0064143079341518246 -0.00019700809259334611 0 -0.0069064306293830707 -0.00015839557498335805 0 -0.0066091515138695595 0.00050690315067762777 0 -0.0064143079341518246 -0.00019700809259334611 0 -0.0069064306293830707 -0.00015839557498335805 0 -0.0066659704136760867 -0.00056485307403911287 0 -0.0064143079341518246 -0.00019700809259334611 0 -0.0069064306293830707 -0.00015839557498335805 0 -0.0069774373363139415 -0.00059002893931662257 0 -0.0066659704136760867 -0.00056485307403911287 0 -0.0066659704136760867 -0.00056485307403911287 0 -0.0064143079341518246 -0.00019700809259334611 0 -0.0061077265724353994 -0.00070268588450862833 0 -0.0058827733289357137 8.6458600953083552e-05 0 -0.0064143079341518246 -0.00019700809259334611 0 -0.0061077265724353994 -0.00070268588450862833 0 -0.0058827733289357137 8.6458600953083552e-05 0 -0.0061077265724353994 -0.00070268588450862833 0 -0.0055639247562514291 -0.00070259198532241591 0 -0.0048252120469933603 0.0009481226359129779 0 -0.0043383291292768498 0.0023294955847930508 0 -0.0061077265724353994 -0.00070268588450862833 0 -0.0055639247562514291 -0.00070259198532241591 0 -0.0064146111817931428 -0.0026278757004394074 0 -0.0046239091256289463 0.00041926047549938034 0 -0.0042989610265345155 -0.00045257558818144965 0 -0.0050150982838045319 -0.00081285503109894419 0 -0.0061077265724353994 -0.00070268588450862833 0 -0.0071853927377561041 -0.0014241103453136305 0 -0.0064146111817931428 -0.0026278757004394074 0 -0.0056096056290152619 0.0013697217780980107 0 -0.0052588321294313482 0.0017096736406282769 0 -0.0066659704136760867 -0.00056485307403911287 0 -0.0061077265724353994 -0.00070268588450862833 0 -0.0070541522626170186 -0.0010432621282801234 0 -0.0052588321294313482 0.0017096736406282769 0 -0.0043383291292768498 0.0023294955847930508 0 -0.003291721819805788 0.005103845454607253 0 -0.0031420438351087874 0.0052094979737948117 0 -0.003250675102336599 0.0052432167405001614 0 -0.0075820160268865672 -0.00083741587020308276 0 -0.0070527431506836533 -0.000977635739866541 0 -0.0081362459872255342 -0.0016504725510747883 0 -0.0075820160268865672 -0.00083741587020308276 0 -0.0080426287816859638 -0.00043664306413566603 0 -0.0081362459872255342 -0.0016504725510747883 0 -0.0052588321294313482 0.0017096736406282769 0 -0.0061936138319925371 0.003302065036193555 0 -0.0069774373363139415 -0.00059002893931662257 0 -0.0074631913792022643 -0.00035683116113655272 0 -0.0071487254449221624 -0.00085200904294186256 0 -0.0075820160268865672 -0.00083741587020308276 0 -0.0071487254449221624 -0.00085200904294186256 0 -0.0070527431506836533 -0.000977635739866541 0 -0.0074631913792022643 -0.00035683116113655272 0 -0.0075820160268865672 -0.00083741587020308276 0 -0.0071487254449221624 -0.00085200904294186256 0 -0.0069774373363139415 -0.00059002893931662257 0 -0.0066659704136760867 -0.00056485307403911287 0 -0.0070541522626170186 -0.0010432621282801234 0 -0.0069774373363139415 -0.00059002893931662257 0 -0.0071487254449221624 -0.00085200904294186256 0 -0.0070541522626170186 -0.0010432621282801234 0 -0.0052581095661665628 0.0016923137280090783 0 -0.0052588321294313482 0.0017096736406282769 0 -0.003291721819805788 0.005103845454607253 0 -0.003250675102336599 0.0052432167405001614 0 -0.0033544729268267341 0.0052101305334910876 0 -0.0094158105797617214 0.0028950491722028481 0 -0.009815587160992954 0.0021676420326910747 0 -0.010285403818062328 0.0032108151156219648 0 -0.0077422499183332702 0.0018003108121936362 0 -0.0061936138319925371 0.003302065036193555 0 -0.008814038383792501 7.5246986763403482e-05 0 -0.0080426287816859638 -0.00043664306413566603 0 -0.0081362459872255342 -0.0016504725510747883 0 -0.0094158105797617214 0.0028950491722028481 0 -0.009815587160992954 0.0021676420326910747 0 -0.0089331238306748599 0.0020437185487187318 0 -0.0081968880311552514 0.00061969056886161385 0 -0.0078794981320987716 0.00015662839832162494 0 -0.008814038383792501 7.5246986763403482e-05 0 -0.0078794981320987716 0.00015662839832162494 0 -0.008814038383792501 7.5246986763403482e-05 0 -0.0080426287816859638 -0.00043664306413566603 0 -0.00091240462679527726 0.0010058092073642647 0 -0.0019095437648756289 -0.00023495922580827504 0 -0.0020581287305060109 0.0013151444325008952 0 -0.00091352525384450129 0.0018309947125684134 0 0.00022920477697727031 0.0025364705824162184 0 0.00093104991015227363 0.00072481430065930795 0 -7.961843688831251e-05 -0.00047534949367453335 0 0.00093104991015227363 0.00072481430065930795 0 0.00055683174507889434 -0.001943560695414991 0 -0.00091352525384450129 0.0018309947125684134 0 -7.961843688831251e-05 -0.00047534949367453335 0 0.00093104991015227363 0.00072481430065930795 0 -0.00092433354711271814 0.0016696661059852377 0 -0.00056522388889700982 0.00080937711617818623 0 -0.00091240462679527726 0.0010058092073642647 0 -7.961843688831251e-05 -0.00047534949367453335 0 -0.0019095437648756289 -0.00023495922580827504 0 -0.0019095437648756289 -0.00023495922580827504 0 -0.0030476380869627461 0.000506932546203108 0 -0.00357465543990497 -0.0008511996102780865 0 -0.0039652874515139222 0.00012373019123064011 0 -0.0030476380869627461 0.000506932546203108 0 -0.00357465543990497 -0.0008511996102780865 0 -0.0042989610265345155 -0.00045257558818144965 0 -0.0039652874515139222 0.00012373019123064011 0 -0.00357465543990497 -0.0008511996102780865 0 -0.0046239091256289463 0.00041926047549938034 0 -0.0042989610265345155 -0.00045257558818144965 0 -0.0039652874515139222 0.00012373019123064011 0 -0.0048252120469933603 0.0009481226359129779 0 -0.0047486974497722902 0.0010794119777478677 0 -0.0039751428303020564 0.00089161689314050819 0 -0.0030476380869627461 0.000506932546203108 0 -0.003041645117212559 0.0018342677537608132 0 -0.0046239091256289463 0.00041926047549938034 0 -0.0039751428303020564 0.00089161689314050819 0 -0.0043840819914561444 0.0016836777643465556 0 -0.0046239091256289463 0.00041926047549938034 0 -0.0039652874515139222 0.00012373019123064011 0 -0.0039751428303020564 0.00089161689314050819 0 -0.0039652874515139222 0.00012373019123064011 0 -0.0039751428303020564 0.00089161689314050819 0 -0.0030476380869627461 0.000506932546203108 0 -0.0019095437648756289 -0.00023495922580827504 0 -0.0020581287305060109 0.0013151444325008952 0 -0.0030476380869627461 0.000506932546203108 0 -0.0020581287305060109 0.0013151444325008952 0 -0.0030476380869627461 0.000506932546203108 0 -0.003041645117212559 0.0018342677537608132 0 -0.0020581287305060109 0.0013151444325008952 0 -0.003041645117212559 0.0018342677537608132 0 -0.0015423175360507694 0.0027083659231510325 0 -0.003041645117212559 0.0018342677537608132 0 -0.0035951024791713434 0.0035970222364609923 0 -0.0015423175360507694 0.0027083659231510325 0 -0.003041645117212559 0.0018342677537608132 0 -0.0043840819914561444 0.0016836777643465556 0 -0.0035951024791713434 0.0035970222364609923 0 -0.0039751428303020564 0.00089161689314050819 0 -0.003041645117212559 0.0018342677537608132 0 -0.0043840819914561444 0.0016836777643465556 0 -0.0059837008129567746 0.0036331505447760436 0 -0.0043840819914561444 0.0016836777643465556 0 -0.0035951024791713434 0.0035970222364609923 0 -0.0059837008129567746 0.0036331505447760436 0 -0.0035951024791713434 0.0035970222364609923 0 -0.0046682997324715529 0.0048398185074755165 0 -0.0035951024791713434 0.0035970222364609923 0 -0.0015423175360507694 0.0027083659231510325 0 -0.0023020662935948539 0.0047709488049594686 0 -0.00085599048981607241 0.0046638305528070145 0 -0.0011609865698671315 0.0054296090023293947 0 -0.0021805065329825101 0.0053847913843270588 0 -0.0015645747505744761 0.0032430076386103361 0 -0.0022086332195166134 0.0048059736510989636 0 -0.00085599048981607241 0.0046638305528070145 0 -0.0015373492492645018 0.0038116216782709458 0 -0.00014286398753677259 0.0037701786133337665 0 -0.00085599048981607241 0.0046638305528070145 0 -0.0015373492492645018 0.0038116216782709458 0 -0.0021805065329825101 0.0053847913843270588 0 -0.00085599048981607241 0.0046638305528070145 0 -0.00057356473367604856 0.0050907838704715653 0 -0.0011609865698671315 0.0054296090023293947 0 -0.00091352525384450129 0.0018309947125684134 0 -0.0015373492492645018 0.0038116216782709458 0 -0.00014286398753677259 0.0037701786133337665 0 -0.00092433354711271814 0.0016696661059852377 0 -0.0015645747505744761 0.0032430076386103361 0 -0.00091240462679527726 0.0010058092073642647 0 -0.0020581287305060109 0.0013151444325008952 0 -0.0015423175360507694 0.0027083659231510325 0 -0.00091352525384450129 0.0018309947125684134 0 0.00022920477697727031 0.0025364705824162184 0 -0.00014286398753677259 0.0037701786133337665 0 0.00022920477697727031 0.0025364705824162184 0 -0.00014286398753677259 0.0037701786133337665 0 0.0011351011911469745 0.0037160040337694111 0 -0.00014286398753677259 0.0037701786133337665 0 0.00055064022003150129 0.0045429536401525939 0 0.0011351011911469745 0.0037160040337694111 0 -0.00014286398753677259 0.0037701786133337665 0 0.00055064022003150129 0.0045429536401525939 0 -0.00015419023069642563 0.0047807547432584321 0 -0.00085599048981607241 0.0046638305528070145 0 -0.00014286398753677259 0.0037701786133337665 0 -0.00015419023069642563 0.0047807547432584321 0 -0.00015419023069642563 0.0047807547432584321 0 -0.00057356473367604856 0.0050907838704715653 0 -0.00011019232281536037 0.005480663217657983 0 -0.00085599048981607241 0.0046638305528070145 0 -0.00015419023069642563 0.0047807547432584321 0 -0.00057356473367604856 0.0050907838704715653 0 0.00055064022003150129 0.0045429536401525939 0 -0.00015419023069642563 0.0047807547432584321 0 -0.00011019232281536037 0.005480663217657983 0 0.00035600645378715886 0.0054837003455340955 0 -0.0010887199709587079 0.0062415538871965033 0 -0.00025451708674170692 0.0063701167084416113 0 5.229390109899714e-06 0.0056890964277050669 0 -0.0004212022952086658 0.0054824310350574147 0 -0.0017900272755385733 0.0062506724329248094 0 0.00035600645378715886 0.0054837003455340955 0 0.0003960641108928033 0.0061273899995049541 0 -0.00025451708674170692 0.0063701167084416113 0 0.00025512749134273962 0.0055981351777484112 0 -0.00069180266034151643 0.0059136448826083779 0 0.00035600645378715886 0.0054837003455340955 0 -0.0017900272755385733 0.0062506724329248094 0 -0.0010887199709587079 0.0062415538871965033 0 -0.00011019232281536037 0.005480663217657983 0 -0.0011609865698671315 0.0054296090023293947 0 -0.0019406999401697866 0.0061794941190286687 0 -0.00057356473367604856 0.0050907838704715653 0 -0.00011019232281536037 0.005480663217657983 0 -0.0011609865698671315 0.0054296090023293947 0 -0.0004212022952086658 0.0054824310350574147 0 -0.0017900272755385733 0.0062506724329248094 0 -0.0019406999401697866 0.0061794941190286687 0 -0.00010521961712620953 0.0053848658601950419 0 -0.00084838567395464947 0.0057401941154707524 0 -0.0011609865698671315 0.0054296090023293947 0 -0.0021805065329825101 0.0053847913843270588 0 -0.0019406999401697866 0.0061794941190286687 0 -0.0010887199709587079 0.0062415538871965033 0 -0.00086746990760292754 0.0074043371826331486 0 -0.00025451708674170692 0.0063701167084416113 0 -0.0010887199709587079 0.0062415538871965033 0 -0.0014669156269427591 0.0068193154522877223 0 -0.00086746990760292754 0.0074043371826331486 0 -0.0017900272755385733 0.0062506724329248094 0 -0.0010887199709587079 0.0062415538871965033 0 -0.0015332423041941397 0.0064612209983812494 0 -0.0017836080868983428 0.0065364087705785815 0 -0.0014669156269427591 0.0068193154522877223 0 -0.0021118028577314782 0.0067839772137899962 0 -0.0017900272755385733 0.0062506724329248094 0 -0.0017836080868983428 0.0065364087705785815 0 -0.0021056152820497988 0.0065290721483554758 0 -0.0017900272755385733 0.0062506724329248094 0 -0.0017836080868983428 0.0065364087705785815 0 -0.0015332423041941397 0.0064612209983812494 0 -0.0010887199709587079 0.0062415538871965033 0 -0.0015332423041941397 0.0064612209983812494 0 -0.0014669156269427591 0.0068193154522877223 0 -0.0017836080868983428 0.0065364087705785815 0 -0.0015332423041941397 0.0064612209983812494 0 -0.0014669156269427591 0.0068193154522877223 0 -0.0014669156269427591 0.0068193154522877223 0 -0.0021118028577314782 0.0067839772137899962 0 -0.0019959971926012811 0.0072669555702951352 0 -0.0014669156269427591 0.0068193154522877223 0 -0.00086746990760292754 0.0074043371826331486 0 -0.0019959971926012811 0.0072669555702951352 0 -0.00086746990760292754 0.0074043371826331486 0 -0.00025451708674170692 0.0063701167084416113 0 0.00076031112954651496 0.0066647059264246687 0 0.00065580245229640598 0.0065049672618755503 0 0.0010810197265070905 0.0066635553416958251 0 0.0013602165150107387 0.0062371967422664744 0 -0.0016583444480362214 0.0043369546020306134 0 3.758087926165522e-05 0.0048952690225865011 0 0.0003960641108928033 0.0061273899995049541 0 -0.00025451708674170692 0.0063701167084416113 0 0.00076031112954651496 0.0066647059264246687 0 -0.0035951024791713434 0.0035970222364609923 0 -0.0034839518731142635 0.0059098242371651653 0 -0.0046682997324715529 0.0048398185074755165 0 -0.004362290446144162 0.0046164170533233781 0 -0.004505569172819723 0.004881530631585306 0 -0.0055883901028702361 0.006185496014517 0 -0.0034839518731142635 0.0059098242371651653 0 -0.0046682997324715529 0.0048398185074755165 0 -0.0021805065329825101 0.0053847913843270588 0 -0.0019406999401697866 0.0061794941190286687 0 -0.0030562713157775956 0.006851584334091233 0 -0.0033908932528286611 0.0056465224258034942 0 -0.0023020662935948539 0.0047709488049594686 0 -0.0030562713157775956 0.006851584334091233 0 -0.0022086332195166134 0.0048059736510989636 0 -0.0025637523218936882 0.0056420946434906256 0 -0.0035951024791713434 0.0035970222364609923 0 -0.0033908932528286611 0.0056465224258034942 0 -0.0023020662935948539 0.0047709488049594686 0 -0.0033908932528286611 0.0056465224258034942 0 -0.0030562713157775956 0.006851584334091233 0 -0.003137218442037295 0.0076955423976873844 0 -0.0021056152820497988 0.0065290721483554758 0 -0.0021118028577314782 0.0067839772137899962 0 -0.0030562713157775956 0.006851584334091233 0 -0.0019406999401697866 0.0061794941190286687 0 -0.0021056152820497988 0.0065290721483554758 0 -0.0030562713157775956 0.006851584334091233 0 -0.0017900272755385733 0.0062506724329248094 0 -0.0019406999401697866 0.0061794941190286687 0 -0.0021056152820497988 0.0065290721483554758 0 -0.0017836080868983428 0.0065364087705785815 0 -0.0021056152820497988 0.0065290721483554758 0 -0.0021118028577314782 0.0067839772137899962 0 -0.0021118028577314782 0.0067839772137899962 0 -0.0019959971926012811 0.0072669555702951352 0 -0.002529826093692746 0.0071658600132462336 0 -0.0019959971926012811 0.0072669555702951352 0 -0.002529826093692746 0.0071658600132462336 0 -0.0025581410747924117 0.0075622979008909876 0 -0.0021118028577314782 0.0067839772137899962 0 -0.002529826093692746 0.0071658600132462336 0 -0.0030562713157775956 0.006851584334091233 0 -0.002529826093692746 0.0071658600132462336 0 -0.0030562713157775956 0.006851584334091233 0 -0.003137218442037295 0.0076955423976873844 0 -0.002529826093692746 0.0071658600132462336 0 -0.003137218442037295 0.0076955423976873844 0 -0.0025581410747924117 0.0075622979008909876 0 -0.006638780801393792 0.0024536118039892385 0 -0.0066226378663240505 0.0024743254429406883 0 -0.0066099942493485168 0.0024725060637011543 0 -0.0055883901028702361 0.006185496014517 0 -0.0034839518731142635 0.0059098242371651653 0 -0.0033285945928839375 0.0081232855710091732 0 -0.004505569172819723 0.004881530631585306 0 -0.0051660784781262766 0.0033963692922170316 0 -0.0063378739605868713 0.0030477625485564007 0 -0.0051660784781262766 0.0033963692922170316 0 -0.0075907113637945778 0.00094256061831363223 0 -0.0075640148311354521 0.0011477157594749154 0 -0.0076976433387609877 0.00098428901441101834 0 -0.0075512346855353789 0.00055169609913563249 0 -0.0070564398736858531 0.0011453769923440037 0 -0.0072154451452458935 0.0013499118751529339 0 -0.0070564398736858531 0.0011453769923440037 0 -0.0066347246693101783 0.0024713394122639013 0 -0.0066213164063280419 0.0024844497584251375 0 -0.0066226378663240505 0.0024743254429406883 0 -0.0066226378663240505 0.0024743254429406883 0 -0.0066091783856239913 0.0024807969743183603 0 -0.0066099942493485168 0.0024725060637011543 0 -0.0066213164063280419 0.0024844497584251375 0 -0.0066226378663240505 0.0024743254429406883 0 -0.0066091783856239913 0.0024807969743183603 0 -0.0070564398736858531 0.0011453769923440037 0 -0.0057724403293063975 0.0022109565259263524 0 -0.0048626851844582536 0.002920055663616999 0 -0.0026922499127216026 0.0022524025308932371 0 -0.0092002391362151145 -0.0012965545693880943 0 -0.0093280947918488923 -0.0012463022450263529 0 -0.0093406974025820096 -0.0014648432261181829 0 -0.0057724403293063975 0.0022109565259263524 0 -0.0048626851844582536 0.002920055663616999 0 -0.006225421846289339 0.002695018427989426 0 -0.0062385281708183813 0.0025129414922716335 0 -0.0060877206856010972 0.0026420161746386808 0 -0.0057724403293063975 0.0022109565259263524 0 -0.0051660784781262766 0.0033963692922170316 0 -0.003137218442037295 0.0076955423976873844 0 -0.0025581410747924117 0.0075622979008909876 0 -0.0025856976895644889 0.0081200155157534846 0 -0.0051660784781262766 0.0033963692922170316 0 -0.0048626851844582536 0.002920055663616999 0 -0.0019959971926012811 0.0072669555702951352 0 -0.0025581410747924117 0.0075622979008909876 0 -0.0025856976895644889 0.0081200155157534846 0 -0.0093280947918488923 -0.0012463022450263529 0 -0.0093406974025820096 -0.0014648432261181829 0 -0.0096736408763413925 -0.0015674102468541452 0 -0.0092389979985324343 -0.0016457773046962081 0 -0.0093406974025820096 -0.0014648432261181829 0 -0.0096736408763413925 -0.0015674102468541452 0 -0.0057724403293063975 0.0022109565259263524 0 -0.0074287734020024102 -0.00028135368302478449 0 -0.0092002391362151145 -0.0012965545693880943 0 -0.0092389979985324343 -0.0016457773046962081 0 -0.0093406974025820096 -0.0014648432261181829 0 -0.0078070566452769045 -0.00027500646673437581 0 -0.0075512346855353789 0.00055169609913563249 0 -0.0094224721451784156 -0.0019345261699267422 0 -0.0093982437016853129 -0.0018163142878815271 0 -0.0094558193534902465 -0.0018667625908874229 0 -0.0059301219776787461 0.0013923789265323726 0 -0.0062119250305278902 0.0015022298608669035 0 -0.0062490244635166042 0.0010025551700757471 0 -0.0094224721451784156 -0.0019345261699267422 0 -0.0095356036508808684 -0.0018922369775200031 0 -0.0094558193534902465 -0.0018667625908874229 0 -0.0094603144017479813 -0.0017920571374661044 0 -0.0095356036508808684 -0.0018922369775200031 0 -0.0094558193534902465 -0.0018667625908874229 0 -0.0070564398736858531 0.0011453769923440037 0 -0.0074287734020024102 -0.00028135368302478449 0 -0.0093982437016853129 -0.0018163142878815271 0 -0.0094603144017479813 -0.0017920571374661044 0 -0.0094558193534902465 -0.0018667625908874229 0 0.00079431596086217496 0.0069106965898353837 0 0.0011122943252528633 0.0069845345161617103 0 0.0010810197265070905 0.0066635553416958251 0 0.0011122943252528633 0.0069845345161617103 0 0.0010810197265070905 0.0066635553416958251 0 0.0015401537730641785 0.0066637542484942443 0 0.00065580245229640598 0.0065049672618755503 0 0.00079431596086217496 0.0069106965898353837 0 0.0010810197265070905 0.0066635553416958251 0 -0.00086746990760292754 0.0074043371826331486 0 -0.0019959971926012811 0.0072669555702951352 0 -0.0025856976895644889 0.0081200155157534846 0 -4.5126926065342054e-05 0.0067620637274287019 0 0.00046780705149764782 0.0068538013632576814 0 0.00051182652858058463 0.0072322501613506247 0 -0.0016583444480362214 0.0043369546020306134 0 -0.0048626851844582536 0.002920055663616999 0 0.00065580245229640598 0.0065049672618755503 0 -4.5126926065342054e-05 0.0067620637274287019 0 0.00046780705149764782 0.0068538013632576814 0 0.00065580245229640598 0.0065049672618755503 0 0.00079431596086217496 0.0069106965898353837 0 0.00046780705149764782 0.0068538013632576814 0 0.00079431596086217496 0.0069106965898353837 0 0.00046780705149764782 0.0068538013632576814 0 0.00051182652858058463 0.0072322501613506247 0 -0.009734663688495241 -0.0018382977067399407 0 -0.0092389979985324343 -0.0016457773046962081 0 -0.0096736408763413925 -0.0015674102468541452 0 0.00079431596086217496 0.0069106965898353837 0 0.00051182652858058463 0.0072322501613506247 0 0.00093298015313018868 0.0072153870721157424 0 0.0016017995568444255 0.0024983006420512999 0 -0.0026922499127216026 0.0022524025308932371 0 0.0010531280952612695 0.0076765976716535187 0 0.00051182652858058463 0.0072322501613506247 0 0.00093298015313018868 0.0072153870721157424 0 0.00079431596086217496 0.0069106965898353837 0 0.0011122943252528633 0.0069845345161617103 0 0.00093298015313018868 0.0072153870721157424 0 0.0027670574097359985 0.0051704612551305464 0 0.0027759556638791089 0.0049609547099959163 0 0.0011122943252528633 0.0069845345161617103 0 0.00093298015313018868 0.0072153870721157424 0 0.0012316079601652694 0.0072645157077879966 0 0.0010531280952612695 0.0076765976716535187 0 0.00093298015313018868 0.0072153870721157424 0 0.0012316079601652694 0.0072645157077879966 0 0.0016017995568444255 0.0024983006420512999 0 0.0027759556638791089 0.0049609547099959163 0 0.0016355534531361929 0.0083799545290078794 0 0.001216975047893968 0.0074548750473880368 0 0.0018675427437502598 0.0073148230629564732 0 0.0011122943252528633 0.0069845345161617103 0 0.0012389419979900486 0.0072729820953473783 0 0.0015401537730641785 0.0066637542484942443 0 0.0027759556638791089 0.0049609547099959163 0 0.0022451755175739107 0.0059917833302081626 0 0.001216975047893968 0.0074548750473880368 0 0.0015401537730641785 0.0066637542484942443 0 0.0018675427437502598 0.0073148230629564732 0 0.0015401537730641785 0.0066637542484942443 0 0.0022961923464887542 0.0067430064447463901 0 0.0018214055801668569 0.0063885642177159245 0 0.0015401537730641785 0.0066637542484942443 0 0.0022961923464887542 0.0067430064447463901 0 0.0018675427437502598 0.0073148230629564732 0 0.0022961923464887542 0.0067430064447463901 0 0.0024362539833769213 0.0077142044785345389 0 0.0018675427437502598 0.0073148230629564732 0 0.020066183444456959 0.013468202894055424 0 0.018702799933875913 0.013447694401994141 0 0.018802095806120783 0.014687861562430286 0 0.0092507183192088536 0.0083534596640754376 0 0.010218014178057873 0.0099208878814178066 0 0.018702799933875913 0.013447694401994141 0 0.018802095806120783 0.014687861562430286 0 0.017589621800242303 0.014650555488618381 0 0.010218014178057873 0.0099208878814178066 0 0.010643343927032927 0.010863085071354129 0 0.0022961923464887542 0.0067430064447463901 0 0.0024362539833769213 0.0077142044785345389 0 0.0032767766925961153 0.0070533094867662625 0 0.0022961923464887542 0.0067430064447463901 0 0.0032767766925961153 0.0070533094867662625 0 0.0030706656848278856 0.0062809398399514245 0 0.0022961923464887542 0.0067430064447463901 0 0.0030706656848278856 0.0062809398399514245 0 0.0021128079252233953 0.0059271533009385207 0 0.0032767766925961153 0.0070533094867662625 0 0.0030706656848278856 0.0062809398399514245 0 0.0041681001563761595 0.0063371474974396741 0 0.0030706656848278856 0.0062809398399514245 0 0.0035094790012665219 0.0056132107615411422 0 0.0041681001563761595 0.0063371474974396741 0 0.0035094790012665219 0.0056132107615411422 0 0.002844067159145966 0.0055190632403825926 0 0.0032615920931535988 0.0047012399398611805 0 0.0030706656848278856 0.0062809398399514245 0 0.0035094790012665219 0.0056132107615411422 0 0.002844067159145966 0.0055190632403825926 0 0.0030706656848278856 0.0062809398399514245 0 0.002844067159145966 0.0055190632403825926 0 0.0021128079252233953 0.0059271533009385207 0 0.0021128079252233953 0.0059271533009385207 0 0.001367682248557387 0.0056095233899853972 0 0.0020820866662191761 0.00504078056538672 0 0.002844067159145966 0.0055190632403825926 0 0.0021128079252233953 0.0059271533009385207 0 0.0020820866662191761 0.00504078056538672 0 0.0021128079252233953 0.0059271533009385207 0 0.001367682248557387 0.0056095233899853972 0 0.00091398470839235276 0.0059643885769579633 0 5.229390109899714e-06 0.0056890964277050669 0 -0.0004212022952086658 0.0054824310350574147 0 0.0010016375971803185 0.0048346083971013663 0 0.00035600645378715886 0.0054837003455340955 0 0.001367682248557387 0.0056095233899853972 0 0.0020820866662191761 0.00504078056538672 0 0.00025512749134273962 0.0055981351777484112 0 0.0017514645625190594 0.0051107076702116925 0 0.00035600645378715886 0.0054837003455340955 0 0.0003960641108928033 0.0061273899995049541 0 0.00091398470839235276 0.0059643885769579633 0 0.00035600645378715886 0.0054837003455340955 0 0.001367682248557387 0.0056095233899853972 0 0.00091398470839235276 0.0059643885769579633 0 0.00071492456996132632 0.0049765335319165039 0 3.758087926165522e-05 0.0048952690225865011 0 0.0021128079252233953 0.0059271533009385207 0 0.0013602165150107387 0.0062371967422664744 0 0.0018214055801668569 0.0063885642177159245 0 0.0021128079252233953 0.0059271533009385207 0 0.00091398470839235276 0.0059643885769579633 0 0.00076031112954651496 0.0066647059264246687 0 0.0003960641108928033 0.0061273899995049541 0 0.00091398470839235276 0.0059643885769579633 0 0.00076031112954651496 0.0066647059264246687 0 0.0010810197265070905 0.0066635553416958251 0 0.0015401537730641785 0.0066637542484942443 0 0.0013602165150107387 0.0062371967422664744 0 0.0015401537730641785 0.0066637542484942443 0 0.0013602165150107387 0.0062371967422664744 0 0.0018214055801668569 0.0063885642177159245 0 0.0022961923464887542 0.0067430064447463901 0 0.0021128079252233953 0.0059271533009385207 0 0.0018214055801668569 0.0063885642177159245 0 0.012652951930279523 -0.0069113512459808056 0 0.012242065291721551 -0.0057688506343506162 0 0.010935602206685092 -0.0055217462902814657 0 0.012610166679217619 -0.0078002183058804731 0 0.013225915666286137 -0.007744592451829224 0 0.0123085582341197 -0.0074359604072951301 0 0.013225915666286137 -0.007744592451829224 0 0.0123085582341197 -0.0074359604072951301 0 0.012291695412183242 -0.0070205596440125169 0 0.013176017465898695 -0.0067518115296868325 0 0.012407193978003097 -0.0054793603730483153 0 0.012610166679217619 -0.0078002183058804731 0 0.012948514058311612 -0.0082071437946442082 0 0.013225915666286137 -0.007744592451829224 0 0.012610166679217619 -0.0078002183058804731 0 0.012525099045387929 -0.0080477544593692499 0 0.012948514058311612 -0.0082071437946442082 0 0.012525099045387929 -0.0080477544593692499 0 0.012484385599919844 -0.0085539656293877608 0 0.012948514058311612 -0.0082071437946442082 0 0.013061774155810838 -0.0087466353579782486 0 0.012484385599919844 -0.0085539656293877608 0 0.012948514058311612 -0.0082071437946442082 0 0.012948514058311612 -0.0082071437946442082 0 0.013401221103103817 -0.0082978740451698386 0 0.013225915666286137 -0.007744592451829224 0 0.013401221103103817 -0.0082978740451698386 0 0.013225915666286137 -0.007744592451829224 0 0.014023733322899721 -0.0081759505005392259 0 0.013061774155810838 -0.0087466353579782486 0 0.012948514058311612 -0.0082071437946442082 0 0.013401221103103817 -0.0082978740451698386 0 0.016453792593237006 0.014622376933758275 0 0.01646998231609819 0.015866654836654899 0 0.015400982850773055 0.015876767949704225 0 0.012652951930279523 -0.0069113512459808056 0 0.013529184170745487 -0.0072648256566910079 0 0.012242065291721551 -0.0057688506343506162 0 0.014694648039162483 0.0034707442090578414 0 0.01379706766034952 0.0049950623445387983 0 0.017589621800242303 0.014650555488618381 0 0.017577457606277314 0.015898657072230444 0 0.01646998231609819 0.015866654836654899 0 0.016453792593237006 0.014622376933758275 0 0.017589621800242303 0.014650555488618381 0 0.01646998231609819 0.015866654836654899 0 0.013176017465898695 -0.0067518115296868325 0 0.013707813454238682 -0.0073387902192372841 0 0.013736613265357703 -0.0085923677745394448 0 0.013401221103103817 -0.0082978740451698386 0 0.014023733322899721 -0.0081759505005392259 0 0.015331262266727824 0.0018875632750328015 0 0.014694648039162483 0.0034707442090578414 0 0.014550632594063587 -0.0085233623352001624 0 0.013529184170745487 -0.0072648256566910079 0 0.014023733322899721 -0.0081759505005392259 0 0.012652951930279523 -0.0069113512459808056 0 0.013529184170745487 -0.0072648256566910079 0 0.014023733322899721 -0.0081759505005392259 0 0.017570407367850642 0.013373006705380075 0 0.016453792593237006 0.014622376933758275 0 0.017589621800242303 0.014650555488618381 0 0.017570407367850642 0.013373006705380075 0 0.018702799933875913 0.013447694401994141 0 0.017589621800242303 0.014650555488618381 0 0.018802095806120783 0.014687861562430286 0 0.017589621800242303 0.014650555488618381 0 0.017577457606277314 0.015898657072230444 0 0.0035094790012665219 0.0056132107615411422 0 0.0041681001563761595 0.0063371474974396741 0 0.0042059341409181076 0.0052285347143212028 0 0.0041681001563761595 0.0063371474974396741 0 0.005049560291498491 0.0055836427592012901 0 0.0042059341409181076 0.0052285347143212028 0 0.010643343927032927 0.010863085071354129 0 0.010960968932223461 0.011603170866228613 0 0.017577457606277314 0.015898657072230444 0 0.016394024766139371 0.017077717814513612 0 0.01646998231609819 0.015866654836654899 0 0.016394024766139371 0.017077717814513612 0 0.01646998231609819 0.015866654836654899 0 0.015400982850773055 0.015876767949704225 0 0.016394024766139371 0.017077717814513612 0 0.015236385286240448 0.017197759865506656 0 0.015400982850773055 0.015876767949704225 0 0.016394024766139371 0.017077717814513612 0 0.015236385286240448 0.017197759865506656 0 0.015267971609729619 0.018155038853534949 0 0.015236385286240448 0.017197759865506656 0 0.015400982850773055 0.015876767949704225 0 0.014500355966755973 0.017092123017291582 0 0.015236385286240448 0.017197759865506656 0 0.014500355966755973 0.017092123017291582 0 0.014704047158828872 0.017724625632258885 0 0.012242065291721551 -0.0057688506343506162 0 0.010935602206685092 -0.0055217462902814657 0 0.010710461232227419 -0.0041967490548296734 0 0.01379706766034952 0.0049950623445387983 0 0.012909904500937094 0.0064627181526896518 0 0.0059231803224468514 0.0048276151066339069 0 0.00550651776751816 0.0038720091160703097 0 0.0067947105234634755 0.0040797982828794672 0 0.01151663541790207 0.012458130934604749 0 0.012811173393610284 0.013848725307357538 0 0.015236385286240448 0.017197759865506656 0 0.015267971609729619 0.018155038853534949 0 0.014704047158828872 0.017724625632258885 0 0.015267971609729619 0.018155038853534949 0 0.014704047158828872 0.017724625632258885 0 0.014641032721181176 0.018267845167702124 0 0.010960968932223461 0.011603170866228613 0 0.01151663541790207 0.012458130934604749 0 0.005049560291498491 0.0055836427592012901 0 0.0059231803224468514 0.0048276151066339069 0 0.0051283837901772693 0.0046183948110747903 0 0.0059231803224468514 0.0048276151066339069 0 0.0051283837901772693 0.0046183948110747903 0 0.00550651776751816 0.0038720091160703097 0 0.004374928596675382 0.0041853075979858155 0 0.0049087650302400794 0.0035235160090460989 0 0.00550651776751816 0.0038720091160703097 0 0.0042612476977323616 0.004278166525233754 0 0.0048796172433496375 0.0040686134064549509 0 0.0051283837901772693 0.0046183948110747903 0 0.0043829778221835805 0.0043048081683823274 0 0.00550651776751816 0.0038720091160703097 0 0.0051283837901772693 0.0046183948110747903 0 0.0042059341409181076 0.0052285347143212028 0 0.0043829778221835805 0.0043048081683823274 0 0.005049560291498491 0.0055836427592012901 0 0.0051283837901772693 0.0046183948110747903 0 0.0042059341409181076 0.0052285347143212028 0 0.0042059341409181076 0.0052285347143212028 0 0.0043829778221835805 0.0043048081683823274 0 0.0032615920931535988 0.0047012399398611805 0 0.0042612476977323616 0.004278166525233754 0 0.0031091627796256704 0.004665110115906276 0 0.004374928596675382 0.0041853075979858155 0 0.0039093244145835242 0.0034182213350967055 0 0.0034782826068086603 0.0037343613309150096 0 0.004374928596675382 0.0041853075979858155 0 0.0039093244145835242 0.0034182213350967055 0 0.004412894443034064 0.0034279398223639314 0 0.0039093244145835242 0.0034182213350967055 0 0.0042287792589783659 0.0030892730110324688 0 0.004412894443034064 0.0034279398223639314 0 0.0039093244145835242 0.0034182213350967055 0 0.0038119428451624526 0.0029522482346068567 0 0.0042287792589783659 0.0030892730110324688 0 0.0039093244145835242 0.0034182213350967055 0 0.0038119428451624526 0.0029522482346068567 0 0.0033720664819614035 0.0032301428737231252 0 0.0085652347149241265 0.0059138001660944449 0 0.0087008551299829172 0.0060515282007374497 0 0.0038119428451624526 0.0029522482346068567 0 0.0039793608324209433 0.0026063682749329293 0 0.0034662136062328986 0.0026581753755496934 0 0.0040335628106640672 0.0026795715617591114 0 0.0043669497800286729 0.0027488063746016807 0 0.004319190872778246 0.0022694352950217507 0 0.0038119428451624526 0.0029522482346068567 0 0.0040335628106640672 0.0026795715617591114 0 0.0043669497800286729 0.0027488063746016807 0 0.0038119428451624526 0.0029522482346068567 0 0.0043669497800286729 0.0027488063746016807 0 0.0042287792589783659 0.0030892730110324688 0 0.0043669497800286729 0.0027488063746016807 0 0.0042287792589783659 0.0030892730110324688 0 0.0046893128012146824 0.0029575496091468249 0 0.0043669497800286729 0.0027488063746016807 0 0.0046893128012146824 0.0029575496091468249 0 0.0047577391264480243 0.002477548677669326 0 0.0046893128012146824 0.0029575496091468249 0 0.005286056578574682 0.0024298393849827159 0 0.0047577391264480243 0.002477548677669326 0 0.0046893128012146824 0.0029575496091468249 0 0.0049087650302400794 0.0035235160090460989 0 0.005423541425933264 0.0031104794937219554 0 0.004374928596675382 0.0041853075979858155 0 0.004412894443034064 0.0034279398223639314 0 0.0049087650302400794 0.0035235160090460989 0 0.0042287792589783659 0.0030892730110324688 0 0.0046893128012146824 0.0029575496091468249 0 0.004412894443034064 0.0034279398223639314 0 0.0046893128012146824 0.0029575496091468249 0 0.004412894443034064 0.0034279398223639314 0 0.0049087650302400794 0.0035235160090460989 0 0.0049087650302400794 0.0035235160090460989 0 0.00550651776751816 0.0038720091160703097 0 0.005423541425933264 0.0031104794937219554 0 0.0046893128012146824 0.0029575496091468249 0 0.005423541425933264 0.0031104794937219554 0 0.005286056578574682 0.0024298393849827159 0 0.005423541425933264 0.0031104794937219554 0 0.005286056578574682 0.0024298393849827159 0 0.0064113283399610923 0.0029570571101684416 0 0.00550651776751816 0.0038720091160703097 0 0.0067947105234634755 0.0040797982828794672 0 0.0064113283399610923 0.0029570571101684416 0 0.00550651776751816 0.0038720091160703097 0 0.005423541425933264 0.0031104794937219554 0 0.0064113283399610923 0.0029570571101684416 0 0.001907012408637176 0.0038110080546879819 0 0.0016369832985063779 0.0045562372959034158 0 0.0025840664991596172 0.00401974870798832 0 0.001907012408637176 0.0038110080546879819 0 0.0025840664991596172 0.00401974870798832 0 0.0022381339103140934 0.0033854529880353069 0 0.001907012408637176 0.0038110080546879819 0 0.0011351011911469745 0.0037160040337694111 0 0.0017454402954135673 0.003326370786205094 0 0.001907012408637176 0.0038110080546879819 0 0.0011351011911469745 0.0037160040337694111 0 0.0016369832985063779 0.0045562372959034158 0 0.00055064022003150129 0.0045429536401525939 0 -0.00011019232281536037 0.005480663217657983 0 0.0016369832985063779 0.0045562372959034158 0 -0.00010521961712620953 0.0053848658601950419 0 0.0011592861521735184 0.0047717093451348849 0 5.229390109899714e-06 0.0056890964277050669 0 0.0010016375971803185 0.0048346083971013663 0 0.001649725953716127 0.0051378074833943145 0 0.00055064022003150129 0.0045429536401525939 0 0.0011351011911469745 0.0037160040337694111 0 0.0016369832985063779 0.0045562372959034158 0 0.0011592861521735184 0.0047717093451348849 0 0.0022449422593170407 0.0042464434351412988 0 0.0010016375971803185 0.0048346083971013663 0 0.001649725953716127 0.0051378074833943145 0 0.0023045642217422477 0.0042496882344429786 0 0.002844067159145966 0.0055190632403825926 0 0.0020820866662191761 0.00504078056538672 0 0.0032615920931535988 0.0047012399398611805 0 0.001649725953716127 0.0051378074833943145 0 0.0031127821776232604 0.0046210751900189516 0 0.0023045642217422477 0.0042496882344429786 0 0.0017514645625190594 0.0051107076702116925 0 0.0031091627796256704 0.004665110115906276 0 0.0035094790012665219 0.0056132107615411422 0 0.0042059341409181076 0.0052285347143212028 0 0.0032615920931535988 0.0047012399398611805 0 0.0031127821776232604 0.0046210751900189516 0 0.0034782826068086603 0.0037343613309150096 0 0.0023045642217422477 0.0042496882344429786 0 0.004374928596675382 0.0041853075979858155 0 0.0031127821776232604 0.0046210751900189516 0 0.0034782826068086603 0.0037343613309150096 0 0.0034782826068086603 0.0037343613309150096 0 0.0025840664991596172 0.00401974870798832 0 0.0028590290572517263 0.0033234684433487089 0 0.0027838077504293564 0.0039910009416819631 0 0.0022449422593170407 0.0042464434351412988 0 0.0025840664991596172 0.00401974870798832 0 0.0028590290572517263 0.0033234684433487089 0 0.0022381339103140934 0.0033854529880353069 0 0.0028590290572517263 0.0033234684433487089 0 0.0024183092748482492 0.0029927000657747498 0 0.0022381339103140934 0.0033854529880353069 0 0.0039093244145835242 0.0034182213350967055 0 0.0034782826068086603 0.0037343613309150096 0 0.0033720664819614035 0.0032301428737231252 0 0.0034782826068086603 0.0037343613309150096 0 0.0028590290572517263 0.0033234684433487089 0 0.0033720664819614035 0.0032301428737231252 0 0.0028590290572517263 0.0033234684433487089 0 0.0033720664819614035 0.0032301428737231252 0 0.0031420340310177983 0.0028589493885603115 0 0.0038119428451624526 0.0029522482346068567 0 0.0034468827598172105 0.0029187138465890596 0 0.0034662136062328986 0.0026581753755496934 0 0.0038119428451624526 0.0029522482346068567 0 0.0033720664819614035 0.0032301428737231252 0 0.0034468827598172105 0.0029187138465890596 0 0.0033720664819614035 0.0032301428737231252 0 0.0034468827598172105 0.0029187138465890596 0 0.0031420340310177983 0.0028589493885603115 0 0.0034468827598172105 0.0029187138465890596 0 0.0031420340310177983 0.0028589493885603115 0 0.0034662136062328986 0.0026581753755496934 0 0.0031420340310177983 0.0028589493885603115 0 0.0030975179616412633 0.0025150703564288863 0 0.0034662136062328986 0.0026581753755496934 0 0.0030975179616412633 0.0025150703564288863 0 0.0034662136062328986 0.0026581753755496934 0 0.0033188566664648905 0.002182024246622749 0 0.0039793608324209433 0.0026063682749329293 0 0.0034662136062328986 0.0026581753755496934 0 0.0033188566664648905 0.002182024246622749 0 0.0028590290572517263 0.0033234684433487089 0 0.0031420340310177983 0.0028589493885603115 0 0.0027019141122821308 0.0026794289861051014 0 0.0028590290572517263 0.0033234684433487089 0 0.0024183092748482492 0.0029927000657747498 0 0.0027019141122821308 0.0026794289861051014 0 0.0024183092748482492 0.0029927000657747498 0 0.0027019141122821308 0.0026794289861051014 0 0.0023424324001066416 0.0025582348803222543 0 0.0031420340310177983 0.0028589493885603115 0 0.0030975179616412633 0.0025150703564288863 0 0.0027019141122821308 0.0026794289861051014 0 0.0030975179616412633 0.0025150703564288863 0 0.0027019141122821308 0.0026794289861051014 0 0.0027808167546840351 0.0022906891569062201 0 0.0027019141122821308 0.0026794289861051014 0 0.0023424324001066416 0.0025582348803222543 0 0.0027808167546840351 0.0022906891569062201 0 0.0023424324001066416 0.0025582348803222543 0 0.0019005939837387629 0.0024652457452212537 0 0.0019707212745982737 0.0029157554397158171 0 0.0024183092748482492 0.0029927000657747498 0 0.0023424324001066416 0.0025582348803222543 0 0.0019707212745982737 0.0029157554397158171 0 0.0024183092748482492 0.0029927000657747498 0 0.0019707212745982737 0.0029157554397158171 0 0.0022381339103140934 0.0033854529880353069 0 0.0019707212745982737 0.0029157554397158171 0 0.0017454402954135673 0.003326370786205094 0 0.0022381339103140934 0.0033854529880353069 0 0.001907012408637176 0.0038110080546879819 0 0.0017454402954135673 0.003326370786205094 0 0.0022381339103140934 0.0033854529880353069 0 0.0018262475447269782 0.0026925823992022201 0 0.0020137611009335334 0.0018878481321226493 0 0.00022920477697727031 0.0025364705824162184 0 0.0011351011911469745 0.0037160040337694111 0 0.00093104991015227363 0.00072481430065930795 0 0.0011351011911469745 0.0037160040337694111 0 0.0017454402954135673 0.003326370786205094 0 0.0013052623928139914 0.0028686586635842583 0 0.0019707212745982737 0.0029157554397158171 0 0.0017454402954135673 0.003326370786205094 0 0.0013052623928139914 0.0028686586635842583 0 0.0019005939837387629 0.0024652457452212537 0 0.0019707212745982737 0.0029157554397158171 0 0.0013052623928139914 0.0028686586635842583 0 0.0019005939837387629 0.0024652457452212537 0 0.0013052623928139914 0.0028686586635842583 0 0.0016994641224545113 0.0020992187612752741 0 0.0013052623928139914 0.0028686586635842583 0 0.0016994641224545113 0.0020992187612752741 0 0.0012721514910926835 0.0019006805169707671 0 0.0020137611009335334 0.0018878481321226493 0 0.0028652441883236916 0.001453445984943123 0 0.0016994641224545113 0.0020992187612752741 0 0.0018280150116172979 0.0016053661826768339 0 0.0012721514910926835 0.0019006805169707671 0 0.0018280150116172979 0.0016053661826768339 0 0.0012721514910926835 0.0019006805169707671 0 0.0012114585531888865 0.00093009683592208366 0 0.0018280150116172979 0.0016053661826768339 0 0.0024066808263526608 0.0015450216104741803 0 0.0020628013035888424 0.0010589083861799113 0 0.0018280150116172979 0.0016053661826768339 0 0.0024066808263526608 0.0015450216104741803 0 0.002300119016250074 0.0020083464165257525 0 0.0019005939837387629 0.0024652457452212537 0 0.0016994641224545113 0.0020992187612752741 0 0.002300119016250074 0.0020083464165257525 0 0.0016994641224545113 0.0020992187612752741 0 0.0018280150116172979 0.0016053661826768339 0 0.002300119016250074 0.0020083464165257525 0 0.0023424324001066416 0.0025582348803222543 0 0.0019005939837387629 0.0024652457452212537 0 0.002300119016250074 0.0020083464165257525 0 0.0023424324001066416 0.0025582348803222543 0 0.002300119016250074 0.0020083464165257525 0 0.0027808167546840351 0.0022906891569062201 0 0.002300119016250074 0.0020083464165257525 0 0.0027808167546840351 0.0022906891569062201 0 0.0029048418388203691 0.0018661956899543573 0 0.0027808167546840351 0.0022906891569062201 0 0.0029048418388203691 0.0018661956899543573 0 0.0033188566664648905 0.002182024246622749 0 0.0039793608324209433 0.0026063682749329293 0 0.0033188566664648905 0.002182024246622749 0 0.00339418074706751 0.0017613712058860004 0 0.0030975179616412633 0.0025150703564288863 0 0.0027808167546840351 0.0022906891569062201 0 0.0033188566664648905 0.002182024246622749 0 0.0029048418388203691 0.0018661956899543573 0 0.0033188566664648905 0.002182024246622749 0 0.003368761741989734 0.0018151345798665759 0 0.0087381236621895102 0.0070694930486016987 0 0.0088785431681295789 0.0078343093066613051 0 0.0097441822257734994 0.010588106762887045 0 0.009637383678523322 0.010426725290101526 0 0.0097691467202176314 0.010447964627269452 0 0.0088785431681295789 0.0078343093066613051 0 0.0094512725839627672 0.010519313814155291 0 0.0029048418388203691 0.0018661956899543573 0 0.003368761741989734 0.0018151345798665759 0 0.0029517062296453003 0.0011927712308118694 0 0.0095548122605189634 0.0093485521413510693 0 0.0095250930581773658 0.0095226756369524521 0 0.0094391904878371093 0.0094148855695123553 0 0.0088785431681295789 0.0078343093066613051 0 0.01022984760345407 0.011373639835435599 0 0.0024066808263526608 0.0015450216104741803 0 0.0029048418388203691 0.0018661956899543573 0 0.0029517062296453003 0.0011927712308118694 0 0.0024066808263526608 0.0015450216104741803 0 0.002300119016250074 0.0020083464165257525 0 0.0029048418388203691 0.0018661956899543573 0 0.0024066808263526608 0.0015450216104741803 0 0.0029517062296453003 0.0011927712308118694 0 0.0020628013035888424 0.0010589083861799113 0 0.012451932501323952 0.014734987263285039 0 0.013277089451207457 0.016015717634654699 0 0.013698704907823021 0.014970247491632617 0 0.0094512725839627672 0.010519313814155291 0 0.0076383948466319709 0.008802572712391217 0 0.0094512725839627672 0.010519313814155291 0 0.012853220255421476 0.015565406569398178 0 0.013475847683047132 0.016161554114371302 0 0.013162664223266183 0.016104238143793626 0 0.013397599892648821 0.016510092019294851 0 0.01022984760345407 0.011373639835435599 0 0.011218296360429788 0.015244820455575354 0 0.013162664223266183 0.016104238143793626 0 0.013397599892648821 0.016510092019294851 0 0.013088652106349295 0.016613067504164643 0 0.0094512725839627672 0.010519313814155291 0 0.01022984760345407 0.011373639835435599 0 0.013397599892648821 0.016510092019294851 0 0.013088652106349295 0.016613067504164643 0 0.01342747516613897 0.016927461990935855 0 0.013475847683047132 0.016161554114371302 0 0.013397599892648821 0.016510092019294851 0 0.013825012073114906 0.016736033226485116 0 0.013397599892648821 0.016510092019294851 0 0.013825012073114906 0.016736033226485116 0 0.01342747516613897 0.016927461990935855 0 0.013277089451207457 0.016015717634654699 0 0.014257364726387734 0.015939313510139805 0 0.013698704907823021 0.014970247491632617 0 0.014257364726387734 0.015939313510139805 0 0.014961075823522008 0.016558405258617532 0 0.01489427138457748 0.015203172687177184 0 0.0076383948466319709 0.008802572712391217 0 0.0054800671279961475 0.0074470506525680328 0 0.0018280150116172979 0.0016053661826768339 0 0.0020628013035888424 0.0010589083861799113 0 0.0012114585531888865 0.00093009683592208366 0 0.014257364726387734 0.015939313510139805 0 0.013698704907823021 0.014970247491632617 0 0.01489427138457748 0.015203172687177184 0 0.0093008059376572475 0.011228878213124365 0 0.0086759460109890017 0.013476043945754464 0 0.0093008059376572475 0.011228878213124365 0 0.01054370899383148 0.011630223456235426 0 0.0060304785410552489 0.0019176612215730316 0 0.005286056578574682 0.0024298393849827159 0 0.0064113283399610923 0.0029570571101684416 0 0.0060304785410552489 0.0019176612215730316 0 0.005286056578574682 0.0024298393849827159 0 0.0052166445392211333 0.0019214499115173453 0 0.005286056578574682 0.0024298393849827159 0 0.0052166445392211333 0.0019214499115173453 0 0.0047734270446529127 0.0020317691573807613 0 0.0060304785410552489 0.0019176612215730316 0 0.0052166445392211333 0.0019214499115173453 0 0.005700604796289744 0.00094138986888038696 0 0.0052166445392211333 0.0019214499115173453 0 0.0049007044383016308 0.0015815654822742761 0 0.005700604796289744 0.00094138986888038696 0 0.0099270073264201251 0.010908849306137492 0 0.0090218319642350903 0.0073445568681108761 0 0.0047676921829134878 0.0015608350602803697 0 0.0047734270446529127 0.0020317691573807613 0 0.004319190872778246 0.0022694352950217507 0 0.0049007044383016308 0.0015815654822742761 0 0.0047676921829134878 0.0015608350602803697 0 0.0049326258518579674 0.0018053607434464084 0 0.0098102156925787675 0.010849340157072935 0 0.0099270073264201251 0.010908849306137492 0 0.0047676921829134878 0.0015608350602803697 0 0.0049326258518579674 0.0018053607434464084 0 0.0047734270446529127 0.0020317691573807613 0 0.0052166445392211333 0.0019214499115173453 0 0.0049007044383016308 0.0015815654822742761 0 0.0049326258518579674 0.0018053607434464084 0 0.0052166445392211333 0.0019214499115173453 0 0.0049326258518579674 0.0018053607434464084 0 0.0047734270446529127 0.0020317691573807613 0 0.005286056578574682 0.0024298393849827159 0 0.0047734270446529127 0.0020317691573807613 0 0.0047577391264480243 0.002477548677669326 0 0.0043669497800286729 0.0027488063746016807 0 0.0047577391264480243 0.002477548677669326 0 0.004319190872778246 0.0022694352950217507 0 0.0047734270446529127 0.0020317691573807613 0 0.0047577391264480243 0.002477548677669326 0 0.004319190872778246 0.0022694352950217507 0 0.0094004530526018513 0.0091005630927438672 0 0.0093290459201578659 0.0092380155761946029 0 0.0094323821686724662 0.0093055889755769283 0 0.0094004530526018513 0.0091005630927438672 0 0.0095548122605189634 0.0093485521413510693 0 0.0094323821686724662 0.0093055889755769283 0 0.0087008551299829172 0.0060515282007374497 0 0.0088785431681295789 0.0078343093066613051 0 0.0087008551299829172 0.0060515282007374497 0 0.0090218319642350903 0.0073445568681108761 0 0.0095250930581773658 0.0095226756369524521 0 0.009210414474716485 0.0094699781906846386 0 0.0094391904878371093 0.0094148855695123553 0 0.0095548122605189634 0.0093485521413510693 0 0.0094323821686724662 0.0093055889755769283 0 0.0094391904878371093 0.0094148855695123553 0 0.009210414474716485 0.0094699781906846386 0 0.0094323821686724662 0.0093055889755769283 0 0.0094391904878371093 0.0094148855695123553 0 0.01022984760345407 0.011373639835435599 0 0.0099270073264201251 0.010908849306137492 0 0.0092107339319722654 0.0094738100911502445 0 0.0093290459201578659 0.0092380155761946029 0 0.0094323821686724662 0.0093055889755769283 0 0.0099270073264201251 0.010908849306137492 0 0.0099447355486136785 0.010513637089520829 0 0.013151686208817844 0.016687530491673274 0 0.013103594627812708 0.016998949006567829 0 0.012858997692032985 0.016899808119861071 0 0.013151686208817844 0.016687530491673274 0 0.012766476219635555 0.016622598965970469 0 0.012858997692032985 0.016899808119861071 0 0.013103594627812708 0.016998949006567829 0 0.012844752128499403 0.017131631500334605 0 0.012858997692032985 0.016899808119861071 0 0.012844752128499403 0.017131631500334605 0 0.012703349071280106 0.017062580409760622 0 0.012858997692032985 0.016899808119861071 0 0.012703349071280106 0.017062580409760622 0 0.012858997692032985 0.016899808119861071 0 0.012637498784687121 0.016888442590198921 0 0.0099270073264201251 0.010908849306137492 0 0.010292946174091435 0.014749378315480496 0 0.012766476219635555 0.016622598965970469 0 0.012858997692032985 0.016899808119861071 0 0.012637498784687121 0.016888442590198921 0 0.0099270073264201251 0.010908849306137492 0 0.0086759460109890017 0.013476043945754464 0 0.012006828563254144 0.018286537656136526 0 0.012168031938274294 0.018036175232528762 0 0.012409381806191559 0.018057530351582529 0 0.0049007044383016308 0.0015815654822742761 0 0.0047694006870235162 0.0015623688483803429 0 0.005700604796289744 0.00094138986888038696 0 0.012168031938274294 0.018036175232528762 0 0.012394903163510548 0.01799401333675613 0 0.012409381806191559 0.018057530351582529 0 0.012703349071280106 0.017062580409760622 0 0.012637498784687121 0.016888442590198921 0 0.012532210512726434 0.017165645747595333 0 0.012168031938274294 0.018036175232528762 0 0.01233468019003724 0.017710046791458111 0 0.012394903163510548 0.01799401333675613 0 0.010292946174091435 0.014749378315480496 0 0.010794440204640453 0.016024253292695315 0 0.0086759460109890017 0.013476043945754464 0 0.010123952294318764 0.014476272026695394 0 0.012576148461690421 0.017817721885014653 0 0.01241360728305378 0.018090137104532337 0 0.013037537002724713 0.017778999138412372 0 0.012394903163510548 0.01799401333675613 0 0.012576148461690421 0.017817721885014653 0 0.01241360728305378 0.018090137104532337 0 0.01233468019003724 0.017710046791458111 0 0.012394903163510548 0.01799401333675613 0 0.012576148461690421 0.017817721885014653 0 0.012730814768571901 0.019198605343586663 0 0.012366961238390699 0.018346344464953653 0 0.013047286006916979 0.018538711371055096 0 0.0087411880582967637 0.013628310921884915 0 0.0086759460109890017 0.013476043945754464 0 0.012533003841098331 0.017355753652724459 0 0.012444322910251859 0.017574254797816501 0 0.012648710399832654 0.017282256761939081 0 0.012533003841098331 0.017355753652724459 0 0.01270829549261426 0.017340135627142279 0 0.012648710399832654 0.017282256761939081 0 0.012533003841098331 0.017355753652724459 0 0.01270829549261426 0.017340135627142279 0 0.012717635871770158 0.017527783758708931 0 0.01233468019003724 0.017710046791458111 0 0.012576148461690421 0.017817721885014653 0 0.012717635871770158 0.017527783758708931 0 0.010794440204640453 0.016024253292695315 0 0.010994484451209452 0.01631829940110972 0 0.012576148461690421 0.017817721885014653 0 0.012717635871770158 0.017527783758708931 0 0.013037537002724713 0.017778999138412372 0 0.01233468019003724 0.017710046791458111 0 0.012533003841098331 0.017355753652724459 0 0.012717635871770158 0.017527783758708931 0 0.012532210512726434 0.017165645747595333 0 0.012533003841098331 0.017355753652724459 0 0.01257913453757013 0.01731966116276237 0 0.012703349071280106 0.017062580409760622 0 0.012532210512726434 0.017165645747595333 0 0.012695682606039453 0.017235596649158424 0 0.012532210512726434 0.017165645747595333 0 0.01257913453757013 0.01731966116276237 0 0.012695682606039453 0.017235596649158424 0 0.01257913453757013 0.01731966116276237 0 0.012680913390241603 0.017415528575028094 0 0.012695682606039453 0.017235596649158424 0 0.012533003841098331 0.017355753652724459 0 0.012552909796850233 0.017434930893596948 0 0.012444322910251859 0.017574254797816501 0 0.01257913453757013 0.01731966116276237 0 0.012552909796850233 0.017434930893596948 0 0.012680913390241603 0.017415528575028094 0 0.012533003841098331 0.017355753652724459 0 0.01257913453757013 0.01731966116276237 0 0.012552909796850233 0.017434930893596948 0 0.012552909796850233 0.017434930893596948 0 0.012680913390241603 0.017415528575028094 0 0.012580792309485429 0.017583074194462426 0 0.012864479317007137 0.017476553581852364 0 0.012680913390241603 0.017415528575028094 0 0.012748359737909193 0.017669334713982309 0 0.012680913390241603 0.017415528575028094 0 0.012748359737909193 0.017669334713982309 0 0.012580792309485429 0.017583074194462426 0 0.012864479317007137 0.017476553581852364 0 0.012680913390241603 0.017415528575028094 0 0.012848831688190905 0.017309725465376121 0 0.012680913390241603 0.017415528575028094 0 0.012695682606039453 0.017235596649158424 0 0.012848831688190905 0.017309725465376121 0 0.012844752128499403 0.017131631500334605 0 0.012703349071280106 0.017062580409760622 0 0.012695682606039453 0.017235596649158424 0 0.012844752128499403 0.017131631500334605 0 0.012695682606039453 0.017235596649158424 0 0.012848831688190905 0.017309725465376121 0 0.012844752128499403 0.017131631500334605 0 0.012848831688190905 0.017309725465376121 0 0.013057023321760074 0.017301289451834161 0 0.011218296360429788 0.015244820455575354 0 0.011781678316900726 0.016558054271317006 0 0.013103594627812708 0.016998949006567829 0 0.012844752128499403 0.017131631500334605 0 0.013057023321760074 0.017301289451834161 0 0.012864479317007137 0.017476553581852364 0 0.013057023321760074 0.017301289451834161 0 0.013009644462895436 0.01763084815437152 0 0.011781678316900726 0.016558054271317006 0 0.011950407467501759 0.016940658941651414 0 0.012864479317007137 0.017476553581852364 0 0.012848831688190905 0.017309725465376121 0 0.013057023321760074 0.017301289451834161 0 0.013009644462895436 0.01763084815437152 0 0.01307293178449526 0.018034299230705566 0 0.012881239671740765 0.017857299519956613 0 0.013009644462895436 0.01763084815437152 0 0.01307293178449526 0.018034299230705566 0 0.013306945950016875 0.017821671364345801 0 0.013148410927457497 0.018226896823680182 0 0.012876871040904557 0.018206145079828609 0 0.013196530874549819 0.018402500991184029 0 0.012650262972634205 0.018126348362381979 0 0.013036137691384137 0.018635017225801589 0 0.01307293178449526 0.018034299230705566 0 0.012650262972634205 0.018126348362381979 0 0.012881239671740765 0.017857299519956613 0 0.012650262972634205 0.018126348362381979 0 0.012666407148965697 0.018539076806742827 0 0.013036137691384137 0.018635017225801589 0 0.012650262972634205 0.018126348362381979 0 0.012748359737909193 0.017669334713982309 0 0.012587622733006466 0.017805096387866311 0 0.012864479317007137 0.017476553581852364 0 0.013009644462895436 0.01763084815437152 0 0.012748359737909193 0.017669334713982309 0 0.013009644462895436 0.01763084815437152 0 0.012881239671740765 0.017857299519956613 0 0.012748359737909193 0.017669334713982309 0 0.012650262972634205 0.018126348362381979 0 0.012881239671740765 0.017857299519956613 0 0.012748359737909193 0.017669334713982309 0 0.012748359737909193 0.017669334713982309 0 0.012580792309485429 0.017583074194462426 0 0.012587622733006466 0.017805096387866311 0 0.012580792309485429 0.017583074194462426 0 0.012444322910251859 0.017574254797816501 0 0.012460469911216901 0.017766022777090926 0 0.012552909796850233 0.017434930893596948 0 0.012580792309485429 0.017583074194462426 0 0.012444322910251859 0.017574254797816501 0 0.012460469911216901 0.017766022777090926 0 0.012334685114372428 0.017874580184128134 0 0.012540960540414588 0.018014150869073296 0 0.012460469911216901 0.017766022777090926 0 0.012334685114372428 0.017874580184128134 0 0.012279347535045958 0.017619471871055649 0 0.012444322910251859 0.017574254797816501 0 0.012460469911216901 0.017766022777090926 0 0.012279347535045958 0.017619471871055649 0 0.012460469911216901 0.017766022777090926 0 0.012587622733006466 0.017805096387866311 0 0.012540960540414588 0.018014150869073296 0 0.012580792309485429 0.017583074194462426 0 0.012460469911216901 0.017766022777090926 0 0.012587622733006466 0.017805096387866311 0 0.012650262972634205 0.018126348362381979 0 0.012587622733006466 0.017805096387866311 0 0.012540960540414588 0.018014150869073296 0 0.012650262972634205 0.018126348362381979 0 0.012540960540414588 0.018014150869073296 0 0.012666407148965697 0.018539076806742827 0 0.013484293919491642 0.017963760110925486 0 0.013405284953001965 0.018290623232278164 0 0.013416859056728387 0.01853820756012187 0 0.012334685114372428 0.017874580184128134 0 0.012540960540414588 0.018014150869073296 0 0.012666407148965697 0.018539076806742827 0 0.012924285305513847 0.017934260786849815 0 0.013049360710059093 0.018324857812395026 0 0.013405284953001965 0.018290623232278164 0 0.013448359830902279 0.018050949314236321 0 0.013410279140860966 0.018197017133436119 0 0.013484293919491642 0.017963760110925486 0 0.013405284953001965 0.018290623232278164 0 0.013448359830902279 0.018050949314236321 0 0.013484293919491642 0.017963760110925486 0 0.013465052344627923 0.017984269193559034 0 0.013471779621637465 0.01796163388412985 0 0.013465052344627923 0.017984269193559034 0 0.013468199431171808 0.017950572585445398 0 0.013471779621637465 0.01796163388412985 0 0.013468199431171808 0.017950572585445398 0 0.013448359830902279 0.018050949314236321 0 0.013422145450780984 0.018085458933044859 0 0.013465052344627923 0.017984269193559034 0 0.013468199431171808 0.017950572585445398 0 0.013448359830902279 0.018050949314236321 0 0.013484293919491642 0.017963760110925486 0 0.013465052344627923 0.017984269193559034 0 0.013448359830902279 0.018050949314236321 0 0.013422145450780984 0.018085458933044859 0 0.013410279140860966 0.018197017133436119 0 0.013368376418168432 0.01832635022711156 0 0.013448359830902279 0.018050949314236321 0 0.013422145450780984 0.018085458933044859 0 0.013410279140860966 0.018197017133436119 0 0.013422145450780984 0.018085458933044859 0 0.013472031104322529 0.017896869314022981 0 0.013397217860930904 0.018099377057393166 0 0.013468199431171808 0.017950572585445398 0 0.013422145450780984 0.018085458933044859 0 0.013472031104322529 0.017896869314022981 0 0.013468199431171808 0.017950572585445398 0 0.013530089240119014 0.017772076121861168 0 0.013472031104322529 0.017896869314022981 0 0.013471779621637465 0.01796163388412985 0 0.013374271249523648 0.017878484501226595 0 0.013409109293583131 0.017870009409555476 0 0.013484293919491642 0.017963760110925486 0 0.013471779621637465 0.01796163388412985 0 0.013409109293583131 0.017870009409555476 0 0.012924285305513847 0.017934260786849815 0 0.012885856936870934 0.017599058014540876 0 0.012695132553481585 0.017523960611964456 0 0.012885856936870934 0.017599058014540876 0 0.012334685114372428 0.017874580184128134 0 0.012279347535045958 0.017619471871055649 0 0.011847610400359997 0.017271263591880259 0 0.013471779621637465 0.01796163388412985 0 0.01361049811892347 0.017634761638781332 0 0.013530089240119014 0.017772076121861168 0 0.013468199431171808 0.017950572585445398 0 0.013471779621637465 0.01796163388412985 0 0.013530089240119014 0.017772076121861168 0 0.013491040053828075 0.017749585208234702 0 0.013518521428029985 0.017709394781862755 0 0.012444322910251859 0.017574254797816501 0 0.012279347535045958 0.017619471871055649 0 0.011847610400359997 0.017271263591880259 0 0.014160788434497671 0.017214935680410499 0 0.013765488941575954 0.017179093568344021 0 0.013871691154178287 0.017812509436781511 0 0.014160788434497671 0.017214935680410499 0 0.014438437995807386 0.017860200034084988 0 0.014938781967761227 0.017624931622194279 0 0.014160788434497671 0.017214935680410499 0 0.014938781967761227 0.017624931622194279 0 0.014961075823522008 0.016558405258617532 0 0.014257364726387734 0.015939313510139805 0 0.014160788434497671 0.017214935680410499 0 0.014961075823522008 0.016558405258617532 0 0.012853220255421476 0.015565406569398178 0 0.013548061262190426 0.016562559093054083 0 0.013277089451207457 0.016015717634654699 0 0.014257364726387734 0.015939313510139805 0 0.014160788434497671 0.017214935680410499 0 0.013825012073114906 0.016736033226485116 0 0.014160788434497671 0.017214935680410499 0 0.013765488941575954 0.017179093568344021 0 0.013825012073114906 0.016736033226485116 0 0.01342747516613897 0.016927461990935855 0 0.013765488941575954 0.017179093568344021 0 0.01342747516613897 0.016927461990935855 0 0.013468335078895079 0.017434887470181314 0 0.013765488941575954 0.017179093568344021 0 0.013030535247654768 0.017125514132475803 0 0.01342747516613897 0.016927461990935855 0 0.013468335078895079 0.017434887470181314 0 0.013088652106349295 0.016613067504164643 0 0.013030535247654768 0.017125514132475803 0 0.01342747516613897 0.016927461990935855 0 0.013030535247654768 0.017125514132475803 0 0.013009644462895436 0.01763084815437152 0 0.013468335078895079 0.017434887470181314 0 0.013468335078895079 0.017434887470181314 0 0.013765488941575954 0.017179093568344021 0 0.013871691154178287 0.017812509436781511 0 0.013306945950016875 0.017821671364345801 0 0.01355941704050345 0.018127676588756279 0 0.013871691154178287 0.017812509436781511 0 0.013468335078895079 0.017434887470181314 0 0.013306945950016875 0.017821671364345801 0 0.013871691154178287 0.017812509436781511 0 0.013009644462895436 0.01763084815437152 0 0.013468335078895079 0.017434887470181314 0 0.013306945950016875 0.017821671364345801 0 0.013148410927457497 0.018226896823680182 0 0.013618099108427291 0.018259648078353063 0 0.013196530874549819 0.018402500991184029 0 0.013623582730645215 0.018442810667927006 0 0.013325793764678217 0.018828333592884897 0 0.01307293178449526 0.018034299230705566 0 0.013306945950016875 0.017821671364345801 0 0.01355941704050345 0.018127676588756279 0 0.013618099108427291 0.018259648078353063 0 0.013920664962826025 0.018276061832994159 0 0.013623582730645215 0.018442810667927006 0 0.01422783067267221 0.01832166087593436 0 0.013905595787554705 0.018693278433271981 0 0.013871691154178287 0.017812509436781511 0 0.014370602374092462 0.018114607274066857 0 0.01422783067267221 0.01832166087593436 0 0.01355941704050345 0.018127676588756279 0 0.013871691154178287 0.017812509436781511 0 0.01422783067267221 0.01832166087593436 0 0.014160788434497671 0.017214935680410499 0 0.013871691154178287 0.017812509436781511 0 0.014438437995807386 0.017860200034084988 0 0.014438437995807386 0.017860200034084988 0 0.014530732475349434 0.018357398269741341 0 0.014938781967761227 0.017624931622194279 0 0.013871691154178287 0.017812509436781511 0 0.014438437995807386 0.017860200034084988 0 0.014370602374092462 0.018114607274066857 0 0.014438437995807386 0.017860200034084988 0 0.014370602374092462 0.018114607274066857 0 0.014530732475349434 0.018357398269741341 0 0.014370602374092462 0.018114607274066857 0 0.01422783067267221 0.01832166087593436 0 0.014530732475349434 0.018357398269741341 0 0.0077962163580910238 0.016784807516903841 0 0.0073985433873421085 0.016191465824985936 0 0.0074933528619558782 0.017375543504996864 0 0.014370363679879669 0.018524227700530856 0 0.014625648034410556 0.018380047918345487 0 0.014658581561320569 0.018755943870464246 0 0.0099546800220906492 0.016766964405025665 0 0.0103048175287164 0.017679626263506758 0 0.0073985433873421085 0.016191465824985936 0 0.0078857996629657541 0.016384666291384443 0 0.0080607514634791211 0.016034808485128029 0 0.0077962163580910238 0.016784807516903841 0 0.0073985433873421085 0.016191465824985936 0 0.0078857996629657541 0.016384666291384443 0 0.0067025277206092491 0.017334552734580528 0 0.0068616267309522909 0.016928664690054742 0 0.0070907297122204428 0.017502742511481647 0 0.0059062201329030863 0.015104188365974741 0 0.0061643383715876158 0.018064221815686794 0 0.0067025277206092491 0.017334552734580528 0 0.0070907297122204428 0.017502742511481647 0 0.0069180015308865648 0.017718033161564287 0 0.0075770135500070985 0.017189778608190005 0 0.0078337109587225014 0.018735618736498677 0 0.0077962163580910238 0.016784807516903841 0 0.0083056533200683205 0.016465611511555775 0 0.0079091186492607646 0.017468022182538775 0 0.0075770135500070985 0.017189778608190005 0 0.0095500853428553724 0.018041999777094374 0 0.0077962163580910238 0.016784807516903841 0 0.0078857996629657541 0.016384666291384443 0 0.0083056533200683205 0.016465611511555775 0 0.0080607514634791211 0.016034808485128029 0 0.0082978363639624811 0.016460139219164442 0 0.0086609003498106327 0.015548849135610835 0 0.0078857996629657541 0.016384666291384443 0 0.0080607514634791211 0.016034808485128029 0 0.0083056533200683205 0.016465611511555775 0 0.0075713028670482182 0.017137291468964467 0 0.0075770135500070985 0.017189778608190005 0 0.0075770135500070985 0.017189778608190005 0 0.0059062201329030863 0.015104188365974741 0 0.0080607514634791211 0.016034808485128029 0 0.0086609003498106327 0.015548849135610835 0 0.0078680692973647146 0.015293032316210447 0 0.0099546800220906492 0.016766964405025665 0 0.0092901320450708407 0.015167663784475942 0 0.0073985433873421085 0.016191465824985936 0 0.0073043683757384953 0.015014399898934896 0 0.0078680692973647146 0.015293032316210447 0 0.014370363679879669 0.018524227700530856 0 0.014625648034410556 0.018380047918345487 0 0.014578980649682483 0.017993884825191483 0 0.01153007908858192 0.016960618239772598 0 0.0092901320450708407 0.015167663784475942 0 0.0073985433873421085 0.016191465824985936 0 0.0080607514634791211 0.016034808485128029 0 0.0078680692973647146 0.015293032316210447 0 0.0074594587998958071 0.014364779693298357 0 0.0084627949151738716 0.012178511305813013 0 0.0072281953269040201 0.0114495747458353 0 0.0092901320450708407 0.015167663784475942 0 0.0060248309998516018 0.011450578331915257 0 0.0092901320450708407 0.015167663784475942 0 0.0083593705134761536 0.0131301255405847 0 0.0073043683757384953 0.015014399898934896 0 0.0078680692973647146 0.015293032316210447 0 0.0079151608663995971 0.013675122598248846 0 0.0086609003498106327 0.015548849135610835 0 0.0078680692973647146 0.015293032316210447 0 0.0079151608663995971 0.013675122598248846 0 0.0033160207707377907 0.012669496777648724 0 0.0025624222244045058 0.010782151436598851 0 0.0040217922204139793 0.010867095493340282 0 0.0059062201329030863 0.015104188365974741 0 0.0060248309998516018 0.011450578331915257 0 0.0046944264701306972 0.0083644662648245521 0 0.0044217163810643849 0.0076721450027375159 0 0.0049718621027374961 0.007749707465519581 0 0.0025624222244045058 0.010782151436598851 0 0.0040217922204139793 0.010867095493340282 0 0.0030026527503116442 0.0098152182411956942 0 0.0060248309998516018 0.011450578331915257 0 0.0039716391526928765 0.0085682543836600022 0 0.0084627949151738716 0.012178511305813013 0 0.0072281953269040201 0.0114495747458353 0 0.0077592544615176038 0.010403672967100795 0 0.0060248309998516018 0.011450578331915257 0 0.0057715055552809372 0.009381875332354456 0 0.0029184241652571064 0.013438807938799723 0 0.0026639311221219961 0.013579326952186395 0 0.0028858613898538124 0.013939040406816695 0 0.0029184241652571064 0.013438807938799723 0 0.0028858613898538124 0.013939040406816695 0 0.0031281551378676211 0.013607668523993376 0 0.0029184241652571064 0.013438807938799723 0 0.0026639311221219961 0.013579326952186395 0 0.0028109619449762911 0.013184017736646856 0 0.00330517462695645 0.012001061232022978 0 0.00095976650360888823 0.0080270873569003726 0 0.0040217922204139793 0.010867095493340282 0 0.0030026527503116442 0.0098152182411956942 0 0.0041031272422522615 0.0093755543195928031 0 0.0025160375086770467 0.01398246530129217 0 0.0026639311221219961 0.013579326952186395 0 0.0028858613898538124 0.013939040406816695 0 0.0059062201329030863 0.015104188365974741 0 0.00330517462695645 0.012001061232022978 0 0.0034879786752300161 0.016446057483117713 0 0.001857996194968949 0.014701121891449901 0 0.0025160375086770467 0.01398246530129217 0 0.0028858613898538124 0.013939040406816695 0 0.002635647853650979 0.014277018988302373 0 0.0034879786752300161 0.016446057483117713 0 0.0061643383715876158 0.018064221815686794 0 0.0022623639862154737 0.017914730786426511 0 0.0019126329689651579 0.018369914207274893 0 0.002287028509764007 0.018398444473384547 0 0.0022623639862154737 0.017914730786426511 0 0.002287028509764007 0.018398444473384547 0 0.0026705769387068167 0.018348193984756893 0 0.0025198692905212469 0.020907598800596408 0 0.0015287737884548639 0.019807832199971166 0 0.00093515851105003438 0.023003126970579334 0 0.0011460692239313335 0.02306400398530388 0 0.0010774902582483547 0.022580219922099846 0 0.0017265033912378914 0.023396444139508813 0 0.0016972585348655597 0.023082617920866442 0 0.0011460692239313335 0.02306400398530388 0 0.0010774902582483547 0.022580219922099846 0 0.0014763128561595072 0.022713329805449427 0 0.0010774902582483547 0.022580219922099846 0 0.0014763128561595072 0.022713329805449427 0 0.0013496211453409507 0.022395941813938926 0 0.0022623639862154737 0.017914730786426511 0 0.0026705769387068167 0.018348193984756893 0 0.0028375749889781275 0.017910118796926514 0 0.0020672324392434242 0.023515154207875859 0 0.0023380454695604508 0.02423238204192989 0 0.0030297066694530673 0.023917406916208268 0 0.0020672324392434242 0.023515154207875859 0 0.0017364129512293777 0.024287818974630136 0 0.0023380454695604508 0.02423238204192989 0 0.00057881147779843128 0.024049618893988829 0 0.001269486734187826 0.023997079945672281 0 0.0012976582108488479 0.02317194476263907 0 0.0020672324392434242 0.023515154207875859 0 0.001269486734187826 0.023997079945672281 0 0.0017364129512293777 0.024287818974630136 0 0.0020672324392434242 0.023515154207875859 0 0.001269486734187826 0.023997079945672281 0 0.0012976582108488479 0.02317194476263907 0 0.0014763128561595072 0.022713329805449427 0 0.0015860763660114957 0.0222236576483586 0 0.0013496211453409507 0.022395941813938926 0 0.0016972585348655597 0.023082617920866442 0 0.001875651360851806 0.022782157385757524 0 0.0012976582108488479 0.02317194476263907 0 0.0021546371377918327 0.022911438118922853 0 0.002059222844454697 0.022258120251135091 0 0.0020672324392434242 0.023515154207875859 0 0.0021546371377918327 0.022911438118922853 0 0.0028031175016321091 0.02315072703123643 0 0.0020672324392434242 0.023515154207875859 0 0.0012976582108488479 0.02317194476263907 0 0.0021546371377918327 0.022911438118922853 0 0.002059222844454697 0.022258120251135091 0 0.0015860763660114957 0.0222236576483586 0 0.0027236932883743579 0.022051074784755046 0 0.0015860763660114957 0.0222236576483586 0 0.0017604416140937194 0.021978199630333851 0 0.0020144942476149996 0.022044590548273943 0 0.0015722493357983364 0.02078347969183018 0 0.0015750482849757773 0.020253059071420793 0 0.0021546371377918327 0.022911438118922853 0 0.002059222844454697 0.022258120251135091 0 0.0026411693038244726 0.022610366316933091 0 0.0014763128561595072 0.022713329805449427 0 0.002059222844454697 0.022258120251135091 0 0.0015860763660114957 0.0222236576483586 0 0.0015860763660114957 0.0222236576483586 0 0.0015247801480390182 0.021981859934904903 0 0.0017604416140937194 0.021978199630333851 0 0.0015860763660114957 0.0222236576483586 0 0.0013496211453409507 0.022395941813938926 0 0.0012719561305406825 0.022071497531087208 0 0.0015860763660114957 0.0222236576483586 0 0.0015247801480390182 0.021981859934904903 0 0.0012719561305406825 0.022071497531087208 0 0.0015247801480390182 0.021981859934904903 0 0.0012719561305406825 0.022071497531087208 0 0.0014644930441143414 0.021670969556006017 0 0.0015247801480390182 0.021981859934904903 0 0.0017604416140937194 0.021978199630333851 0 0.0014644930441143414 0.021670969556006017 0 0.0017604416140937194 0.021978199630333851 0 0.0020144942476149996 0.022044590548273943 0 0.0019532262616319307 0.021793389276492214 0 0.0017604416140937194 0.021978199630333851 0 0.0014644930441143414 0.021670969556006017 0 0.0019532262616319307 0.021793389276492214 0 0.0022623639862154737 0.017914730786426511 0 0.0028375749889781275 0.017910118796926514 0 0.0026115712817540789 0.017452399988017075 0 0.0015287737884548639 0.019807832199971166 0 0.00050606038188326027 0.018135999822787883 0 0.0010774902582483547 0.022580219922099846 0 0.0013496211453409507 0.022395941813938926 0 0.0012719561305406825 0.022071497531087208 0 0.0028375749889781275 0.017910118796926514 0 0.0026115712817540789 0.017452399988017075 0 0.0030031008430278392 0.017466889146690666 0 0.0030031008430278392 0.017466889146690666 0 0.0029623732996007434 0.016988699078442405 0 0.0031692695670094044 0.017023863662445165 0 0.0026115712817540789 0.017452399988017075 0 0.0030031008430278392 0.017466889146690666 0 0.0029623732996007434 0.016988699078442405 0 0.001857996194968949 0.014701121891449901 0 -0.00047120708625227753 0.012351203622830232 0 0.00050606038188326027 0.018135999822787883 0 -0.00060940303756804547 0.014234584886414022 0 0.0031281551378676211 0.013607668523993376 0 0.0030922581675497949 0.013239612918033187 0 0.0033658318648592594 0.013289157136554328 0 0.0029184241652571064 0.013438807938799723 0 0.0031281551378676211 0.013607668523993376 0 0.0030922581675497949 0.013239612918033187 0 7.7895438194257096e-05 0.01004857958054985 0 -0.00047120708625227753 0.012351203622830232 0 -0.003173937541184431 0.0054997742856992505 0 -0.0031716868125119479 0.0055184696043111235 0 -0.0031795928112467258 0.0054840519316317867 0 -0.00047120708625227753 0.012351203622830232 0 -0.00060940303756804547 0.014234584886414022 0 -0.0031716868125119479 0.0055184696043111235 0 -0.0031795928112467258 0.0054840519316317867 0 -0.0031227994059280094 0.0054771925789190799 0 -0.003173937541184431 0.0054997742856992505 0 -0.0031795928112467258 0.0054840519316317867 0 -0.0031740351936551583 0.0054885006160462499 0 -0.003173937541184431 0.0054997742856992505 0 -0.0031740351936551583 0.0054885006160462499 0 -0.0031705520402824359 0.0054937197358987467 0 -0.0031740351936551583 0.0054885006160462499 0 -0.0031753852846510343 0.0054867043480812039 0 -0.0031705520402824359 0.0054937197358987467 0 -0.0047835740887706016 0.01048689313060127 0 -0.0047822484576797658 0.010488551122865085 0 -0.0047883718118132586 0.010507096897916209 0 -0.00060940303756804547 0.014234584886414022 0 -0.0012185285837795273 0.015917115141852487 0 -0.0047762614560299703 0.010493379111540004 0 -0.0047835740887706016 0.01048689313060127 0 -0.0047883718118132586 0.010507096897916209 0 -0.0047650229468004365 0.010496411639157887 0 -0.0047783726781873079 0.010488571574058679 0 -0.0047848871506102715 0.010480172971543536 0 -0.00047120708625227753 0.012351203622830232 0 -0.0031180413507229045 0.0090655214728268037 0 -0.0047783726781873079 0.010488571574058679 0 -0.0047762614560299703 0.010493379111540004 0 -0.0047835740887706016 0.01048689313060127 0 -0.00072522492301908749 0.013814949040445603 0 -0.00060940303756804547 0.014234584886414022 0 -0.0047650229468004365 0.010496411639157887 0 -0.0047783726781873079 0.010488571574058679 0 -0.0047694799843840344 0.010493763628339894 0 -0.0031795928112467258 0.0054840519316317867 0 -0.0031227994059280094 0.0054771925789190799 0 -0.0031715389464746671 0.0054057445253625509 0 -0.0047783726781873079 0.010488571574058679 0 -0.0047848871506102715 0.010480172971543536 0 -0.0047835740887706016 0.01048689313060127 0 -0.0047848871506102715 0.010480172971543536 0 -0.0047835740887706016 0.01048689313060127 0 -0.0047835278604891228 0.010471906193496664 0 -0.0047835740887706016 0.01048689313060127 0 -0.0047835278604891228 0.010471906193496664 0 -0.0047809521665343035 0.01047244664312679 0 -0.0047835278604891228 0.010471906193496664 0 -0.0047809521665343035 0.01047244664312679 0 -0.0047816441833061817 0.010464016130265387 0 -0.0047835740887706016 0.01048689313060127 0 -0.0047809521665343035 0.01047244664312679 0 -0.0047822484576797658 0.010488551122865085 0 -0.0031180413507229045 0.0090655214728268037 0 -0.0058470717616189785 0.0070954544313371788 0 -0.0047835278604891228 0.010471906193496664 0 -0.0047847916422626936 0.010452610830934041 0 -0.0047816441833061817 0.010464016130265387 0 -0.0047847916422626936 0.010452610830934041 0 -0.0047816441833061817 0.010464016130265387 0 -0.0047748691613310667 0.010462702199374327 0 -0.0047848871506102715 0.010480172971543536 0 -0.0047835278604891228 0.010471906193496664 0 -0.0047847916422626936 0.010452610830934041 0 -0.0031227994059280094 0.0054771925789190799 0 -0.0030235296117939485 0.0053553394101496996 0 -0.0031258129256814507 0.0053581346953329055 0 -0.0031227994059280094 0.0054771925789190799 0 -0.0031258129256814507 0.0053581346953329055 0 -0.0031715389464746671 0.0054057445253625509 0 -0.0031258129256814507 0.0053581346953329055 0 -0.0031715389464746671 0.0054057445253625509 0 -0.0031859173556853609 0.0053069852209972511 0 -0.0031258129256814507 0.0053581346953329055 0 -0.0031628228392259678 0.0052495724642134377 0 -0.0031859173556853609 0.0053069852209972511 0 -0.0030235296117939485 0.0053553394101496996 0 -0.0031258129256814507 0.0053581346953329055 0 -0.0031628228392259678 0.0052495724642134377 0 -0.009323064585796511 0.0038649584803743002 0 -0.010285403818062328 0.0032108151156219648 0 -0.0097396611976694851 0.0034522646989894922 0 -0.0058470717616189785 0.0070954544313371788 0 -0.0061936138319925371 0.003302065036193555 0 -0.0094158105797617214 0.0028950491722028481 0 -0.010285403818062328 0.0032108151156219648 0 -0.0097396611976694851 0.0034522646989894922 0 -0.0061936138319925371 0.003302065036193555 0 -0.006078123012183646 0.0034562927360518819 0 -0.0094158105797617214 0.0028950491722028481 0 -0.0097396611976694851 0.0034522646989894922 0 -0.0091848385821195946 0.0036501721119545508 0 -0.0075554234054140698 0.0063369022788320245 0 -0.0065655395981095684 0.0068820666400545294 0 -0.009323064585796511 0.0038649584803743002 0 -0.0097396611976694851 0.0034522646989894922 0 -0.0091580622175535063 0.0036656655865557482 0 -0.0058470717616189785 0.0070954544313371788 0 -0.0065655395981095684 0.0068820666400545294 0 -0.0031740351936551583 0.0054885006160462499 0 -0.003173186554597163 0.0054819596827367714 0 -0.0031753852846510343 0.0054867043480812039 0 -0.003173186554597163 0.0054819596827367714 0 -0.0031783297151539197 0.0054655194460775085 0 -0.0031753852846510343 0.0054867043480812039 0 -0.0031795928112467258 0.0054840519316317867 0 -0.0031715389464746671 0.0054057445253625509 0 -0.0032711958679927842 0.0053711094182175437 0 -0.0031795928112467258 0.0054840519316317867 0 -0.0031740351936551583 0.0054885006160462499 0 -0.003173186554597163 0.0054819596827367714 0 -0.0033615343217047698 0.0048523651283502063 0 -0.0035384679049095024 0.0043895163939647441 0 -0.0031715389464746671 0.0054057445253625509 0 -0.0032711958679927842 0.0053711094182175437 0 -0.0031859173556853609 0.0053069852209972511 0 -0.0032711958679927842 0.0053711094182175437 0 -0.003250675102336599 0.0052432167405001614 0 -0.0033544729268267341 0.0052101305334910876 0 -0.0032711958679927842 0.0053711094182175437 0 -0.0031859173556853609 0.0053069852209972511 0 -0.003250675102336599 0.0052432167405001614 0 -0.0031420438351087874 0.0052094979737948117 0 -0.0031859173556853609 0.0053069852209972511 0 -0.003250675102336599 0.0052432167405001614 0 -0.0050150982838045319 -0.00081285503109894419 0 -0.0042300031372406247 -0.0010755550949340836 0 -0.0040269001644613993 -0.0021364854565935395 0 -0.0035384679049095024 0.0043895163939647441 0 -0.0043383291292768498 0.0023294955847930508 0 -0.0043383291292768498 0.0023294955847930508 0 -0.0019761452995917931 0.003288435403123974 0 -0.0042989610265345155 -0.00045257558818144965 0 -0.0050150982838045319 -0.00081285503109894419 0 -0.0042300031372406247 -0.0010755550949340836 0 -0.0042300031372406247 -0.0010755550949340836 0 -0.00357465543990497 -0.0008511996102780865 0 -0.0040269001644613993 -0.0021364854565935395 0 -0.0042989610265345155 -0.00045257558818144965 0 -0.0042300031372406247 -0.0010755550949340836 0 -0.00357465543990497 -0.0008511996102780865 0 -0.00357465543990497 -0.0008511996102780865 0 -0.0040269001644613993 -0.0021364854565935395 0 -0.0030515482043820988 -0.0020573529330695163 0 -0.0019095437648756289 -0.00023495922580827504 0 -0.00357465543990497 -0.0008511996102780865 0 -0.0023411755888869423 -0.0014025366196657185 0 -0.0027019925762011396 -0.0027073175975248077 0 -0.0023411755888869423 -0.0014025366196657185 0 -0.0011930120025913267 -0.0018339732883819852 0 -0.00020962986838163726 0.00017105820322138113 0 0.00059415688275018239 0.0006511288156053922 0 -0.00357465543990497 -0.0008511996102780865 0 -0.0027019925762011396 -0.0027073175975248077 0 -0.0023411755888869423 -0.0014025366196657185 0 -7.961843688831251e-05 -0.00047534949367453335 0 -0.0019095437648756289 -0.00023495922580827504 0 -0.0011930120025913267 -0.0018339732883819852 0 -0.0019095437648756289 -0.00023495922580827504 0 -0.0023411755888869423 -0.0014025366196657185 0 -0.0011930120025913267 -0.0018339732883819852 0 -7.961843688831251e-05 -0.00047534949367453335 0 -0.0011930120025913267 -0.0018339732883819852 0 0.00055683174507889434 -0.001943560695414991 0 0.00055683174507889434 -0.001943560695414991 0 -0.00042231805090645259 -0.0028009708937501393 0 0.00034506999723347878 -0.0041599952994237138 0 0.0028652441883236916 0.001453445984943123 0 0.0054800671279961475 0.0074470506525680328 0 -0.0011930120025913267 -0.0018339732883819852 0 0.00055683174507889434 -0.001943560695414991 0 -0.00042231805090645259 -0.0028009708937501393 0 -0.0027019925762011396 -0.0027073175975248077 0 -0.0011930120025913267 -0.0018339732883819852 0 -0.0014136785895735857 -0.003237204393863036 0 -0.0011930120025913267 -0.0018339732883819852 0 -0.00042231805090645259 -0.0028009708937501393 0 -0.0014136785895735857 -0.003237204393863036 0 -0.0014136785895735857 -0.003237204393863036 0 -0.0018320696186328446 -0.0045337584541474346 0 0.00034506999723347878 -0.0041599952994237138 0 0.0019711989235297162 0.0055208056148343572 0 0.0054800671279961475 0.0074470506525680328 0 -0.0027019925762011396 -0.0027073175975248077 0 -0.0014136785895735857 -0.003237204393863036 0 -0.0018320696186328446 -0.0045337584541474346 0 -0.00042231805090645259 -0.0028009708937501393 0 -0.0014136785895735857 -0.003237204393863036 0 0.00034506999723347878 -0.0041599952994237138 0 0.0054800671279961475 0.0074470506525680328 0 0.0057715055552809372 0.009381875332354456 0 0.0052476398660397426 0.0071394379881791238 0 0.0041309232290827891 0.0069473761608993606 0 0.0044217163810643849 0.0076721450027375159 0 0.0083593705134761536 0.0131301255405847 0 0.0054800671279961475 0.0074470506525680328 0 0.0072281953269040201 0.0114495747458353 0 0.0069976458414066417 0.0085215350486531616 0 0.0077592544615176038 0.010403672967100795 0 0.0052476398660397426 0.0071394379881791238 0 0.0044217163810643849 0.0076721450027375159 0 0.0049718621027374961 0.007749707465519581 0 0.0034408063626033673 0.0088508966730273114 0 0.0030026527503116442 0.0098152182411956942 0 0.0041031272422522615 0.0093755543195928031 0 0.0019711989235297162 0.0055208056148343572 0 0.0039716391526928765 0.0085682543836600022 0 0.0040217922204139793 0.010867095493340282 0 0.0041031272422522615 0.0093755543195928031 0 0.0047203019257020095 0.0090726431338481253 0 0.0019711989235297162 0.0055208056148343572 0 0.00066799613006690345 0.0067334819356935126 0 0.0034408063626033673 0.0088508966730273114 0 0.0041031272422522615 0.0093755543195928031 0 0.004337819018244574 0.0090060200126096668 0 0.0041031272422522615 0.0093755543195928031 0 0.0043361877510879445 0.0090073868216950896 0 0.0047203019257020095 0.0090726431338481253 0 0.00066799613006690345 0.0067334819356935126 0 0.00095976650360888823 0.0080270873569003726 0 0.00072120778849452236 0.0067843532820547761 0 0.00066799613006690345 0.0067334819356935126 0 7.7895438194257096e-05 0.01004857958054985 0 0.00095976650360888823 0.0080270873569003726 0 0.0029184241652571064 0.013438807938799723 0 0.0030922581675497949 0.013239612918033187 0 0.0028109619449762911 0.013184017736646856 0 -0.003173937541184431 0.0054997742856992505 0 -0.0031614658948626228 0.0054945500119511267 0 -0.0031705520402824359 0.0054937197358987467 0 -0.0031561613880797435 0.0054979655638028035 0 -0.0031586098378426158 0.0054963760531605947 0 -0.0031638339367580782 0.0054947587025968702 0 -0.0031753852846510343 0.0054867043480812039 0 -0.0031638339367580782 0.0054947587025968702 0 -0.0031705520402824359 0.0054937197358987467 0 -0.0031614658948626228 0.0054945500119511267 0 -0.0031638339367580782 0.0054947587025968702 0 -0.0031705520402824359 0.0054937197358987467 0 -0.0031753852846510343 0.0054867043480812039 0 -0.0031561613880797435 0.0054979655638028035 0 -0.0031638339367580782 0.0054947587025968702 0 0.00095976650360888823 0.0080270873569003726 0 0.00089466531522855387 0.0079334801273637408 0 -0.0019761452995917931 0.003288435403123974 0 0.00066799613006690345 0.0067334819356935126 0 0.00059415688275018239 0.0006511288156053922 0 0.0019711989235297162 0.0055208056148343572 0 -0.0030515482043820988 -0.0020573529330695163 0 -0.0025172593943497668 -0.0031786626312287204 0 -0.0032005530890365243 -0.0033041308409946634 0 -0.0040269001644613993 -0.0021364854565935395 0 -0.0030515482043820988 -0.0020573529330695163 0 -0.0032005530890365243 -0.0033041308409946634 0 0.026283228905487822 0.0046226615636905275 0 0.024999931579932674 0.0049349380542606904 0 0.026180374943420289 0.0061499004679066837 0 0.024999931579932674 0.0049349380542606904 0 0.026180374943420289 0.0061499004679066837 0 0.024999970351207778 0.0064365180415623243 0 0.025596720891649428 0.0061147312465212444 0 0.025611756857864234 0.0050053756267857945 0 0.026283228905487822 0.0046226615636905275 0 0.026180374943420289 0.0061499004679066837 0 0.02720387100196512 0.0056314520696782193 0 0.025596720891649428 0.0061147312465212444 0 0.025423856372871766 0.0068103415299182188 0 0.025590044587593373 0.0049550701771190831 0 0.024806567724806234 0.0052862019023876203 0 0.024568075627317533 0.0051007411471573512 0 0.025611756857864234 0.0050053756267857945 0 0.025122680629349418 0.0038181456475033528 0 0.024806567724806234 0.0052862019023876203 0 0.024568075627317533 0.0051007411471573512 0 0.024021885044877758 0.0056156938955580641 0 0.02720387100196512 0.0056314520696782193 0 0.027418387953214694 0.0046563229418421261 0 0.028287012013270531 0.0051251314944975399 0 0.026283228905487822 0.0046226615636905275 0 0.02720387100196512 0.0056314520696782193 0 0.027418387953214694 0.0046563229418421261 0 0.026283228905487822 0.0046226615636905275 0 0.027297244873715504 0.0035781511805527415 0 0.026374933952793299 0.0032141366145297715 0 0.026283228905487822 0.0046226615636905275 0 0.027418387953214694 0.0046563229418421261 0 0.027297244873715504 0.0035781511805527415 0 0.027418387953214694 0.0046563229418421261 0 0.027297244873715504 0.0035781511805527415 0 0.02859392946165722 0.0040366514309756575 0 0.027761592314992596 0.0025686400543753441 0 0.027611174955434553 0.0022015068732288497 0 0.027297244873715504 0.0035781511805527415 0 0.027666449293274383 0.0025322712524227979 0 0.028186031042718378 0.0028761968711977074 0 0.027297244873715504 0.0035781511805527415 0 0.026374933952793299 0.0032141366145297715 0 0.027029784282724841 0.00241990702196088 0 0.026283228905487822 0.0046226615636905275 0 0.026374933952793299 0.0032141366145297715 0 0.024999951433993878 0.0034332846973453195 0 0.026283228905487822 0.0046226615636905275 0 0.024999931579932674 0.0049349380542606904 0 0.024999951433993878 0.0034332846973453195 0 0.024999951433993878 0.0034332846973453195 0 0.026156186686686501 0.0021231470811563509 0 0.024999984646079308 0.0019317547302839734 0 0.026374933952793299 0.0032141366145297715 0 0.024999951433993878 0.0034332846973453195 0 0.026156186686686501 0.0021231470811563509 0 0.024999984646079308 0.0019317547302839734 0 0.026038478203954916 0.00050842252443479661 0 0.024999957439991245 0.00043027592372241001 0 0.026156186686686501 0.0021231470811563509 0 0.024999984646079308 0.0019317547302839734 0 0.026038478203954916 0.00050842252443479661 0 0.026156186686686501 0.0021231470811563509 0 0.026038478203954916 0.00050842252443479661 0 0.0270367085059273 0.0014191294792752862 0 0.028128652875530315 7.1000711806897568e-05 0 0.027264277725270711 0.0004243849021186211 0 0.028072712750652356 0.00062581652728258875 0 0.027264277725270711 0.0004243849021186211 0 0.027685953293248352 0.0011805969004834063 0 0.028072712750652356 0.00062581652728258875 0 0.026627084756181585 -0.00022935762213762716 0 0.026038478203954916 0.00050842252443479661 0 0.027264277725270711 0.0004243849021186211 0 0.026038478203954916 0.00050842252443479661 0 0.027264277725270711 0.0004243849021186211 0 0.0270367085059273 0.0014191294792752862 0 0.0270367085059273 0.0014191294792752862 0 0.027685953293248352 0.0011805969004834063 0 0.027623441314336777 0.0018141488526093729 0 0.027264277725270711 0.0004243849021186211 0 0.0270367085059273 0.0014191294792752862 0 0.027685953293248352 0.0011805969004834063 0 0.0270367085059273 0.0014191294792752862 0 0.027623441314336777 0.0018141488526093729 0 0.027029784282724841 0.00241990702196088 0 0.026156186686686501 0.0021231470811563509 0 0.0270367085059273 0.0014191294792752862 0 0.027029784282724841 0.00241990702196088 0 0.026374933952793299 0.0032141366145297715 0 0.026156186686686501 0.0021231470811563509 0 0.027029784282724841 0.00241990702196088 0 0.027623441314336777 0.0018141488526093729 0 0.027029784282724841 0.00241990702196088 0 0.027666449293274383 0.0025322712524227979 0 0.027297244873715504 0.0035781511805527415 0 0.027029784282724841 0.00241990702196088 0 0.027666449293274383 0.0025322712524227979 0 0.027666449293274383 0.0025322712524227979 0 0.028164991928590712 0.0019628478555413728 0 0.028186031042718378 0.0028761968711977074 0 0.028574151094782389 0.0023490947072752361 0 0.028815543854381846 0.0028138116760189043 0 0.028186031042718378 0.0028761968711977074 0 0.028574151094782389 0.0023490947072752361 0 0.028164991928590712 0.0019628478555413728 0 0.028771495549431418 0.001827861742641739 0 0.028574151094782389 0.0023490947072752361 0 0.028164991928590712 0.0019628478555413728 0 0.028186031042718378 0.0028761968711977074 0 0.028574151094782389 0.0023490947072752361 0 0.028931277879851131 0.0022619188268678753 0 0.028815543854381846 0.0028138116760189043 0 0.028574151094782389 0.0023490947072752361 0 0.028771495549431418 0.001827861742641739 0 0.028931277879851131 0.0022619188268678753 0 0.028521437757779568 0.0013462193984616025 0 0.028164991928590712 0.0019628478555413728 0 0.028771495549431418 0.001827861742641739 0 0.028521437757779568 0.0013462193984616025 0 0.028164991928590712 0.0019628478555413728 0 0.028110285498991871 0.0013207215798817693 0 0.027623441314336777 0.0018141488526093729 0 0.027666449293274383 0.0025322712524227979 0 0.028164991928590712 0.0019628478555413728 0 0.027623441314336777 0.0018141488526093729 0 0.028164991928590712 0.0019628478555413728 0 0.028110285498991871 0.0013207215798817693 0 0.027685953293248352 0.0011805969004834063 0 0.027623441314336777 0.0018141488526093729 0 0.028110285498991871 0.0013207215798817693 0 0.027685953293248352 0.0011805969004834063 0 0.028110285498991871 0.0013207215798817693 0 0.028072712750652356 0.00062581652728258875 0 0.028110285498991871 0.0013207215798817693 0 0.028412115956623053 0.00088058980493477908 0 0.028072712750652356 0.00062581652728258875 0 0.028521437757779568 0.0013462193984616025 0 0.028110285498991871 0.0013207215798817693 0 0.028412115956623053 0.00088058980493477908 0 0.028521437757779568 0.0013462193984616025 0 0.028412115956623053 0.00088058980493477908 0 0.028716708861836065 0.00086656481686267679 0 0.028412115956623053 0.00088058980493477908 0 0.02856457894240981 0.00039664428777706561 0 0.028716708861836065 0.00086656481686267679 0 0.028412115956623053 0.00088058980493477908 0 0.02856457894240981 0.00039664428777706561 0 0.028072712750652356 0.00062581652728258875 0 0.028128652875530315 7.1000711806897568e-05 0 0.02856457894240981 0.00039664428777706561 0 0.028072712750652356 0.00062581652728258875 0 0.028463812283450986 0.00057065452625044706 0 0.027395348626850086 1.5304427507447246e-05 0 0.028683171250409534 0.00016814302952704169 0 0.027395348626850086 1.5304427507447246e-05 0 0.028683171250409534 0.00016814302952704169 0 0.027448191954975346 -0.00087560693437571289 0 0.027395348626850086 1.5304427507447246e-05 0 0.027448191954975346 -0.00087560693437571289 0 0.026649707476910908 -0.00078618996296122635 0 0.028463812283450986 0.00057065452625044706 0 0.02856457894240981 0.00039664428777706561 0 0.028683171250409534 0.00016814302952704169 0 0.02856457894240981 0.00039664428777706561 0 0.028683171250409534 0.00016814302952704169 0 0.028716708861836065 0.00086656481686267679 0 0.028683171250409534 0.00016814302952704169 0 0.028716708861836065 0.00086656481686267679 0 0.029141369161618597 0.0011056035993206278 0 0.028521437757779568 0.0013462193984616025 0 0.028716708861836065 0.00086656481686267679 0 0.029030376971179873 0.0014711116110829724 0 0.028716708861836065 0.00086656481686267679 0 0.029141369161618597 0.0011056035993206278 0 0.029030376971179873 0.0014711116110829724 0 0.028683171250409534 0.00016814302952704169 0 0.029141369161618597 0.0011056035993206278 0 0.029717199925216268 0.0014009864432741746 0 0.027448191954975346 -0.00087560693437571289 0 0.028108217227786444 -0.0025155114216022733 0 0.026666400611706127 -0.0015501425124856832 0 0.028683171250409534 0.00016814302952704169 0 0.027448191954975346 -0.00087560693437571289 0 0.028108217227786444 -0.0025155114216022733 0 0.026614303699944577 0.00041505222042956377 0 0.02562135661647524 -2.2780671843170485e-05 0 0.029141369161618597 0.0011056035993206278 0 0.029557079686105336 0.0013824310958240851 0 0.029717199925216268 0.0014009864432741746 0 0.029141369161618597 0.0011056035993206278 0 0.029557079686105336 0.0013824310958240851 0 0.029263124406497275 0.0013783528814795684 0 0.029671084456175272 0.0014150305251554511 0 0.029444029740224576 0.0017341023607979746 0 0.030045147406515163 0.0023577480967165226 0 0.02562135661647524 -2.2780671843170485e-05 0 0.024490806875218735 -0.0004005299032841429 0 0.025665672930346748 -1.1618382855101789e-05 0 0.02562135661647524 -2.2780671843170485e-05 0 0.029557079686105336 0.0013824310958240851 0 0.029444029740224576 0.0017341023607979746 0 0.029263124406497275 0.0013783528814795684 0 0.029557079686105336 0.0013824310958240851 0 0.029671084456175272 0.0014150305251554511 0 0.029444029740224576 0.0017341023607979746 0 0.028521437757779568 0.0013462193984616025 0 0.029030376971179873 0.0014711116110829724 0 0.028771495549431418 0.001827861742641739 0 0.029444029740224576 0.0017341023607979746 0 0.029030376971179873 0.0014711116110829724 0 0.029263124406497275 0.0013783528814795684 0 0.029141369161618597 0.0011056035993206278 0 0.029030376971179873 0.0014711116110829724 0 0.029263124406497275 0.0013783528814795684 0 0.029444029740224576 0.0017341023607979746 0 0.029030376971179873 0.0014711116110829724 0 0.029109047238102544 0.0019045415670182609 0 0.029444029740224576 0.0017341023607979746 0 0.029109047238102544 0.0019045415670182609 0 0.029393926443195821 0.0022050328692688353 0 0.029109047238102544 0.0019045415670182609 0 0.028771495549431418 0.001827861742641739 0 0.028931277879851131 0.0022619188268678753 0 0.029030376971179873 0.0014711116110829724 0 0.029109047238102544 0.0019045415670182609 0 0.028771495549431418 0.001827861742641739 0 0.028931277879851131 0.0022619188268678753 0 0.029463950966551439 0.0027974121054565085 0 0.028815543854381846 0.0028138116760189043 0 0.029109047238102544 0.0019045415670182609 0 0.028931277879851131 0.0022619188268678753 0 0.029393926443195821 0.0022050328692688353 0 0.028931277879851131 0.0022619188268678753 0 0.029393926443195821 0.0022050328692688353 0 0.029463950966551439 0.0027974121054565085 0 0.029393926443195821 0.0022050328692688353 0 0.029463950966551439 0.0027974121054565085 0 0.030045147406515163 0.0023577480967165226 0 0.029444029740224576 0.0017341023607979746 0 0.029393926443195821 0.0022050328692688353 0 0.030045147406515163 0.0023577480967165226 0 0.029463950966551439 0.0027974121054565085 0 0.029887739776131846 0.0029724369104544308 0 0.030045147406515163 0.0023577480967165226 0 0.029463950966551439 0.0027974121054565085 0 0.029887739776131846 0.0029724369104544308 0 0.029663127648406784 0.0035242045794944723 0 0.029463950966551439 0.0027974121054565085 0 0.029663127648406784 0.0035242045794944723 0 0.029132229069605164 0.0032810380787025644 0 0.0195722699869827 -0.0077756080337646714 0 0.021146946272259919 -0.0084350787301995678 0 0.018848759077566998 -0.009187255058436615 0 0.0195722699869827 -0.0077756080337646714 0 0.018848759077566998 -0.009187255058436615 0 0.018467544474306312 -0.0082202640264577853 0 0.023639778294939535 -0.0018716756059172829 0 0.024200157598724653 -2.2256382910969116e-06 0 0.029663127648406784 0.0035242045794944723 0 0.028964509694540955 0.0038300392639695631 0 0.029132229069605164 0.0032810380787025644 0 0.028964509694540955 0.0038300392639695631 0 0.029132229069605164 0.0032810380787025644 0 0.028645040711022047 0.0032945623412821527 0 0.029463950966551439 0.0027974121054565085 0 0.029132229069605164 0.0032810380787025644 0 0.028815543854381846 0.0028138116760189043 0 0.029132229069605164 0.0032810380787025644 0 0.028815543854381846 0.0028138116760189043 0 0.028645040711022047 0.0032945623412821527 0 0.028815543854381846 0.0028138116760189043 0 0.028645040711022047 0.0032945623412821527 0 0.028186031042718378 0.0028761968711977074 0 0.028645040711022047 0.0032945623412821527 0 0.028186031042718378 0.0028761968711977074 0 0.028112466397099023 0.0036049502963805598 0 0.027297244873715504 0.0035781511805527415 0 0.028186031042718378 0.0028761968711977074 0 0.028112466397099023 0.0036049502963805598 0 0.024200157598724653 -2.2256382910969116e-06 0 0.027611174955434553 0.0022015068732288497 0 0.028964509694540955 0.0038300392639695631 0 0.028645040711022047 0.0032945623412821527 0 0.028112466397099023 0.0036049502963805598 0 0.029787340861089858 0.0044261727465267978 0 0.02859392946165722 0.0040366514309756575 0 0.029364025740561645 0.0046102253625899189 0 0.023567546225335266 0.0021517780830245508 0 0.025122680629349418 0.0038181456475033528 0 0.023116244915859546 0.0075667321546804573 0 0.023844213928351392 0.0058653897636877913 0 0.022005292248894297 0.0061416625341729897 0 0.023242901655099527 0.0059446620360499615 0 0.024021885044877758 0.0056156938955580641 0 0.02354610057961757 0.0052490586630371356 0 0.023567546225335266 0.0021517780830245508 0 0.022946865927911082 0.0085268368659613385 0 0.02859392946165722 0.0040366514309756575 0 0.029364025740561645 0.0046102253625899189 0 0.028287012013270531 0.0051251314944975399 0 0.027418387953214694 0.0046563229418421261 0 0.02859392946165722 0.0040366514309756575 0 0.028287012013270531 0.0051251314944975399 0 0.025423856372871766 0.0068103415299182188 0 0.022946865927911082 0.0085268368659613385 0 0.024568075627317533 0.0051007411471573512 0 0.024021885044877758 0.0056156938955580641 0 0.02354610057961757 0.0052490586630371356 0 0.022946865927911082 0.0085268368659613385 0 0.021302474381056275 0.0098041575778607774 0 0.021665761108673399 0.022116369222423247 0 0.020031257819857148 0.021062229751897074 0 0.021503406017365403 0.020789450962272662 0 0.023818328555225986 0.021924109513713236 0 0.021665761108673399 0.022116369222423247 0 0.021503406017365403 0.020789450962272662 0 0.021302474381056275 0.0098041575778607774 0 0.019514731793179464 0.0094066732373556793 0 0.021665761108673399 0.022116369222423247 0 0.01967238592009083 0.022164809855867471 0 0.020031257819857148 0.021062229751897074 0 0.02122589134498468 -0.008335526204014395 0 0.019569653969627773 -0.0091589453354290109 0 0.018848759077566998 -0.009187255058436615 0 0.022005292248894297 0.0061416625341729897 0 0.020160389328681382 0.0064208113085499618 0 0.020707814816251491 0.0071343892480296711 0 0.024200157598724653 -2.2256382910969116e-06 0 0.02008748972572141 -0.0033194803242737945 0 0.02122589134498468 -0.008335526204014395 0 0.021985722089134366 -0.0086289951537788373 0 0.019569653969627773 -0.0091589453354290109 0 0.023567546225335266 0.0021517780830245508 0 0.019912041554765347 0.0030575724629282645 0 0.023116244915859546 0.0075667321546804573 0 0.022005292248894297 0.0061416625341729897 0 0.020707814816251491 0.0071343892480296711 0 0.024200157598724653 -2.2256382910969116e-06 0 0.023567546225335266 0.0021517780830245508 0 0.017911634602254537 0.007071786466739902 0 0.017297197246885301 0.006533368015786566 0 0.017219247681764881 -0.0096079622244616535 0 0.016712007433579108 -0.0088091543731779968 0 0.017438698854589044 -0.0083455001282953401 0 0.017499155225054026 0.0066109595295374725 0 0.017195277887536511 0.0065535482108621214 0 0.016926443301557122 0.0066935671381726488 0 0.017219247681764881 -0.0096079622244616535 0 0.016712007433579108 -0.0088091543731779968 0 0.016020684373041882 -0.0093796046367465649 0 0.017911634602254537 0.007071786466739902 0 0.0170697414132162 0.0080832735713468572 0 0.0170697414132162 0.0080832735713468572 0 0.016906252494395552 0.0083210030455455573 0 0.017899038274876381 0.022163744651395603 0 0.017180988577381713 0.021984439940187665 0 0.017572657708354183 0.021789452995466939 0 0.017219247681764881 -0.0096079622244616535 0 0.017989726276949954 -0.0088443039820369843 0 0.017438698854589044 -0.0083455001282953401 0 0.019514731793179464 0.0094066732373556793 0 0.017911634602254537 0.007071786466739902 0 0.020160389328681382 0.0064208113085499618 0 0.020707814816251491 0.0071343892480296711 0 0.018312322556195058 0.0067058381489286311 0 0.017219247681764881 -0.0096079622244616535 0 0.017989726276949954 -0.0088443039820369843 0 0.018848759077566998 -0.009187255058436615 0 0.019912041554765347 0.0030575724629282645 0 0.017911634602254537 0.007071786466739902 0 0.019569653969627773 -0.0091589453354290109 0 0.017219247681764881 -0.0096079622244616535 0 0.018848759077566998 -0.009187255058436615 0 0.017989726276949954 -0.0088443039820369843 0 0.018848759077566998 -0.009187255058436615 0 0.018467544474306312 -0.0082202640264577853 0 0.020031257819857148 0.021062229751897074 0 0.018486191144360488 0.021364362757951796 0 0.018659458688192021 0.020203148219037341 0 0.01967238592009083 0.022164809855867471 0 0.017899038274876381 0.022163744651395603 0 0.018486191144360488 0.021364362757951796 0 0.01967238592009083 0.022164809855867471 0 0.020031257819857148 0.021062229751897074 0 0.018486191144360488 0.021364362757951796 0 0.018486191144360488 0.021364362757951796 0 0.01763551775364243 0.020834768754502419 0 0.018659458688192021 0.020203148219037341 0 0.017899038274876381 0.022163744651395603 0 0.018486191144360488 0.021364362757951796 0 0.017572657708354183 0.021789452995466939 0 0.018486191144360488 0.021364362757951796 0 0.01763551775364243 0.020834768754502419 0 0.017572657708354183 0.021789452995466939 0 0.017226058523259084 0.021892578733891097 0 0.017572657708354183 0.021789452995466939 0 0.017105533261629269 0.021232770879325204 0 0.01763551775364243 0.020834768754502419 0 0.017572657708354183 0.021789452995466939 0 0.017105533261629269 0.021232770879325204 0 0.01763551775364243 0.020834768754502419 0 0.017105533261629269 0.021232770879325204 0 0.016707548883084004 0.020512146696900078 0 0.017226058523259084 0.021892578733891097 0 0.016536629724661224 0.021089771994500309 0 0.015839889688887904 0.021337192421095032 0 0.0170697414132162 0.0080832735713468572 0 0.016373737925490701 0.010865800488370365 0 0.017105533261629269 0.021232770879325204 0 0.016536629724661224 0.021089771994500309 0 0.016707548883084004 0.020512146696900078 0 0.016536629724661224 0.021089771994500309 0 0.015828621552438901 0.020502819794916465 0 0.016707548883084004 0.020512146696900078 0 0.016536629724661224 0.021089771994500309 0 0.015828621552438901 0.020502819794916465 0 0.015839889688887904 0.021337192421095032 0 0.017226058523259084 0.021892578733891097 0 0.017105533261629269 0.021232770879325204 0 0.016536629724661224 0.021089771994500309 0 0.016373737925490701 0.010865800488370365 0 0.015774572647947713 0.012506714245677191 0 0.015615883696130829 0.0070069157153196003 0 0.015277792881547342 0.0070895656066783212 0 0.014822974820210652 0.0068610783928410345 0 0.015010377596137173 0.020425346333743332 0 0.015839889688887904 0.021337192421095032 0 0.014559271343892722 0.020678831083090172 0 0.015010377596137173 0.020425346333743332 0 0.015828621552438901 0.020502819794916465 0 0.01522253476033743 0.020100783458060136 0 0.015010377596137173 0.020425346333743332 0 0.015828621552438901 0.020502819794916465 0 0.015839889688887904 0.021337192421095032 0 0.017297197246885301 0.006533368015786566 0 0.01599246631508287 0.0033841201956423274 0 0.016047243804249458 0.007294415344929279 0 0.015688653871075646 0.0073386050485119625 0 0.015089694567160535 0.0077557942132720032 0 0.01536170820981125 0.0073278872006565451 0 0.015688653871075646 0.0073386050485119625 0 0.015089694567160535 0.0077557942132720032 0 0.015277792881547342 0.0070895656066783212 0 0.01536170820981125 0.0073278872006565451 0 0.015149717215685501 0.0074227702156538277 0 0.015277792881547342 0.0070895656066783212 0 0.015149717215685501 0.0074227702156538277 0 0.014824658773158538 0.007513311756816553 0 0.015615883696130829 0.0070069157153196003 0 0.015277792881547342 0.0070895656066783212 0 0.01536170820981125 0.0073278872006565451 0 0.015615883696130829 0.0070069157153196003 0 0.01536170820981125 0.0073278872006565451 0 0.015688653871075646 0.0073386050485119625 0 0.01536170820981125 0.0073278872006565451 0 0.015149717215685501 0.0074227702156538277 0 0.015089694567160535 0.0077557942132720032 0 0.016712007433579108 -0.0088091543731779968 0 0.016020684373041882 -0.0093796046367465649 0 0.016133371312874151 -0.0080981204693360044 0 0.016332225995361205 0.0071406147346778732 0 0.015615883696130829 0.0070069157153196003 0 0.016054597730740104 0.0072855637519020858 0 0.0170697414132162 0.0080832735713468572 0 0.017297197246885301 0.006533368015786566 0 0.015615883696130829 0.0070069157153196003 0 0.016054597730740104 0.0072855637519020858 0 0.015688653871075646 0.0073386050485119625 0 0.017297197246885301 0.006533368015786566 0 0.017072629541214711 0.0065896644222122993 0 0.016020684373041882 -0.0093796046367465649 0 0.016133371312874151 -0.0080981204693360044 0 0.014140872637651429 -0.0084504678133968825 0 0.016133371312874151 -0.0080981204693360044 0 0.014140872637651429 -0.0084504678133968825 0 0.015098979164572552 -0.0073146360927355157 0 0.015098979164572552 -0.0073146360927355157 0 0.014965970015510142 -0.0062926876513817141 0 0.013856375894212583 -0.006865965432130439 0 0.014140872637651429 -0.0084504678133968825 0 0.015098979164572552 -0.0073146360927355157 0 0.013856375894212583 -0.006865965432130439 0 0.019293346248498162 -0.0036226240313139316 0 0.0175677101469108 -0.0036068684945842447 0 0.016133371312874151 -0.0080981204693360044 0 0.015098979164572552 -0.0073146360927355157 0 0.016397868772108162 -0.0068458073865624207 0 0.015098979164572552 -0.0073146360927355157 0 0.016397868772108162 -0.0068458073865624207 0 0.014965970015510142 -0.0062926876513817141 0 0.016397868772108162 -0.0068458073865624207 0 0.016927511982435098 -0.0077678021454711177 0 0.017816102337798963 -0.0074155783710725459 0 0.019293346248498162 -0.0036226240313139316 0 0.021496741668790585 -0.0031118361437561543 0 0.020641720155790733 -0.0033258108562780162 0 0.022163771938992303 -0.0039847959973955665 0 0.021641277197240235 -0.0026309588651493494 0 0.016133371312874151 -0.0080981204693360044 0 0.016397868772108162 -0.0068458073865624207 0 0.016927511982435098 -0.0077678021454711177 0 0.016927511982435098 -0.0077678021454711177 0 0.017438698854589044 -0.0083455001282953401 0 0.017816102337798963 -0.0074155783710725459 0 0.016712007433579108 -0.0088091543731779968 0 0.016927511982435098 -0.0077678021454711177 0 0.017438698854589044 -0.0083455001282953401 0 0.016712007433579108 -0.0088091543731779968 0 0.016133371312874151 -0.0080981204693360044 0 0.016927511982435098 -0.0077678021454711177 0 0.0195722699869827 -0.0077756080337646714 0 0.018467544474306312 -0.0082202640264577853 0 0.017973452537694737 -0.0070815393835353584 0 0.023639778294939535 -0.0018716756059172829 0 0.021496741668790585 -0.0031118361437561543 0 0.017989726276949954 -0.0088443039820369843 0 0.017438698854589044 -0.0083455001282953401 0 0.018467544474306312 -0.0082202640264577853 0 0.017438698854589044 -0.0083455001282953401 0 0.018467544474306312 -0.0082202640264577853 0 0.017973452537694737 -0.0070815393835353584 0 0.020661572578867932 -0.0046899616448219513 0 0.021496741668790585 -0.0031118361437561543 0 0.022163771938992303 -0.0039847959973955665 0 0.022876612908355961 -0.0023398031072336938 0 0.021641277197240235 -0.0026309588651493494 0 0.029887739776131846 0.0029724369104544308 0 0.029663127648406784 0.0035242045794944723 0 0.030380762229256023 0.0032017175250494377 0 0.029887739776131846 0.0029724369104544308 0 0.030380762229256023 0.0032017175250494377 0 0.030045147406515163 0.0023577480967165226 0 0.021496741668790585 -0.0031118361437561543 0 0.024490806875218735 -0.0004005299032841429 0 0.022876612908355961 -0.0023398031072336938 0 0.021641277197240235 -0.0026309588651493494 0 0.021589234496388023 -0.0011286966780430763 0 0.020641720155790733 -0.0033258108562780162 0 0.021641277197240235 -0.0026309588651493494 0 0.020745614848073572 -0.0020706662228964696 0 0.021641277197240235 -0.0026309588651493494 0 0.020745614848073572 -0.0020706662228964696 0 0.021589234496388023 -0.0011286966780430763 0 0.024649247411617645 -0.0035450831975457151 0 0.025791064125931157 -0.0023240356529894272 0 0.020458839527136459 -0.0010976387879420915 0 0.020745614848073572 -0.0020706662228964696 0 0.021589234496388023 -0.0011286966780430763 0 0.019587194637888293 -0.0015669788055885842 0 0.028108217227786444 -0.0025155114216022733 0 0.024649247411617645 -0.0035450831975457151 0 0.025791064125931157 -0.0023240356529894272 0 0.02359178487404423 -0.0006906299091515506 0 0.022876612908355961 -0.0023398031072336938 0 0.021589234496388023 -0.0011286966780430763 0 0.02562135661647524 -2.2780671843170485e-05 0 0.022708251752172341 -0.0015576998251436987 0 0.028108217227786444 -0.0025155114216022733 0 0.025791064125931157 -0.0023240356529894272 0 0.026666400611706127 -0.0015501425124856832 0 0.027448191954975346 -0.00087560693437571289 0 0.026666400611706127 -0.0015501425124856832 0 0.026649707476910908 -0.00078618996296122635 0 0.026666400611706127 -0.0015501425124856832 0 0.025929409539534175 -0.0012062287234237733 0 0.026649707476910908 -0.00078618996296122635 0 0.025791064125931157 -0.0023240356529894272 0 0.025929409539534175 -0.0012062287234237733 0 0.025041822954440671 -0.0012444989851524012 0 0.025791064125931157 -0.0023240356529894272 0 0.026666400611706127 -0.0015501425124856832 0 0.025929409539534175 -0.0012062287234237733 0 0.023760534343796966 -0.0022246799763753979 0 0.021628291751571934 -0.0019540356469651683 0 0.025791064125931157 -0.0023240356529894272 0 0.025041822954440671 -0.0012444989851524012 0 0.023988072824120729 -0.0015592820018724672 0 0.025929409539534175 -0.0012062287234237733 0 0.025041822954440671 -0.0012444989851524012 0 0.025329917492429289 -0.00064612624254346807 0 0.025329917492429289 -0.00064612624254346807 0 0.025318284380308954 -4.5207591151396574e-05 0 0.025987816550838153 -0.00024457720385950762 0 0.02467189136648781 0.00039739351428500928 0 0.024543083917858619 -0.00043405986728492805 0 0.025318284380308954 -4.5207591151396574e-05 0 0.025329917492429289 -0.00064612624254346807 0 0.024543083917858619 -0.00043405986728492805 0 0.025318284380308954 -4.5207591151396574e-05 0 0.025041822954440671 -0.0012444989851524012 0 0.025329917492429289 -0.00064612624254346807 0 0.024543083917858619 -0.00043405986728492805 0 0.026093650355540184 0.00062387044025167344 0 0.025318284380308954 -4.5207591151396574e-05 0 0.025987816550838153 -0.00024457720385950762 0 0.027560650145568091 0.00079497683690857854 0 0.027395348626850086 1.5304427507447246e-05 0 0.025987816550838153 -0.00024457720385950762 0 0.027395348626850086 1.5304427507447246e-05 0 0.025987816550838153 -0.00024457720385950762 0 0.026649707476910908 -0.00078618996296122635 0 0.025929409539534175 -0.0012062287234237733 0 0.025987816550838153 -0.00024457720385950762 0 0.026649707476910908 -0.00078618996296122635 0 0.025929409539534175 -0.0012062287234237733 0 0.025329917492429289 -0.00064612624254346807 0 0.025987816550838153 -0.00024457720385950762 0 0.022412464739479242 0.0005573846617246169 0 0.023369385037177406 -0.00057275521211870616 0 0.02231089772988842 -0.0012034787336914782 0 0.024135854620640686 0.00032239780513007235 0 0.024543083917858619 -0.00043405986728492805 0 0.023369385037177406 -0.00057275521211870616 0 0.024543083917858619 -0.00043405986728492805 0 0.023369385037177406 -0.00057275521211870616 0 0.023988072824120729 -0.0015592820018724672 0 0.025041822954440671 -0.0012444989851524012 0 0.024543083917858619 -0.00043405986728492805 0 0.023988072824120729 -0.0015592820018724672 0 0.021628291751571934 -0.0019540356469651683 0 0.016836223837279417 -0.0016865919554207474 0 0.020458839527136459 -0.0010976387879420915 0 0.016675749390074733 -0.0029080692838892382 0 0.014836091452134905 -0.00015210421168419596 0 0.023369385037177406 -0.00057275521211870616 0 0.023988072824120729 -0.0015592820018724672 0 0.02231089772988842 -0.0012034787336914782 0 0.016675749390074733 -0.0029080692838892382 0 0.019523197596082318 -0.0047676862468100777 0 0.014514590180330149 -0.0056301611488612218 0 0.020458839527136459 -0.0010976387879420915 0 0.016675749390074733 -0.0029080692838892382 0 0.019523197596082318 -0.0047676862468100777 0 0.024649247411617645 -0.0035450831975457151 0 0.020458839527136459 -0.0010976387879420915 0 0.019523197596082318 -0.0047676862468100777 0 0.022708251752172341 -0.0015576998251436987 0 0.019485826828161686 -0.0026153053036641516 0 0.020641720155790733 -0.0033258108562780162 0 0.020745614848073572 -0.0020706662228964696 0 0.019113110364183877 -0.0026676062168179771 0 0.020745614848073572 -0.0020706662228964696 0 0.019587194637888293 -0.0015669788055885842 0 0.019113110364183877 -0.0026676062168179771 0 0.019485826828161686 -0.0026153053036641516 0 0.016263730220331202 -0.003329100348180152 0 0.019587194637888293 -0.0015669788055885842 0 0.019113110364183877 -0.0026676062168179771 0 0.017581074898977894 -0.0020071940096369639 0 0.0175677101469108 -0.0036068684945842447 0 0.016263730220331202 -0.003329100348180152 0 0.014965970015510142 -0.0062926876513817141 0 0.013538466263592031 -0.0056246190970501951 0 0.013856375894212583 -0.006865965432130439 0 0.013304695943521599 -0.0063308239092863478 0 0.013538466263592031 -0.0056246190970501951 0 0.013856375894212583 -0.006865965432130439 0 0.013308207067843773 -0.0049426639273989249 0 0.014238949393976699 -0.0053461170240824184 0 0.012855548858608347 -0.0055806575453540242 0 0.013304695943521599 -0.0063308239092863478 0 0.013538466263592031 -0.0056246190970501951 0 0.012855548858608347 -0.0055806575453540242 0 0.016263730220331202 -0.003329100348180152 0 0.015816682512063515 -0.0034813759116842377 0 0.01613117661408418 -0.0033312194225736903 0 0.016263730220331202 -0.003329100348180152 0 0.012855548858608347 -0.0055806575453540242 0 0.011306300015575477 -0.0033390714299376318 0 0.012568581361292382 -0.0068597929306200385 0 0.011717424165473196 -0.0070648159848327461 0 0.011938209627135526 -0.0069250595555099799 0 0.012568581361292382 -0.0068597929306200385 0 0.011963911885525199 -0.005278203314942752 0 0.012237453354402976 -0.006090970228066336 0 0.011938209627135526 -0.0069250595555099799 0 0.01196941706598113 -0.0068516298721110194 0 0.012568581361292382 -0.0068597929306200385 0 0.013304695943521599 -0.0063308239092863478 0 0.012855548858608347 -0.0055806575453540242 0 0.012568581361292382 -0.0068597929306200385 0 0.013308207067843773 -0.0049426639273989249 0 0.013180045499369521 -0.0031689256056156457 0 0.011306300015575477 -0.0033390714299376318 0 0.013308207067843773 -0.0049426639273989249 0 0.012855548858608347 -0.0055806575453540242 0 0.011306300015575477 -0.0033390714299376318 0 0.013180045499369521 -0.0031689256056156457 0 0.011306300015575477 -0.0033390714299376318 0 0.013290132979376026 -0.0018729688011609026 0 0.016675749390074733 -0.0029080692838892382 0 0.014514590180330149 -0.0056301611488612218 0 0.014511126118848633 -0.0037237541394452849 0 0.013308207067843773 -0.0049426639273989249 0 0.014514590180330149 -0.0056301611488612218 0 0.014511126118848633 -0.0037237541394452849 0 0.013308207067843773 -0.0049426639273989249 0 0.013180045499369521 -0.0031689256056156457 0 0.014511126118848633 -0.0037237541394452849 0 0.013180045499369521 -0.0031689256056156457 0 0.014511126118848633 -0.0037237541394452849 0 0.014718860765154489 -0.0018752189183194742 0 0.016675749390074733 -0.0029080692838892382 0 0.014511126118848633 -0.0037237541394452849 0 0.014718860765154489 -0.0018752189183194742 0 0.016675749390074733 -0.0029080692838892382 0 0.014718860765154489 -0.0018752189183194742 0 0.014836091452134905 -0.00015210421168419596 0 0.016773438424904218 -0.0016668155472900504 0 0.016836223837279417 -0.0016865919554207474 0 0.014765814112978507 -0.00067466131564352272 0 0.013290132979376026 -0.0018729688011609026 0 0.01253265993607792 -0.00034863397567961695 0 0.016836223837279417 -0.0016865919554207474 0 0.014212495677452112 -0.0010644810885891299 0 0.013180045499369521 -0.0031689256056156457 0 0.014718860765154489 -0.0018752189183194742 0 0.013290132979376026 -0.0018729688011609026 0 0.014718860765154489 -0.0018752189183194742 0 0.014765814112978507 -0.00067466131564352272 0 0.013290132979376026 -0.0018729688011609026 0 0.011306300015575477 -0.0033390714299376318 0 0.01253265993607792 -0.00034863397567961695 0 0.010404832247086234 -9.5074230382855278e-06 0 0.011306300015575477 -0.0033390714299376318 0 0.013290132979376026 -0.0018729688011609026 0 0.01253265993607792 -0.00034863397567961695 0 0.012072645739863403 -0.00032027818741491812 0 0.010795490050955096 0.00074049019484570609 0 0.010404832247086234 -9.5074230382855278e-06 0 0.014212495677452112 -0.0010644810885891299 0 0.013248094936883576 -0.00084334924794613321 0 0.012072645739863403 -0.00032027818741491812 0 0.011488392771195051 0.0012955419065098265 0 0.010795490050955096 0.00074049019484570609 0 0.012072645739863403 -0.00032027818741491812 0 0.011488392771195051 0.0012955419065098265 0 0.012698006023826857 0.0011294021776786945 0 0.013737996814530872 -0.00065601332673201514 0 0.012072645739863403 -0.00032027818741491812 0 0.012698006023826857 0.0011294021776786945 0 0.017135386279966549 -0.0023065858976827366 0 0.016836223837279417 -0.0016865919554207474 0 0.013943607951102036 0.0025639721388923185 0 0.013737996814530872 -0.00065601332673201514 0 0.012698006023826857 0.0011294021776786945 0 0.012525099045387929 -0.0080477544593692499 0 0.012484385599919844 -0.0085539656293877608 0 0.011892835302182507 -0.0074125068074805357 0 0.012484385599919844 -0.0085539656293877608 0 0.012013940223786554 -0.0081453604272864726 0 0.012130329883785875 -0.007507992307581644 0 0.012907425180165586 -0.0074771289354789916 0 0.012827796602607373 -0.0066520390166497434 0 0.012013940223786554 -0.0081453604272864726 0 0.011871371866414064 -0.0084197713176157405 0 0.011825785213786962 -0.0081074967857558949 0 0.012484385599919844 -0.0085539656293877608 0 0.012013940223786554 -0.0081453604272864726 0 0.012040535108003682 -0.0086327539112666125 0 0.012013940223786554 -0.0081453604272864726 0 0.012040535108003682 -0.0086327539112666125 0 0.011871371866414064 -0.0084197713176157405 0 0.011887649671450725 -0.0087392286604870747 0 0.012040535108003682 -0.0086327539112666125 0 0.011871371866414064 -0.0084197713176157405 0 0.011887649671450725 -0.0087392286604870747 0 0.011871371866414064 -0.0084197713176157405 0 0.011592214704938883 -0.0082130282870818208 0 0.010554223980325392 0.0017041258123357507 0 0.010795490050955096 0.00074049019484570609 0 0.01002918854722081 0.00040142474108660771 0 0.010554223980325392 0.0017041258123357507 0 0.011488392771195051 0.0012955419065098265 0 0.010795490050955096 0.00074049019484570609 0 0.010795490050955096 0.00074049019484570609 0 0.010404832247086234 -9.5074230382855278e-06 0 0.01002918854722081 0.00040142474108660771 0 0.011592214704938883 -0.0082130282870818208 0 0.011825785213786962 -0.0081074967857558949 0 0.011855687853703313 -0.0077136177412834355 0 0.011871371866414064 -0.0084197713176157405 0 0.011592214704938883 -0.0082130282870818208 0 0.011825785213786962 -0.0081074967857558949 0 0.011717424165473196 -0.0070648159848327461 0 0.011592214704938883 -0.0082130282870818208 0 0.011855687853703313 -0.0077136177412834355 0 0.012013940223786554 -0.0081453604272864726 0 0.011825785213786962 -0.0081074967857558949 0 0.011855687853703313 -0.0077136177412834355 0 0.011306300015575477 -0.0033390714299376318 0 0.010404832247086234 -9.5074230382855278e-06 0 0.01002918854722081 0.00040142474108660771 0 0.011963911885525199 -0.005278203314942752 0 0.011885733432227952 -0.0042765954724612778 0 0.011717424165473196 -0.0070648159848327461 0 0.011855687853703313 -0.0077136177412834355 0 0.011904396019331917 -0.0073270388160913821 0 0.011855687853703313 -0.0077136177412834355 0 0.012130329883785875 -0.007507992307581644 0 0.011904396019331917 -0.0073270388160913821 0 0.012610166679217619 -0.0078002183058804731 0 0.012525099045387929 -0.0080477544593692499 0 0.011892835302182507 -0.0074125068074805357 0 0.012610166679217619 -0.0078002183058804731 0 0.011892835302182507 -0.0074125068074805357 0 0.0123085582341197 -0.0074359604072951301 0 0.012013940223786554 -0.0081453604272864726 0 0.011855687853703313 -0.0077136177412834355 0 0.012130329883785875 -0.007507992307581644 0 0.011892835302182507 -0.0074125068074805357 0 0.0123085582341197 -0.0074359604072951301 0 0.012291695412183242 -0.0070205596440125169 0 0.011892835302182507 -0.0074125068074805357 0 0.012291695412183242 -0.0070205596440125169 0 0.011316402184180202 -0.0062988997285594751 0 0.012407193978003097 -0.0054793603730483153 0 0.012728943316840328 -0.0040381495949099646 0 0.012130329883785875 -0.007507992307581644 0 0.011918678699067651 -0.0071256334321473692 0 0.011979283528227644 -0.0068345535838660919 0 0.012827796602607373 -0.0066520390166497434 0 0.012728943316840328 -0.0040381495949099646 0 0.011717424165473196 -0.0070648159848327461 0 0.011904396019331917 -0.0073270388160913821 0 0.011918678699067651 -0.0071256334321473692 0 0.012130329883785875 -0.007507992307581644 0 0.011904396019331917 -0.0073270388160913821 0 0.011918678699067651 -0.0071256334321473692 0 0.011918678699067651 -0.0071256334321473692 0 0.011938209627135526 -0.0069250595555099799 0 0.011979283528227644 -0.0068345535838660919 0 0.011717424165473196 -0.0070648159848327461 0 0.011918678699067651 -0.0071256334321473692 0 0.011938209627135526 -0.0069250595555099799 0 0.0090374389612935188 -0.0040817322890423363 0 0.010710461232227419 -0.0041967490548296734 0 0.0090638811398598262 -0.0026118554196865296 0 0.011886772295973097 -0.0067880997624246231 0 0.01196941706598113 -0.0068516298721110194 0 0.012240918721292404 -0.007529684950113304 0 0.011938209627135526 -0.0069250595555099799 0 0.011979283528227644 -0.0068345535838660919 0 0.01196941706598113 -0.0068516298721110194 0 0.012728943316840328 -0.0040381495949099646 0 0.01273692130850743 -0.0040591503052897519 0 0.012909904500937094 0.0064627181526896518 0 0.012554288076232704 0.0076345203343759719 0 0.010935602206685092 -0.0055217462902814657 0 0.0090374389612935188 -0.0040817322890423363 0 0.010710461232227419 -0.0041967490548296734 0 0.014500355966755973 0.017092123017291582 0 0.014280368751411804 0.017735829334584743 0 0.013702562118607781 0.018169554996637645 0 0.014500355966755973 0.017092123017291582 0 0.014280368751411804 0.017735829334584743 0 0.014704047158828872 0.017724625632258885 0 0.014389785520087673 0.018170793749786696 0 0.014336629369815997 0.018867208425512632 0 0.014098742208079022 0.018105568045483036 0 0.014704047158828872 0.017724625632258885 0 0.014389785520087673 0.018170793749786696 0 0.014641032721181176 0.018267845167702124 0 0.014280368751411804 0.017735829334584743 0 0.014704047158828872 0.017724625632258885 0 0.014389785520087673 0.018170793749786696 0 0.014280368751411804 0.017735829334584743 0 0.014389785520087673 0.018170793749786696 0 0.014098742208079022 0.018105568045483036 0 0.014389785520087673 0.018170793749786696 0 0.014641032721181176 0.018267845167702124 0 0.014336629369815997 0.018867208425512632 0 0.015267971609729619 0.018155038853534949 0 0.014641032721181176 0.018267845167702124 0 0.014336629369815997 0.018867208425512632 0 0.012811173393610284 0.013848725307357538 0 0.013628258739919194 0.016482388482169038 0 0.014626639688912741 0.019540449156452037 0 0.013880012570359521 0.019295730496189666 0 0.014098742208079022 0.018105568045483036 0 0.013880012570359521 0.019295730496189666 0 0.013817131537732246 0.018391731445635016 0 0.013447622493160599 0.019478531906579714 0 0.013880012570359521 0.019295730496189666 0 0.013699229533978834 0.019828235774315323 0 0.013849228629842274 0.020023172420669505 0 0.014626639688912741 0.019540449156452037 0 0.013880012570359521 0.019295730496189666 0 0.013849228629842274 0.020023172420669505 0 0.013880012570359521 0.019295730496189666 0 0.014098742208079022 0.018105568045483036 0 0.013817131537732246 0.018391731445635016 0 0.0090374389612935188 -0.0040817322890423363 0 0.0090638811398598262 -0.0026118554196865296 0 0.0079868480254484918 -0.0020129580652912594 0 0.012728943316840328 -0.0040381495949099646 0 0.01362920253822463 0.0043895792306694673 0 0.012554288076232704 0.0076345203343759719 0 0.01362920253822463 0.0043895792306694673 0 0.012090488237097454 0.0088120873234035189 0 0.012554288076232704 0.0076345203343759719 0 0.014280368751411804 0.017735829334584743 0 0.014098742208079022 0.018105568045483036 0 0.013817131537732246 0.018391731445635016 0 0.012554288076232704 0.0076345203343759719 0 0.013211149948770358 0.0081306787180362352 0 0.013293417884134519 0.0074243899393000362 0 0.013921765697555879 0.0071036408096805627 0 0.014162327085617508 0.0066671936880976935 0 0.012568581361292382 -0.0068597929306200385 0 0.012240918721292404 -0.007529684950113304 0 0.013856375894212583 -0.006865965432130439 0 0.01196941706598113 -0.0068516298721110194 0 0.012568581361292382 -0.0068597929306200385 0 0.012240918721292404 -0.007529684950113304 0 0.014140872637651429 -0.0084504678133968825 0 0.012240918721292404 -0.007529684950113304 0 0.013856375894212583 -0.006865965432130439 0 0.013304695943521599 -0.0063308239092863478 0 0.012568581361292382 -0.0068597929306200385 0 0.013856375894212583 -0.006865965432130439 0 0.015089694567160535 0.0077557942132720032 0 0.014218002818526448 0.0081787160046353988 0 0.014377155695639949 0.0078990420414606459 0 0.01599246631508287 0.0033841201956423274 0 0.01362920253822463 0.0043895792306694673 0 0.015089694567160535 0.0077557942132720032 0 0.014377155695639949 0.0078990420414606459 0 0.014824658773158538 0.007513311756816553 0 0.013211149948770358 0.0081306787180362352 0 0.014090715554379431 0.0075762250994005709 0 0.013880012570359521 0.019295730496189666 0 0.013447622493160599 0.019478531906579714 0 0.013699229533978834 0.019828235774315323 0 0.01362920253822463 0.0043895792306694673 0 0.013211149948770358 0.0081306787180362352 0 0.013447622493160599 0.019478531906579714 0 0.013699229533978834 0.019828235774315323 0 0.013730715871901323 0.019946560280407602 0 0.013211149948770358 0.0081306787180362352 0 0.014101021406248054 0.011342721954679428 0 0.013699229533978834 0.019828235774315323 0 0.013832402543018828 0.020025566642047743 0 0.013730715871901323 0.019946560280407602 0 0.013832402543018828 0.020025566642047743 0 0.013730715871901323 0.019946560280407602 0 0.01390571386615571 0.020080564482901828 0 0.015149717215685501 0.0074227702156538277 0 0.015089694567160535 0.0077557942132720032 0 0.014824658773158538 0.007513311756816553 0 0.014071250945856329 0.0081999712298687927 0 0.014703680522179808 0.007636319565308438 0 0.014451081467634234 0.0075070934584132911 0 0.014703680522179808 0.007636319565308438 0 0.014451081467634234 0.0075070934584132911 0 0.014816559950952411 0.0072726026369949988 0 0.013730715871901323 0.019946560280407602 0 0.013958041711744348 0.02019875979872016 0 0.01390571386615571 0.020080564482901828 0 0.014101021406248054 0.011342721954679428 0 0.015774572647947713 0.012506714245677191 0 0.015277792881547342 0.0070895656066783212 0 0.014703680522179808 0.007636319565308438 0 0.014816559950952411 0.0072726026369949988 0 0.014451081467634234 0.0075070934584132911 0 0.014816559950952411 0.0072726026369949988 0 0.014822974820210652 0.0068610783928410345 0 0.01440956313669059 0.0073606742586576719 0 0.014090715554379431 0.0075762250994005709 0 0.015277792881547342 0.0070895656066783212 0 0.014816559950952411 0.0072726026369949988 0 0.014822974820210652 0.0068610783928410345 0 0.014559271343892722 0.020678831083090172 0 0.014070329286579692 0.02025040002683055 0 0.014453152358829586 0.020407724898211715 0 0.013958041711744348 0.02019875979872016 0 0.01390571386615571 0.020080564482901828 0 0.014070329286579692 0.02025040002683055 0 0.01390571386615571 0.020080564482901828 0 0.014070329286579692 0.02025040002683055 0 0.013959204586554665 0.020065738172027101 0 0.015774572647947713 0.012506714245677191 0 0.015762271884643204 0.012623364641097343 0 0.014070329286579692 0.02025040002683055 0 0.01414024800900502 0.020072221639042865 0 0.013959204586554665 0.020065738172027101 0 0.01414024800900502 0.020072221639042865 0 0.014316413419689603 0.020213005897508431 0 0.014443475076353662 0.020092229135029109 0 0.014070329286579692 0.02025040002683055 0 0.01414024800900502 0.020072221639042865 0 0.014316413419689603 0.020213005897508431 0 0.014070329286579692 0.02025040002683055 0 0.014316413419689603 0.020213005897508431 0 0.014453152358829586 0.020407724898211715 0 0.014316413419689603 0.020213005897508431 0 0.014453152358829586 0.020407724898211715 0 0.014584988825459173 0.020286470930186255 0 0.014559271343892722 0.020678831083090172 0 0.014453152358829586 0.020407724898211715 0 0.014663835211860335 0.020434822793722014 0 0.014453152358829586 0.020407724898211715 0 0.014584988825459173 0.020286470930186255 0 0.014663835211860335 0.020434822793722014 0 0.014443475076353662 0.020092229135029109 0 0.014584988825459173 0.020286470930186255 0 0.014686098094899642 0.020164764351385141 0 0.014316413419689603 0.020213005897508431 0 0.014443475076353662 0.020092229135029109 0 0.014584988825459173 0.020286470930186255 0 0.015010377596137173 0.020425346333743332 0 0.014686098094899642 0.020164764351385141 0 0.014759363262490771 0.019951367767806465 0 0.015010377596137173 0.020425346333743332 0 0.014584988825459173 0.020286470930186255 0 0.014686098094899642 0.020164764351385141 0 0.015010377596137173 0.020425346333743332 0 0.014559271343892722 0.020678831083090172 0 0.014663835211860335 0.020434822793722014 0 0.015010377596137173 0.020425346333743332 0 0.014584988825459173 0.020286470930186255 0 0.014663835211860335 0.020434822793722014 0 0.013832402543018828 0.020025566642047743 0 0.013959204586554665 0.020065738172027101 0 0.013797345263552242 0.019879955064320116 0 0.013832402543018828 0.020025566642047743 0 0.01390571386615571 0.020080564482901828 0 0.013959204586554665 0.020065738172027101 0 0.01414024800900502 0.020072221639042865 0 0.013959204586554665 0.020065738172027101 0 0.013979694161612126 0.019856087887792175 0 0.013959204586554665 0.020065738172027101 0 0.013797345263552242 0.019879955064320116 0 0.013979694161612126 0.019856087887792175 0 0.013832402543018828 0.020025566642047743 0 0.013797345263552242 0.019879955064320116 0 0.013676547831971225 0.019902490659741069 0 0.013797345263552242 0.019879955064320116 0 0.013676547831971225 0.019902490659741069 0 0.013482739642059675 0.019637248483303223 0 0.013676547831971225 0.019902490659741069 0 0.013211605091667902 0.019855909458677139 0 0.013849228629842274 0.020023172420669505 0 0.013676547831971225 0.019902490659741069 0 0.013211605091667902 0.019855909458677139 0 0.013482739642059675 0.019637248483303223 0 0.012811173393610284 0.013848725307357538 0 0.01054370899383148 0.011630223456235426 0 0.013556701695090885 0.020263688736245157 0 0.013211605091667902 0.019855909458677139 0 0.013849228629842274 0.020023172420669505 0 0.012811173393610284 0.013848725307357538 0 0.012404376771116514 0.014852482362302466 0 0.013699229533978834 0.019828235774315323 0 0.013832402543018828 0.020025566642047743 0 0.013849228629842274 0.020023172420669505 0 0.013832402543018828 0.020025566642047743 0 0.013676547831971225 0.019902490659741069 0 0.013849228629842274 0.020023172420669505 0 0.013448629399430907 0.019113742131374817 0 0.013793518810634267 0.019266503250366725 0 0.013752636773032066 0.0195610968044348 0 0.013448629399430907 0.019113742131374817 0 0.013793518810634267 0.019266503250366725 0 0.013770188159411154 0.01886612096501912 0 0.013448629399430907 0.019113742131374817 0 0.013770188159411154 0.01886612096501912 0 0.013497804832814049 0.018610765191869823 0 0.012730814768571901 0.019198605343586663 0 0.013448629399430907 0.019113742131374817 0 0.013047286006916979 0.018538711371055096 0 0.012730814768571901 0.019198605343586663 0 0.013211605091667902 0.019855909458677139 0 0.013482739642059675 0.019637248483303223 0 0.012730814768571901 0.019198605343586663 0 0.013448629399430907 0.019113742131374817 0 0.013482739642059675 0.019637248483303223 0 0.013448629399430907 0.019113742131374817 0 0.013482739642059675 0.019637248483303223 0 0.013752636773032066 0.0195610968044348 0 0.013797345263552242 0.019879955064320116 0 0.013482739642059675 0.019637248483303223 0 0.013752636773032066 0.0195610968044348 0 0.013752636773032066 0.0195610968044348 0 0.013979694161612126 0.019856087887792175 0 0.014035594850200811 0.019584082153524553 0 0.013797345263552242 0.019879955064320116 0 0.013752636773032066 0.0195610968044348 0 0.013979694161612126 0.019856087887792175 0 0.01414024800900502 0.020072221639042865 0 0.013979694161612126 0.019856087887792175 0 0.014169790177556785 0.019814809202154629 0 0.013979694161612126 0.019856087887792175 0 0.014169790177556785 0.019814809202154629 0 0.014035594850200811 0.019584082153524553 0 0.014035594850200811 0.019584082153524553 0 0.014311676919273294 0.019596407697761213 0 0.014251594366210065 0.019341349798825683 0 0.014169790177556785 0.019814809202154629 0 0.014035594850200811 0.019584082153524553 0 0.014311676919273294 0.019596407697761213 0 0.013793518810634267 0.019266503250366725 0 0.013752636773032066 0.0195610968044348 0 0.014035594850200811 0.019584082153524553 0 0.014443475076353662 0.020092229135029109 0 0.014686098094899642 0.020164764351385141 0 0.014759363262490771 0.019951367767806465 0 0.014443475076353662 0.020092229135029109 0 0.014759363262490771 0.019951367767806465 0 0.014380597307076708 0.019872676884912569 0 0.014759363262490771 0.019951367767806465 0 0.014380597307076708 0.019872676884912569 0 0.014556802477759645 0.019686447774515614 0 0.01414024800900502 0.020072221639042865 0 0.014443475076353662 0.020092229135029109 0 0.014380597307076708 0.019872676884912569 0 0.01414024800900502 0.020072221639042865 0 0.014169790177556785 0.019814809202154629 0 0.014380597307076708 0.019872676884912569 0 0.014169790177556785 0.019814809202154629 0 0.014380597307076708 0.019872676884912569 0 0.014311676919273294 0.019596407697761213 0 0.014311676919273294 0.019596407697761213 0 0.014574376764776039 0.019355930189552659 0 0.014251594366210065 0.019341349798825683 0 0.014311676919273294 0.019596407697761213 0 0.014556802477759645 0.019686447774515614 0 0.014574376764776039 0.019355930189552659 0 0.014380597307076708 0.019872676884912569 0 0.014311676919273294 0.019596407697761213 0 0.014556802477759645 0.019686447774515614 0 0.014828975199057048 0.019633197226933456 0 0.014946996429211663 0.019394362143371858 0 0.014574376764776039 0.019355930189552659 0 0.014759363262490771 0.019951367767806465 0 0.014556802477759645 0.019686447774515614 0 0.014828975199057048 0.019633197226933456 0 0.014556802477759645 0.019686447774515614 0 0.014828975199057048 0.019633197226933456 0 0.014574376764776039 0.019355930189552659 0 0.014828975199057048 0.019633197226933456 0 0.014946996429211663 0.019394362143371858 0 0.015139960578163657 0.01970778669077378 0 0.014759363262490771 0.019951367767806465 0 0.014828975199057048 0.019633197226933456 0 0.015139960578163657 0.01970778669077378 0 0.014969616403728103 0.01906990065890932 0 0.014946996429211663 0.019394362143371858 0 0.014574376764776039 0.019355930189552659 0 0.014969616403728103 0.01906990065890932 0 0.014574376764776039 0.019355930189552659 0 0.014667734053460934 0.018942590871938548 0 0.014574376764776039 0.019355930189552659 0 0.014354852192774721 0.019037080881732404 0 0.014667734053460934 0.018942590871938548 0 0.014574376764776039 0.019355930189552659 0 0.014354852192774721 0.019037080881732404 0 0.014251594366210065 0.019341349798825683 0 0.014667734053460934 0.018942590871938548 0 0.014916903875899954 0.018619117538974352 0 0.014520978723937672 0.018724612982273924 0 0.014354852192774721 0.019037080881732404 0 0.014667734053460934 0.018942590871938548 0 0.014520978723937672 0.018724612982273924 0 0.014969616403728103 0.01906990065890932 0 0.014667734053460934 0.018942590871938548 0 0.014916903875899954 0.018619117538974352 0 0.014969616403728103 0.01906990065890932 0 0.014916903875899954 0.018619117538974352 0 0.015287441283648976 0.018836456839088984 0 0.013793518810634267 0.019266503250366725 0 0.013770188159411154 0.01886612096501912 0 0.014052724811578748 0.019113060585949405 0 0.013793518810634267 0.019266503250366725 0 0.014035594850200811 0.019584082153524553 0 0.014052724811578748 0.019113060585949405 0 0.014354852192774721 0.019037080881732404 0 0.014052724811578748 0.019113060585949405 0 0.014251594366210065 0.019341349798825683 0 0.014035594850200811 0.019584082153524553 0 0.014052724811578748 0.019113060585949405 0 0.014251594366210065 0.019341349798825683 0 0.014354852192774721 0.019037080881732404 0 0.014168063491137872 0.018711036538183432 0 0.014520978723937672 0.018724612982273924 0 0.014354852192774721 0.019037080881732404 0 0.014052724811578748 0.019113060585949405 0 0.014168063491137872 0.018711036538183432 0 0.013770188159411154 0.01886612096501912 0 0.014052724811578748 0.019113060585949405 0 0.014168063491137872 0.018711036538183432 0 0.013770188159411154 0.01886612096501912 0 0.014168063491137872 0.018711036538183432 0 0.01381251246437336 0.018444625557683801 0 0.014168063491137872 0.018711036538183432 0 0.014132681136246295 0.018282423985605437 0 0.01381251246437336 0.018444625557683801 0 0.014168063491137872 0.018711036538183432 0 0.014132681136246295 0.018282423985605437 0 0.014531542036962899 0.0183166130403556 0 0.014132681136246295 0.018282423985605437 0 0.014531542036962899 0.0183166130403556 0 0.014236471086830111 0.017915894326289861 0 0.014132681136246295 0.018282423985605437 0 0.013896251794991463 0.018088660173154154 0 0.01381251246437336 0.018444625557683801 0 0.014168063491137872 0.018711036538183432 0 0.014520978723937672 0.018724612982273924 0 0.014531542036962899 0.0183166130403556 0 0.014916903875899954 0.018619117538974352 0 0.014520978723937672 0.018724612982273924 0 0.014531542036962899 0.0183166130403556 0 0.014531542036962899 0.0183166130403556 0 0.014635170012949384 0.017935702099623464 0 0.015120731630619758 0.018076762670193064 0 0.014916903875899954 0.018619117538974352 0 0.014531542036962899 0.0183166130403556 0 0.015120731630619758 0.018076762670193064 0 0.014635170012949384 0.017935702099623464 0 0.014938596333344508 0.017634474588336734 0 0.015120731630619758 0.018076762670193064 0 0.014531542036962899 0.0183166130403556 0 0.014635170012949384 0.017935702099623464 0 0.014236471086830111 0.017915894326289861 0 0.014635170012949384 0.017935702099623464 0 0.014938596333344508 0.017634474588336734 0 0.014502663711782512 0.017475167926113668 0 0.013951447553779398 0.017808403823208811 0 0.01383433130914625 0.017766314208818502 0 0.014635170012949384 0.017935702099623464 0 0.014236471086830111 0.017915894326289861 0 0.014502663711782512 0.017475167926113668 0 0.013896251794991463 0.018088660173154154 0 0.014236471086830111 0.017915894326289861 0 0.013816093200035223 0.017755243696815273 0 0.014132681136246295 0.018282423985605437 0 0.013896251794991463 0.018088660173154154 0 0.014236471086830111 0.017915894326289861 0 0.014236471086830111 0.017915894326289861 0 0.014064600901533114 0.017657194338803077 0 0.014502663711782512 0.017475167926113668 0 0.014236471086830111 0.017915894326289861 0 0.014064600901533114 0.017657194338803077 0 0.013816093200035223 0.017755243696815273 0 0.013816093200035223 0.017755243696815273 0 0.013490698962356933 0.018111902996465132 0 0.013419958488819552 0.017599154964956232 0 0.013490698962356933 0.018111902996465132 0 0.013037537002724713 0.017778999138412372 0 0.013419958488819552 0.017599154964956232 0 0.013896251794991463 0.018088660173154154 0 0.013816093200035223 0.017755243696815273 0 0.013490698962356933 0.018111902996465132 0 0.013490698962356933 0.018111902996465132 0 0.01381251246437336 0.018444625557683801 0 0.013497804832814049 0.018610765191869823 0 0.013896251794991463 0.018088660173154154 0 0.013490698962356933 0.018111902996465132 0 0.01381251246437336 0.018444625557683801 0 0.013490698962356933 0.018111902996465132 0 0.013497804832814049 0.018610765191869823 0 0.013047286006916979 0.018538711371055096 0 0.013770188159411154 0.01886612096501912 0 0.01381251246437336 0.018444625557683801 0 0.013497804832814049 0.018610765191869823 0 0.013448629399430907 0.019113742131374817 0 0.013497804832814049 0.018610765191869823 0 0.013047286006916979 0.018538711371055096 0 0.012366961238390699 0.018346344464953653 0 0.013047286006916979 0.018538711371055096 0 0.013037537002724713 0.017778999138412372 0 0.013490698962356933 0.018111902996465132 0 0.013047286006916979 0.018538711371055096 0 0.013037537002724713 0.017778999138412372 0 0.012717635871770158 0.017527783758708931 0 0.013037537002724713 0.017778999138412372 0 0.012974996238350483 0.017264025168990522 0 0.013037537002724713 0.017778999138412372 0 0.013419958488819552 0.017599154964956232 0 0.012974996238350483 0.017264025168990522 0 0.01270829549261426 0.017340135627142279 0 0.012717635871770158 0.017527783758708931 0 0.012974996238350483 0.017264025168990522 0 0.013419958488819552 0.017599154964956232 0 0.013547147983093472 0.017248853144089953 0 0.013821551599540977 0.017530155697527167 0 0.013816093200035223 0.017755243696815273 0 0.013419958488819552 0.017599154964956232 0 0.013821551599540977 0.017530155697527167 0 0.013419958488819552 0.017599154964956232 0 0.013547147983093472 0.017248853144089953 0 0.012974996238350483 0.017264025168990522 0 0.013924698853431207 0.017508773971528439 0 0.01361049811892347 0.017634761638781332 0 0.013731304523491387 0.017563189381727278 0 0.013327463099771456 0.017826488031669214 0 0.013374271249523648 0.017878484501226595 0 0.013299553109693366 0.017819658603579341 0 0.013518521428029985 0.017709394781862755 0 0.013679122802483982 0.017711663888123421 0 0.013924698853431207 0.017508773971528439 0 0.01361049811892347 0.017634761638781332 0 0.014160465841054508 0.017563094279478116 0 0.013547147983093472 0.017248853144089953 0 0.012974996238350483 0.017264025168990522 0 0.012656978065252582 0.016979681065051232 0 0.013327463099771456 0.017826488031669214 0 0.013374271249523648 0.017878484501226595 0 0.013409109293583131 0.017870009409555476 0 0.013409108904729433 0.017660615963559823 0 0.012885856936870934 0.017599058014540876 0 0.01270829549261426 0.017340135627142279 0 0.012974996238350483 0.017264025168990522 0 0.012648710399832654 0.017282256761939081 0 0.012866755081894653 0.017553348460143198 0 0.012885856936870934 0.017599058014540876 0 0.013530089240119014 0.017772076121861168 0 0.013661680170040625 0.017591531355720925 0 0.013530705060038103 0.017726825007993188 0 0.013530089240119014 0.017772076121861168 0 0.013626678053668172 0.017637101372739956 0 0.013661680170040625 0.017591531355720925 0 0.01361049811892347 0.017634761638781332 0 0.013626678053668172 0.017637101372739956 0 0.013731304523491387 0.017563189381727278 0 0.01361049811892347 0.017634761638781332 0 0.013530089240119014 0.017772076121861168 0 0.013626678053668172 0.017637101372739956 0 0.013731304523491387 0.017563189381727278 0 0.013862234370853946 0.017459582028439762 0 0.013661680170040625 0.017591531355720925 0 0.013626678053668172 0.017637101372739956 0 0.013731304523491387 0.017563189381727278 0 0.013661680170040625 0.017591531355720925 0 0.013924698853431207 0.017508773971528439 0 0.013862234370853946 0.017459582028439762 0 0.014199745189670923 0.017333668981651972 0 0.013924698853431207 0.017508773971528439 0 0.013731304523491387 0.017563189381727278 0 0.013862234370853946 0.017459582028439762 0 0.013862234370853946 0.017459582028439762 0 0.013753593148593658 0.017474566102272104 0 0.014035763961329994 0.017311833307360552 0 0.013862234370853946 0.017459582028439762 0 0.013661680170040625 0.017591531355720925 0 0.013753593148593658 0.017474566102272104 0 0.013753593148593658 0.017474566102272104 0 0.013587052708730176 0.017591378800684697 0 0.013530705060038103 0.017726825007993188 0 0.013661680170040625 0.017591531355720925 0 0.013753593148593658 0.017474566102272104 0 0.013530705060038103 0.017726825007993188 0 0.013587052708730176 0.017591378800684697 0 0.013530705060038103 0.017726825007993188 0 0.013443112093461679 0.01785845141584751 0 0.013472031104322529 0.017896869314022981 0 0.013530705060038103 0.017726825007993188 0 0.013397217860930904 0.018099377057393166 0 0.013530089240119014 0.017772076121861168 0 0.013472031104322529 0.017896869314022981 0 0.013530705060038103 0.017726825007993188 0 0.014831008480550087 0.016899856205678059 0 0.013940581021981722 0.017225955815437077 0 0.014694830650943526 0.01679298576749132 0 0.014831008480550087 0.016899856205678059 0 0.013940581021981722 0.017225955815437077 0 0.014538372188571768 0.017105710586329818 0 0.013940581021981722 0.017225955815437077 0 0.014035763961329994 0.017311833307360552 0 0.014538372188571768 0.017105710586329818 0 0.013753593148593658 0.017474566102272104 0 0.013587052708730176 0.017591378800684697 0 0.013940581021981722 0.017225955815437077 0 0.013753593148593658 0.017474566102272104 0 0.013940581021981722 0.017225955815437077 0 0.014035763961329994 0.017311833307360552 0 0.013862234370853946 0.017459582028439762 0 0.014035763961329994 0.017311833307360552 0 0.014199745189670923 0.017333668981651972 0 0.014035763961329994 0.017311833307360552 0 0.014199745189670923 0.017333668981651972 0 0.014538372188571768 0.017105710586329818 0 0.014538372188571768 0.017105710586329818 0 0.015040294346147941 0.016989321645995481 0 0.015350225008845243 0.016777944831498675 0 0.014199745189670923 0.017333668981651972 0 0.014538372188571768 0.017105710586329818 0 0.014635674209124705 0.017177264207879864 0 0.014831008480550087 0.016899856205678059 0 0.014538372188571768 0.017105710586329818 0 0.015350225008845243 0.016777944831498675 0 0.014538372188571768 0.017105710586329818 0 0.015040294346147941 0.016989321645995481 0 0.014635674209124705 0.017177264207879864 0 0.015040294346147941 0.016989321645995481 0 0.014635674209124705 0.017177264207879864 0 0.014842578231848787 0.017225840221412023 0 0.014635674209124705 0.017177264207879864 0 0.014842578231848787 0.017225840221412023 0 0.014407700073696314 0.017336547651112606 0 0.014842578231848787 0.017225840221412023 0 0.014407700073696314 0.017336547651112606 0 0.014422189481494107 0.017423896444298884 0 0.013924698853431207 0.017508773971528439 0 0.014199745189670923 0.017333668981651972 0 0.014195238233728738 0.017434166970359596 0 0.014199745189670923 0.017333668981651972 0 0.014407700073696314 0.017336547651112606 0 0.014195238233728738 0.017434166970359596 0 0.014199745189670923 0.017333668981651972 0 0.014635674209124705 0.017177264207879864 0 0.014407700073696314 0.017336547651112606 0 0.014407700073696314 0.017336547651112606 0 0.014422189481494107 0.017423896444298884 0 0.014195238233728738 0.017434166970359596 0 0.014422189481494107 0.017423896444298884 0 0.014195238233728738 0.017434166970359596 0 0.014160465841054508 0.017563094279478116 0 0.013924698853431207 0.017508773971528439 0 0.014195238233728738 0.017434166970359596 0 0.014160465841054508 0.017563094279478116 0 0.013327463099771456 0.017826488031669214 0 0.013299553109693366 0.017819658603579341 0 0.013254729586228177 0.017784588987014804 0 0.014064600901533114 0.017657194338803077 0 0.013821551599540977 0.017530155697527167 0 0.014502663711782512 0.017475167926113668 0 0.014160465841054508 0.017563094279478116 0 0.014668232369932952 0.017440524808467344 0 0.014668960770624712 0.017591427596682935 0 0.014422189481494107 0.017423896444298884 0 0.014160465841054508 0.017563094279478116 0 0.014668232369932952 0.017440524808467344 0 0.013409108904729433 0.017660615963559823 0 0.01383433130914625 0.017766314208818502 0 0.013547147983093472 0.017248853144089953 0 0.013821551599540977 0.017530155697527167 0 0.014502663711782512 0.017475167926113668 0 0.013679122802483982 0.017711663888123421 0 0.01383433130914625 0.017766314208818502 0 0.014064600901533114 0.017657194338803077 0 0.013816093200035223 0.017755243696815273 0 0.013821551599540977 0.017530155697527167 0 0.014842578231848787 0.017225840221412023 0 0.014980051284589003 0.017390449129884234 0 0.015414585235036833 0.017178179794955385 0 0.014842578231848787 0.017225840221412023 0 0.014668232369932952 0.017440524808467344 0 0.014980051284589003 0.017390449129884234 0 0.014842578231848787 0.017225840221412023 0 0.014422189481494107 0.017423896444298884 0 0.014668232369932952 0.017440524808467344 0 0.014938596333344508 0.017634474588336734 0 0.014668232369932952 0.017440524808467344 0 0.014668960770624712 0.017591427596682935 0 0.014938596333344508 0.017634474588336734 0 0.014980051284589003 0.017390449129884234 0 0.015414585235036833 0.017178179794955385 0 0.014938596333344508 0.017634474588336734 0 0.014668232369932952 0.017440524808467344 0 0.014980051284589003 0.017390449129884234 0 0.015414585235036833 0.017178179794955385 0 0.016140988051660542 0.016959688947486042 0 0.015637241594319 0.016791521748589049 0 0.015414585235036833 0.017178179794955385 0 0.016140988051660542 0.016959688947486042 0 0.015622407798566506 0.017529286143158549 0 0.016140988051660542 0.016959688947486042 0 0.016695314020844329 0.01627861080075662 0 0.017251187576352502 0.016683820650747277 0 0.016140988051660542 0.016959688947486042 0 0.015637241594319 0.016791521748589049 0 0.016695314020844329 0.01627861080075662 0 0.015637241594319 0.016791521748589049 0 0.016166800652129085 0.016455753036870569 0 0.016695314020844329 0.01627861080075662 0 0.014842578231848787 0.017225840221412023 0 0.015414585235036833 0.017178179794955385 0 0.015637241594319 0.016791521748589049 0 0.015040294346147941 0.016989321645995481 0 0.014842578231848787 0.017225840221412023 0 0.015637241594319 0.016791521748589049 0 0.015637241594319 0.016791521748589049 0 0.015350225008845243 0.016777944831498675 0 0.016166800652129085 0.016455753036870569 0 0.015040294346147941 0.016989321645995481 0 0.015637241594319 0.016791521748589049 0 0.015350225008845243 0.016777944831498675 0 0.015350225008845243 0.016777944831498675 0 0.016166800652129085 0.016455753036870569 0 0.015661528257963013 0.016508915685284037 0 0.016166800652129085 0.016455753036870569 0 0.015661528257963013 0.016508915685284037 0 0.01647786934921576 0.016240991072841784 0 0.014831008480550087 0.016899856205678059 0 0.015350225008845243 0.016777944831498675 0 0.015661528257963013 0.016508915685284037 0 0.014831008480550087 0.016899856205678059 0 0.015661528257963013 0.016508915685284037 0 0.014694830650943526 0.01679298576749132 0 0.016789077084804795 0.016191521439041286 0 0.01647786934921576 0.016240991072841784 0 0.016952044969859935 0.016171290118300791 0 0.016166800652129085 0.016455753036870569 0 0.01647786934921576 0.016240991072841784 0 0.016952044969859935 0.016171290118300791 0 0.016166800652129085 0.016455753036870569 0 0.016952044969859935 0.016171290118300791 0 0.016695314020844329 0.01627861080075662 0 0.016952044969859935 0.016171290118300791 0 0.018011240082809184 0.015494566285587312 0 0.016850568912869304 0.016189918817555611 0 0.016789077084804795 0.016191521439041286 0 0.016952044969859935 0.016171290118300791 0 0.016850568912869304 0.016189918817555611 0 0.018967973698782444 0.015423711239524887 0 0.019589471832666402 0.014903044747373695 0 0.016952044969859935 0.016171290118300791 0 0.016695314020844329 0.01627861080075662 0 0.018011240082809184 0.015494566285587312 0 0.016695314020844329 0.01627861080075662 0 0.017251187576352502 0.016683820650747277 0 0.018011240082809184 0.015494566285587312 0 0.017251187576352502 0.016683820650747277 0 0.018011240082809184 0.015494566285587312 0 0.019399995884140115 0.016901832065580519 0 0.017251187576352502 0.016683820650747277 0 0.019399995884140115 0.016901832065580519 0 0.017685444549439929 0.017713310403406467 0 0.018985206950472511 0.018178618944174062 0 0.017685444549439929 0.017713310403406467 0 0.018242163306095766 0.018934151062478862 0 0.019399995884140115 0.016901832065580519 0 0.018985206950472511 0.018178618944174062 0 0.017685444549439929 0.017713310403406467 0 0.017685444549439929 0.017713310403406467 0 0.016473519297003556 0.017496844089265901 0 0.016685119243937358 0.018274170478222853 0 0.017685444549439929 0.017713310403406467 0 0.018242163306095766 0.018934151062478862 0 0.017311194696421225 0.018695889727245618 0 0.017685444549439929 0.017713310403406467 0 0.016685119243937358 0.018274170478222853 0 0.017311194696421225 0.018695889727245618 0 0.017251187576352502 0.016683820650747277 0 0.017685444549439929 0.017713310403406467 0 0.016473519297003556 0.017496844089265901 0 0.016140988051660542 0.016959688947486042 0 0.016473519297003556 0.017496844089265901 0 0.015622407798566506 0.017529286143158549 0 0.016140988051660542 0.016959688947486042 0 0.017251187576352502 0.016683820650747277 0 0.016473519297003556 0.017496844089265901 0 0.016473519297003556 0.017496844089265901 0 0.015622407798566506 0.017529286143158549 0 0.015795178766072695 0.018180877371020386 0 0.015622407798566506 0.017529286143158549 0 0.015120731630619758 0.018076762670193064 0 0.015795178766072695 0.018180877371020386 0 0.014938596333344508 0.017634474588336734 0 0.015414585235036833 0.017178179794955385 0 0.015622407798566506 0.017529286143158549 0 0.014938596333344508 0.017634474588336734 0 0.015622407798566506 0.017529286143158549 0 0.015120731630619758 0.018076762670193064 0 0.015120731630619758 0.018076762670193064 0 0.015795178766072695 0.018180877371020386 0 0.015345207798572444 0.018473488445716366 0 0.015795178766072695 0.018180877371020386 0 0.015631020605349807 0.018667766011266788 0 0.015345207798572444 0.018473488445716366 0 0.015795178766072695 0.018180877371020386 0 0.015631020605349807 0.018667766011266788 0 0.016103412384496266 0.018792118864267907 0 0.014916903875899954 0.018619117538974352 0 0.015120731630619758 0.018076762670193064 0 0.015345207798572444 0.018473488445716366 0 0.014916903875899954 0.018619117538974352 0 0.015345207798572444 0.018473488445716366 0 0.015287441283648976 0.018836456839088984 0 0.015631020605349807 0.018667766011266788 0 0.015345207798572444 0.018473488445716366 0 0.015287441283648976 0.018836456839088984 0 0.016473519297003556 0.017496844089265901 0 0.015795178766072695 0.018180877371020386 0 0.016685119243937358 0.018274170478222853 0 0.015795178766072695 0.018180877371020386 0 0.016685119243937358 0.018274170478222853 0 0.016103412384496266 0.018792118864267907 0 0.016685119243937358 0.018274170478222853 0 0.016759684858273477 0.019257157961778765 0 0.017311194696421225 0.018695889727245618 0 0.016685119243937358 0.018274170478222853 0 0.016103412384496266 0.018792118864267907 0 0.016759684858273477 0.019257157961778765 0 0.016103412384496266 0.018792118864267907 0 0.016122345062390953 0.019393697901533273 0 0.015652634523764159 0.019067122303992084 0 0.016103412384496266 0.018792118864267907 0 0.016122345062390953 0.019393697901533273 0 0.016759684858273477 0.019257157961778765 0 0.016122345062390953 0.019393697901533273 0 0.016759684858273477 0.019257157961778765 0 0.016627974308633331 0.019805000606224067 0 0.014969616403728103 0.01906990065890932 0 0.015287441283648976 0.018836456839088984 0 0.015253940453716478 0.019239048251494837 0 0.015287441283648976 0.018836456839088984 0 0.015652634523764159 0.019067122303992084 0 0.015253940453716478 0.019239048251494837 0 0.015631020605349807 0.018667766011266788 0 0.016103412384496266 0.018792118864267907 0 0.015652634523764159 0.019067122303992084 0 0.015631020605349807 0.018667766011266788 0 0.015287441283648976 0.018836456839088984 0 0.015652634523764159 0.019067122303992084 0 0.016122345062390953 0.019393697901533273 0 0.015652634523764159 0.019067122303992084 0 0.01557492385760292 0.019496317551043574 0 0.015652634523764159 0.019067122303992084 0 0.015253940453716478 0.019239048251494837 0 0.01557492385760292 0.019496317551043574 0 0.014969616403728103 0.01906990065890932 0 0.014946996429211663 0.019394362143371858 0 0.015253940453716478 0.019239048251494837 0 0.014946996429211663 0.019394362143371858 0 0.015253940453716478 0.019239048251494837 0 0.015139960578163657 0.01970778669077378 0 0.015253940453716478 0.019239048251494837 0 0.015139960578163657 0.01970778669077378 0 0.01557492385760292 0.019496317551043574 0 0.015139960578163657 0.01970778669077378 0 0.015548614120692023 0.01988688688303647 0 0.01557492385760292 0.019496317551043574 0 0.015548614120692023 0.01988688688303647 0 0.01557492385760292 0.019496317551043574 0 0.016075063396165684 0.019961620330845531 0 0.015828621552438901 0.020502819794916465 0 0.015548614120692023 0.01988688688303647 0 0.016075063396165684 0.019961620330845531 0 0.015828621552438901 0.020502819794916465 0 0.015548614120692023 0.01988688688303647 0 0.01522253476033743 0.020100783458060136 0 0.015139960578163657 0.01970778669077378 0 0.015548614120692023 0.01988688688303647 0 0.01522253476033743 0.020100783458060136 0 0.015010377596137173 0.020425346333743332 0 0.014759363262490771 0.019951367767806465 0 0.01522253476033743 0.020100783458060136 0 0.014759363262490771 0.019951367767806465 0 0.015139960578163657 0.01970778669077378 0 0.01522253476033743 0.020100783458060136 0 0.016759684858273477 0.019257157961778765 0 0.016627974308633331 0.019805000606224067 0 0.017398886018500669 0.019838395461703798 0 0.016627974308633331 0.019805000606224067 0 0.016707548883084004 0.020512146696900078 0 0.017398886018500669 0.019838395461703798 0 0.016122345062390953 0.019393697901533273 0 0.016627974308633331 0.019805000606224067 0 0.016075063396165684 0.019961620330845531 0 0.016122345062390953 0.019393697901533273 0 0.01557492385760292 0.019496317551043574 0 0.016075063396165684 0.019961620330845531 0 0.015828621552438901 0.020502819794916465 0 0.016075063396165684 0.019961620330845531 0 0.016707548883084004 0.020512146696900078 0 0.016627974308633331 0.019805000606224067 0 0.016075063396165684 0.019961620330845531 0 0.016707548883084004 0.020512146696900078 0 0.01763551775364243 0.020834768754502419 0 0.017398886018500669 0.019838395461703798 0 0.018659458688192021 0.020203148219037341 0 0.01763551775364243 0.020834768754502419 0 0.016707548883084004 0.020512146696900078 0 0.017398886018500669 0.019838395461703798 0 0.017398886018500669 0.019838395461703798 0 0.018659458688192021 0.020203148219037341 0 0.018242163306095766 0.018934151062478862 0 0.018659458688192021 0.020203148219037341 0 0.019360608310708974 0.019085327900880394 0 0.020454465327613351 0.019776552625433867 0 0.018659458688192021 0.020203148219037341 0 0.019360608310708974 0.019085327900880394 0 0.018242163306095766 0.018934151062478862 0 0.018985206950472511 0.018178618944174062 0 0.019360608310708974 0.019085327900880394 0 0.018242163306095766 0.018934151062478862 0 0.016759684858273477 0.019257157961778765 0 0.017398886018500669 0.019838395461703798 0 0.017311194696421225 0.018695889727245618 0 0.017398886018500669 0.019838395461703798 0 0.018242163306095766 0.018934151062478862 0 0.017311194696421225 0.018695889727245618 0 0.021570726524394505 0.018499646406737236 0 0.022576575084232338 0.019565788933064585 0 0.022678125812807412 0.017446284265630684 0 0.021570726524394505 0.018499646406737236 0 0.020454465327613351 0.019776552625433867 0 0.022576575084232338 0.019565788933064585 0 0.021570726524394505 0.018499646406737236 0 0.020354359015485622 0.018283465099012609 0 0.020454465327613351 0.019776552625433867 0 0.019360608310708974 0.019085327900880394 0 0.020354359015485622 0.018283465099012609 0 0.020454465327613351 0.019776552625433867 0 0.018985206950472511 0.018178618944174062 0 0.019360608310708974 0.019085327900880394 0 0.020354359015485622 0.018283465099012609 0 0.020031257819857148 0.021062229751897074 0 0.018659458688192021 0.020203148219037341 0 0.020454465327613351 0.019776552625433867 0 0.020031257819857148 0.021062229751897074 0 0.020454465327613351 0.019776552625433867 0 0.021503406017365403 0.020789450962272662 0 0.020454465327613351 0.019776552625433867 0 0.021503406017365403 0.020789450962272662 0 0.022576575084232338 0.019565788933064585 0 0.023818328555225986 0.021924109513713236 0 0.021503406017365403 0.020789450962272662 0 0.022576575084232338 0.019565788933064585 0 0.023818328555225986 0.021924109513713236 0 0.022576575084232338 0.019565788933064585 0 0.025261654724935179 0.019201355071078261 0 0.022946865927911082 0.0085268368659613385 0 0.024742531221588749 0.011852204191402746 0 0.027084043860949432 0.0065424939774133594 0 0.027972529842232762 0.0064138177484618459 0 0.027465209712381873 0.0071457279194202588 0 0.027972529842232762 0.0064138177484618459 0 0.027465209712381873 0.0071457279194202588 0 0.027614575619350511 0.007300528957935151 0 0.022576575084232338 0.019565788933064585 0 0.022678125812807412 0.017446284265630684 0 0.024354295692595927 0.017551055852381963 0 0.022576575084232338 0.019565788933064585 0 0.025261654724935179 0.019201355071078261 0 0.024354295692595927 0.017551055852381963 0 0.022678125812807412 0.017446284265630684 0 0.024678271651461147 0.015282860954333701 0 0.022829540303985763 0.015879481397847714 0 0.022678125812807412 0.017446284265630684 0 0.024354295692595927 0.017551055852381963 0 0.024678271651461147 0.015282860954333701 0 0.024354295692595927 0.017551055852381963 0 0.024678271651461147 0.015282860954333701 0 0.026932314114679386 0.015844681655286241 0 0.024742531221588749 0.011852204191402746 0 0.02610676142200221 0.011835179385495198 0 0.025261654724935179 0.019201355071078261 0 0.024354295692595927 0.017551055852381963 0 0.026932314114679386 0.015844681655286241 0 0.024678271651461147 0.015282860954333701 0 0.025731003468498857 0.01354754016137988 0 0.026244234267540807 0.014493663480620587 0 0.025825341046547167 0.012205533591431198 0 0.02610676142200221 0.011835179385495198 0 0.024678271651461147 0.015282860954333701 0 0.023725324707580878 0.014435391994017719 0 0.025191820058413594 0.013518041621071992 0 0.024678271651461147 0.015282860954333701 0 0.025731003468498857 0.01354754016137988 0 0.025191820058413594 0.013518041621071992 0 0.024678271651461147 0.015282860954333701 0 0.022829540303985763 0.015879481397847714 0 0.023725324707580878 0.014435391994017719 0 0.022829540303985763 0.015879481397847714 0 0.021366776592279028 0.016959523282482708 0 0.021741085345851865 0.015394834953464383 0 0.022829540303985763 0.015879481397847714 0 0.021741085345851865 0.015394834953464383 0 0.023725324707580878 0.014435391994017719 0 0.021570726524394505 0.018499646406737236 0 0.020354359015485622 0.018283465099012609 0 0.021366776592279028 0.016959523282482708 0 0.021570726524394505 0.018499646406737236 0 0.022678125812807412 0.017446284265630684 0 0.021366776592279028 0.016959523282482708 0 0.022678125812807412 0.017446284265630684 0 0.022829540303985763 0.015879481397847714 0 0.021366776592279028 0.016959523282482708 0 0.019399995884140115 0.016901832065580519 0 0.018985206950472511 0.018178618944174062 0 0.020354359015485622 0.018283465099012609 0 0.019399995884140115 0.016901832065580519 0 0.020354359015485622 0.018283465099012609 0 0.021366776592279028 0.016959523282482708 0 0.019399995884140115 0.016901832065580519 0 0.021366776592279028 0.016959523282482708 0 0.021741085345851865 0.015394834953464383 0 0.018011240082809184 0.015494566285587312 0 0.021741085345851865 0.015394834953464383 0 0.021774303250495505 0.013692877998839871 0 0.018011240082809184 0.015494566285587312 0 0.019399995884140115 0.016901832065580519 0 0.021741085345851865 0.015394834953464383 0 0.021741085345851865 0.015394834953464383 0 0.021774303250495505 0.013692877998839871 0 0.023385778399741274 0.013606233713533488 0 0.021741085345851865 0.015394834953464383 0 0.023385778399741274 0.013606233713533488 0 0.023725324707580878 0.014435391994017719 0 0.021774303250495505 0.013692877998839871 0 0.023763001838524759 0.012387436234201582 0 0.023385778399741274 0.013606233713533488 0 0.018011240082809184 0.015494566285587312 0 0.021774303250495505 0.013692877998839871 0 0.020800375939643821 0.011905361360042603 0 0.021774303250495505 0.013692877998839871 0 0.020800375939643821 0.011905361360042603 0 0.023763001838524759 0.012387436234201582 0 0.023763001838524759 0.012387436234201582 0 0.025471322452586518 0.011403809302952305 0 0.022828727185358041 0.010164455055197212 0 0.020800375939643821 0.011905361360042603 0 0.023763001838524759 0.012387436234201582 0 0.022828727185358041 0.010164455055197212 0 0.019589471832666402 0.014903044747373695 0 0.020694026428027108 0.015191946075870261 0 0.016789077084804795 0.016191521439041286 0 0.016850568912869304 0.016189918817555611 0 0.016980802351398622 0.016072010983550464 0 0.025471322452586518 0.011403809302952305 0 0.025319683362055024 0.012019424345289393 0 0.025778019224420114 0.012034400045713198 0 0.023763001838524759 0.012387436234201582 0 0.025471322452586518 0.011403809302952305 0 0.025319683362055024 0.012019424345289393 0 0.023763001838524759 0.012387436234201582 0 0.025319683362055024 0.012019424345289393 0 0.025151943616055408 0.012754979339429482 0 0.025319683362055024 0.012019424345289393 0 0.025151943616055408 0.012754979339429482 0 0.025739356885504733 0.012083808117109423 0 0.025319683362055024 0.012019424345289393 0 0.025739356885504733 0.012083808117109423 0 0.025778019224420114 0.012034400045713198 0 0.023763001838524759 0.012387436234201582 0 0.025151943616055408 0.012754979339429482 0 0.023385778399741274 0.013606233713533488 0 0.025151943616055408 0.012754979339429482 0 0.023385778399741274 0.013606233713533488 0 0.023725324707580878 0.014435391994017719 0 0.025151943616055408 0.012754979339429482 0 0.025191820058413594 0.013518041621071992 0 0.026029777054321804 0.012549240089781571 0 0.025151943616055408 0.012754979339429482 0 0.023725324707580878 0.014435391994017719 0 0.025191820058413594 0.013518041621071992 0 0.025731003468498857 0.01354754016137988 0 0.025191820058413594 0.013518041621071992 0 0.026029777054321804 0.012549240089781571 0 0.026029777054321804 0.012549240089781571 0 0.026185663072631035 0.011879453614586623 0 0.026509627314077605 0.012412388105956641 0 0.026029777054321804 0.012549240089781571 0 0.026185663072631035 0.011879453614586623 0 0.026048855555385334 0.012063085965896451 0 0.026185663072631035 0.011879453614586623 0 0.026048855555385334 0.012063085965896451 0 0.025898118653731657 0.011309022209742238 0 0.026185663072631035 0.011879453614586623 0 0.025898118653731657 0.011309022209742238 0 0.025942221384089751 0.010989618380395316 0 0.026185663072631035 0.011879453614586623 0 0.025942221384089751 0.010989618380395316 0 0.026509627314077605 0.012412388105956641 0 0.026048855555385334 0.012063085965896451 0 0.02593060618643224 0.011964726505669702 0 0.025898118653731657 0.011309022209742238 0 0.025151943616055408 0.012754979339429482 0 0.026029777054321804 0.012549240089781571 0 0.026048855555385334 0.012063085965896451 0 0.025151943616055408 0.012754979339429482 0 0.026048855555385334 0.012063085965896451 0 0.025739356885504733 0.012083808117109423 0 0.025739356885504733 0.012083808117109423 0 0.02593060618643224 0.011964726505669702 0 0.025778019224420114 0.012034400045713198 0 0.026048855555385334 0.012063085965896451 0 0.025739356885504733 0.012083808117109423 0 0.02593060618643224 0.011964726505669702 0 0.02593060618643224 0.011964726505669702 0 0.02579821571631077 0.012305594019651495 0 0.025652412229084921 0.01250087327242198 0 0.02593060618643224 0.011964726505669702 0 0.02579821571631077 0.012305594019651495 0 0.025778019224420114 0.012034400045713198 0 0.024999767723852467 0.01232945862507541 0 0.025620434938037472 0.011679075482333705 0 0.025652412229084921 0.01250087327242198 0 0.02593060618643224 0.011964726505669702 0 0.025620434938037472 0.011679075482333705 0 0.025652412229084921 0.01250087327242198 0 0.02593060618643224 0.011964726505669702 0 0.025620434938037472 0.011679075482333705 0 0.025898118653731657 0.011309022209742238 0 0.024999767723852467 0.01232945862507541 0 0.025620434938037472 0.011679075482333705 0 0.024999892947162289 0.010887963021615073 0 0.025898118653731657 0.011309022209742238 0 0.024999825377750053 0.0094465595134155533 0 0.025942221384089751 0.010989618380395316 0 0.024999892947162289 0.010887963021615073 0 0.025898118653731657 0.011309022209742238 0 0.024999825377750053 0.0094465595134155533 0 0.025620434938037472 0.011679075482333705 0 0.024999892947162289 0.010887963021615073 0 0.025898118653731657 0.011309022209742238 0 0.024999825377750053 0.0094465595134155533 0 0.025800261215576048 0.0098044977282872644 0 0.025942221384089751 0.010989618380395316 0 0.024999825377750053 0.0094465595134155533 0 0.024999704374317422 0.0080044411786849342 0 0.025800261215576048 0.0098044977282872644 0 0.024999946988604704 0.0080053128159399307 0 0.025553308784676036 0.0096280091269635975 0 0.025000023983886198 0.0080024544633396574 0 0.026194310220383592 0.0081163563140884201 0 0.025918492901808116 0.0073829514094553867 0 0.025800261215576048 0.0098044977282872644 0 0.025942221384089751 0.010989618380395316 0 0.026509627314077605 0.012412388105956641 0 0.025800261215576048 0.0098044977282872644 0 0.026509627314077605 0.012412388105956641 0 0.026946516900052973 0.011487542575409066 0 0.025731003468498857 0.01354754016137988 0 0.026029777054321804 0.012549240089781571 0 0.026509627314077605 0.012412388105956641 0 0.02607602462828781 0.012006408619722684 0 0.02610676142200221 0.011835179385495198 0 0.025731003468498857 0.01354754016137988 0 0.026509627314077605 0.012412388105956641 0 0.026244234267540807 0.014493663480620587 0 0.025553308784676036 0.0096280091269635975 0 0.02610676142200221 0.011835179385495198 0 0.026194310220383592 0.0081163563140884201 0 0.027221682669543109 0.0082838320863716074 0 0.026922424357592574 0.007538204953987682 0 0.026194310220383592 0.0081163563140884201 0 0.026392188371301674 0.0074952846698910641 0 0.026922424357592574 0.007538204953987682 0 0.026392188371301674 0.0074952846698910641 0 0.026922424357592574 0.007538204953987682 0 0.026522444443911594 0.0069519289733905327 0 0.027465209712381873 0.0071457279194202588 0 0.027614575619350511 0.007300528957935151 0 0.026922424357592574 0.007538204953987682 0 0.027614575619350511 0.007300528957935151 0 0.027221682669543109 0.0082838320863716074 0 0.026922424357592574 0.007538204953987682 0 0.027465209712381873 0.0071457279194202588 0 0.026922424357592574 0.007538204953987682 0 0.026522444443911594 0.0069519289733905327 0 0.026906247162564404 0.0069494226709313593 0 0.026389129709085121 0.0068408942850036293 0 0.027084043860949432 0.0065424939774133594 0 0.027465209712381873 0.0071457279194202588 0 0.026554876337636219 0.0070274135051113179 0 0.026156232282069498 0.0066778838121870996 0 0.027084043860949432 0.0065424939774133594 0 0.026554876337636219 0.0070274135051113179 0 0.026389129709085121 0.0068408942850036293 0 0.025326580412086051 0.006572915195814065 0 0.026156232282069498 0.0066778838121870996 0 0.026554876337636219 0.0070274135051113179 0 0.025640640656364035 0.0069010640935596957 0 0.026522444443911594 0.0069519289733905327 0 0.025430418390096757 0.0066869518467718809 0 0.025918492901808116 0.0073829514094553867 0 0.025596720891649428 0.0061147312465212444 0 0.025326580412086051 0.006572915195814065 0 0.025596720891649428 0.0061147312465212444 0 0.025000710515425569 0.0064361379585776814 0 0.026143581296355276 0.006264805096290329 0 0.025441054732733791 0.0065695679422932271 0 0.025000014932204773 0.0064367435078272464 0 0.025326580412086051 0.006572915195814065 0 0.025000841663883583 0.00651513947282113 0 0.025484668806349833 0.0065813384469140751 0 0.024999999559642837 0.0065149608035367634 0 0.02499999979762486 0.0067933209455698571 0 0.025441054732733791 0.0065695679422932271 0 0.025000014932204773 0.0064367435078272464 0 0.024999983051360045 0.0065148809638913086 0 0.025430418390096757 0.0066869518467718809 0 0.024999919942346994 0.006793779869590252 0 0.025395092297034669 0.0072242990881993593 0 0.025326580412086051 0.006572915195814065 0 0.025000699214573534 0.0067926613581199124 0 0.025000023983886198 0.0080024544633396574 0 0.024999919942346994 0.006793779869590252 0 0.025395092297034669 0.0072242990881993593 0 0.025000023983886198 0.0080024544633396574 0 0.025395092297034669 0.0072242990881993593 0 0.025918492901808116 0.0073829514094553867 0 0.025430418390096757 0.0066869518467718809 0 0.025395092297034669 0.0072242990881993593 0 0.025918492901808116 0.0073829514094553867 0 0.026194310220383592 0.0081163563140884201 0 0.026392188371301674 0.0074952846698910641 0 0.025918492901808116 0.0073829514094553867 0 0.026392188371301674 0.0074952846698910641 0 0.026522444443911594 0.0069519289733905327 0 0.025918492901808116 0.0073829514094553867 0 0.025329118128263644 0.017549701672817674 0 0.02513394342384655 0.018284920898195521 0 0.025331843421663652 0.018317877846127636 0 0.025329118128263644 0.017549701672817674 0 0.025113872397093551 0.017471741185221219 0 0.02513394342384655 0.018284920898195521 0 0.025113872397093551 0.017471741185221219 0 0.02499944365103737 0.018098702727717995 0 0.02513394342384655 0.018284920898195521 0 0.025113872397093551 0.017471741185221219 0 0.02499944365103737 0.018098702727717995 0 0.024999350691836623 0.016655898154166356 0 0.02499944365103737 0.018098702727717995 0 0.02513394342384655 0.018284920898195521 0 0.025029952321645822 0.019008991862003572 0 0.02513394342384655 0.018284920898195521 0 0.025041823320881791 0.01890880337977293 0 0.025029952321645822 0.019008991862003572 0 0.02513394342384655 0.018284920898195521 0 0.025331843421663652 0.018317877846127636 0 0.025041823320881791 0.01890880337977293 0 0.025331843421663652 0.018317877846127636 0 0.025121989849869065 0.019011974815669973 0 0.025041823320881791 0.01890880337977293 0 0.025331843421663652 0.018317877846127636 0 0.025810193016137361 0.018145525829559254 0 0.025121989849869065 0.019011974815669973 0 0.025810193016137361 0.018145525829559254 0 0.025735846196721243 0.018535639648082365 0 0.025121989849869065 0.019011974815669973 0 0.024723532349908546 0.01757789444876201 0 0.024395441544860761 0.017764798561423913 0 0.025810193016137361 0.018145525829559254 0 0.026057489313018774 0.017086103647488724 0 0.026849962291919115 0.016963286379405817 0 0.025331843421663652 0.018317877846127636 0 0.025810193016137361 0.018145525829559254 0 0.025607556794791358 0.017671757816453464 0 0.025810193016137361 0.018145525829559254 0 0.025607556794791358 0.017671757816453464 0 0.026057489313018774 0.017086103647488724 0 0.025329118128263644 0.017549701672817674 0 0.025331843421663652 0.018317877846127636 0 0.025607556794791358 0.017671757816453464 0 0.025329118128263644 0.017549701672817674 0 0.025607556794791358 0.017671757816453464 0 0.02563526748417326 0.01693895933880072 0 0.02563526748417326 0.01693895933880072 0 0.025990691564752522 0.01605659386817471 0 0.025375700148718663 0.01625547856199451 0 0.025329118128263644 0.017549701672817674 0 0.02563526748417326 0.01693895933880072 0 0.025375700148718663 0.01625547856199451 0 0.026057489313018774 0.017086103647488724 0 0.025990691564752522 0.01605659386817471 0 0.026832266366394738 0.016774544743315401 0 0.024852042511359921 0.017524527649902609 0 0.024416414995676906 0.017563229669701749 0 0.026057489313018774 0.017086103647488724 0 0.026832266366394738 0.016774544743315401 0 0.026849962291919115 0.016963286379405817 0 0.025607556794791358 0.017671757816453464 0 0.02563526748417326 0.01693895933880072 0 0.026057489313018774 0.017086103647488724 0 0.02563526748417326 0.01693895933880072 0 0.026057489313018774 0.017086103647488724 0 0.025990691564752522 0.01605659386817471 0 0.025990691564752522 0.01605659386817471 0 0.026368314698163284 0.014641829855325162 0 0.026973925275163176 0.016648353952899781 0 0.025990691564752522 0.01605659386817471 0 0.025860463178496492 0.015064668753077767 0 0.026368314698163284 0.014641829855325162 0 0.025990691564752522 0.01605659386817471 0 0.025375700148718663 0.01625547856199451 0 0.025860463178496492 0.015064668753077767 0 0.025375700148718663 0.01625547856199451 0 0.025524945000303556 0.014759998712967955 0 0.025239310105382402 0.015486330393445439 0 0.025329118128263644 0.017549701672817674 0 0.025113872397093551 0.017471741185221219 0 0.025375700148718663 0.01625547856199451 0 0.025113872397093551 0.017471741185221219 0 0.025375700148718663 0.01625547856199451 0 0.024999350691836623 0.016655898154166356 0 0.025375700148718663 0.01625547856199451 0 0.024999350691836623 0.016655898154166356 0 0.025239310105382402 0.015486330393445439 0 0.024999350691836623 0.016655898154166356 0 0.024999512720416114 0.015213586445067567 0 0.025239310105382402 0.015486330393445439 0 0.024999512720416114 0.015213586445067567 0 0.025239310105382402 0.015486330393445439 0 0.025249734086345333 0.01443362127554274 0 0.025524945000303556 0.014759998712967955 0 0.025239310105382402 0.015486330393445439 0 0.025249734086345333 0.01443362127554274 0 0.025524945000303556 0.014759998712967955 0 0.025249734086345333 0.01443362127554274 0 0.025507307320980957 0.013557309469374751 0 0.024999512720416114 0.015213586445067567 0 0.025249734086345333 0.01443362127554274 0 0.024999567383813835 0.013771358612804582 0 0.024999567383813835 0.013771358612804582 0 0.025507307320980957 0.013557309469374751 0 0.025301754329063883 0.013044950712328163 0 0.025249734086345333 0.01443362127554274 0 0.024999567383813835 0.013771358612804582 0 0.025507307320980957 0.013557309469374751 0 0.025507307320980957 0.013557309469374751 0 0.025652412229084921 0.01250087327242198 0 0.025301754329063883 0.013044950712328163 0 0.024999767723852467 0.01232945862507541 0 0.025652412229084921 0.01250087327242198 0 0.025301754329063883 0.013044950712328163 0 0.024999767723852467 0.01232945862507541 0 0.024999567383813835 0.013771358612804582 0 0.025301754329063883 0.013044950712328163 0 0.02579821571631077 0.012305594019651495 0 0.025778019224420114 0.012034400045713198 0 0.025827601603652616 0.012935001197406806 0 0.025778019224420114 0.012034400045713198 0 0.025827601603652616 0.012935001197406806 0 0.025872503499975708 0.012559268452616727 0 0.02579821571631077 0.012305594019651495 0 0.025652412229084921 0.01250087327242198 0 0.025827601603652616 0.012935001197406806 0 0.025507307320980957 0.013557309469374751 0 0.025652412229084921 0.01250087327242198 0 0.025827601603652616 0.012935001197406806 0 0.025507307320980957 0.013557309469374751 0 0.025827601603652616 0.012935001197406806 0 0.025898518243283299 0.013995842642521072 0 0.025827601603652616 0.012935001197406806 0 0.025898518243283299 0.013995842642521072 0 0.026176875256336378 0.013669262896832289 0 0.025898518243283299 0.013995842642521072 0 0.026368314698163284 0.014641829855325162 0 0.026176875256336378 0.013669262896832289 0 0.025524945000303556 0.014759998712967955 0 0.025507307320980957 0.013557309469374751 0 0.025898518243283299 0.013995842642521072 0 0.025375700148718663 0.01625547856199451 0 0.025524945000303556 0.014759998712967955 0 0.025860463178496492 0.015064668753077767 0 0.025524945000303556 0.014759998712967955 0 0.025898518243283299 0.013995842642521072 0 0.025860463178496492 0.015064668753077767 0 0.025898518243283299 0.013995842642521072 0 0.025860463178496492 0.015064668753077767 0 0.026368314698163284 0.014641829855325162 0 0.026368314698163284 0.014641829855325162 0 0.026704777220074295 0.014598396832170816 0 0.026176875256336378 0.013669262896832289 0 0.018337968768926918 0.017984074366899069 0 0.018417434466043572 0.01797062031680368 0 0.018313161680009446 0.018017603883638836 0 0.018365682497341773 0.017965250924997747 0 0.018337968768926918 0.017984074366899069 0 0.018303224266092009 0.017963567380170947 0 0.018365682497341773 0.017965250924997747 0 0.018337968768926918 0.017984074366899069 0 0.018417434466043572 0.01797062031680368 0 0.018417434466043572 0.01797062031680368 0 0.01831853427565508 0.01807274683573401 0 0.018313161680009446 0.018017603883638836 0 0.023016217174238067 0.016549673822044086 0 0.022116759328791886 0.015749716538426242 0 0.018417434466043572 0.01797062031680368 0 0.018330737896402841 0.018208383666422096 0 0.01831853427565508 0.01807274683573401 0 0.026704777220074295 0.014598396832170816 0 0.026176875256336378 0.013669262896832289 0 0.026799987621059208 0.013440387553155537 0 0.025471322452586518 0.011403809302952305 0 0.025872503499975708 0.012559268452616727 0 0.026799987621059208 0.013440387553155537 0 0.025827601603652616 0.012935001197406806 0 0.026176875256336378 0.013669262896832289 0 0.025872503499975708 0.012559268452616727 0 0.026176875256336378 0.013669262896832289 0 0.025872503499975708 0.012559268452616727 0 0.026799987621059208 0.013440387553155537 0 0.025471322452586518 0.011403809302952305 0 0.025778019224420114 0.012034400045713198 0 0.025872503499975708 0.012559268452616727 0 0.025471322452586518 0.011403809302952305 0 0.027236955267112152 0.011759582388371185 0 0.026799987621059208 0.013440387553155537 0 0.020694026428027108 0.015191946075870261 0 0.017911720076123142 0.016274082745683066 0 0.018153761263333686 0.018610998510567384 0 0.018035230502468243 0.018333662357137074 0 0.017768509968627326 0.018536863398361282 0 0.016789077084804795 0.016191521439041286 0 0.016980802351398622 0.016072010983550464 0 0.016772751707700307 0.015963138122549542 0 0.02273651622382495 0.01474648682581386 0 0.020694026428027108 0.015191946075870261 0 0.018035230502468243 0.018333662357137074 0 0.018330737896402841 0.018208383666422096 0 0.018141058928329113 0.018148177459586745 0 0.020694026428027108 0.015191946075870261 0 0.022116759328791886 0.015749716538426242 0 0.018153761263333686 0.018610998510567384 0 0.018035230502468243 0.018333662357137074 0 0.018330737896402841 0.018208383666422096 0 0.018035230502468243 0.018333662357137074 0 0.017902323399477976 0.018186466789869918 0 0.017865313718590393 0.018340152403119571 0 0.018035230502468243 0.018333662357137074 0 0.017902323399477976 0.018186466789869918 0 0.018141058928329113 0.018148177459586745 0 0.017956682961077001 0.01804995778529055 0 0.018141058928329113 0.018148177459586745 0 0.018246427980320525 0.018010331476256792 0 0.017902323399477976 0.018186466789869918 0 0.017956682961077001 0.01804995778529055 0 0.018141058928329113 0.018148177459586745 0 0.018330737896402841 0.018208383666422096 0 0.018141058928329113 0.018148177459586745 0 0.01826120146577246 0.018093670530076711 0 0.018141058928329113 0.018148177459586745 0 0.01826120146577246 0.018093670530076711 0 0.018246427980320525 0.018010331476256792 0 0.018330737896402841 0.018208383666422096 0 0.01826120146577246 0.018093670530076711 0 0.01831853427565508 0.01807274683573401 0 0.01826120146577246 0.018093670530076711 0 0.01831853427565508 0.01807274683573401 0 0.018266920293508529 0.018018100448687954 0 0.01831853427565508 0.01807274683573401 0 0.018313161680009446 0.018017603883638836 0 0.018266920293508529 0.018018100448687954 0 0.01826120146577246 0.018093670530076711 0 0.018266920293508529 0.018018100448687954 0 0.018246427980320525 0.018010331476256792 0 0.017525577354291496 0.018257043571785991 0 0.017522406744986889 0.018257199879908446 0 0.017564508604704217 0.018244019935048823 0 0.017522406744986889 0.018257199879908446 0 0.018313161680009446 0.018017603883638836 0 0.018276032961494958 0.018033473763678268 0 0.018286875793006786 0.018005826977572578 0 0.018313161680009446 0.018017603883638836 0 0.018266920293508529 0.018018100448687954 0 0.018248891789607553 0.018011853114510878 0 0.017522406744986889 0.018257199879908446 0 0.017260907425226939 0.018320082248789931 0 0.018276032961494958 0.018033473763678268 0 0.018286875793006786 0.018005826977572578 0 0.0181941754286634 0.018029952195166395 0 0.018256642101370697 0.018051130986025159 0 0.01824064886780519 0.018050351340708894 0 0.018319511908924186 0.017979223561926386 0 0.017818568815918197 0.018040483760363928 0 0.017260907425226939 0.018320082248789931 0 0.017050885262825534 0.018372388874199942 0 0.017645068691773257 0.018015964415043939 0 0.018286875793006786 0.018005826977572578 0 0.018303224266092009 0.017963567380170947 0 0.0181941754286634 0.018029952195166395 0 0.018342497789256982 0.017992123201180335 0 0.018256642101370697 0.018051130986025159 0 0.018319511908924186 0.017979223561926386 0 0.018337968768926918 0.017984074366899069 0 0.018313161680009446 0.018017603883638836 0 0.018286875793006786 0.018005826977572578 0 0.018337968768926918 0.017984074366899069 0 0.018286875793006786 0.018005826977572578 0 0.018303224266092009 0.017963567380170947 0 0.017208110434346773 0.018266578843966812 0 0.017522406744986889 0.018257199879908446 0 0.017249056396670674 0.018289952863529659 0 0.017371613580738691 0.018252285845325556 0 0.017308326740112002 0.018249075181968805 0 0.017050885262825534 0.018372388874199942 0 0.014376317677839394 0.018980345223302882 0 0.018104828870765949 0.01821722215658908 0 0.018109432687520494 0.01806876422513734 0 0.017854247075609186 0.018207078324803696 0 0.015673199704975407 0.018491116246963108 0 0.015833838067312422 0.018342096114451201 0 0.015516920340205643 0.018325130575410648 0 0.017208110434346773 0.018266578843966812 0 0.017050885262825534 0.018372388874199942 0 0.017244761482320244 0.018222653879856221 0 0.016954915050568779 0.018427631808119137 0 0.017027652261849505 0.01843080564339189 0 0.017208110434346773 0.018266578843966812 0 0.017260907425226939 0.018320082248789931 0 0.017260907425226939 0.018320082248789931 0 0.017050885262825534 0.018372388874199942 0 0.018104828870765949 0.01821722215658908 0 0.018109432687520494 0.01806876422513734 0 0.018287914953799122 0.018042379427152373 0 0.016012199623084949 0.019186963268775878 0 0.014376317677839394 0.018980345223302882 0 0.010106424593594997 0.019917158905015248 0 0.010586594134386583 0.020137998494947153 0 0.010585542805311998 0.019636489064178982 0 0.016012199623084949 0.019186963268775878 0 0.016085884714075509 0.019109675016885382 0 0.010106424593594997 0.019917158905015248 0 0.010400067762338802 0.020815899594219311 0 0.010586594134386583 0.020137998494947153 0 0.018263761027035225 0.01800990706754959 0 0.018241128419842181 0.017902683962262734 0 0.018320569546752086 0.017907013887477733 0 0.018241128419842181 0.017902683962262734 0 0.018320569546752086 0.017907013887477733 0 0.018286411209747937 0.017863408674007743 0 0.018320569546752086 0.017907013887477733 0 0.018383961071279032 0.017896234385480537 0 0.018369892675207514 0.017852633596885995 0 0.018320569546752086 0.017907013887477733 0 0.018382800114161581 0.017933424774523043 0 0.018383961071279032 0.017896234385480537 0 0.018320569546752086 0.017907013887477733 0 0.018318160911792693 0.017975389986366271 0 0.018382800114161581 0.017933424774523043 0 0.018263761027035225 0.01800990706754959 0 0.018320569546752086 0.017907013887477733 0 0.018318160911792693 0.017975389986366271 0 0.016012199623084949 0.019186963268775878 0 0.0167883501303598 0.018743864650953592 0 0.018109432687520494 0.01806876422513734 0 0.018287914953799122 0.018042379427152373 0 0.018318160911792693 0.017975389986366271 0 0.017645068691773257 0.018015964415043939 0 0.017813521834317711 0.017920258609609701 0 0.018342497789256982 0.017992123201180335 0 0.018319511908924186 0.017979223561926386 0 0.018382800114161581 0.017933424774523043 0 0.018287914953799122 0.018042379427152373 0 0.018318160911792693 0.017975389986366271 0 0.018382800114161581 0.017933424774523043 0 0.018342497789256982 0.017992123201180335 0 0.018403134648960477 0.017942020942946307 0 0.018382800114161581 0.017933424774523043 0 0.018365682497341773 0.017965250924997747 0 0.018303224266092009 0.017963567380170947 0 0.018403134648960477 0.017942020942946307 0 0.018417434466043572 0.01797062031680368 0 0.018403134648960477 0.017942020942946307 0 0.018418687101724597 0.017916274275099363 0 0.017818568815918197 0.018040483760363928 0 0.017971712540043691 0.017967582719683961 0 0.018365682497341773 0.017965250924997747 0 0.018417434466043572 0.01797062031680368 0 0.018403134648960477 0.017942020942946307 0 0.018403134648960477 0.017942020942946307 0 0.018382800114161581 0.017933424774523043 0 0.018418687101724597 0.017916274275099363 0 0.026704777220074295 0.014598396832170816 0 0.026431903589231059 0.015119100179689817 0 0.026459984565289977 0.015136383956557461 0 0.023016217174238067 0.016549673822044086 0 0.024299729234163847 0.017596436448794661 0 0.026368314698163284 0.014641829855325162 0 0.026704777220074295 0.014598396832170816 0 0.026431903589231059 0.015119100179689817 0 0.018417434466043572 0.01797062031680368 0 0.018464137688571386 0.017897730701668012 0 0.018418687101724597 0.017916274275099363 0 0.024846148742851362 0.015997940739964293 0 0.024416414995676906 0.017563229669701749 0 0.0248094118177986 0.017423970545207296 0 0.024720700501469097 0.017371179252236264 0 0.024783269105188133 0.017247121521342012 0 0.024416414995676906 0.017563229669701749 0 0.024299729234163847 0.017596436448794661 0 0.02495323245608852 0.022967681234699142 0 0.025003249446386454 0.022866655729420836 0 0.024522033109847203 0.022241146068648788 0 0.024299729234163847 0.017596436448794661 0 0.024395441544860761 0.017764798561423913 0 0.024416414995676906 0.017563229669701749 0 0.024395441544860761 0.017764798561423913 0 0.018464137688571386 0.017897730701668012 0 0.018383961071279032 0.017896234385480537 0 0.018369892675207514 0.017852633596885995 0 0.018464137688571386 0.017897730701668012 0 0.018418687101724597 0.017916274275099363 0 0.018383961071279032 0.017896234385480537 0 0.024299729234163847 0.017596436448794661 0 0.021823348006343016 0.018994583699332136 0 0.018382800114161581 0.017933424774523043 0 0.018418687101724597 0.017916274275099363 0 0.018383961071279032 0.017896234385480537 0 0.02495323245608852 0.022967681234699142 0 0.023723459181717161 0.022246894385261198 0 0.024522033109847203 0.022241146068648788 0 0.023723459181717161 0.022246894385261198 0 0.024080084597299725 0.021654515771260895 0 0.023171726564867108 0.021540773088199704 0 0.023723459181717161 0.022246894385261198 0 0.024522033109847203 0.022241146068648788 0 0.024080084597299725 0.021654515771260895 0 0.025810193016137361 0.018145525829559254 0 0.025958617254048483 0.017881943108902894 0 0.025735846196721243 0.018535639648082365 0 0.025003249446386454 0.022866655729420836 0 0.024522033109847203 0.022241146068648788 0 0.024825669885778223 0.021461241651214026 0 0.024395441544860761 0.017764798561423913 0 0.024833434135510236 0.019493099444616684 0 0.024522033109847203 0.022241146068648788 0 0.024825669885778223 0.021461241651214026 0 0.024080084597299725 0.021654515771260895 0 0.024825669885778223 0.021461241651214026 0 0.024080084597299725 0.021654515771260895 0 0.02391000190570574 0.020816990340922593 0 0.024080084597299725 0.021654515771260895 0 0.023171726564867108 0.021540773088199704 0 0.02391000190570574 0.020816990340922593 0 0.023171726564867108 0.021540773088199704 0 0.022903920240313073 0.020820989139247872 0 0.02391000190570574 0.020816990340922593 0 0.023723459181717161 0.022246894385261198 0 0.023171726564867108 0.021540773088199704 0 0.022504809076943518 0.021529450276357182 0 0.022564148577949146 0.021585737640209365 0 0.02219137221050526 0.02105468427381205 0 0.022903920240313073 0.020820989139247872 0 0.022564148577949146 0.021585737640209365 0 0.021790933687566589 0.021608853682642318 0 0.02219137221050526 0.02105468427381205 0 0.023171726564867108 0.021540773088199704 0 0.022564148577949146 0.021585737640209365 0 0.022903920240313073 0.020820989139247872 0 0.020297111206361865 0.019877430824937044 0 0.017938883788950206 0.020139779400671565 0 0.020924682258837656 0.01999655661903163 0 0.020297111206361865 0.019877430824937044 0 0.018241128419842181 0.017902683962262734 0 0.018286411209747937 0.017863408674007743 0 0.018213668682256535 0.017817159843223886 0 0.018273643225001308 0.017814491043122278 0 0.018286411209747937 0.017863408674007743 0 0.018213668682256535 0.017817159843223886 0 0.018320569546752086 0.017907013887477733 0 0.018369892675207514 0.017852633596885995 0 0.018286411209747937 0.017863408674007743 0 0.021823348006343016 0.018994583699332136 0 0.020297111206361865 0.019877430824937044 0 0.018369892675207514 0.017852633596885995 0 0.018273643225001308 0.017814491043122278 0 0.018286411209747937 0.017863408674007743 0 0.011080986802926135 0.02114055364289593 0 0.010707251433108031 0.021758218649613959 0 0.01143196554953139 0.021810096643526518 0 0.011080986802926135 0.02114055364289593 0 0.01143196554953139 0.021810096643526518 0 0.01157384578119908 0.021180297405307434 0 0.010400067762338802 0.020815899594219311 0 0.011080986802926135 0.02114055364289593 0 0.010707251433108031 0.021758218649613959 0 0.016085884714075509 0.019109675016885382 0 0.017938883788950206 0.020139779400671565 0 0.017938883788950206 0.020139779400671565 0 0.015867366556909027 0.021122256790359634 0 0.021183430155992746 0.023429053060748169 0 0.019041028958580647 0.023365943499007596 0 0.020516509840800393 0.021425593906661447 0 0.015867366556909027 0.021122256790359634 0 0.014927886643906773 0.021553268978877015 0 0.01143196554953139 0.021810096643526518 0 0.012225032248608497 0.021914478691250662 0 0.01157384578119908 0.021180297405307434 0 0.019041028958580647 0.023365943499007596 0 0.016524067348102616 0.02310650173789304 0 0.017152882496073031 0.021650984526902412 0 0.016524067348102616 0.02310650173789304 0 0.013675477248429891 0.021971024279185049 0 0.015416460339520571 0.0212833442937338 0 0.014927886643906773 0.021553268978877015 0 0.014587778780991075 0.021647580086548161 0 0.012225032248608497 0.021914478691250662 0 0.012145831586130307 0.020943877506121627 0 0.012843712105526067 0.02128422975758942 0 0.012225032248608497 0.021914478691250662 0 0.01157384578119908 0.021180297405307434 0 0.012145831586130307 0.020943877506121627 0 0.01157384578119908 0.021180297405307434 0 0.011515569479978078 0.020565926182915722 0 0.012145831586130307 0.020943877506121627 0 0.011515569479978078 0.020565926182915722 0 0.012145831586130307 0.020943877506121627 0 0.012128169493429139 0.020234960244318149 0 0.012145831586130307 0.020943877506121627 0 0.012622059557483955 0.020760269319622129 0 0.012843712105526067 0.02128422975758942 0 0.012145831586130307 0.020943877506121627 0 0.012128169493429139 0.020234960244318149 0 0.012622059557483955 0.020760269319622129 0 0.012128169493429139 0.020234960244318149 0 0.011616072608160485 0.020048684330142827 0 0.011905014738378402 0.019736565314689366 0 0.011515569479978078 0.020565926182915722 0 0.012128169493429139 0.020234960244318149 0 0.011616072608160485 0.020048684330142827 0 0.011515569479978078 0.020565926182915722 0 0.011616072608160485 0.020048684330142827 0 0.011245056371178851 0.020096637058754391 0 0.011515569479978078 0.020565926182915722 0 0.011245056371178851 0.020096637058754391 0 0.01092861010600977 0.020372934974579645 0 0.011245056371178851 0.020096637058754391 0 0.01092861010600977 0.020372934974579645 0 0.010907616137132242 0.019956893950754458 0 0.011080986802926135 0.02114055364289593 0 0.01157384578119908 0.021180297405307434 0 0.011515569479978078 0.020565926182915722 0 0.011080986802926135 0.02114055364289593 0 0.011515569479978078 0.020565926182915722 0 0.01092861010600977 0.020372934974579645 0 0.010400067762338802 0.020815899594219311 0 0.011080986802926135 0.02114055364289593 0 0.01092861010600977 0.020372934974579645 0 0.010400067762338802 0.020815899594219311 0 0.01092861010600977 0.020372934974579645 0 0.010586594134386583 0.020137998494947153 0 0.01092861010600977 0.020372934974579645 0 0.010586594134386583 0.020137998494947153 0 0.010907616137132242 0.019956893950754458 0 0.014376317677839394 0.018980345223302882 0 0.011931106301385204 0.019206775588127514 0 0.010586594134386583 0.020137998494947153 0 0.010907616137132242 0.019956893950754458 0 0.010585542805311998 0.019636489064178982 0 0.010907616137132242 0.019956893950754458 0 0.010585542805311998 0.019636489064178982 0 0.011268267673310732 0.019680714027306503 0 0.0092527883240612358 0.019462360085793513 0 0.010149673005682711 0.019511835564953679 0 0.010016708028341204 0.018991309197990906 0 0.011616072608160485 0.020048684330142827 0 0.011245056371178851 0.020096637058754391 0 0.011268267673310732 0.019680714027306503 0 0.011245056371178851 0.020096637058754391 0 0.010907616137132242 0.019956893950754458 0 0.011268267673310732 0.019680714027306503 0 0.015125257747931706 0.018547694682043796 0 0.01519234407081148 0.018633857841863798 0 0.014734395241504814 0.018764534384039497 0 0.016136082528230199 0.018278002295214753 0 0.014709647541931945 0.018354047767228297 0 0.017539143006453865 0.018073063857940878 0 0.017256812675673392 0.018272113965774828 0 0.0171101429742587 0.018189327667870299 0 0.013750282819527086 0.018966798514534033 0 0.014709647541931945 0.018354047767228297 0 0.010149673005682711 0.019511835564953679 0 0.010016708028341204 0.018991309197990906 0 0.010643950728225151 0.019104083399456479 0 0.017539143006453865 0.018073063857940878 0 0.017673057336998855 0.018118878244938557 0 0.017420066924130225 0.01829503006291255 0 0.017931905486040487 0.017959065139838009 0 0.017539143006453865 0.018073063857940878 0 0.017673057336998855 0.018118878244938557 0 0.017208110434346773 0.018266578843966812 0 0.016136082528230199 0.018278002295214753 0 0.014376317677839394 0.018980345223302882 0 0.013750282819527086 0.018966798514534033 0 0.015673199704975407 0.018491116246963108 0 0.015516920340205643 0.018325130575410648 0 0.01519234407081148 0.018633857841863798 0 0.015516920340205643 0.018325130575410648 0 0.015125257747931706 0.018547694682043796 0 0.01519234407081148 0.018633857841863798 0 0.017208110434346773 0.018266578843966812 0 0.017436174036310099 0.018161714081528474 0 0.017902323399477976 0.018186466789869918 0 0.017734113788440208 0.01820973303561076 0 0.017819635946528817 0.018257135734130191 0 0.017208110434346773 0.018266578843966812 0 0.017420305172732155 0.018181287712694789 0 0.017902323399477976 0.018186466789869918 0 0.017956682961077001 0.01804995778529055 0 0.017734113788440208 0.01820973303561076 0 0.01789745667120575 0.017983523007718116 0 0.017664127832890592 0.018135388682381653 0 0.017690258918212895 0.018187064914827102 0 0.017902323399477976 0.018186466789869918 0 0.017819635946528817 0.018257135734130191 0 0.017865313718590393 0.018340152403119571 0 0.017775556579296796 0.01829230185524167 0 0.017865313718590393 0.018340152403119571 0 0.017671708821481179 0.018379646981316243 0 0.018035230502468243 0.018333662357137074 0 0.017865313718590393 0.018340152403119571 0 0.017768509968627326 0.018536863398361282 0 0.017734113788440208 0.01820973303561076 0 0.017819635946528817 0.018257135734130191 0 0.017775556579296796 0.01829230185524167 0 0.017819635946528817 0.018257135734130191 0 0.017775556579296796 0.01829230185524167 0 0.017865313718590393 0.018340152403119571 0 0.017865313718590393 0.018340152403119571 0 0.017671708821481179 0.018379646981316243 0 0.017768509968627326 0.018536863398361282 0 0.017671708821481179 0.018379646981316243 0 0.017463845755107805 0.018417288874744552 0 0.017768509968627326 0.018536863398361282 0 0.017734113788440208 0.01820973303561076 0 0.017671708821481179 0.018379646981316243 0 0.017463845755107805 0.018417288874744552 0 0.017734113788440208 0.01820973303561076 0 0.017775556579296796 0.01829230185524167 0 0.017671708821481179 0.018379646981316243 0 0.017664127832890592 0.018135388682381653 0 0.017690258918212895 0.018187064914827102 0 0.017420066924130225 0.01829503006291255 0 0.017420305172732155 0.018181287712694789 0 0.017427072727229164 0.018209355593594243 0 0.017436174036310099 0.018161714081528474 0 0.017444509324068113 0.018168538859488007 0 0.017463845755107805 0.018417288874744552 0 0.017768509968627326 0.018536863398361282 0 0.017277700349855509 0.018436039823701351 0 0.017690258918212895 0.018187064914827102 0 0.017420066924130225 0.01829503006291255 0 0.017463845755107805 0.018417288874744552 0 0.017539143006453865 0.018073063857940878 0 0.017420066924130225 0.01829503006291255 0 0.017256812675673392 0.018272113965774828 0 0.017420066924130225 0.01829503006291255 0 0.017277700349855509 0.018436039823701351 0 0.017256812675673392 0.018272113965774828 0 0.017420066924130225 0.01829503006291255 0 0.017463845755107805 0.018417288874744552 0 0.017277700349855509 0.018436039823701351 0 0.017911720076123142 0.016274082745683066 0 0.016553667982377247 0.017084965571484458 0 0.01647786934921576 0.016240991072841784 0 0.016772751707700307 0.015963138122549542 0 0.016158267813257778 0.015855408794552574 0 0.016789077084804795 0.016191521439041286 0 0.01647786934921576 0.016240991072841784 0 0.016772751707700307 0.015963138122549542 0 0.015661528257963013 0.016508915685284037 0 0.015328412644852503 0.016309303234290289 0 0.014694830650943526 0.01679298576749132 0 0.015328412644852503 0.016309303234290289 0 0.014694830650943526 0.01679298576749132 0 0.014603523858991585 0.016566381794521239 0 0.015661528257963013 0.016508915685284037 0 0.015328412644852503 0.016309303234290289 0 0.016158267813257778 0.015855408794552574 0 0.015661528257963013 0.016508915685284037 0 0.01647786934921576 0.016240991072841784 0 0.016158267813257778 0.015855408794552574 0 0.015328412644852503 0.016309303234290289 0 0.016158267813257778 0.015855408794552574 0 0.015028029385313868 0.015707662550123725 0 0.016553667982377247 0.017084965571484458 0 0.01474509784668521 0.0177613463196611 0 0.017277700349855509 0.018436039823701351 0 0.01701734350061071 0.018239473949199024 0 0.016744215332418936 0.018299982079337942 0 0.017277700349855509 0.018436039823701351 0 0.017256812675673392 0.018272113965774828 0 0.01701734350061071 0.018239473949199024 0 0.017256812675673392 0.018272113965774828 0 0.0171101429742587 0.018189327667870299 0 0.01701734350061071 0.018239473949199024 0 0.014709647541931945 0.018354047767228297 0 0.014781407915941992 0.018323501918846449 0 0.017108484499935579 0.01818545901516946 0 0.01701734350061071 0.018239473949199024 0 0.016744215332418936 0.018299982079337942 0 0.014709647541931945 0.018354047767228297 0 0.01474509784668521 0.0177613463196611 0 0.015328412644852503 0.016309303234290289 0 0.015028029385313868 0.015707662550123725 0 0.014603523858991585 0.016566381794521239 0 0.0117463406553132 0.018159077981990731 0 0.011623109024204856 0.018130684099165184 0 0.011914236628453747 0.018605136660363553 0 0.014706596941626836 0.017755080031727474 0 0.01474509784668521 0.0177613463196611 0 0.010844832568014181 0.018447693888790261 0 0.011623109024204856 0.018130684099165184 0 0.011359691841555565 0.018853816161817739 0 0.011623109024204856 0.018130684099165184 0 0.011914236628453747 0.018605136660363553 0 0.011359691841555565 0.018853816161817739 0 0.011914236628453747 0.018605136660363553 0 0.011359691841555565 0.018853816161817739 0 0.011835293417028346 0.019142590931388658 0 0.011359691841555565 0.018853816161817739 0 0.011835293417028346 0.019142590931388658 0 0.011130821423596223 0.019608983917838396 0 0.010016708028341204 0.018991309197990906 0 0.010844832568014181 0.018447693888790261 0 0.010643950728225151 0.019104083399456479 0 0.010844832568014181 0.018447693888790261 0 0.011359691841555565 0.018853816161817739 0 0.010643950728225151 0.019104083399456479 0 0.011359691841555565 0.018853816161817739 0 0.010643950728225151 0.019104083399456479 0 0.011130821423596223 0.019608983917838396 0 0.010149673005682711 0.019511835564953679 0 0.010643950728225151 0.019104083399456479 0 0.011130821423596223 0.019608983917838396 0 0.011616072608160485 0.020048684330142827 0 0.011268267673310732 0.019680714027306503 0 0.011905014738378402 0.019736565314689366 0 0.011931106301385204 0.019206775588127514 0 0.011739356977094885 0.019365724191543421 0 0.011835293417028346 0.019142590931388658 0 0.011130821423596223 0.019608983917838396 0 0.012324810409653541 0.0197034855148123 0 0.012128169493429139 0.020234960244318149 0 0.011905014738378402 0.019736565314689366 0 0.012324810409653541 0.0197034855148123 0 0.011739356977094885 0.019365724191543421 0 0.011910462791612194 0.019423623004949042 0 0.012324810409653541 0.0197034855148123 0 0.012741644302996513 0.019404172689422215 0 0.012784856513992434 0.020213787596600533 0 0.012324810409653541 0.0197034855148123 0 0.012741644302996513 0.019404172689422215 0 0.01241166096882579 0.018976457761257115 0 0.012741644302996513 0.019404172689422215 0 0.013010113156074213 0.019370721835976278 0 0.012784856513992434 0.020213787596600533 0 0.012741644302996513 0.019404172689422215 0 0.013118340542240538 0.018461152128504334 0 0.013010113156074213 0.019370721835976278 0 0.012741644302996513 0.019404172689422215 0 0.013118340542240538 0.018461152128504334 0 0.01241166096882579 0.018976457761257115 0 0.011835293417028346 0.019142590931388658 0 0.012324810409653541 0.0197034855148123 0 0.01241166096882579 0.018976457761257115 0 0.011914236628453747 0.018605136660363553 0 0.011835293417028346 0.019142590931388658 0 0.01241166096882579 0.018976457761257115 0 0.013118340542240538 0.018461152128504334 0 0.01241166096882579 0.018976457761257115 0 0.012497614027223884 0.018368682683342755 0 0.011914236628453747 0.018605136660363553 0 0.01241166096882579 0.018976457761257115 0 0.012497614027223884 0.018368682683342755 0 0.0117463406553132 0.018159077981990731 0 0.011914236628453747 0.018605136660363553 0 0.012497614027223884 0.018368682683342755 0 0.0117463406553132 0.018159077981990731 0 0.012497614027223884 0.018368682683342755 0 0.013362114727299125 0.017364473394346238 0 0.01474509784668521 0.0177613463196611 0 0.014118776718078983 0.017716313188501025 0 0.015028029385313868 0.015707662550123725 0 0.013362114727299125 0.017364473394346238 0 0.014603523858991585 0.016566381794521239 0 0.0117463406553132 0.018159077981990731 0 0.011546479793868454 0.018117570146990329 0 0.013362114727299125 0.017364473394346238 0 0.013118340542240538 0.018461152128504334 0 0.013362114727299125 0.017364473394346238 0 0.013431102806336359 0.017663311455246501 0 0.013118340542240538 0.018461152128504334 0 0.012497614027223884 0.018368682683342755 0 0.013362114727299125 0.017364473394346238 0 0.013940581021981722 0.017225955815437077 0 0.013362114727299125 0.017364473394346238 0 0.013431102806336359 0.017663311455246501 0 0.013587052708730176 0.017591378800684697 0 0.013940581021981722 0.017225955815437077 0 0.013431102806336359 0.017663311455246501 0 0.013362114727299125 0.017364473394346238 0 0.014694830650943526 0.01679298576749132 0 0.014603523858991585 0.016566381794521239 0 0.013940581021981722 0.017225955815437077 0 0.013362114727299125 0.017364473394346238 0 0.014694830650943526 0.01679298576749132 0 0.013397217860930904 0.018099377057393166 0 0.013443112093461679 0.01785845141584751 0 0.013334855115045816 0.018347589607002755 0 0.013530705060038103 0.017726825007993188 0 0.013397217860930904 0.018099377057393166 0 0.013443112093461679 0.01785845141584751 0 0.013443112093461679 0.01785845141584751 0 0.013431102806336359 0.017663311455246501 0 0.013334855115045816 0.018347589607002755 0 0.013587052708730176 0.017591378800684697 0 0.013443112093461679 0.01785845141584751 0 0.013431102806336359 0.017663311455246501 0 0.013118340542240538 0.018461152128504334 0 0.013431102806336359 0.017663311455246501 0 0.013334855115045816 0.018347589607002755 0 0.013397217860930904 0.018099377057393166 0 0.013334855115045816 0.018347589607002755 0 0.013242530570626443 0.01872824160935161 0 0.013334855115045816 0.018347589607002755 0 0.013032284590625163 0.019445328355082891 0 0.013242530570626443 0.01872824160935161 0 0.013334855115045816 0.018347589607002755 0 0.013010113156074213 0.019370721835976278 0 0.013032284590625163 0.019445328355082891 0 0.013118340542240538 0.018461152128504334 0 0.013334855115045816 0.018347589607002755 0 0.013010113156074213 0.019370721835976278 0 0.013010113156074213 0.019370721835976278 0 0.013032284590625163 0.019445328355082891 0 0.012847506612293716 0.020277136500690494 0 0.013032284590625163 0.019445328355082891 0 0.012847506612293716 0.020277136500690494 0 0.012566966094449383 0.020349707832027542 0 0.011901612500251159 0.02094764684544043 0 0.012566966094449383 0.020349707832027542 0 0.012134565513758936 0.021119601343986823 0 0.012847506612293716 0.020277136500690494 0 0.011901612500251159 0.02094764684544043 0 0.012566966094449383 0.020349707832027542 0 0.012847506612293716 0.020277136500690494 0 0.013166440598758706 0.021128790102148493 0 0.013278156416992853 0.021177396837926351 0 0.012491863859996823 0.02100674626644225 0 0.012417710966443429 0.021219624419081488 0 0.013010113156074213 0.019370721835976278 0 0.012847506612293716 0.020277136500690494 0 0.012784856513992434 0.020213787596600533 0 0.012128169493429139 0.020234960244318149 0 0.012324810409653541 0.0197034855148123 0 0.012784856513992434 0.020213787596600533 0 0.012128169493429139 0.020234960244318149 0 0.012784856513992434 0.020213787596600533 0 0.012622059557483955 0.020760269319622129 0 0.012784856513992434 0.020213787596600533 0 0.012622059557483955 0.020760269319622129 0 0.013166440598758706 0.021128790102148493 0 0.012847506612293716 0.020277136500690494 0 0.012784856513992434 0.020213787596600533 0 0.013166440598758706 0.021128790102148493 0 0.013166440598758706 0.021128790102148493 0 0.012843712105526067 0.02128422975758942 0 0.013675477248429891 0.021971024279185049 0 0.012622059557483955 0.020760269319622129 0 0.013166440598758706 0.021128790102148493 0 0.012843712105526067 0.02128422975758942 0 0.012225032248608497 0.021914478691250662 0 0.012843712105526067 0.02128422975758942 0 0.013675477248429891 0.021971024279185049 0 0.013675477248429891 0.021971024279185049 0 0.013374941928998825 0.02146366286532422 0 0.014133552412863947 0.02112992109128034 0 0.013166440598758706 0.021128790102148493 0 0.013675477248429891 0.021971024279185049 0 0.013374941928998825 0.02146366286532422 0 0.013374941928998825 0.02146366286532422 0 0.012938767315444577 0.021278679283305534 0 0.013278156416992853 0.021177396837926351 0 0.012241878952869354 0.02145377593347331 0 0.012417710966443429 0.021219624419081488 0 0.011371679058476447 0.021746248123996066 0 0.011901612500251159 0.02094764684544043 0 0.012134565513758936 0.021119601343986823 0 0.013166440598758706 0.021128790102148493 0 0.013374941928998825 0.02146366286532422 0 0.013278156416992853 0.021177396837926351 0 0.013235728722166199 0.020015040653869852 0 0.012423287146192421 0.020118419803840368 0 0.013176031949087699 0.020776743645883954 0 0.013235728722166199 0.020015040653869852 0 0.013176031949087699 0.020776743645883954 0 0.013732769129213673 0.020573543588500842 0 0.012241878952869354 0.02145377593347331 0 0.01211450724310037 0.021615352973231521 0 0.012938767315444577 0.021278679283305534 0 0.012423287146192421 0.020118419803840368 0 0.013176031949087699 0.020776743645883954 0 0.011371679058476447 0.021746248123996066 0 0.010884661709828302 0.022731858521615959 0 0.011724946666551867 0.02238277087577956 0 0.013374941928998825 0.02146366286532422 0 0.012938767315444577 0.021278679283305534 0 0.013176031949087699 0.020776743645883954 0 0.013374941928998825 0.02146366286532422 0 0.013176031949087699 0.020776743645883954 0 0.013732769129213673 0.020573543588500842 0 0.013374941928998825 0.02146366286532422 0 0.014133552412863947 0.02112992109128034 0 0.013732769129213673 0.020573543588500842 0 0.014133552412863947 0.02112992109128034 0 0.015002240019035494 0.019893357115296169 0 0.015416460339520571 0.0212833442937338 0 0.013675477248429891 0.021971024279185049 0 0.014133552412863947 0.02112992109128034 0 0.015416460339520571 0.0212833442937338 0 0.014133552412863947 0.02112992109128034 0 0.015002240019035494 0.019893357115296169 0 0.013732769129213673 0.020573543588500842 0 0.015002240019035494 0.019893357115296169 0 0.013732769129213673 0.020573543588500842 0 0.014021230666606134 0.019572349174103054 0 0.013235728722166199 0.020015040653869852 0 0.013732769129213673 0.020573543588500842 0 0.014021230666606134 0.019572349174103054 0 0.014021230666606134 0.019572349174103054 0 0.014525419460558473 0.018595921579996462 0 0.013076746450131002 0.019220391447986485 0 0.014811287316054522 0.019094808840517733 0 0.014087760043374002 0.019149534483561902 0 0.014525419460558473 0.018595921579996462 0 0.015543364197320334 0.018972644746750984 0 0.016657444176907329 0.018110036841955363 0 0.015002240019035494 0.019893357115296169 0 0.014790997876659502 0.019241255908447462 0 0.015543364197320334 0.018972644746750984 0 0.014021230666606134 0.019572349174103054 0 0.014790997876659502 0.019241255908447462 0 0.014525419460558473 0.018595921579996462 0 0.015002240019035494 0.019893357115296169 0 0.014021230666606134 0.019572349174103054 0 0.014790997876659502 0.019241255908447462 0 0.014790997876659502 0.019241255908447462 0 0.014525419460558473 0.018595921579996462 0 0.015543364197320334 0.018972644746750984 0 0.014811287316054522 0.019094808840517733 0 0.016373191013863701 0.019086207974781385 0 0.014217419340890542 0.019161018277577282 0 0.01429059476265444 0.018769870313819284 0 0.014858048076348288 0.018711606659715326 0 0.015299931078640626 0.021127275739018347 0 0.015075051036957568 0.021844870425812776 0 0.01429059476265444 0.018769870313819284 0 0.01471221701873014 0.018191712616141966 0 0.014858048076348288 0.018711606659715326 0 0.014217419340890542 0.019161018277577282 0 0.013596651475727872 0.018824313067516522 0 0.013076746450131002 0.019220391447986485 0 0.01429059476265444 0.018769870313819284 0 0.013596651475727872 0.018824313067516522 0 0.013384562108218674 0.017946800710442298 0 0.014217419340890542 0.019161018277577282 0 0.01429059476265444 0.018769870313819284 0 0.013596651475727872 0.018824313067516522 0 0.012887804504583395 0.018512324313020946 0 0.013076746450131002 0.019220391447986485 0 0.012264953402689132 0.018840924305417929 0 0.013596651475727872 0.018824313067516522 0 0.012887804504583395 0.018512324313020946 0 0.013384562108218674 0.017946800710442298 0 0.013596651475727872 0.018824313067516522 0 0.012887804504583395 0.018512324313020946 0 0.013076746450131002 0.019220391447986485 0 0.013235728722166199 0.020015040653869852 0 0.014021230666606134 0.019572349174103054 0 0.013076746450131002 0.019220391447986485 0 0.013235728722166199 0.020015040653869852 0 0.012423287146192421 0.020118419803840368 0 0.013076746450131002 0.019220391447986485 0 0.01211450724310037 0.021615352973231521 0 0.012268362820804313 0.022038778614657122 0 0.012423287146192421 0.020118419803840368 0 0.013076746450131002 0.019220391447986485 0 0.012264953402689132 0.018840924305417929 0 0.010884661709828302 0.022731858521615959 0 0.010531173872495796 0.024565615884588141 0 0.011252595525197997 0.023474070971480462 0 0.012268362820804313 0.022038778614657122 0 0.013056133863930315 0.023667975951880051 0 0.010531173872495796 0.024565615884588141 0 0.010707544941109348 0.026261842896750605 0 0.010905517377511371 0.025645853978718595 0 0.012887804504583395 0.018512324313020946 0 0.012264953402689132 0.018840924305417929 0 0.01213376243712605 0.017727934207837335 0 0.013802774047157348 0.02273989443694803 0 0.013056133863930315 0.023667975951880051 0 0.012887804504583395 0.018512324313020946 0 0.013384562108218674 0.017946800710442298 0 0.01213376243712605 0.017727934207837335 0 0.014018608015899521 0.027655933007902877 0 0.012903305211252976 0.026548943579995578 0 0.013724765180838506 0.026203623523754063 0 0.014018608015899521 0.027655933007902877 0 0.012413943435148844 0.027423109951962 0 0.012903305211252976 0.026548943579995578 0 0.012413943435148844 0.027423109951962 0 0.012903305211252976 0.026548943579995578 0 0.012110820684262062 0.025726437244481752 0 0.013056133863930315 0.023667975951880051 0 0.012903406168169854 0.025200554272533666 0 0.012903305211252976 0.026548943579995578 0 0.013023790606283725 0.025784085420297188 0 0.012110820684262062 0.025726437244481752 0 0.012903305211252976 0.026548943579995578 0 0.013023790606283725 0.025784085420297188 0 0.013724765180838506 0.026203623523754063 0 0.013023790606283725 0.025784085420297188 0 0.013724765180838506 0.026203623523754063 0 0.013737139459041686 0.025522191595087711 0 0.013737139459041686 0.025522191595087711 0 0.012894020745609896 0.024999772764539813 0 0.014392219761528619 0.024999986376040416 0 0.013023790606283725 0.025784085420297188 0 0.012894020745609896 0.024999772764539813 0 0.012110820684262062 0.025726437244481752 0 0.013023790606283725 0.025784085420297188 0 0.013737139459041686 0.025522191595087711 0 0.012894020745609896 0.024999772764539813 0 0.015280150306814651 0.0251510395779849 0 0.014392219761528619 0.024999986376040416 0 0.015889941085640038 0.024999986230522114 0 0.015451954700627423 0.025739020883495192 0 0.015280150306814651 0.0251510395779849 0 0.014678251845482007 0.025695740983803724 0 0.015451954700627423 0.025739020883495192 0 0.015280150306814651 0.0251510395779849 0 0.016046626264420272 0.025534558809427305 0 0.013737139459041686 0.025522191595087711 0 0.014392219761528619 0.024999986376040416 0 0.014678251845482007 0.025695740983803724 0 0.015280150306814651 0.0251510395779849 0 0.014392219761528619 0.024999986376040416 0 0.014678251845482007 0.025695740983803724 0 0.013724765180838506 0.026203623523754063 0 0.013737139459041686 0.025522191595087711 0 0.014678251845482007 0.025695740983803724 0 0.013724765180838506 0.026203623523754063 0 0.014678251845482007 0.025695740983803724 0 0.014524636823744457 0.026584234762022884 0 0.014678251845482007 0.025695740983803724 0 0.015269173192988122 0.026380271610801916 0 0.014524636823744457 0.026584234762022884 0 0.015451954700627423 0.025739020883495192 0 0.014678251845482007 0.025695740983803724 0 0.015269173192988122 0.026380271610801916 0 0.015451954700627423 0.025739020883495192 0 0.015269173192988122 0.026380271610801916 0 0.015952836915919904 0.026164119183378597 0 0.015269173192988122 0.026380271610801916 0 0.015083812792712564 0.027076945988599759 0 0.01616269214883741 0.026909587074668846 0 0.015083812792712564 0.027076945988599759 0 0.015504797470264267 0.027894693888828079 0 0.01616269214883741 0.026909587074668846 0 0.015269173192988122 0.026380271610801916 0 0.015083812792712564 0.027076945988599759 0 0.014524636823744457 0.026584234762022884 0 0.014018608015899521 0.027655933007902877 0 0.015083812792712564 0.027076945988599759 0 0.014524636823744457 0.026584234762022884 0 0.014018608015899521 0.027655933007902877 0 0.013724765180838506 0.026203623523754063 0 0.014524636823744457 0.026584234762022884 0 0.013802774047157348 0.02273989443694803 0 0.015075051036957568 0.021844870425812776 0 0.01429059476265444 0.018769870313819284 0 0.013384562108218674 0.017946800710442298 0 0.014683720135521605 0.018195618988858814 0 0.014018608015899521 0.027655933007902877 0 0.015083812792712564 0.027076945988599759 0 0.015504797470264267 0.027894693888828079 0 0.015075051036957568 0.021844870425812776 0 0.015746632001900428 0.023645083090203689 0 0.016332108066198781 0.022136209729244516 0 0.016157673658950933 0.02210238201109431 0 0.016217336865458225 0.022313442786069143 0 0.015075051036957568 0.021844870425812776 0 0.015589412031427764 0.02119635074757387 0 0.01471221701873014 0.018191712616141966 0 0.015620366055547938 0.018388548328854736 0 0.014858048076348288 0.018711606659715326 0 0.016157673658950933 0.02210238201109431 0 0.016098721191028387 0.022220993478674643 0 0.015980140851219651 0.022066737332231589 0 0.016157673658950933 0.02210238201109431 0 0.016098721191028387 0.022220993478674643 0 0.016217336865458225 0.022313442786069143 0 0.016098721191028387 0.022220993478674643 0 0.016081289018290965 0.022343167751662549 0 0.015984214411839726 0.022249245260030026 0 0.016098721191028387 0.022220993478674643 0 0.016081289018290965 0.022343167751662549 0 0.016217336865458225 0.022313442786069143 0 0.015952836915919904 0.026164119183378597 0 0.016817407278547112 0.025932336364556666 0 0.016046626264420272 0.025534558809427305 0 0.01616269214883741 0.026909587074668846 0 0.015952836915919904 0.026164119183378597 0 0.016817407278547112 0.025932336364556666 0 0.015269173192988122 0.026380271610801916 0 0.01616269214883741 0.026909587074668846 0 0.015952836915919904 0.026164119183378597 0 0.015451954700627423 0.025739020883495192 0 0.015952836915919904 0.026164119183378597 0 0.016046626264420272 0.025534558809427305 0 0.015746632001900428 0.023645083090203689 0 0.016821752659216687 0.024097573400106417 0 0.016081289018290965 0.022343167751662549 0 0.016101539789396234 0.022493406247532967 0 0.015988888955052207 0.022433200902748897 0 0.016081289018290965 0.022343167751662549 0 0.016217336865458225 0.022313442786069143 0 0.016101539789396234 0.022493406247532967 0 0.016821752659216687 0.024097573400106417 0 0.017358443517463205 0.023160302550299577 0 0.016821752659216687 0.024097573400106417 0 0.016542401705762783 0.024434445040082697 0 0.016821752659216687 0.024097573400106417 0 0.017344270173968127 0.024850256731732634 0 0.015889941085640038 0.024999986230522114 0 0.016039333277595873 0.025551115178783921 0 0.017388913123925404 0.025075058267531796 0 0.015889941085640038 0.024999986230522114 0 0.017388913123925404 0.025075058267531796 0 0.017387709515141916 0.025000003014038548 0 0.016796422543817753 0.025945811572481211 0 0.016039333277595873 0.025551115178783921 0 0.017388913123925404 0.025075058267531796 0 0.016325163384785898 0.024469955119272243 0 0.016542401705762783 0.024434445040082697 0 0.015280150306814651 0.0251510395779849 0 0.015889941085640038 0.024999986230522114 0 0.016039333277595873 0.025551115178783921 0 0.01858791908388158 0.024999992571105533 0 0.017989353520345256 0.025645789292961546 0 0.017387728782998026 0.024999990380566297 0 0.01858791908388158 0.024999992571105533 0 0.017989353520345256 0.025645789292961546 0 0.018904577390580869 0.025897798976311556 0 0.017699172517538189 0.023983016622788966 0 0.017507884803631843 0.024268188140401537 0 0.017501048245866461 0.023878245565279219 0 0.017989353520345256 0.025645789292961546 0 0.017390145323858502 0.02507389969181862 0 0.017420165793551847 0.026248702740279701 0 0.017989353520345256 0.025645789292961546 0 0.017390145323858502 0.02507389969181862 0 0.017387728782998026 0.024999990380566297 0 0.017344270173968127 0.024850256731732634 0 0.017358443517463205 0.023160302550299577 0 0.017344270173968127 0.024850256731732634 0 0.017386350464379779 0.024997570579988374 0 0.017989353520345256 0.025645789292961546 0 0.017420165793551847 0.026248702740279701 0 0.018191963349379694 0.026649340577746629 0 0.017358443517463205 0.023160302550299577 0 0.01833561595133704 0.022190807581221855 0 0.018191963349379694 0.026649340577746629 0 0.018963976957396073 0.027047970122748996 0 0.018904577390580869 0.025897798976311556 0 0.017989353520345256 0.025645789292961546 0 0.018191963349379694 0.026649340577746629 0 0.018904577390580869 0.025897798976311556 0 0.01833561595133704 0.022190807581221855 0 0.02004035048725844 0.021356292670169079 0 0.01662620745643965 0.018678091635058149 0 0.016622238398078474 0.018707234201164057 0 0.016676630107807525 0.018701917878260099 0 0.016081289018290965 0.022343167751662549 0 0.015988888955052207 0.022433200902748897 0 0.015984214411839726 0.022249245260030026 0 0.017358443517463205 0.023160302550299577 0 0.016563193129890609 0.021336614798468261 0 0.016581253937241532 0.018664504670550641 0 0.01662620745643965 0.018678091635058149 0 0.016573551824028483 0.018706119652187127 0 0.01662620745643965 0.018678091635058149 0 0.016622238398078474 0.018707234201164057 0 0.016573551824028483 0.018706119652187127 0 0.016098721191028387 0.022220993478674643 0 0.015984214411839726 0.022249245260030026 0 0.015980140851219651 0.022066737332231589 0 0.016573551824028483 0.018706119652187127 0 0.016584536096090646 0.018740127697157383 0 0.016536389680004294 0.018783212733702336 0 0.016563193129890609 0.021336614798468261 0 0.015878796072663279 0.020838804035352883 0 0.016622238398078474 0.018707234201164057 0 0.016573551824028483 0.018706119652187127 0 0.016584536096090646 0.018740127697157383 0 0.016584536096090646 0.018740127697157383 0 0.016639867241679256 0.018736967632393686 0 0.016543545920818137 0.018785848068673231 0 0.016584536096090646 0.018740127697157383 0 0.016536389680004294 0.018783212733702336 0 0.016543545920818137 0.018785848068673231 0 0.016622238398078474 0.018707234201164057 0 0.016639867241679256 0.018736967632393686 0 0.016676630107807525 0.018701917878260099 0 0.019642924322359395 0.019839165574539044 0 0.02004035048725844 0.021356292670169079 0 0.016622238398078474 0.018707234201164057 0 0.016584536096090646 0.018740127697157383 0 0.016639867241679256 0.018736967632393686 0 0.021990662681266468 0.018797274332018929 0 0.022491784592334585 0.019203237829478973 0 0.022893716527145794 0.019192019036033153 0 0.022225357315109811 0.018868607087595069 0 0.021990662681266468 0.018797274332018929 0 0.022893716527145794 0.019192019036033153 0 0.022225357315109811 0.018868607087595069 0 0.021990662681266468 0.018797274332018929 0 0.021990080791481743 0.018789561969130477 0 0.021990662681266468 0.018797274332018929 0 0.021375150028400187 0.019156081660188947 0 0.022491784592334585 0.019203237829478973 0 0.021375150028400187 0.019156081660188947 0 0.022252321965656598 0.019653293669760052 0 0.022491784592334585 0.019203237829478973 0 0.021375150028400187 0.019156081660188947 0 0.022252321965656598 0.019653293669760052 0 0.021548872577397529 0.019973840226911184 0 0.020360661004205225 0.019690435960157626 0 0.020299251554757661 0.019003749554668121 0 0.01884521957094221 0.018923583761235072 0 0.021375150028400187 0.019156081660188947 0 0.020360661004205225 0.019690435960157626 0 0.021548872577397529 0.019973840226911184 0 0.021375150028400187 0.019156081660188947 0 0.020360661004205225 0.019690435960157626 0 0.020299251554757661 0.019003749554668121 0 0.021375150028400187 0.019156081660188947 0 0.020299251554757661 0.019003749554668121 0 0.020569695944140102 0.018258821960906554 0 0.018791323467480182 0.019280952651339667 0 0.018341089383099949 0.019468042068478783 0 0.020299251554757661 0.019003749554668121 0 0.020569695944140102 0.018258821960906554 0 0.01884521957094221 0.018923583761235072 0 0.021990662681266468 0.018797274332018929 0 0.021375150028400187 0.019156081660188947 0 0.020569695944140102 0.018258821960906554 0 0.01944288736083824 0.019186977631174603 0 0.018791323467480182 0.019280952651339667 0 0.016639867241679256 0.018736967632393686 0 0.016562351593946461 0.018897337856353558 0 0.016543545920818137 0.018785848068673231 0 0.019642924322359395 0.019839165574539044 0 0.018791323467480182 0.019280952651339667 0 0.015882479774534851 0.020782284239511631 0 0.015878796072663279 0.020838804035352883 0 0.016562351593946461 0.018897337856353558 0 0.016497624190590258 0.01878732502032042 0 0.016543545920818137 0.018785848068673231 0 0.016497624190590258 0.01878732502032042 0 0.016525433546085284 0.018780722499200798 0 0.016543545920818137 0.018785848068673231 0 0.015878796072663279 0.020838804035352883 0 0.015881778306298087 0.020834885893581085 0 0.018791323467480182 0.019280952651339667 0 0.016373191013863701 0.019086207974781385 0 0.015589412031427764 0.02119635074757387 0 0.015878796072663279 0.020838804035352883 0 0.015620366055547938 0.018388548328854736 0 0.016497624190590258 0.01878732502032042 0 0.01649538933908782 0.018593070668625478 0 0.016562351593946461 0.018897337856353558 0 0.016497624190590258 0.01878732502032042 0 0.015435315934267885 0.01905550912961779 0 0.015620366055547938 0.018388548328854736 0 0.016497624190590258 0.01878732502032042 0 0.015435315934267885 0.01905550912961779 0 0.015620366055547938 0.018388548328854736 0 0.014858048076348288 0.018711606659715326 0 0.015435315934267885 0.01905550912961779 0 0.014217419340890542 0.019161018277577282 0 0.014858048076348288 0.018711606659715326 0 0.015435315934267885 0.01905550912961779 0 0.015002240019035494 0.019893357115296169 0 0.015543364197320334 0.018972644746750984 0 0.016569532713004542 0.019131152125169918 0 0.015543364197320334 0.018972644746750984 0 0.016657444176907329 0.018110036841955363 0 0.016569532713004542 0.019131152125169918 0 0.018696917072732692 0.017871493562600291 0 0.016657444176907329 0.018110036841955363 0 0.01767498816492015 0.018975874953433371 0 0.016657444176907329 0.018110036841955363 0 0.016569532713004542 0.019131152125169918 0 0.01767498816492015 0.018975874953433371 0 0.016569532713004542 0.019131152125169918 0 0.01767498816492015 0.018975874953433371 0 0.016791324050770922 0.02002933259718491 0 0.018341089383099949 0.019468042068478783 0 0.017959513343102841 0.01975822497687213 0 0.020360661004205225 0.019690435960157626 0 0.01884521957094221 0.018923583761235072 0 0.018834987376887762 0.020905997436995151 0 0.01884521957094221 0.018923583761235072 0 0.018834987376887762 0.020905997436995151 0 0.016791324050770922 0.02002933259718491 0 0.015002240019035494 0.019893357115296169 0 0.016569532713004542 0.019131152125169918 0 0.016791324050770922 0.02002933259718491 0 0.015002240019035494 0.019893357115296169 0 0.016791324050770922 0.02002933259718491 0 0.015416460339520571 0.0212833442937338 0 0.016524067348102616 0.02310650173789304 0 0.015416460339520571 0.0212833442937338 0 0.017152882496073031 0.021650984526902412 0 0.016791324050770922 0.02002933259718491 0 0.015416460339520571 0.0212833442937338 0 0.017152882496073031 0.021650984526902412 0 0.018834987376887762 0.020905997436995151 0 0.016791324050770922 0.02002933259718491 0 0.017152882496073031 0.021650984526902412 0 0.019041028958580647 0.023365943499007596 0 0.018834987376887762 0.020905997436995151 0 0.017152882496073031 0.021650984526902412 0 0.019041028958580647 0.023365943499007596 0 0.018834987376887762 0.020905997436995151 0 0.020516509840800393 0.021425593906661447 0 0.017938883788950206 0.020139779400671565 0 0.019183220335988103 0.020879962494887935 0 0.021372230238475606 0.020824562603005706 0 0.022193275433992431 0.020396638062936779 0 0.02219137221050526 0.02105468427381205 0 0.021790933687566589 0.021608853682642318 0 0.021372230238475606 0.020824562603005706 0 0.02219137221050526 0.02105468427381205 0 0.022252321965656598 0.019653293669760052 0 0.022193275433992431 0.020396638062936779 0 0.021548872577397529 0.019973840226911184 0 0.021372230238475606 0.020824562603005706 0 0.022193275433992431 0.020396638062936779 0 0.021548872577397529 0.019973840226911184 0 0.020360661004205225 0.019690435960157626 0 0.018834987376887762 0.020905997436995151 0 0.020516509840800393 0.021425593906661447 0 0.019347614329105707 0.020551432723496962 0 0.019183220335988103 0.020879962494887935 0 0.020360661004205225 0.019690435960157626 0 0.021372230238475606 0.020824562603005706 0 0.021548872577397529 0.019973840226911184 0 0.023567797387718879 0.020143350264619057 0 0.022953520017564788 0.019992744894689374 0 0.023634278751289331 0.019547831559192923 0 0.022252321965656598 0.019653293669760052 0 0.022193275433992431 0.020396638062936779 0 0.022953520017564788 0.019992744894689374 0 0.022193275433992431 0.020396638062936779 0 0.022953520017564788 0.019992744894689374 0 0.022903920240313073 0.020820989139247872 0 0.022193275433992431 0.020396638062936779 0 0.02219137221050526 0.02105468427381205 0 0.022903920240313073 0.020820989139247872 0 0.023567797387718879 0.020143350264619057 0 0.022953520017564788 0.019992744894689374 0 0.022903920240313073 0.020820989139247872 0 0.023567797387718879 0.020143350264619057 0 0.022903920240313073 0.020820989139247872 0 0.02391000190570574 0.020816990340922593 0 0.023567797387718879 0.020143350264619057 0 0.02391000190570574 0.020816990340922593 0 0.024564063553336849 0.019739255333279412 0 0.025735846196721243 0.018535639648082365 0 0.024564063553336849 0.019739255333279412 0 0.025121989849869065 0.019011974815669973 0 0.024825669885778223 0.021461241651214026 0 0.02391000190570574 0.020816990340922593 0 0.024564063553336849 0.019739255333279412 0 0.024833434135510236 0.019493099444616684 0 0.024816118393292071 0.019518427517503392 0 0.024564063553336849 0.019739255333279412 0 0.024065000966937308 0.019532812440159499 0 0.024512441737145719 0.019534307228353177 0 0.024564063553336849 0.019739255333279412 0 0.024512441737145719 0.019534307228353177 0 0.025121989849869065 0.019011974815669973 0 0.024564063553336849 0.019739255333279412 0 0.023634278751289331 0.019547831559192923 0 0.024065000966937308 0.019532812440159499 0 0.023567797387718879 0.020143350264619057 0 0.024564063553336849 0.019739255333279412 0 0.023634278751289331 0.019547831559192923 0 0.023634278751289331 0.019547831559192923 0 0.024065000966937308 0.019532812440159499 0 0.023625737527546292 0.01944879323490627 0 0.024065000966937308 0.019532812440159499 0 0.02379515362845825 0.019501421741283165 0 0.023625737527546292 0.01944879323490627 0 0.024065000966937308 0.019532812440159499 0 0.02379515362845825 0.019501421741283165 0 0.024512441737145719 0.019534307228353177 0 0.023305598109778423 0.01960585557909526 0 0.023625737527546292 0.01944879323490627 0 0.023211702758621239 0.019906826988641119 0 0.02379515362845825 0.019501421741283165 0 0.023305598109778423 0.01960585557909526 0 0.023625737527546292 0.01944879323490627 0 0.02379515362845825 0.019501421741283165 0 0.023305598109778423 0.01960585557909526 0 0.023500177323407839 0.019539885539891749 0 0.023634278751289331 0.019547831559192923 0 0.023625737527546292 0.01944879323490627 0 0.023576730135029152 0.019380644495978091 0 0.023625737527546292 0.01944879323490627 0 0.023576730135029152 0.019380644495978091 0 0.023211702758621239 0.019906826988641119 0 0.023576730135029152 0.019380644495978091 0 0.023002844061189742 0.01937436434528424 0 0.022893716527145794 0.019192019036033153 0 0.023634278751289331 0.019547831559192923 0 0.023576730135029152 0.019380644495978091 0 0.023002844061189742 0.01937436434528424 0 0.022953520017564788 0.019992744894689374 0 0.023634278751289331 0.019547831559192923 0 0.023002844061189742 0.01937436434528424 0 0.022252321965656598 0.019653293669760052 0 0.022953520017564788 0.019992744894689374 0 0.023002844061189742 0.01937436434528424 0 0.022252321965656598 0.019653293669760052 0 0.023002844061189742 0.01937436434528424 0 0.022491784592334585 0.019203237829478973 0 0.023002844061189742 0.01937436434528424 0 0.022491784592334585 0.019203237829478973 0 0.022893716527145794 0.019192019036033153 0 0.022225357315109811 0.018868607087595069 0 0.022893716527145794 0.019192019036033153 0 0.022914499208865086 0.018747452721516532 0 0.022893716527145794 0.019192019036033153 0 0.02377593579592743 0.019633974978512058 0 0.022914499208865086 0.018747452721516532 0 0.023576730135029152 0.019380644495978091 0 0.022893716527145794 0.019192019036033153 0 0.02377593579592743 0.019633974978512058 0 0.023576730135029152 0.019380644495978091 0 0.02377593579592743 0.019633974978512058 0 0.023013138317511499 0.020731873714700463 0 0.02377593579592743 0.019633974978512058 0 0.02405148909708426 0.022755310477060517 0 0.023013138317511499 0.020731873714700463 0 0.02377593579592743 0.019633974978512058 0 0.025681368475326927 0.020584673420314073 0 0.02405148909708426 0.022755310477060517 0 0.02004035048725844 0.021356292670169079 0 0.020874710196251946 0.02345343653307921 0 0.02125232406865803 0.021462964366592355 0 0.02004035048725844 0.021356292670169079 0 0.018963976957396073 0.027047970122748996 0 0.018904577390580869 0.025897798976311556 0 0.019919634359031456 0.026028087373875172 0 0.019919634359031456 0.026028087373875172 0 0.019735846955943798 0.024999990857478775 0 0.020883771514952763 0.025000001236355516 0 0.018904577390580869 0.025897798976311556 0 0.019919634359031456 0.026028087373875172 0 0.019735846955943798 0.024999990857478775 0 0.01858791908388158 0.024999992571105533 0 0.018904577390580869 0.025897798976311556 0 0.019735846955943798 0.024999990857478775 0 0.021596091581055851 0.024246819713427899 0 0.020892041317134159 0.024999048568771016 0 0.021890469051948587 0.023235118073241849 0 0.021596091581055851 0.024246819713427899 0 0.020892041317134159 0.024999048568771016 0 0.022099738323143919 0.024998906879768565 0 0.020892041317134159 0.024999048568771016 0 0.022417419737058433 0.02270890054173054 0 0.021890469051948587 0.023235118073241849 0 0.02405148909708426 0.022755310477060517 0 0.020892041317134159 0.024999048568771016 0 0.022417419737058433 0.02270890054173054 0 0.020874710196251946 0.02345343653307921 0 0.020883448810593872 0.024998025371483896 0 0.02405148909708426 0.022755310477060517 0 0.022417419737058433 0.02270890054173054 0 0.023013138317511499 0.020731873714700463 0 0.022417419737058433 0.02270890054173054 0 0.022179339297440735 0.022103792915937868 0 0.021890469051948587 0.023235118073241849 0 0.021596091581055851 0.024246819713427899 0 0.021890469051948587 0.023235118073241849 0 0.021040254147326236 0.023231700022473947 0 0.022179339297440735 0.022103792915937868 0 0.021890469051948587 0.023235118073241849 0 0.021040254147326236 0.023231700022473947 0 0.022179339297440735 0.022103792915937868 0 0.022442646370514911 0.021006398631979065 0 0.023013138317511499 0.020731873714700463 0 0.022179339297440735 0.022103792915937868 0 0.022442646370514911 0.021006398631979065 0 0.021040254147326236 0.023231700022473947 0 0.022417419737058433 0.02270890054173054 0 0.022179339297440735 0.022103792915937868 0 0.023013138317511499 0.020731873714700463 0 0.023576730135029152 0.019380644495978091 0 0.023013138317511499 0.020731873714700463 0 0.023211702758621239 0.019906826988641119 0 0.022442646370514911 0.021006398631979065 0 0.023013138317511499 0.020731873714700463 0 0.023211702758621239 0.019906826988641119 0 0.022442646370514911 0.021006398631979065 0 0.023211702758621239 0.019906826988641119 0 0.022899575457064829 0.02000592964815771 0 0.023305598109778423 0.01960585557909526 0 0.023211702758621239 0.019906826988641119 0 0.022899575457064829 0.02000592964815771 0 0.022899575457064829 0.02000592964815771 0 0.022891037989253415 0.019554950827655102 0 0.022157922834692156 0.019914178833078475 0 0.023305598109778423 0.01960585557909526 0 0.022899575457064829 0.02000592964815771 0 0.022891037989253415 0.019554950827655102 0 0.023692926770081696 0.019120531192357171 0 0.023901964020625274 0.019488001987353145 0 0.023561108252474629 0.019455653195618913 0 0.022891037989253415 0.019554950827655102 0 0.023410730779019454 0.019360454609301553 0 0.023561108252474629 0.019455653195618913 0 0.023410730779019454 0.019360454609301553 0 0.023692926770081696 0.019120531192357171 0 0.023561108252474629 0.019455653195618913 0 0.023925306897784909 0.022986738467513819 0 0.023910514746902936 0.023052795321811027 0 0.023410730779019454 0.019360454609301553 0 0.023482067694268988 0.019190361061377881 0 0.023692926770081696 0.019120531192357171 0 0.022891037989253415 0.019554950827655102 0 0.023410730779019454 0.019360454609301553 0 0.023482067694268988 0.019190361061377881 0 0.022442646370514911 0.021006398631979065 0 0.022899575457064829 0.02000592964815771 0 0.022157922834692156 0.019914178833078475 0 0.023692926770081696 0.019120531192357171 0 0.024771852213407504 0.019273976604255189 0 0.024712103915152165 0.018458652894475378 0 0.023910514746902936 0.023052795321811027 0 0.024226192722237968 0.023164508501894183 0 0.023692926770081696 0.019120531192357171 0 0.024771852213407504 0.019273976604255189 0 0.02491705664143035 0.020155901767459763 0 0.023482067694268988 0.019190361061377881 0 0.023692926770081696 0.019120531192357171 0 0.024712103915152165 0.018458652894475378 0 0.022496931639910366 0.027576730608248643 0 0.023313381129345039 0.026985746489553604 0 0.022555624229777131 0.026315606937409777 0 0.023910514746902936 0.023052795321811027 0 0.022959786118778282 0.024281074551672797 0 0.022195627297312621 0.022897841602691944 0 0.022140147960939882 0.023589522776729856 0 0.022442646370514911 0.021006398631979065 0 0.022157922834692156 0.019914178833078475 0 0.021514237693116056 0.022661671894839221 0 0.021514237693116056 0.022661671894839221 0 0.022470911656307473 0.023371035083912819 0 0.022573171253730359 0.025001043506154671 0 0.022442646370514911 0.021006398631979065 0 0.021514237693116056 0.022661671894839221 0 0.022470911656307473 0.023371035083912819 0 0.022555624229777131 0.026315606937409777 0 0.023372413127523393 0.025921944885693569 0 0.022578608962762366 0.025000007151560255 0 0.023313381129345039 0.026985746489553604 0 0.022555624229777131 0.026315606937409777 0 0.023372413127523393 0.025921944885693569 0 0.023372413127523393 0.025921944885693569 0 0.023421977749307155 0.024999972912815006 0 0.022578608962762366 0.025000007151560255 0 0.022140147960939882 0.023589522776729856 0 0.02210596694871084 0.02499791320796195 0 0.022470911656307473 0.023371035083912819 0 0.022573171253730359 0.025001043506154671 0 0.022111145325254905 0.024998380097295735 0 0.022959786118778282 0.024281074551672797 0 0.022578997449781996 0.024999148616733621 0 0.021596091581055851 0.024246819713427899 0 0.021040254147326236 0.023231700022473947 0 0.022099738323143919 0.024998906879768565 0 0.02486843161345938 0.024583488130713416 0 0.024268027099487426 0.024999150578985097 0 0.025266214867524669 0.024201144009904217 0 0.02486843161345938 0.024583488130713416 0 0.024999193705019324 0.024999351829953161 0 0.024999052013278497 0.024132118643774195 0 0.024265940379870315 0.024999184191619447 0 0.024557596372745225 0.023524369568739396 0 0.02486843161345938 0.024583488130713416 0 0.024999193705019324 0.024999351829953161 0 0.024268027099487426 0.024999150578985097 0 0.024265415508875465 0.025000000854184735 0 0.023806692234905672 0.025579363575499725 0 0.024160095682902172 0.026383898178388734 0 0.023372413127523393 0.025921944885693569 0 0.023421977749307155 0.024999972912815006 0 0.023806692234905672 0.025579363575499725 0 0.023421977749307155 0.024999972912815006 0 0.024265415508875465 0.025000000854184735 0 0.023806692234905672 0.025579363575499725 0 0.023313381129345039 0.026985746489553604 0 0.023372413127523393 0.025921944885693569 0 0.024160095682902172 0.026383898178388734 0 0.023372413127523393 0.025921944885693569 0 0.023806692234905672 0.025579363575499725 0 0.024160095682902172 0.026383898178388734 0 0.02579822751790049 0.023538375786489995 0 0.024999988166651589 0.024129956859203591 0 0.025000021807592487 0.022982599151117739 0 0.02486843161345938 0.024583488130713416 0 0.025266214867524669 0.024201144009904217 0 0.024999052013278497 0.024132118643774195 0 0.024557596372745225 0.023524369568739396 0 0.024999031576393372 0.024128492794391422 0 0.02579822751790049 0.023538375786489995 0 0.025000021807592487 0.022982599151117739 0 0.025857078165509109 0.022114605655012012 0 0.024226192722237968 0.023164508501894183 0 0.024557596372745225 0.023524369568739396 0 0.024557596372745225 0.023524369568739396 0 0.025171247178379989 0.021166052740406248 0 0.024712103915152165 0.018458652894475378 0 0.025734602191806264 0.017720887043914529 0 0.025657715871184081 0.01934712788177801 0 0.024771852213407504 0.019273976604255189 0 0.025657715871184081 0.01934712788177801 0 0.02491705664143035 0.020155901767459763 0 0.024771852213407504 0.019273976604255189 0 0.024712103915152165 0.018458652894475378 0 0.025657715871184081 0.01934712788177801 0 0.025000021807592487 0.022982599151117739 0 0.025857078165509109 0.022114605655012012 0 0.0249998927765493 0.021834964104583111 0 0.025857078165509109 0.022114605655012012 0 0.025480572309916037 0.021341996282345361 0 0.025626638335466814 0.020576913897135146 0 0.0249998927765493 0.021834964104583111 0 0.025480572309916037 0.021341996282345361 0 0.025393891339287489 0.020885296907393353 0 0.025857078165509109 0.022114605655012012 0 0.0249998927765493 0.021834964104583111 0 0.025480572309916037 0.021341996282345361 0 0.0249998927765493 0.021834964104583111 0 0.025000006551538806 0.020687863785070714 0 0.025393891339287489 0.020885296907393353 0 0.025000006551538806 0.020687863785070714 0 0.025393891339287489 0.020885296907393353 0 0.025745221862021321 0.02066344468527688 0 0.025480572309916037 0.021341996282345361 0 0.025393891339287489 0.020885296907393353 0 0.025626638335466814 0.020576913897135146 0 0.025393891339287489 0.020885296907393353 0 0.025745221862021321 0.02066344468527688 0 0.025626638335466814 0.020576913897135146 0 0.02463119233475786 0.019413845050703173 0 0.024806556809774696 0.019329261003280841 0 0.024414278227571716 0.019427987286472492 0 0.025007088410914011 0.019754918939690919 0 0.024704672001033691 0.019622536478834988 0 0.025745221862021321 0.02066344468527688 0 0.025626638335466814 0.020576913897135146 0 0.02491705664143035 0.020155901767459763 0 0.02463119233475786 0.019413845050703173 0 0.024806556809774696 0.019329261003280841 0 0.024776562051504039 0.019359889959241022 0 0.025171247178379989 0.021166052740406248 0 0.025310023725276982 0.020836594284771387 0 0.025657715871184081 0.01934712788177801 0 0.025626638335466814 0.020576913897135146 0 0.02491705664143035 0.020155901767459763 0 0.024406631122033499 0.019388952738568242 0 0.024704672001033691 0.019622536478834988 0 0.023692926770081696 0.019120531192357171 0 0.023901964020625274 0.019488001987353145 0 0.024414278227571716 0.019427987286472492 0 0.023901964020625274 0.019488001987353145 0 0.024414278227571716 0.019427987286472492 0 0.024368087313821406 0.019483896725125755 0 0.022891037989253415 0.019554950827655102 0 0.023500177323407839 0.019539885539891749 0 0.023561108252474629 0.019455653195618913 0 0.023305598109778423 0.01960585557909526 0 0.022891037989253415 0.019554950827655102 0 0.023500177323407839 0.019539885539891749 0 0.023901964020625274 0.019488001987353145 0 0.023500177323407839 0.019539885539891749 0 0.023561108252474629 0.019455653195618913 0 0.023901964020625274 0.019488001987353145 0 0.023500177323407839 0.019539885539891749 0 0.024158416383094926 0.019522030991926415 0 0.02379515362845825 0.019501421741283165 0 0.023500177323407839 0.019539885539891749 0 0.024158416383094926 0.019522030991926415 0 0.024158416383094926 0.019522030991926415 0 0.024598015214437545 0.019435213029225042 0 0.024512441737145719 0.019534307228353177 0 0.02379515362845825 0.019501421741283165 0 0.024158416383094926 0.019522030991926415 0 0.024512441737145719 0.019534307228353177 0 0.02463119233475786 0.019413845050703173 0 0.024414278227571716 0.019427987286472492 0 0.024368087313821406 0.019483896725125755 0 0.023901964020625274 0.019488001987353145 0 0.024158416383094926 0.019522030991926415 0 0.024368087313821406 0.019483896725125755 0 0.024158416383094926 0.019522030991926415 0 0.024368087313821406 0.019483896725125755 0 0.024598015214437545 0.019435213029225042 0 0.02463119233475786 0.019413845050703173 0 0.024368087313821406 0.019483896725125755 0 0.024598015214437545 0.019435213029225042 0 0.02463119233475786 0.019413845050703173 0 0.024598015214437545 0.019435213029225042 0 0.024840846483366381 0.019298245962414275 0 0.024598015214437545 0.019435213029225042 0 0.024857564020519748 0.019232928199293349 0 0.024840846483366381 0.019298245962414275 0 0.024598015214437545 0.019435213029225042 0 0.024512441737145719 0.019534307228353177 0 0.024857564020519748 0.019232928199293349 0 0.024512441737145719 0.019534307228353177 0 0.025121989849869065 0.019011974815669973 0 0.024857564020519748 0.019232928199293349 0 0.025121989849869065 0.019011974815669973 0 0.024857564020519748 0.019232928199293349 0 0.025041823320881791 0.01890880337977293 0 0.024857564020519748 0.019232928199293349 0 0.025041823320881791 0.01890880337977293 0 0.024840846483366381 0.019298245962414275 0 0.025041823320881791 0.01890880337977293 0 0.025029952321645822 0.019008991862003572 0 0.024840846483366381 0.019298245962414275 0 0.025029952321645822 0.019008991862003572 0 0.024840846483366381 0.019298245962414275 0 0.024882990758923959 0.019357480800534007 0 0.02499944365103737 0.018098702727717995 0 0.025029952321645822 0.019008991862003572 0 0.024999245983058874 0.019538759228288481 0 0.025029952321645822 0.019008991862003572 0 0.024999245983058874 0.019538759228288481 0 0.024882990758923959 0.019357480800534007 0 0.025007088410914011 0.019754918939690919 0 0.024999954834873297 0.019540683449634201 0 0.024806556809774696 0.019329261003280841 0 0.024999245983058874 0.019538759228288481 0 0.024882990758923959 0.019357480800534007 0 0.025000006551538806 0.020687863785070714 0 0.025745221862021321 0.02066344468527688 0 0.024999981652895447 0.019540397422886161 0 0.024806556809774696 0.019329261003280841 0 0.024776562051504039 0.019359889959241022 0 0.024882990758923959 0.019357480800534007 0 0.02463119233475786 0.019413845050703173 0 0.024776562051504039 0.019359889959241022 0 0.024840846483366381 0.019298245962414275 0 0.024776562051504039 0.019359889959241022 0 0.024840846483366381 0.019298245962414275 0 0.024882990758923959 0.019357480800534007 0 0.0091380795112720355 0.023065852308612612 0 0.0081870299732094195 0.022797528103784975 0 0.015496769218201353 0.021586781207592481 0 0.015491886858000146 0.021511185431381499 0 0.015634357575979096 0.021016171557684052 0 0.015491886858000146 0.021511185431381499 0 0.015634357575979096 0.021016171557684052 0 0.015422126029390219 0.021309231181853822 0 0.0028470796143778973 0.024717182793654906 0 0.0020850178800840545 0.024942141268986015 0 0.0024945338897482683 0.025502494901365171 0 0.0020850178800840545 0.024942141268986015 0 0.0021089365758176475 0.024199791764586247 0 0.0013975844509573222 0.024840539146116399 0 0.0024945338897482683 0.025502494901365171 0 0.0016960845444006112 0.025527124229806485 0 0.0019633198881946856 0.025973745636527115 0 0.0020850178800840545 0.024942141268986015 0 0.0016620263424969644 0.0251661999718132 0 0.0016960845444006112 0.025527124229806485 0 0.0020850178800840545 0.024942141268986015 0 0.0024945338897482683 0.025502494901365171 0 0.0016960845444006112 0.025527124229806485 0 0.015634357575979096 0.021016171557684052 0 0.01534053202103991 0.021183473083412743 0 0.015422126029390219 0.021309231181853822 0 0.015634357575979096 0.021016171557684052 0 0.01534053202103991 0.021183473083412743 0 0.015410980398415338 0.020871391524058733 0 0.01534053202103991 0.021183473083412743 0 0.014942366450214715 0.02131696941764483 0 0.015410980398415338 0.020871391524058733 0 0.013840869377185386 0.020523914187424091 0 0.012862324101869355 0.019885046737289545 0 0.014925047385249893 0.021029576061376742 0 0.014786991060781587 0.020357964386539883 0 0.015386610613753722 0.020343387904808861 0 0.014925047385249893 0.021029576061376742 0 0.014786991060781587 0.020357964386539883 0 0.014331181689968371 0.020724256517469005 0 0.014925047385249893 0.021029576061376742 0 0.014331181689968371 0.020724256517469005 0 0.014224533945796949 0.021936801176171639 0 0.013840869377185386 0.020523914187424091 0 0.013848101828800733 0.02099545880976279 0 0.014942366450214715 0.02131696941764483 0 0.015217960361106337 0.021655071739519603 0 0.014916434935532526 0.021943474090697426 0 0.015491886858000146 0.021511185431381499 0 0.015422126029390219 0.021309231181853822 0 0.015351768736480751 0.021463196470577716 0 0.01534053202103991 0.021183473083412743 0 0.015258700874103377 0.021379712004702806 0 0.015422126029390219 0.021309231181853822 0 0.015258700874103377 0.021379712004702806 0 0.015422126029390219 0.021309231181853822 0 0.015351768736480751 0.021463196470577716 0 0.01534053202103991 0.021183473083412743 0 0.014942366450214715 0.02131696941764483 0 0.015258700874103377 0.021379712004702806 0 0.014942366450214715 0.02131696941764483 0 0.015258700874103377 0.021379712004702806 0 0.015217960361106337 0.021655071739519603 0 0.015258700874103377 0.021379712004702806 0 0.015217960361106337 0.021655071739519603 0 0.015351768736480751 0.021463196470577716 0 0.015491886858000146 0.021511185431381499 0 0.015217960361106337 0.021655071739519603 0 0.015351768736480751 0.021463196470577716 0 0.015217960361106337 0.021655071739519603 0 0.014916434935532526 0.021943474090697426 0 0.015389959136427819 0.022444921999389657 0 0.015491886858000146 0.021511185431381499 0 0.015217960361106337 0.021655071739519603 0 0.015389959136427819 0.022444921999389657 0 0.015496769218201353 0.021586781207592481 0 0.015491886858000146 0.021511185431381499 0 0.015161096299986064 0.022227351766430415 0 0.011869859519020387 0.021644037534180777 0 0.010144668638973066 0.023127355615832249 0 0.0091380795112720355 0.023065852308612612 0 0.010144668638973066 0.023127355615832249 0 0.014942366450214715 0.02131696941764483 0 0.014916434935532526 0.021943474090697426 0 0.014224533945796949 0.021936801176171639 0 0.014916434935532526 0.021943474090697426 0 0.014706706064268596 0.022559747867115197 0 0.014224533945796949 0.021936801176171639 0 0.014916434935532526 0.021943474090697426 0 0.014706706064268596 0.022559747867115197 0 0.015389959136427819 0.022444921999389657 0 0.014706706064268596 0.022559747867115197 0 0.013990695890882855 0.022704683742959531 0 0.01439606235000172 0.023355593160979571 0 0.014706706064268596 0.022559747867115197 0 0.015389959136427819 0.022444921999389657 0 0.015267363757825095 0.023233936992207459 0 0.010144668638973066 0.023127355615832249 0 0.0086743906899177624 0.025148673313985927 0 0.0032074058683048464 0.023920278475843069 0 0.0028485417206380093 0.023569852424871241 0 0.0034164380185438062 0.023390397638423696 0 0.0028485417206380093 0.023569852424871241 0 0.0027121712583170906 0.024153780244564601 0 0.0021089365758176475 0.024199791764586247 0 0.0032074058683048464 0.023920278475843069 0 0.0028485417206380093 0.023569852424871241 0 0.0027121712583170906 0.024153780244564601 0 0.0048734707190172307 0.027551623645850034 0 0.0035042289196174142 0.027932439847524991 0 0.0028470796143778973 0.024717182793654906 0 0.0027121712583170906 0.024153780244564601 0 0.0021089365758176475 0.024199791764586247 0 0.0028470796143778973 0.024717182793654906 0 0.0032074058683048464 0.023920278475843069 0 0.0027121712583170906 0.024153780244564601 0 0.0028470796143778973 0.024717182793654906 0 0.0020850178800840545 0.024942141268986015 0 0.0021089365758176475 0.024199791764586247 0 0.0051894723433095783 0.03060986832974075 0 0.0041814715788732887 0.031441349176807479 0 0.00421441280275051 0.030517969504467519 0 0.0041814715788732887 0.031441349176807479 0 0.0034916766735395995 0.030916638304909129 0 0.00421441280275051 0.030517969504467519 0 0.0034635878666616688 0.030849298407103057 0 0.0033549412272672421 0.03099701504661917 0 0.0034877903318504782 0.02967402624921717 0 0.0011930963896207107 0.02857430953266114 0 0.0014061141071600059 0.028610118929536934 0 0.001390499976356277 0.028684437075809716 0 0.0014061141071600059 0.028610118929536934 0 0.0013489131242799294 0.028344772977537833 0 0.0015058186968485308 0.0287975984217771 0 0.0013489131242799294 0.028344772977537833 0 0.0016554906563328363 0.028500493590359791 0 0.0014503909532856112 0.028977680327830109 0 0.0013489131242799294 0.028344772977537833 0 0.0014332950282236103 0.028993803513720474 0 0.0014503909532856112 0.028977680327830109 0 0.001234371873657603 0.028667246062748994 0 0.0011891008456854644 0.028723270738125698 0 0.0014061141071600059 0.028610118929536934 0 0.0014333873454683648 0.028706554026702549 0 0.001390499976356277 0.028684437075809716 0 0.0014061141071600059 0.028610118929536934 0 0.0014492490769811687 0.028716946493300772 0 0.0014333873454683648 0.028706554026702549 0 0.0011930963896207107 0.02857430953266114 0 0.0014061141071600059 0.028610118929536934 0 0.0013489131242799294 0.028344772977537833 0 0.0013489131242799294 0.028344772977537833 0 0.0016554906563328363 0.028500493590359791 0 0.0015878654419514899 0.027872031546266302 0 0.0013489131242799294 0.028344772977537833 0 0.0012377824413962511 0.028032778564425011 0 0.0015878654419514899 0.027872031546266302 0 0.0041814715788732887 0.031441349176807479 0 0.0034313316718456461 0.032001499636644726 0 0.0032150989175878113 0.032281309506032432 0 0.0033549412272672421 0.03099701504661917 0 0.0034313316718456461 0.032001499636644726 0 0.0032150989175878113 0.032281309506032432 0 0.0030225822492790729 0.030579352604238923 0 0.0030842061772709053 0.031150830843439906 0 0.0035042289196174142 0.027932439847524991 0 0.0027903655022390281 0.0280009639912587 0 0.0041814715788732887 0.031441349176807479 0 0.0034916766735395995 0.030916638304909129 0 0.0034313316718456461 0.032001499636644726 0 0.0026177527842599895 0.029305204182699864 0 0.0027903655022390281 0.0280009639912587 0 0.0011930963896207107 0.02857430953266114 0 0.0012377824413962511 0.028032778564425011 0 0.0010124680747507222 0.027814852185934186 0 0.0011930963896207107 0.02857430953266114 0 0.0013489131242799294 0.028344772977537833 0 0.0012377824413962511 0.028032778564425011 0 0.0034635878666616688 0.030849298407103057 0 0.0033549412272672421 0.03099701504661917 0 0.0034313316718456461 0.032001499636644726 0 0.00079787987563190838 0.029555558759252577 0 0.00091986433838344534 0.029067187831227123 0 0.00049272996371113771 0.029209127946494703 0 0.0011767240378387416 0.028549488212625058 0 0.0012480505634960577 0.028654413385068949 0 0.0016554906563328363 0.028500493590359791 0 0.0022390676845386848 0.028373519559084133 0 0.0014503909532856112 0.028977680327830109 0 0.00079787987563190838 0.029555558759252577 0 0.00091986433838344534 0.029067187831227123 0 0.0014503909532856112 0.028977680327830109 0 0.0016554906563328363 0.028500493590359791 0 0.0022390676845386848 0.028373519559084133 0 0.0020844962204437365 0.027869083326603639 0 0.0016554906563328363 0.028500493590359791 0 0.0020844962204437365 0.027869083326603639 0 0.0015878654419514899 0.027872031546266302 0 0.0022390676845386848 0.028373519559084133 0 0.0020844962204437365 0.027869083326603639 0 0.0028524167832171179 0.027675137808049106 0 0.0011767240378387416 0.028549488212625058 0 0.00091873491084926736 0.028145670821987847 0 0.0020844962204437365 0.027869083326603639 0 0.0019213066756978523 0.027282326572811225 0 0.0028524167832171179 0.027675137808049106 0 0.0020844962204437365 0.027869083326603639 0 0.0019213066756978523 0.027282326572811225 0 0.0015878654419514899 0.027872031546266302 0 0.0019213066756978523 0.027282326572811225 0 0.0015878654419514899 0.027872031546266302 0 0.0014633608418102813 0.027411205352129927 0 0.0019213066756978523 0.027282326572811225 0 0.0014778500066953738 0.026927255571952361 0 0.0017719713426761746 0.026602999974819602 0 0.0019213066756978523 0.027282326572811225 0 0.0023792949136650253 0.026767485204264512 0 0.0017719713426761746 0.026602999974819602 0 0.0019213066756978523 0.027282326572811225 0 0.0014633608418102813 0.027411205352129927 0 0.0014778500066953738 0.026927255571952361 0 0.0019213066756978523 0.027282326572811225 0 0.0023792949136650253 0.026767485204264512 0 0.0028524167832171179 0.027675137808049106 0 0.0020850178800840545 0.024942141268986015 0 0.0016620263424969644 0.0251661999718132 0 0.0013975844509573222 0.024840539146116399 0 0.00098659269517321294 0.027809933246165555 0 0.0010657246980337622 0.027735649880922711 0 0.0010658826639969453 0.026909914470254145 0 0.0012377824413962511 0.028032778564425011 0 0.0010124680747507222 0.027814852185934186 0 0.0010657246980337622 0.027735649880922711 0 0.0027903655022390281 0.0280009639912587 0 0.0027761052167239774 0.028007519652990524 0 0.0012377824413962511 0.028032778564425011 0 0.0013160917483034883 0.02771267889080465 0 0.0015878654419514899 0.027872031546266302 0 0.0012377824413962511 0.028032778564425011 0 0.0010657246980337622 0.027735649880922711 0 0.0013160917483034883 0.02771267889080465 0 0.0013160917483034883 0.02771267889080465 0 0.0015878654419514899 0.027872031546266302 0 0.0014633608418102813 0.027411205352129927 0 0.0010657246980337622 0.027735649880922711 0 0.0013160917483034883 0.02771267889080465 0 0.0012657346277103743 0.027509467019734536 0 0.0010657246980337622 0.027735649880922711 0 0.0012657346277103743 0.027509467019734536 0 0.0012409321916714237 0.027239494194862931 0 0.0013160917483034883 0.02771267889080465 0 0.0012657346277103743 0.027509467019734536 0 0.0014633608418102813 0.027411205352129927 0 0.0010657246980337622 0.027735649880922711 0 0.0012409321916714237 0.027239494194862931 0 0.0010658826639969453 0.026909914470254145 0 0.0012657346277103743 0.027509467019734536 0 0.0012409321916714237 0.027239494194862931 0 0.0014633608418102813 0.027411205352129927 0 0.0012409321916714237 0.027239494194862931 0 0.0014633608418102813 0.027411205352129927 0 0.0014778500066953738 0.026927255571952361 0 0.0012409321916714237 0.027239494194862931 0 0.0014778500066953738 0.026927255571952361 0 0.0010658826639969453 0.026909914470254145 0 0.0027903655022390281 0.0280009639912587 0 0.0022265005073805757 0.026732504837738251 0 0.0016620263424969644 0.0251661999718132 0 0.0013975844509573222 0.024840539146116399 0 0.0013423073709850645 0.025605104760374749 0 0.0016620263424969644 0.0251661999718132 0 0.0013423073709850645 0.025605104760374749 0 0.0016960845444006112 0.025527124229806485 0 0.0013423073709850645 0.025605104760374749 0 0.0016960845444006112 0.025527124229806485 0 0.0015429851509131808 0.025823494292143891 0 0.0016960845444006112 0.025527124229806485 0 0.0015429851509131808 0.025823494292143891 0 0.0017261227801397686 0.02579658726224511 0 0.0013423073709850645 0.025605104760374749 0 0.0015429851509131808 0.025823494292143891 0 0.0013379949852543789 0.026086452622647742 0 0.0015429851509131808 0.025823494292143891 0 0.0015305088935611958 0.025987968169865955 0 0.0016406591361520229 0.025925570078084499 0 0.0010658826639969453 0.026909914470254145 0 0.001464283352858232 0.026486876127434972 0 0.0013379949852543789 0.026086452622647742 0 0.0022265005073805757 0.026732504837738251 0 0.0020613012987711486 0.026460992805004434 0 0.001464283352858232 0.026486876127434972 0 0.0015873154474729987 0.026062346616060234 0 0.0017719713426761746 0.026602999974819602 0 0.0014778500066953738 0.026927255571952361 0 0.0010658826639969453 0.026909914470254145 0 0.001464283352858232 0.026486876127434972 0 0.0014778500066953738 0.026927255571952361 0 0.001464283352858232 0.026486876127434972 0 0.0017719713426761746 0.026602999974819602 0 0.0015873154474729987 0.026062346616060234 0 0.0018869966172521027 0.025932197471794434 0 0.0014119498467262466 0.02599023518821849 0 0.001464283352858232 0.026486876127434972 0 0.0013379949852543789 0.026086452622647742 0 0.0015873154474729987 0.026062346616060234 0 0.0015873154474729987 0.026062346616060234 0 0.0014002345045402444 0.026039242077337703 0 0.0014119498467262466 0.02599023518821849 0 0.0013379949852543789 0.026086452622647742 0 0.0015873154474729987 0.026062346616060234 0 0.0014002345045402444 0.026039242077337703 0 0.0014002345045402444 0.026039242077337703 0 0.0014654951425955118 0.026071546238170689 0 0.0014119498467262466 0.02599023518821849 0 0.0013379949852543789 0.026086452622647742 0 0.0014002345045402444 0.026039242077337703 0 0.0014654951425955118 0.026071546238170689 0 0.0013379949852543789 0.026086452622647742 0 0.0014654951425955118 0.026071546238170689 0 0.0015305088935611958 0.025987968169865955 0 0.0014654951425955118 0.026071546238170689 0 0.0015776986068748546 0.026034614840447456 0 0.0015305088935611958 0.025987968169865955 0 0.0014654951425955118 0.026071546238170689 0 0.0015776986068748546 0.026034614840447456 0 0.0015389542275754632 0.026096383667550443 0 0.0015776986068748546 0.026034614840447456 0 0.0015305088935611958 0.025987968169865955 0 0.0016406591361520229 0.025925570078084499 0 0.0015429851509131808 0.025823494292143891 0 0.0013379949852543789 0.026086452622647742 0 0.0015305088935611958 0.025987968169865955 0 0.0023792949136650253 0.026767485204264512 0 0.0020495408792134493 0.02628005508272243 0 0.002500926323419111 0.025972616186703427 0 0.0023792949136650253 0.026767485204264512 0 0.0017719713426761746 0.026602999974819602 0 0.0020495408792134493 0.02628005508272243 0 0.0015873154474729987 0.026062346616060234 0 0.0020495408792134493 0.02628005508272243 0 0.0018869966172521027 0.025932197471794434 0 0.0015873154474729987 0.026062346616060234 0 0.0017719713426761746 0.026602999974819602 0 0.0020495408792134493 0.02628005508272243 0 0.0020495408792134493 0.02628005508272243 0 0.0018869966172521027 0.025932197471794434 0 0.002500926323419111 0.025972616186703427 0 0.0015158556618852391 0.025650956054149569 0 0.002500926323419111 0.025972616186703427 0 0.0020963116578106475 0.02530456162319988 0 0.0022867225088053227 0.024375025125469942 0 0.0024203662480317073 0.024652896375926346 0 0.002500926323419111 0.025972616186703427 0 0.0020963116578106475 0.02530456162319988 0 0.0026706546187833936 0.024917457088936005 0 0.0020963116578106475 0.02530456162319988 0 0.0020830045699171719 0.024744324240457954 0 0.0026706546187833936 0.024917457088936005 0 0.0020963116578106475 0.02530456162319988 0 0.0015688062472268395 0.024984359443073464 0 0.0020830045699171719 0.024744324240457954 0 0.0022867225088053227 0.024375025125469942 0 0.0024212029426014499 0.023602795422227318 0 0.0015158556618852391 0.025650956054149569 0 0.0020963116578106475 0.02530456162319988 0 0.0015688062472268395 0.024984359443073464 0 0.0015158556618852391 0.025650956054149569 0 0.0015688062472268395 0.024984359443073464 0 0.00094765093061171862 0.0251636248613166 0 0.0015688062472268395 0.024984359443073464 0 0.0011616853643532821 0.02485672663865747 0 0.00094765093061171862 0.0251636248613166 0 0.0015688062472268395 0.024984359443073464 0 0.0011616853643532821 0.02485672663865747 0 0.0012158378791147237 0.024536727653321808 0 0.0011616853643532821 0.02485672663865747 0 0.0012158378791147237 0.024536727653321808 0 0.00091438426312805739 0.024741694199760505 0 0.001269486734187826 0.023997079945672281 0 0.0012158378791147237 0.024536727653321808 0 0.0017364129512293777 0.024287818974630136 0 0.001269486734187826 0.023997079945672281 0 0.0012158378791147237 0.024536727653321808 0 0.00084457452863721783 0.024408275803081025 0 0.0015688062472268395 0.024984359443073464 0 0.0012158378791147237 0.024536727653321808 0 0.0017364129512293777 0.024287818974630136 0 0.0015688062472268395 0.024984359443073464 0 0.0017364129512293777 0.024287818974630136 0 0.0020830045699171719 0.024744324240457954 0 0.0017364129512293777 0.024287818974630136 0 0.0020830045699171719 0.024744324240457954 0 0.0023380454695604508 0.02423238204192989 0 0.0020830045699171719 0.024744324240457954 0 0.0023380454695604508 0.02423238204192989 0 0.0026706546187833936 0.024917457088936005 0 0.0014654951425955118 0.026071546238170689 0 0.0015222999421043225 0.026154220916916666 0 0.0014119498467262466 0.02599023518821849 0 -3.2182960898884703e-05 0.024935634807924986 0 -0.00015312566337796649 0.025078353860855461 0 0.00064959358605660988 0.025339277576445704 0 0.0038441075443070216 0.02232747247226087 0 0.0024212029426014499 0.023602795422227318 0 0.0056157585232046925 0.02171369689604092 0 0.0035396054587722705 0.02125261403437622 0 0.0040156245035310499 0.023595833431520278 0 0.0032263938080253217 0.022432533635455842 0 0.0038598200910176803 0.022025993310617904 0 0.0038598200910176803 0.022025993310617904 0 0.0042399977069188478 0.022124367542440963 0 0.0035396054587722705 0.02125261403437622 0 0.0040156245035310499 0.023595833431520278 0 0.0027357951885046655 0.023206745756633129 0 0.0038441075443070216 0.02232747247226087 0 0.0042399977069188478 0.022124367542440963 0 0.0032263938080253217 0.022432533635455842 0 0.0038441075443070216 0.02232747247226087 0 0.0015222999421043225 0.026154220916916666 0 0.0015389542275754632 0.026096383667550443 0 0.001592214463477038 0.026117389340623041 0 0.0014654951425955118 0.026071546238170689 0 0.0015222999421043225 0.026154220916916666 0 0.0015389542275754632 0.026096383667550443 0 0.0015158556618852391 0.025650956054149569 0 0.00064959358605660988 0.025339277576445704 0 0.00094765093061171862 0.0251636248613166 0 -3.2182960898884703e-05 0.024935634807924986 0 0.00064959358605660988 0.025339277576445704 0 0.00094765093061171862 0.0251636248613166 0 -0.00014715438921021376 0.024909654206764734 0 0.00094765093061171862 0.0251636248613166 0 0.00047161144551562741 0.02469877889978344 0 0.0032263938080253217 0.022432533635455842 0 0.0019560662905407245 0.022814553128896718 0 0.0011616853643532821 0.02485672663865747 0 0.00094765093061171862 0.0251636248613166 0 0.00091438426312805739 0.024741694199760505 0 0.00094765093061171862 0.0251636248613166 0 0.00047161144551562741 0.02469877889978344 0 0.00091438426312805739 0.024741694199760505 0 0.0012158378791147237 0.024536727653321808 0 0.00091438426312805739 0.024741694199760505 0 0.00084457452863721783 0.024408275803081025 0 0.00047161144551562741 0.02469877889978344 0 0.00091438426312805739 0.024741694199760505 0 0.00084457452863721783 0.024408275803081025 0 0.00057881147779843128 0.024049618893988829 0 0.001269486734187826 0.023997079945672281 0 0.00084457452863721783 0.024408275803081025 0 0.00057881147779843128 0.024049618893988829 0 0.00047161144551562741 0.02469877889978344 0 0.00084457452863721783 0.024408275803081025 0 0.00057881147779843128 0.024049618893988829 0 -0.00014715438921021376 0.024909654206764734 0 0.00047161144551562741 0.02469877889978344 0 0.0017265033912378914 0.023396444139508813 0 0.0032263938080253217 0.022432533635455842 0 0.00093515851105003438 0.023003126970579334 0 0.0011460692239313335 0.02306400398530388 0 0.00086245508759045478 0.023395219183322775 0 0.002287028509764007 0.018398444473384547 0 0.0026705769387068167 0.018348193984756893 0 0.0025007220660188383 0.018782888249280812 0 0.0025198692905212469 0.020907598800596408 0 0.0038598200910176803 0.022025993310617904 0 0.00093515851105003438 0.023003126970579334 0 0.00086245508759045478 0.023395219183322775 0 0.00079441884869766084 0.023379423998554902 0 0.002287028509764007 0.018398444473384547 0 0.0025007220660188383 0.018782888249280812 0 0.002033115774693684 0.018674196086099586 0 0.0038598200910176803 0.022025993310617904 0 0.0064074407747313246 0.019821617618988548 0 0.0045997982150098324 0.020833471736926821 0 0.0060212924212601198 0.020994328892550058 0 0.006086405692627788 0.02115649516116129 0 0.0019126329689651579 0.018369914207274893 0 0.002287028509764007 0.018398444473384547 0 0.002033115774693684 0.018674196086099586 0 0.0061643383715876158 0.018064221815686794 0 0.0064074407747313246 0.019821617618988548 0 0.0061256358490006553 0.018907367780157103 0 0.0059224014047569067 0.019860569773973984 0 0.0056903239358617385 0.019445864225787562 0 0.0061256358490006553 0.018907367780157103 0 0.006561088989107536 0.020003582898819088 0 0.0059224014047569067 0.019860569773973984 0 0.0061643383715876158 0.018064221815686794 0 0.0078337109587225014 0.018735618736498677 0 0.0066000673842749828 0.020195710449707062 0 0.0064074407747313246 0.019821617618988548 0 0.0064074407747313246 0.019821617618988548 0 0.0079414691371905224 0.019395167271169033 0 0.0066000673842749828 0.020195710449707062 0 0.0080802802042285304 0.019686388571246841 0 0.0067439577483236488 0.019691064638658998 0 0.007587692026551315 0.019698815301358516 0 0.0077018811838387236 0.019900927078464886 0 0.0066318353899187475 0.019411413816720149 0 0.0067439577483236488 0.019691064638658998 0 0.007587692026551315 0.019698815301358516 0 0.0080802802042285304 0.019686388571246841 0 0.0079414691371905224 0.019395167271169033 0 0.0066000673842749828 0.020195710449707062 0 0.0069713553365407929 0.021801221123346991 0 0.0077495635714603965 0.019761820623852695 0 0.0076947018211469794 0.020627422181295207 0 0.0084419590196363956 0.021511455311025815 0 0.015400054229993101 0.018965245333439452 0 0.015626435686549655 0.019357203954563904 0 0.015358850679356391 0.019353936994789305 0 0.0080802802042285304 0.019686388571246841 0 0.0084537496563463869 0.020791531925272239 0 0.0077495635714603965 0.019761820623852695 0 0.0071020610181800701 0.019563067188171846 0 0.0076947018211469794 0.020627422181295207 0 0.015626435686549655 0.019357203954563904 0 0.015373190258055499 0.019613090782800144 0 0.015358850679356391 0.019353936994789305 0 0.0066000673842749828 0.020195710449707062 0 0.0042399977069188478 0.022124367542440963 0 0.0045997982150098324 0.020833471736926821 0 0.0060212924212601198 0.020994328892550058 0 0.0046966446106508899 0.020598458188515519 0 0.0062493762158710312 0.020783948880892241 0 0.0070803752244474796 0.021039986568277696 0 0.0069668011092886674 0.021318899155010743 0 0.0062493762158710312 0.020783948880892241 0 0.0069668011092886674 0.021318899155010743 0 0.006623322144516379 0.021725085634889292 0 0.0053475669036401599 0.022119464104253053 0 0.005041115825731992 0.022026235584019803 0 0.0046806231459267673 0.022905212706501765 0 0.0042399977069188478 0.022124367542440963 0 0.0048994212476578987 0.022316832886248996 0 0.0038441075443070216 0.02232747247226087 0 0.0048994212476578987 0.022316832886248996 0 0.0048994212476578987 0.022316832886248996 0 0.0069713553365407929 0.021801221123346991 0 0.0048994212476578987 0.022316832886248996 0 0.0066494971894273955 0.022190098328105489 0 0.0015776986068748546 0.026034614840447456 0 0.0015389542275754632 0.026096383667550443 0 0.001592214463477038 0.026117389340623041 0 0.0015776986068748546 0.026034614840447456 0 0.001592214463477038 0.026117389340623041 0 0.0017225524267880632 0.02597129878716322 0 0.0015776986068748546 0.026034614840447456 0 0.0017225524267880632 0.02597129878716322 0 0.0016406591361520229 0.025925570078084499 0 0.0068791988505644431 0.022005353456609405 0 0.0066494971894273955 0.022190098328105489 0 0.0067298076527519306 0.022990944322294989 0 0.0070753137982183922 0.022150651551381562 0 0.0056961856132267943 0.021150760502664664 0 0.0066494971894273955 0.022190098328105489 0 0.0069713553365407929 0.021801221123346991 0 0.0070753137982183922 0.022150651551381562 0 0.0056961856132267943 0.021150760502664664 0 0.0063636882848814823 0.020365656327508051 0 0.0068791988505644431 0.022005353456609405 0 0.0078204374618826792 0.021498717962031462 0 0.0056168620054488144 0.021932887718662999 0 0.0057493258355429833 0.021622724364286562 0 0.0057916696218555169 0.02173161616594101 0 0.0078204374618826792 0.021498717962031462 0 0.0069713553365407929 0.021801221123346991 0 0.0084537496563463869 0.020791531925272239 0 0.0078204374618826792 0.021498717962031462 0 0.0076947018211469794 0.020627422181295207 0 0.0082887059385392675 0.021691856432215294 0 0.0084419590196363956 0.021511455311025815 0 0.015626435686549655 0.019357203954563904 0 0.01584391723022795 0.019747486435141237 0 0.015575720225295471 0.019710498726162963 0 0.015626435686549655 0.019357203954563904 0 0.015575720225295471 0.019710498726162963 0 0.015373190258055499 0.019613090782800144 0 0.015575720225295471 0.019710498726162963 0 0.015373190258055499 0.019613090782800144 0 0.015318392423652597 0.019813961367502537 0 0.015575720225295471 0.019710498726162963 0 0.01548433113422297 0.019942943419813824 0 0.015318392423652597 0.019813961367502537 0 0.01584391723022795 0.019747486435141237 0 0.015575720225295471 0.019710498726162963 0 0.01548433113422297 0.019942943419813824 0 0.015752114126360114 0.020612369965833686 0 0.015695639387863489 0.020519258743051352 0 0.015410980398415338 0.020871391524058733 0 0.0078204374618826792 0.021498717962031462 0 0.012862324101869355 0.019885046737289545 0 0.01584391723022795 0.019747486435141237 0 0.01548433113422297 0.019942943419813824 0 0.015386610613753722 0.020343387904808861 0 0.015634357575979096 0.021016171557684052 0 0.015752114126360114 0.020612369965833686 0 0.015410980398415338 0.020871391524058733 0 0.0081870299732094195 0.022797528103784975 0 0.0068791988505644431 0.022005353456609405 0 0.0024945338897482683 0.025502494901365171 0 0.0021553967965979035 0.026303065145420974 0 0.0019633198881946856 0.025973745636527115 0 0.0061384756416832031 0.022838515277227137 0 0.0064745418807464414 0.022546881514230795 0 0.0017225524267880632 0.02597129878716322 0 0.0017261227801397686 0.02579658726224511 0 0.0016406591361520229 0.025925570078084499 0 0.0015429851509131808 0.025823494292143891 0 0.0017261227801397686 0.02579658726224511 0 0.0016406591361520229 0.025925570078084499 0 0.0066494971894273955 0.022190098328105489 0 0.0064745418807464414 0.022546881514230795 0 0.0068791988505644431 0.022005353456609405 0 0.0064745418807464414 0.022546881514230795 0 0.0062921689753867287 0.022082655817272451 0 0.0063443889386645413 0.021955349565813412 0 0.0065579160256673021 0.022554901718836316 0 0.014786991060781587 0.020357964386539883 0 0.015007770841580698 0.020096418300329655 0 0.014711374483867381 0.019771246757413034 0 0.014786991060781587 0.020357964386539883 0 0.014344272520983492 0.019901984257566351 0 0.014331181689968371 0.020724256517469005 0 0.014786991060781587 0.020357964386539883 0 0.014711374483867381 0.019771246757413034 0 0.014344272520983492 0.019901984257566351 0 0.014786991060781587 0.020357964386539883 0 0.015386610613753722 0.020343387904808861 0 0.015007770841580698 0.020096418300329655 0 0.015386610613753722 0.020343387904808861 0 0.015262284763521414 0.020063152051741383 0 0.015007770841580698 0.020096418300329655 0 0.01548433113422297 0.019942943419813824 0 0.015262284763521414 0.020063152051741383 0 0.015318392423652597 0.019813961367502537 0 0.01548433113422297 0.019942943419813824 0 0.015386610613753722 0.020343387904808861 0 0.015262284763521414 0.020063152051741383 0 0.015262284763521414 0.020063152051741383 0 0.015007770841580698 0.020096418300329655 0 0.015049989481767596 0.019814702551158341 0 0.015049989481767596 0.019814702551158341 0 0.015318392423652597 0.019813961367502537 0 0.015192828336879563 0.019659886749218397 0 0.015262284763521414 0.020063152051741383 0 0.015049989481767596 0.019814702551158341 0 0.015318392423652597 0.019813961367502537 0 0.015373190258055499 0.019613090782800144 0 0.015318392423652597 0.019813961367502537 0 0.015192828336879563 0.019659886749218397 0 0.015373190258055499 0.019613090782800144 0 0.015192828336879563 0.019659886749218397 0 0.015194808066966365 0.019494038256658977 0 0.015049989481767596 0.019814702551158341 0 0.015025243203003861 0.019560535285782582 0 0.014878279725277888 0.019644290410815522 0 0.015049989481767596 0.019814702551158341 0 0.015192828336879563 0.019659886749218397 0 0.015025243203003861 0.019560535285782582 0 0.015192828336879563 0.019659886749218397 0 0.015025243203003861 0.019560535285782582 0 0.015194808066966365 0.019494038256658977 0 0.015025243203003861 0.019560535285782582 0 0.014916362219127953 0.019500882077817836 0 0.014878279725277888 0.019644290410815522 0 0.012280937169946332 0.018499792967783396 0 0.01313416984567887 0.019028522739461852 0 0.014878279725277888 0.019644290410815522 0 0.014711374483867381 0.019771246757413034 0 0.014774324131736712 0.019400130098770355 0 0.014713335300946453 0.019265543838436278 0 0.014404815400333199 0.019319302957330808 0 0.014418370740555429 0.019767130270689579 0 0.014711374483867381 0.019771246757413034 0 0.014774324131736712 0.019400130098770355 0 0.014344272520983492 0.019901984257566351 0 0.014916362219127953 0.019500882077817836 0 0.014878279725277888 0.019644290410815522 0 0.014774324131736712 0.019400130098770355 0 0.015007770841580698 0.020096418300329655 0 0.015049989481767596 0.019814702551158341 0 0.014711374483867381 0.019771246757413034 0 0.015049989481767596 0.019814702551158341 0 0.014878279725277888 0.019644290410815522 0 0.014711374483867381 0.019771246757413034 0 0.014687433668558274 0.019216605041247663 0 0.01470650750058573 0.0191716479136687 0 0.014699357813055274 0.019114897873117744 0 0.014713335300946453 0.019265543838436278 0 0.014687433668558274 0.019216605041247663 0 0.014404815400333199 0.019319302957330808 0 0.014687433668558274 0.019216605041247663 0 0.014438656792671105 0.019164649071806126 0 0.014404815400333199 0.019319302957330808 0 0.014916362219127953 0.019500882077817836 0 0.014774324131736712 0.019400130098770355 0 0.014997488895857282 0.019378940174636289 0 0.014713335300946453 0.019265543838436278 0 0.014687433668558274 0.019216605041247663 0 0.01470650750058573 0.0191716479136687 0 0.014687433668558274 0.019216605041247663 0 0.014609429138066744 0.019087753405079694 0 0.014719544675028947 0.018993706456787447 0 0.014687433668558274 0.019216605041247663 0 0.014609429138066744 0.019087753405079694 0 0.014438656792671105 0.019164649071806126 0 0.014609429138066744 0.019087753405079694 0 0.014629917580966762 0.019000206240350818 0 0.014719544675028947 0.018993706456787447 0 0.014609429138066744 0.019087753405079694 0 0.014488277014878292 0.019006863163685796 0 0.014438656792671105 0.019164649071806126 0 0.014609429138066744 0.019087753405079694 0 0.014629917580966762 0.019000206240350818 0 0.014488277014878292 0.019006863163685796 0 0.014713335300946453 0.019265543838436278 0 0.01470650750058573 0.0191716479136687 0 0.014737374666010078 0.019112525823798795 0 0.012280937169946332 0.018499792967783396 0 0.0088939019958925603 0.019011282886658359 0 0.014774324131736712 0.019400130098770355 0 0.015071978671103745 0.019227239415396894 0 0.015191909989300043 0.018876389695935459 0 0.015373190258055499 0.019613090782800144 0 0.015358850679356391 0.019353936994789305 0 0.015194808066966365 0.019494038256658977 0 0.015358850679356391 0.019353936994789305 0 0.015194808066966365 0.019494038256658977 0 0.015179377276453869 0.019314298049110938 0 0.014774324131736712 0.019400130098770355 0 0.014997488895857282 0.019378940174636289 0 0.015071978671103745 0.019227239415396894 0 0.015179377276453869 0.019314298049110938 0 0.014997488895857282 0.019378940174636289 0 0.015071978671103745 0.019227239415396894 0 0.015025243203003861 0.019560535285782582 0 0.015194808066966365 0.019494038256658977 0 0.014997488895857282 0.019378940174636289 0 0.015194808066966365 0.019494038256658977 0 0.015179377276453869 0.019314298049110938 0 0.014997488895857282 0.019378940174636289 0 0.015025243203003861 0.019560535285782582 0 0.014916362219127953 0.019500882077817836 0 0.014997488895857282 0.019378940174636289 0 0.015400054229993101 0.018965245333439452 0 0.015358850679356391 0.019353936994789305 0 0.015234518110520543 0.019145406987751221 0 0.015071978671103745 0.019227239415396894 0 0.015234518110520543 0.019145406987751221 0 0.015191909989300043 0.018876389695935459 0 0.015179377276453869 0.019314298049110938 0 0.015071978671103745 0.019227239415396894 0 0.015234518110520543 0.019145406987751221 0 0.015358850679356391 0.019353936994789305 0 0.015179377276453869 0.019314298049110938 0 0.015234518110520543 0.019145406987751221 0 0.015400054229993101 0.018965245333439452 0 0.015234518110520543 0.019145406987751221 0 0.015191909989300043 0.018876389695935459 0 0.007897289282402702 0.018936554250106707 0 0.0079886418620088839 0.019098011918765069 0 0.0085648270598022522 0.019223477166502224 0 0.0080802802042285304 0.019686388571246841 0 0.0088939019958925603 0.019011282886658359 0 0.0079414691371905224 0.019395167271169033 0 0.0088939019958925603 0.019011282886658359 0 0.0077088294772242336 0.020155996027498908 0 0.0067960322428858751 0.019952598292192064 0 0.0072681277565987872 0.019369887919480435 0 0.01470650750058573 0.0191716479136687 0 0.014737374666010078 0.019112525823798795 0 0.014711947189916455 0.019134404563785821 0 0.01470650750058573 0.0191716479136687 0 0.014711947189916455 0.019134404563785821 0 0.014699357813055274 0.019114897873117744 0 0.014737374666010078 0.019112525823798795 0 0.014714766487973575 0.019120195258946076 0 0.014711947189916455 0.019134404563785821 0 0.0088939019958925603 0.019011282886658359 0 0.009167252133272694 0.01903784390323154 0 0.014714766487973575 0.019120195258946076 0 0.014711947189916455 0.019134404563785821 0 0.014699357813055274 0.019114897873117744 0 0.0088939019958925603 0.019011282886658359 0 0.0095500853428553724 0.018041999777094374 0 0.0082165452211685561 0.01865329515000818 0 0.0079531235367244681 0.018594114559891021 0 0.0083062200737371618 0.018541978937476923 0 0.0081106587194877035 0.018194083348419786 0 0.0079531235367244681 0.018594114559891021 0 0.0083062200737371618 0.018541978937476923 0 0.014732527482331753 0.019122666096537361 0 0.014714766487973575 0.019120195258946076 0 0.014699357813055274 0.019114897873117744 0 0.0088939019958925603 0.019011282886658359 0 0.0078337109587225014 0.018735618736498677 0 0.0079414691371905224 0.019395167271169033 0 0.0078337109587225014 0.018735618736498677 0 0.014687433668558274 0.019216605041247663 0 0.014848129946798346 0.01879446187102253 0 0.014719544675028947 0.018993706456787447 0 0.010327379459706101 0.01794186136995397 0 0.0095500853428553724 0.018041999777094374 0 0.014606902441569463 0.018910944912996521 0 0.014656415380635165 0.018836275409117479 0 0.014474377764458335 0.018834196588818315 0 0.014606902441569463 0.018910944912996521 0 0.014656415380635165 0.018836275409117479 0 0.014681445021777106 0.018892950999768662 0 0.014606902441569463 0.018910944912996521 0 0.014675903500812817 0.018949664839541743 0 0.014681445021777106 0.018892950999768662 0 0.014606902441569463 0.018910944912996521 0 0.014474377764458335 0.018834196588818315 0 0.014488277014878292 0.019006863163685796 0 0.014606902441569463 0.018910944912996521 0 0.014629917580966762 0.019000206240350818 0 0.014488277014878292 0.019006863163685796 0 0.014606902441569463 0.018910944912996521 0 0.014629917580966762 0.019000206240350818 0 0.014675903500812817 0.018949664839541743 0 0.014719544675028947 0.018993706456787447 0 0.014719858989688707 0.018920996096305036 0 0.014779829350153626 0.018852501885829202 0 0.014848129946798346 0.01879446187102253 0 0.014719544675028947 0.018993706456787447 0 0.014779829350153626 0.018852501885829202 0 0.014629917580966762 0.019000206240350818 0 0.014719544675028947 0.018993706456787447 0 0.014675903500812817 0.018949664839541743 0 0.014719544675028947 0.018993706456787447 0 0.014719858989688707 0.018920996096305036 0 0.014675903500812817 0.018949664839541743 0 0.014719858989688707 0.018920996096305036 0 0.014675903500812817 0.018949664839541743 0 0.014681445021777106 0.018892950999768662 0 0.014719858989688707 0.018920996096305036 0 0.014681445021777106 0.018892950999768662 0 0.01472399729935755 0.018881069203705837 0 0.014719858989688707 0.018920996096305036 0 0.014779829350153626 0.018852501885829202 0 0.01472399729935755 0.018881069203705837 0 0.014779829350153626 0.018852501885829202 0 0.01472399729935755 0.018881069203705837 0 0.014720366083825926 0.018824754877284113 0 0.014656415380635165 0.018836275409117479 0 0.01472399729935755 0.018881069203705837 0 0.014720366083825926 0.018824754877284113 0 0.014656415380635165 0.018836275409117479 0 0.014681445021777106 0.018892950999768662 0 0.01472399729935755 0.018881069203705837 0 0.0077962163580910238 0.016784807516903841 0 0.0079091186492607646 0.017468022182538775 0 0.0074933528619558782 0.017375543504996864 0 0.014656415380635165 0.018836275409117479 0 0.014720366083825926 0.018824754877284113 0 0.014704698490999514 0.018763703392490574 0 0.014779829350153626 0.018852501885829202 0 0.014720366083825926 0.018824754877284113 0 0.014704698490999514 0.018763703392490574 0 0.0095500853428553724 0.018041999777094374 0 0.0103048175287164 0.017679626263506758 0 0.014848129946798346 0.01879446187102253 0 0.014779829350153626 0.018852501885829202 0 0.014704698490999514 0.018763703392490574 0 0.0103048175287164 0.017679626263506758 0 0.011259458954110893 0.017898611270274572 0 0.014370363679879669 0.018524227700530856 0 0.014658581561320569 0.018755943870464246 0 0.014404277437685699 0.018701278391593492 0 0.014704698490999514 0.018763703392490574 0 0.014404277437685699 0.018701278391593492 0 0.014474377764458335 0.018834196588818315 0 0.014656415380635165 0.018836275409117479 0 0.014704698490999514 0.018763703392490574 0 0.014474377764458335 0.018834196588818315 0 0.014404277437685699 0.018701278391593492 0 0.014474377764458335 0.018834196588818315 0 0.014169920949582854 0.019050189208026178 0 0.01153007908858192 0.016960618239772598 0 0.012081746989328023 0.017602753405892166 0 0.01422783067267221 0.01832166087593436 0 0.014530732475349434 0.018357398269741341 0 0.014169920949582854 0.019050189208026178 0 0.014370363679879669 0.018524227700530856 0 0.014404277437685699 0.018701278391593492 0 0.014169920949582854 0.019050189208026178 0 0.014474377764458335 0.018834196588818315 0 0.014488277014878292 0.019006863163685796 0 0.014169920949582854 0.019050189208026178 0 0.014438656792671105 0.019164649071806126 0 0.014169920949582854 0.019050189208026178 0 0.014404815400333199 0.019319302957330808 0 0.014488277014878292 0.019006863163685796 0 0.014438656792671105 0.019164649071806126 0 0.014169920949582854 0.019050189208026178 0 0.014169920949582854 0.019050189208026178 0 0.014404815400333199 0.019319302957330808 0 0.013950275349357274 0.019447860595875829 0 0.014169920949582854 0.019050189208026178 0 0.013649674045058789 0.018967534308337652 0 0.013950275349357274 0.019447860595875829 0 0.014169920949582854 0.019050189208026178 0 0.013905595787554705 0.018693278433271981 0 0.013649674045058789 0.018967534308337652 0 0.01422783067267221 0.01832166087593436 0 0.014169920949582854 0.019050189208026178 0 0.013905595787554705 0.018693278433271981 0 0.013623582730645215 0.018442810667927006 0 0.013905595787554705 0.018693278433271981 0 0.013649674045058789 0.018967534308337652 0 0.013623582730645215 0.018442810667927006 0 0.013325793764678217 0.018828333592884897 0 0.013649674045058789 0.018967534308337652 0 0.013325793764678217 0.018828333592884897 0 0.013322745387121441 0.019238987019424697 0 0.013649674045058789 0.018967534308337652 0 0.013322745387121441 0.019238987019424697 0 0.013649674045058789 0.018967534308337652 0 0.01348542736887679 0.019588115410556065 0 0.013649674045058789 0.018967534308337652 0 0.01348542736887679 0.019588115410556065 0 0.013950275349357274 0.019447860595875829 0 0.013322745387121441 0.019238987019424697 0 0.01348542736887679 0.019588115410556065 0 0.013152254730323623 0.019689274426199076 0 0.01348542736887679 0.019588115410556065 0 0.013152254730323623 0.019689274426199076 0 0.013338014365580421 0.020282310080559213 0 0.013152254730323623 0.019689274426199076 0 0.012855755042927741 0.020364399790621393 0 0.013338014365580421 0.020282310080559213 0 0.01348542736887679 0.019588115410556065 0 0.013805595388575431 0.019889470863315675 0 0.013338014365580421 0.020282310080559213 0 0.013805595388575431 0.019889470863315675 0 0.013915365367499835 0.020398049398112319 0 0.013338014365580421 0.020282310080559213 0 0.013805595388575431 0.019889470863315675 0 0.014418370740555429 0.019767130270689579 0 0.013915365367499835 0.020398049398112319 0 0.01313416984567887 0.019028522739461852 0 0.013238281572955247 0.019354473439069431 0 0.014344272520983492 0.019901984257566351 0 0.014331181689968371 0.020724256517469005 0 0.013915365367499835 0.020398049398112319 0 0.014404815400333199 0.019319302957330808 0 0.014418370740555429 0.019767130270689579 0 0.013950275349357274 0.019447860595875829 0 0.013805595388575431 0.019889470863315675 0 0.014418370740555429 0.019767130270689579 0 0.013950275349357274 0.019447860595875829 0 0.01348542736887679 0.019588115410556065 0 0.013805595388575431 0.019889470863315675 0 0.013950275349357274 0.019447860595875829 0 0.013242530570626443 0.01872824160935161 0 0.013368376418168432 0.01832635022711156 0 0.013300174654901411 0.018700265841020105 0 0.013397217860930904 0.018099377057393166 0 0.013242530570626443 0.01872824160935161 0 0.013368376418168432 0.01832635022711156 0 0.013422145450780984 0.018085458933044859 0 0.013397217860930904 0.018099377057393166 0 0.013368376418168432 0.01832635022711156 0 0.013405284953001965 0.018290623232278164 0 0.013410279140860966 0.018197017133436119 0 0.013368376418168432 0.01832635022711156 0 0.013405284953001965 0.018290623232278164 0 0.013368376418168432 0.01832635022711156 0 0.013300174654901411 0.018700265841020105 0 0.013405284953001965 0.018290623232278164 0 0.013300174654901411 0.018700265841020105 0 0.013416859056728387 0.01853820756012187 0 0.013242530570626443 0.01872824160935161 0 0.013300174654901411 0.018700265841020105 0 0.013128380717759104 0.01914727468792711 0 0.013300174654901411 0.018700265841020105 0 0.013128380717759104 0.01914727468792711 0 0.013143375755220248 0.019104096270910344 0 0.013300174654901411 0.018700265841020105 0 0.013416859056728387 0.01853820756012187 0 0.013143375755220248 0.019104096270910344 0 0.012666407148965697 0.018539076806742827 0 0.013036137691384137 0.018635017225801589 0 0.013143375755220248 0.019104096270910344 0 0.013049360710059093 0.018324857812395026 0 0.013133241085590906 0.018539511172437739 0 0.013196530874549819 0.018402500991184029 0 0.013325793764678217 0.018828333592884897 0 0.013036137691384137 0.018635017225801589 0 0.013325793764678217 0.018828333592884897 0 0.013036137691384137 0.018635017225801589 0 0.013143375755220248 0.019104096270910344 0 0.013325793764678217 0.018828333592884897 0 0.013322745387121441 0.019238987019424697 0 0.013143375755220248 0.019104096270910344 0 0.013152254730323623 0.019689274426199076 0 0.013143375755220248 0.019104096270910344 0 0.012960145212819359 0.019687998321339686 0 0.013322745387121441 0.019238987019424697 0 0.013152254730323623 0.019689274426199076 0 0.013143375755220248 0.019104096270910344 0 0.013152254730323623 0.019689274426199076 0 0.012960145212819359 0.019687998321339686 0 0.012855755042927741 0.020364399790621393 0 0.012960145212819359 0.019687998321339686 0 0.012653117908929788 0.020324620037582321 0 0.012855755042927741 0.020364399790621393 0 0.013128380717759104 0.01914727468792711 0 0.013143375755220248 0.019104096270910344 0 0.012960145212819359 0.019687998321339686 0 0.013128380717759104 0.01914727468792711 0 0.012960145212819359 0.019687998321339686 0 0.012953862970900778 0.019545648990965513 0 0.013242530570626443 0.01872824160935161 0 0.013128380717759104 0.01914727468792711 0 0.012953862970900778 0.019545648990965513 0 0.012960145212819359 0.019687998321339686 0 0.012953862970900778 0.019545648990965513 0 0.012653117908929788 0.020324620037582321 0 0.013032284590625163 0.019445328355082891 0 0.012953862970900778 0.019545648990965513 0 0.012566966094449383 0.020349707832027542 0 0.013032284590625163 0.019445328355082891 0 0.013242530570626443 0.01872824160935161 0 0.012953862970900778 0.019545648990965513 0 0.012566966094449383 0.020349707832027542 0 0.012367385125715323 0.020853464472811212 0 0.012134565513758936 0.021119601343986823 0 0.012566966094449383 0.020349707832027542 0 0.012367385125715323 0.020853464472811212 0 0.012653117908929788 0.020324620037582321 0 0.012953862970900778 0.019545648990965513 0 0.012566966094449383 0.020349707832027542 0 0.012653117908929788 0.020324620037582321 0 0.012367385125715323 0.020853464472811212 0 0.012653117908929788 0.020324620037582321 0 0.012404107802691165 0.021145601626932933 0 0.012653117908929788 0.020324620037582321 0 0.012855755042927741 0.020364399790621393 0 0.012404107802691165 0.021145601626932933 0 0.012855755042927741 0.020364399790621393 0 0.012404107802691165 0.021145601626932933 0 0.01289886101885962 0.020986010628945569 0 0.012404107802691165 0.021145601626932933 0 0.01289886101885962 0.020986010628945569 0 0.012408504928276193 0.021781706755894553 0 0.012404107802691165 0.021145601626932933 0 0.011740285481435041 0.022294114537642452 0 0.012408504928276193 0.021781706755894553 0 0.011740285481435041 0.022294114537642452 0 0.012148967583173154 0.021525267354704093 0 0.012113184834897777 0.021756078264876785 0 0.012404107802691165 0.021145601626932933 0 0.011740285481435041 0.022294114537642452 0 0.012148967583173154 0.021525267354704093 0 0.012367385125715323 0.020853464472811212 0 0.012404107802691165 0.021145601626932933 0 0.012148967583173154 0.021525267354704093 0 0.012367385125715323 0.020853464472811212 0 0.012148967583173154 0.021525267354704093 0 0.012134565513758936 0.021119601343986823 0 0.012148967583173154 0.021525267354704093 0 0.012113184834897777 0.021756078264876785 0 0.012134565513758936 0.021119601343986823 0 0.011371679058476447 0.021746248123996066 0 0.012113184834897777 0.021756078264876785 0 0.012134565513758936 0.021119601343986823 0 0.013542006325681234 0.021113135696423802 0 0.014331181689968371 0.020724256517469005 0 0.014224533945796949 0.021936801176171639 0 0.013542006325681234 0.021113135696423802 0 0.013915365367499835 0.020398049398112319 0 0.013338014365580421 0.020282310080559213 0 0.013542006325681234 0.021113135696423802 0 0.014331181689968371 0.020724256517469005 0 0.013915365367499835 0.020398049398112319 0 0.013542006325681234 0.021113135696423802 0 0.013338014365580421 0.020282310080559213 0 0.01289886101885962 0.020986010628945569 0 0.012855755042927741 0.020364399790621393 0 0.013338014365580421 0.020282310080559213 0 0.01289886101885962 0.020986010628945569 0 0.013542006325681234 0.021113135696423802 0 0.01289886101885962 0.020986010628945569 0 0.012986888952118537 0.021670156325329343 0 0.012986888952118537 0.021670156325329343 0 0.012408504928276193 0.021781706755894553 0 0.012293376197032062 0.022849891947791211 0 0.01289886101885962 0.020986010628945569 0 0.012986888952118537 0.021670156325329343 0 0.012408504928276193 0.021781706755894553 0 0.011740285481435041 0.022294114537642452 0 0.012408504928276193 0.021781706755894553 0 0.012293376197032062 0.022849891947791211 0 0.012293376197032062 0.022849891947791211 0 0.01329533425443259 0.022363479767355501 0 0.012541983225726264 0.023600887899066739 0 0.012986888952118537 0.021670156325329343 0 0.012293376197032062 0.022849891947791211 0 0.01329533425443259 0.022363479767355501 0 0.01329533425443259 0.022363479767355501 0 0.013990695890882855 0.022704683742959531 0 0.013387735545478015 0.023429018596308436 0 0.013542006325681234 0.021113135696423802 0 0.01329533425443259 0.022363479767355501 0 0.014224533945796949 0.021936801176171639 0 0.013542006325681234 0.021113135696423802 0 0.012986888952118537 0.021670156325329343 0 0.01329533425443259 0.022363479767355501 0 0.014706706064268596 0.022559747867115197 0 0.014224533945796949 0.021936801176171639 0 0.013990695890882855 0.022704683742959531 0 0.01329533425443259 0.022363479767355501 0 0.014224533945796949 0.021936801176171639 0 0.013990695890882855 0.022704683742959531 0 0.013786196976866649 0.024178808424617813 0 0.013387735545478015 0.023429018596308436 0 0.01439606235000172 0.023355593160979571 0 0.013990695890882855 0.022704683742959531 0 0.013387735545478015 0.023429018596308436 0 0.01439606235000172 0.023355593160979571 0 0.013786196976866649 0.024178808424617813 0 0.013590457428420888 0.025494691435326042 0 0.014990668411683719 0.024145882294190912 0 0.013786196976866649 0.024178808424617813 0 0.012359717041867281 0.024660048680162042 0 0.013590457428420888 0.025494691435326042 0 0.013786196976866649 0.024178808424617813 0 0.012359717041867281 0.024660048680162042 0 0.013387735545478015 0.023429018596308436 0 0.01329533425443259 0.022363479767355501 0 0.013387735545478015 0.023429018596308436 0 0.012541983225726264 0.023600887899066739 0 0.012359717041867281 0.024660048680162042 0 0.013387735545478015 0.023429018596308436 0 0.012541983225726264 0.023600887899066739 0 0.012293376197032062 0.022849891947791211 0 0.012541983225726264 0.023600887899066739 0 0.011439843778781517 0.024680772383977301 0 0.012293376197032062 0.022849891947791211 0 0.011439843778781517 0.024680772383977301 0 0.011283394916397634 0.024071914740619888 0 0.012359717041867281 0.024660048680162042 0 0.011439843778781517 0.024680772383977301 0 0.011164763375167454 0.025676709185943957 0 0.012359717041867281 0.024660048680162042 0 0.012541983225726264 0.023600887899066739 0 0.011439843778781517 0.024680772383977301 0 0.012359717041867281 0.024660048680162042 0 0.011164763375167454 0.025676709185943957 0 0.010500059383428718 0.026950570449040555 0 0.011439843778781517 0.024680772383977301 0 0.011164763375167454 0.025676709185943957 0 0.010695113309376034 0.026093439455144349 0 0.010695113309376034 0.026093439455144349 0 0.010500059383428718 0.026950570449040555 0 0.0099323396600600848 0.026301874871096871 0 0.011164763375167454 0.025676709185943957 0 0.010695113309376034 0.026093439455144349 0 0.010500059383428718 0.026950570449040555 0 0.010500059383428718 0.026950570449040555 0 0.0072493848641275423 0.027582031152411597 0 0.0087911964645715577 0.026353108346291693 0 0.010500059383428718 0.026950570449040555 0 0.0072493848641275423 0.027582031152411597 0 0.0081797215331963387 0.029410567771906065 0 0.0072493848641275423 0.027582031152411597 0 0.0081797215331963387 0.029410567771906065 0 0.006676833680823089 0.029464580607400599 0 0.012359717041867281 0.024660048680162042 0 0.010500059383428718 0.026950570449040555 0 0.013590457428420888 0.025494691435326042 0 0.010108198581027329 0.026535716227957699 0 0.0097273085885502576 0.026549415215277091 0 0.010884661709828302 0.022731858521615959 0 0.011724946666551867 0.02238277087577956 0 0.011252595525197997 0.023474070971480462 0 0.011371679058476447 0.021746248123996066 0 0.012113184834897777 0.021756078264876785 0 0.011724946666551867 0.02238277087577956 0 0.012113184834897777 0.021756078264876785 0 0.011724946666551867 0.02238277087577956 0 0.012317153828152632 0.022269878218931002 0 0.011407751233909287 0.023596788007853677 0 0.011135166338716763 0.024415587884962113 0 0.011724946666551867 0.02238277087577956 0 0.012317153828152632 0.022269878218931002 0 0.012143926101658946 0.023637447836401888 0 0.010166126809643877 0.024517904635490143 0 0.011283394916397634 0.024071914740619888 0 0.010587950427983569 0.025575127637640933 0 0.011615001216008353 0.02309851416377378 0 0.011407751233909287 0.023596788007853677 0 0.011740285481435041 0.022294114537642452 0 0.010166126809643877 0.024517904635490143 0 0.011283394916397634 0.024071914740619888 0 0.011740285481435041 0.022294114537642452 0 0.012113184834897777 0.021756078264876785 0 0.012317153828152632 0.022269878218931002 0 0.011740285481435041 0.022294114537642452 0 0.012293376197032062 0.022849891947791211 0 0.011283394916397634 0.024071914740619888 0 0.011439843778781517 0.024680772383977301 0 0.011283394916397634 0.024071914740619888 0 0.010587950427983569 0.025575127637640933 0 0.011439843778781517 0.024680772383977301 0 0.010695113309376034 0.026093439455144349 0 0.010587950427983569 0.025575127637640933 0 0.010695113309376034 0.026093439455144349 0 0.01056732361661681 0.026084744749837574 0 0.010369025311171292 0.026165236212307465 0 0.010695113309376034 0.026093439455144349 0 0.010587950427983569 0.025575127637640933 0 0.01056732361661681 0.026084744749837574 0 0.010587950427983569 0.025575127637640933 0 0.01068454629042697 0.025913558881736964 0 0.01056732361661681 0.026084744749837574 0 0.010166126809643877 0.024517904635490143 0 0.010587950427983569 0.025575127637640933 0 0.010368744460552914 0.025664082869780416 0 0.010587950427983569 0.025575127637640933 0 0.010368744460552914 0.025664082869780416 0 0.01068454629042697 0.025913558881736964 0 0.010531173872495796 0.024565615884588141 0 0.012143926101658946 0.023637447836401888 0 0.010905517377511371 0.025645853978718595 0 0.011135166338716763 0.024415587884962113 0 0.010940917697694329 0.024906016127559074 0 0.010368744460552914 0.025664082869780416 0 0.010905517377511371 0.025645853978718595 0 0.01068454629042697 0.025913558881736964 0 0.011724946666551867 0.02238277087577956 0 0.012143926101658946 0.023637447836401888 0 0.011252595525197997 0.023474070971480462 0 0.010531173872495796 0.024565615884588141 0 0.012143926101658946 0.023637447836401888 0 0.011252595525197997 0.023474070971480462 0 0.011599981379056186 0.026248995716553467 0 0.011137532451368403 0.026149651459603192 0 0.012110820684262062 0.025726437244481752 0 0.013056133863930315 0.023667975951880051 0 0.012613970683168394 0.02381255742358912 0 0.010905517377511371 0.025645853978718595 0 0.010965255902146118 0.025906126645627851 0 0.01068454629042697 0.025913558881736964 0 0.010707544941109348 0.026261842896750605 0 0.010905517377511371 0.025645853978718595 0 0.010965255902146118 0.025906126645627851 0 0.010707544941109348 0.026261842896750605 0 0.011137532451368403 0.026149651459603192 0 0.010965255902146118 0.025906126645627851 0 0.011137532451368403 0.026149651459603192 0 0.010965255902146118 0.025906126645627851 0 0.010782691054682599 0.026078518577951904 0 0.010965255902146118 0.025906126645627851 0 0.01068454629042697 0.025913558881736964 0 0.010782691054682599 0.026078518577951904 0 0.011137532451368403 0.026149651459603192 0 0.010782691054682599 0.026078518577951904 0 0.011208396055779279 0.025847161973333595 0 0.010782691054682599 0.026078518577951904 0 0.0102216634462012 0.026064987533959142 0 0.010519383926555388 0.025745522215251938 0 0.010782691054682599 0.026078518577951904 0 0.01056732361661681 0.026084744749837574 0 0.0102216634462012 0.026064987533959142 0 0.01068454629042697 0.025913558881736964 0 0.010782691054682599 0.026078518577951904 0 0.01056732361661681 0.026084744749837574 0 0.01056732361661681 0.026084744749837574 0 0.0102216634462012 0.026064987533959142 0 0.010369025311171292 0.026165236212307465 0 0.0102216634462012 0.026064987533959142 0 0.0097762076649936126 0.025648337047848704 0 0.010519383926555388 0.025745522215251938 0 0.0097762076649936126 0.025648337047848704 0 0.0098991941963811319 0.024999795934395278 0 0.010519383926555388 0.025745522215251938 0 0.0098991941963811319 0.024999795934395278 0 0.010519383926555388 0.025745522215251938 0 0.011396311208405334 0.02499995388532629 0 0.010519383926555388 0.025745522215251938 0 0.011208396055779279 0.025847161973333595 0 0.011396311208405334 0.02499995388532629 0 0.010782691054682599 0.026078518577951904 0 0.010519383926555388 0.025745522215251938 0 0.011208396055779279 0.025847161973333595 0 0.012894020745609896 0.024999772764539813 0 0.011396311208405334 0.02499995388532629 0 0.012110820684262062 0.025726437244481752 0 0.011208396055779279 0.025847161973333595 0 0.011396311208405334 0.02499995388532629 0 0.012110820684262062 0.025726437244481752 0 0.011137532451368403 0.026149651459603192 0 0.011208396055779279 0.025847161973333595 0 0.012110820684262062 0.025726437244481752 0 0.0088231946029548348 0.025970208512083624 0 0.0087911964645715577 0.026353108346291693 0 0.0099323396600600848 0.026301874871096871 0 0.0088231946029548348 0.025970208512083624 0 0.007895142035176092 0.025970839462364857 0 0.0079362880217858627 0.025560336453339799 0 0.0088231946029548348 0.025970208512083624 0 0.007895142035176092 0.025970839462364857 0 0.0087911964645715577 0.026353108346291693 0 0.007895142035176092 0.025970839462364857 0 0.0068059826978712403 0.025588624577592766 0 0.0070506473569936926 0.026310921412025227 0 0.007895142035176092 0.025970839462364857 0 0.0087911964645715577 0.026353108346291693 0 0.0070506473569936926 0.026310921412025227 0 0.0072493848641275423 0.027582031152411597 0 0.0087911964645715577 0.026353108346291693 0 0.0070506473569936926 0.026310921412025227 0 0.010500059383428718 0.026950570449040555 0 0.0087911964645715577 0.026353108346291693 0 0.0099323396600600848 0.026301874871096871 0 0.010695113309376034 0.026093439455144349 0 0.0099323396600600848 0.026301874871096871 0 0.010369025311171292 0.026165236212307465 0 0.0102216634462012 0.026064987533959142 0 0.0099323396600600848 0.026301874871096871 0 0.010369025311171292 0.026165236212307465 0 0.0102216634462012 0.026064987533959142 0 0.0099323396600600848 0.026301874871096871 0 0.009266924820762662 0.025802759172876773 0 0.0088231946029548348 0.025970208512083624 0 0.0099323396600600848 0.026301874871096871 0 0.0089155971824950702 0.025648726317843946 0 0.0089661141192232327 0.025967452523037296 0 0.0087768266085265743 0.025615942687831406 0 0.0088231946029548348 0.025970208512083624 0 0.0089155971824950702 0.025648726317843946 0 0.0079362880217858627 0.025560336453339799 0 0.0102216634462012 0.026064987533959142 0 0.0097762076649936126 0.025648337047848704 0 0.009266924820762662 0.025802759172876773 0 0.0097762076649936126 0.025648337047848704 0 0.009266924820762662 0.025802759172876773 0 0.008402577283258791 0.024999963478731176 0 0.0097762076649936126 0.025648337047848704 0 0.0098991941963811319 0.024999795934395278 0 0.008402577283258791 0.024999963478731176 0 0.0087768266085265743 0.025615942687831406 0 0.008401980947745958 0.025000563932887573 0 0.0089155971824950702 0.025648726317843946 0 0.0084011331572473591 0.024999846515766547 0 0.0079362880217858627 0.025560336453339799 0 0.0084011331572473591 0.024999846515766547 0 0.0072034417346640393 0.024999654055549516 0 0.0079362880217858627 0.025560336453339799 0 0.007895142035176092 0.025970839462364857 0 0.0079362880217858627 0.025560336453339799 0 0.0068059826978712403 0.025588624577592766 0 0.0072034417346640393 0.024999654055549516 0 0.0068059826978712403 0.025588624577592766 0 0.0060045302763712394 0.024999720612555829 0 0.0072034417346640393 0.024999654055549516 0 0.0079362880217858627 0.025560336453339799 0 0.0068059826978712403 0.025588624577592766 0 0.0068059826978712403 0.025588624577592766 0 0.0060045302763712394 0.024999720612555829 0 0.0056666827654448752 0.025455230227178216 0 0.0056666827654448752 0.025455230227178216 0 0.0048057152778087373 0.024999745912008393 0 0.0048203003372292372 0.025685274735000613 0 0.0060045302763712394 0.024999720612555829 0 0.0056666827654448752 0.025455230227178216 0 0.0048057152778087373 0.024999745912008393 0 0.0056666827654448752 0.025455230227178216 0 0.0048203003372292372 0.025685274735000613 0 0.0059180101681835882 0.026101869786074299 0 0.0068059826978712403 0.025588624577592766 0 0.0056666827654448752 0.025455230227178216 0 0.0059180101681835882 0.026101869786074299 0 0.0036068504248764517 0.025000775004563408 0 0.00346212304700648 0.026010188806132036 0 0.0048057152778087373 0.024999745912008393 0 0.0036078792322760682 0.024999835566439574 0 0.0048203003372292372 0.025685274735000613 0 0.0036078792322760682 0.024999835566439574 0 0.0048203003372292372 0.025685274735000613 0 0.0039161637972419897 0.025916958432139234 0 0.00346212304700648 0.026010188806132036 0 0.0032532867048989268 0.027155013147309844 0 0.0039161637972419897 0.025916958432139234 0 0.0050164720475564103 0.026793641335664409 0 0.003851147443705526 0.027045059957925135 0 0.0048203003372292372 0.025685274735000613 0 0.0039161637972419897 0.025916958432139234 0 0.0050164720475564103 0.026793641335664409 0 0.0050164720475564103 0.026793641335664409 0 0.003851147443705526 0.027045059957925135 0 0.0046316278936573401 0.027921473545568589 0 0.0070506473569936926 0.026310921412025227 0 0.0059180101681835882 0.026101869786074299 0 0.006141822681791571 0.026870373034094182 0 0.0068059826978712403 0.025588624577592766 0 0.0070506473569936926 0.026310921412025227 0 0.0059180101681835882 0.026101869786074299 0 0.0050164720475564103 0.026793641335664409 0 0.0059180101681835882 0.026101869786074299 0 0.006141822681791571 0.026870373034094182 0 0.0048203003372292372 0.025685274735000613 0 0.0050164720475564103 0.026793641335664409 0 0.0059180101681835882 0.026101869786074299 0 0.0050164720475564103 0.026793641335664409 0 0.006141822681791571 0.026870373034094182 0 0.0057349944020581847 0.027744819267864811 0 0.0072493848641275423 0.027582031152411597 0 0.0070506473569936926 0.026310921412025227 0 0.006141822681791571 0.026870373034094182 0 0.0072493848641275423 0.027582031152411597 0 0.006141822681791571 0.026870373034094182 0 0.0057349944020581847 0.027744819267864811 0 0.0072493848641275423 0.027582031152411597 0 0.0060949285560501082 0.028471676580125255 0 0.0057349944020581847 0.027744819267864811 0 0.0072493848641275423 0.027582031152411597 0 0.0067140669673432709 0.02876889336500587 0 0.0060949285560501082 0.028471676580125255 0 0.0070564691689835434 0.028116673883379656 0 0.0070318187070173366 0.028185540998234605 0 0.0067140669673432709 0.02876889336500587 0 0.0060949285560501082 0.028471676580125255 0 0.0062321908695398259 0.029034159620566359 0 0.0081797215331963387 0.029410567771906065 0 0.0068092365241039163 0.029713117787181997 0 0.006676833680823089 0.029464580607400599 0 0.0060949285560501082 0.028471676580125255 0 0.0057349944020581847 0.027744819267864811 0 0.0052542832049723709 0.028785977025504624 0 0.0060949285560501082 0.028471676580125255 0 0.0052542832049723709 0.028785977025504624 0 0.0058507230017750631 0.029128925023073612 0 0.0060949285560501082 0.028471676580125255 0 0.0062321908695398259 0.029034159620566359 0 0.0058507230017750631 0.029128925023073612 0 0.0050164720475564103 0.026793641335664409 0 0.0057349944020581847 0.027744819267864811 0 0.0046316278936573401 0.027921473545568589 0 0.0057349944020581847 0.027744819267864811 0 0.0046316278936573401 0.027921473545568589 0 0.0052542832049723709 0.028785977025504624 0 0.003851147443705526 0.027045059957925135 0 0.0046316278936573401 0.027921473545568589 0 0.0036781779856413181 0.028393559046792909 0 0.0032532867048989268 0.027155013147309844 0 0.0030119190317113003 0.028310999649772305 0 0.0046316278936573401 0.027921473545568589 0 0.0043316245812315569 0.028914951846031905 0 0.0036781779856413181 0.028393559046792909 0 0.0046316278936573401 0.027921473545568589 0 0.0043316245812315569 0.028914951846031905 0 0.0052542832049723709 0.028785977025504624 0 0.0052542832049723709 0.028785977025504624 0 0.0045872743051523631 0.029677516396487448 0 0.0053798031467870659 0.029746630312223802 0 0.0043316245812315569 0.028914951846031905 0 0.0052542832049723709 0.028785977025504624 0 0.0045872743051523631 0.029677516396487448 0 0.0043316245812315569 0.028914951846031905 0 0.0035231175162196231 0.029787804972784503 0 0.0036781779856413181 0.028393559046792909 0 0.0043316245812315569 0.028914951846031905 0 0.0045872743051523631 0.029677516396487448 0 0.0035231175162196231 0.029787804972784503 0 0.0045872743051523631 0.029677516396487448 0 0.00421441280275051 0.030517969504467519 0 0.0035231175162196231 0.029787804972784503 0 0.0051894723433095783 0.03060986832974075 0 0.0045872743051523631 0.029677516396487448 0 0.0053798031467870659 0.029746630312223802 0 0.0051894723433095783 0.03060986832974075 0 0.0045872743051523631 0.029677516396487448 0 0.00421441280275051 0.030517969504467519 0 0.0051894723433095783 0.03060986832974075 0 0.0062574654502669646 0.029746399417427537 0 0.0053798031467870659 0.029746630312223802 0 0.0048734707190172307 0.027551623645850034 0 0.0075277625398634841 0.026807403031050864 0 0.0028485417206380093 0.023569852424871241 0 0.0034164380185438062 0.023390397638423696 0 0.003590702618672937 0.022952464240490664 0 0.0086743906899177624 0.025148673313985927 0 0.0075277625398634841 0.026807403031050864 0 0.015267363757825095 0.023233936992207459 0 0.01439606235000172 0.023355593160979571 0 0.014990668411683719 0.024145882294190912 0 0.014706706064268596 0.022559747867115197 0 0.015267363757825095 0.023233936992207459 0 0.01439606235000172 0.023355593160979571 0 0.013786196976866649 0.024178808424617813 0 0.01439606235000172 0.023355593160979571 0 0.014990668411683719 0.024145882294190912 0 0.0086743906899177624 0.025148673313985927 0 0.0079885518992740111 0.026664755044132144 0 0.008564019799200304 0.025331060652223264 0 0.0080639398507340258 0.026747964832990918 0 0.0078010137783280295 0.026985303048045039 0 0.0067140669673432709 0.02876889336500587 0 0.0062574654502669646 0.029746399417427537 0 0.0062321908695398259 0.029034159620566359 0 0.006676833680823089 0.029464580607400599 0 0.006129351365256038 0.03111306745348234 0 0.006326172645242021 0.030931879177804329 0 0.0070318187070173366 0.028185540998234605 0 0.0075277625398634841 0.026807403031050864 0 0.0081797215331963387 0.029410567771906065 0 0.0068092365241039163 0.029713117787181997 0 0.0062309349552091371 0.03106854313934115 0 0.0097273085885502576 0.026549415215277091 0 0.0079885518992740111 0.026664755044132144 0 0.0068092365241039163 0.029713117787181997 0 0.006676833680823089 0.029464580607400599 0 0.006326172645242021 0.030931879177804329 0 0.0075277625398634841 0.026807403031050864 0 0.0079885518992740111 0.026664755044132144 0 0.0075601572917554814 0.02772218054338511 0 0.0079885518992740111 0.026664755044132144 0 0.0062574654502669646 0.029746399417427537 0 0.0058507230017750631 0.029128925023073612 0 0.0053798031467870659 0.029746630312223802 0 0.0062574654502669646 0.029746399417427537 0 0.0062321908695398259 0.029034159620566359 0 0.0058507230017750631 0.029128925023073612 0 0.0052542832049723709 0.028785977025504624 0 0.0058507230017750631 0.029128925023073612 0 0.0053798031467870659 0.029746630312223802 0 0.001065548383304015 0.028656008067396255 0 0.0013835571723868222 0.02871648267532079 0 0.0015058186968485308 0.0287975984217771 0 0.001065548383304015 0.028656008067396255 0 0.0013835571723868222 0.02871648267532079 0 0.001406960705079105 0.028549223249173559 0 0.00086221746150707624 0.028454183731994469 0 0.0011891008456854644 0.028723270738125698 0 0.00088374347995729048 0.028417357380656861 0 0.00062844071998562317 0.028641028854432898 0 0.0009917108943596402 0.028773651290696662 0 0.00088374347995729048 0.028417357380656861 0 0.00062844071998562317 0.028641028854432898 0 0.00036062734179146143 0.028442306711078627 0 0.00062844071998562317 0.028641028854432898 0 0.00057650299385029699 0.028915363887184176 0 0.0009917108943596402 0.028773651290696662 0 0.00057650299385029699 0.028915363887184176 0 0.00091986433838344534 0.029067187831227123 0 0.00049272996371113771 0.029209127946494703 0 0.00057650299385029699 0.028915363887184176 0 0.00091986433838344534 0.029067187831227123 0 0.0009917108943596402 0.028773651290696662 0 0.0012125447825235556 0.028944717715032334 0 0.0009917108943596402 0.028773651290696662 0 0.0014332950282236103 0.028993803513720474 0 0.00088374347995729048 0.028417357380656861 0 0.0009917108943596402 0.028773651290696662 0 0.0014332950282236103 0.028993803513720474 0 0.00091986433838344534 0.029067187831227123 0 0.0012125447825235556 0.028944717715032334 0 0.0014503909532856112 0.028977680327830109 0 0.00091986433838344534 0.029067187831227123 0 0.0012125447825235556 0.028944717715032334 0 0.0009917108943596402 0.028773651290696662 0 0.0013835571723868222 0.02871648267532079 0 0.0015058186968485308 0.0287975984217771 0 0.0014711652453768735 0.028769100705960917 0 0.0012125447825235556 0.028944717715032334 0 0.0014332950282236103 0.028993803513720474 0 0.0014503909532856112 0.028977680327830109 0 0.0014061141071600059 0.028610118929536934 0 0.0015058186968485308 0.0287975984217771 0 0.0014492490769811687 0.028716946493300772 0 0.0015058186968485308 0.0287975984217771 0 0.0014714422738888186 0.02876101178774269 0 0.0014492490769811687 0.028716946493300772 0 0.0015058186968485308 0.0287975984217771 0 0.0014714422738888186 0.02876101178774269 0 0.0014711652453768735 0.028769100705960917 0 0.0014714422738888186 0.02876101178774269 0 0.0014617725962773633 0.028748949609335862 0 0.0014711652453768735 0.028769100705960917 0 0.0014714422738888186 0.02876101178774269 0 0.0014617725962773633 0.028748949609335862 0 0.0014492490769811687 0.028716946493300772 0 0.0014617725962773633 0.028748949609335862 0 0.0014492490769811687 0.028716946493300772 0 0.0014333873454683648 0.028706554026702549 0 0.0014333873454683648 0.028706554026702549 0 0.0014728162817961865 0.028737927400510968 0 0.001390499976356277 0.028684437075809716 0 0.0014617725962773633 0.028748949609335862 0 0.0014333873454683648 0.028706554026702549 0 0.0014728162817961865 0.028737927400510968 0 0.0014617725962773633 0.028748949609335862 0 0.0014728162817961865 0.028737927400510968 0 0.0014810335153383788 0.028752790264924995 0 0.0014728162817961865 0.028737927400510968 0 0.0014810335153383788 0.028752790264924995 0 0.0015314151191326002 0.028733071757669766 0 0.0013835571723868222 0.02871648267532079 0 0.0014810335153383788 0.028752790264924995 0 0.0014711652453768735 0.028769100705960917 0 0.0014617725962773633 0.028748949609335862 0 0.0014810335153383788 0.028752790264924995 0 0.0014711652453768735 0.028769100705960917 0 0.0030225822492790729 0.030579352604238923 0 0.0027778855677074383 0.029316290248895618 0 0.0011930963896207107 0.02857430953266114 0 0.001390499976356277 0.028684437075809716 0 0.0016145015685988598 0.028759232897238366 0 0.0034916766735395995 0.030916638304909129 0 0.00421441280275051 0.030517969504467519 0 0.0035231175162196231 0.029787804972784503 0 0.0026177527842599895 0.029305204182699864 0 0.0027778855677074383 0.029316290248895618 0 0.0014728162817961865 0.028737927400510968 0 0.001390499976356277 0.028684437075809716 0 0.0016145015685988598 0.028759232897238366 0 0.0014728162817961865 0.028737927400510968 0 0.0016145015685988598 0.028759232897238366 0 0.0015314151191326002 0.028733071757669766 0 0.0016145015685988598 0.028759232897238366 0 0.0016526312577043803 0.028668038057170456 0 0.0019549722627856705 0.028540224121163207 0 0.0027778855677074383 0.029316290248895618 0 0.0026145651022990756 0.02879777444719072 0 0.0021036492304290894 0.029373277809745559 0 0.0023247170165568414 0.028388822144250394 0 0.0021924334063725113 0.028737653243699285 0 0.0027778855677074383 0.029316290248895618 0 0.0030119190317113003 0.028310999649772305 0 0.0016145015685988598 0.028759232897238366 0 0.0016526312577043803 0.028668038057170456 0 0.0015314151191326002 0.028733071757669766 0 0.0016526312577043803 0.028668038057170456 0 0.001669181708458402 0.028529060058415257 0 0.0019549722627856705 0.028540224121163207 0 0.0013835571723868222 0.02871648267532079 0 0.0014810335153383788 0.028752790264924995 0 0.0015138362638883146 0.028680866815818929 0 0.0016526312577043803 0.028668038057170456 0 0.0015138362638883146 0.028680866815818929 0 0.0015314151191326002 0.028733071757669766 0 0.0014810335153383788 0.028752790264924995 0 0.0015138362638883146 0.028680866815818929 0 0.0015314151191326002 0.028733071757669766 0 0.0016526312577043803 0.028668038057170456 0 0.0015138362638883146 0.028680866815818929 0 0.001669181708458402 0.028529060058415257 0 0.0013835571723868222 0.02871648267532079 0 0.0015138362638883146 0.028680866815818929 0 0.001406960705079105 0.028549223249173559 0 0.0015138362638883146 0.028680866815818929 0 0.001406960705079105 0.028549223249173559 0 0.001669181708458402 0.028529060058415257 0 0.001406960705079105 0.028549223249173559 0 0.001669181708458402 0.028529060058415257 0 0.0016383968701035602 0.028264685962444878 0 0.001669181708458402 0.028529060058415257 0 0.0016383968701035602 0.028264685962444878 0 0.0019048790527729487 0.028326792855074258 0 0.001406960705079105 0.028549223249173559 0 0.0016383968701035602 0.028264685962444878 0 0.0012432243792427416 0.028280864337453943 0 0.0019549722627856705 0.028540224121163207 0 0.0019048790527729487 0.028326792855074258 0 0.0023145969254481386 0.028101466672868902 0 0.0026145651022990756 0.02879777444719072 0 0.0025787101702784104 0.028576415310657625 0 0.0023247170165568414 0.028388822144250394 0 0.0021924334063725113 0.028737653243699285 0 0.0023145969254481386 0.028101466672868902 0 0.001669181708458402 0.028529060058415257 0 0.0019549722627856705 0.028540224121163207 0 0.0019048790527729487 0.028326792855074258 0 0.0016383968701035602 0.028264685962444878 0 0.0019048790527729487 0.028326792855074258 0 0.0020018953009473574 0.028065519283461963 0 0.0027392888811627971 0.027407106310900774 0 0.0023145969254481386 0.028101466672868902 0 0.0021786270574343774 0.027750325018338913 0 0.0027392888811627971 0.027407106310900774 0 0.0023247170165568414 0.028388822144250394 0 0.0023145969254481386 0.028101466672868902 0 0.0023145969254481386 0.028101466672868902 0 0.0020018953009473574 0.028065519283461963 0 0.0021786270574343774 0.027750325018338913 0 0.0019048790527729487 0.028326792855074258 0 0.0023145969254481386 0.028101466672868902 0 0.0020018953009473574 0.028065519283461963 0 0.0020018953009473574 0.028065519283461963 0 0.0021786270574343774 0.027750325018338913 0 0.0018352066670585772 0.027815109184307029 0 0.0016383968701035602 0.028264685962444878 0 0.0014689379763824363 0.027953873035614987 0 0.0012432243792427416 0.028280864337453943 0 0.0016383968701035602 0.028264685962444878 0 0.0018352066670585772 0.027815109184307029 0 0.0014689379763824363 0.027953873035614987 0 0.0016383968701035602 0.028264685962444878 0 0.0020018953009473574 0.028065519283461963 0 0.0018352066670585772 0.027815109184307029 0 0.0018352066670585772 0.027815109184307029 0 0.0014689379763824363 0.027953873035614987 0 0.0014912660023404219 0.027411961838569865 0 0.0014689379763824363 0.027953873035614987 0 0.001061348289752867 0.027894485640212088 0 0.0014912660023404219 0.027411961838569865 0 0.001061348289752867 0.027894485640212088 0 0.00091076651501808149 0.028179281155084869 0 0.00076084946349081579 0.027895341173558928 0 0.001061348289752867 0.027894485640212088 0 0.00091076651501808149 0.028179281155084869 0 0.0012432243792427416 0.028280864337453943 0 0.0014689379763824363 0.027953873035614987 0 0.001061348289752867 0.027894485640212088 0 0.0012432243792427416 0.028280864337453943 0 0.001065548383304015 0.028656008067396255 0 0.00091076651501808149 0.028179281155084869 0 0.0012432243792427416 0.028280864337453943 0 0.001065548383304015 0.028656008067396255 0 0.001406960705079105 0.028549223249173559 0 0.0012432243792427416 0.028280864337453943 0 0.00088374347995729048 0.028417357380656861 0 0.00039062149992194874 0.028250076400606113 0 0.00036062734179146143 0.028442306711078627 0 0.00086221746150707624 0.028454183731994469 0 0.00033755642798286966 0.027891465365978568 0 0.00088374347995729048 0.028417357380656861 0 0.00045487385472992606 0.028176433235190094 0 0.00039062149992194874 0.028250076400606113 0 0.001065548383304015 0.028656008067396255 0 0.00091076651501808149 0.028179281155084869 0 0.00042775860936922672 0.02805605856164195 0 0.00088374347995729048 0.028417357380656861 0 0.00045487385472992606 0.028176433235190094 0 0.00035075331756186708 0.02805289403368251 0 0.00042775860936922672 0.02805605856164195 0 0.00076084946349081579 0.027895341173558928 0 0.00064672283096613322 0.02733420840940157 0 0.00091076651501808149 0.028179281155084869 0 0.00042775860936922672 0.02805605856164195 0 0.00076084946349081579 0.027895341173558928 0 0.001061348289752867 0.027894485640212088 0 0.00076084946349081579 0.027895341173558928 0 0.00064672283096613322 0.02733420840940157 0 0.00042775860936922672 0.02805605856164195 0 0.00064672283096613322 0.02733420840940157 0 -0.00027437959235687898 0.027171265758798566 0 0.001061348289752867 0.027894485640212088 0 0.00064672283096613322 0.02733420840940157 0 0.0014912660023404219 0.027411961838569865 0 0.00064672283096613322 0.02733420840940157 0 0.0014912660023404219 0.027411961838569865 0 0.0012600953975359546 0.026451465716424729 0 0.00064672283096613322 0.02733420840940157 0 0.00019988089876691285 0.026215496698914317 0 0.0012600953975359546 0.026451465716424729 0 0.00064672283096613322 0.02733420840940157 0 0.00019988089876691285 0.026215496698914317 0 -0.00027437959235687898 0.027171265758798566 0 0.0027392888811627971 0.027407106310900774 0 0.0020482177399852412 0.027378122065806153 0 0.0021669951703910694 0.026761361915995017 0 0.0027392888811627971 0.027407106310900774 0 0.0021786270574343774 0.027750325018338913 0 0.0020482177399852412 0.027378122065806153 0 0.0021786270574343774 0.027750325018338913 0 0.0018352066670585772 0.027815109184307029 0 0.0020482177399852412 0.027378122065806153 0 0.0020482177399852412 0.027378122065806153 0 0.0014912660023404219 0.027411961838569865 0 0.0021669951703910694 0.026761361915995017 0 0.0018352066670585772 0.027815109184307029 0 0.0020482177399852412 0.027378122065806153 0 0.0014912660023404219 0.027411961838569865 0 0.0014912660023404219 0.027411961838569865 0 0.0021669951703910694 0.026761361915995017 0 0.0012600953975359546 0.026451465716424729 0 0.0031887307632615953 0.026278912423519738 0 0.0027392888811627971 0.027407106310900774 0 0.0021669951703910694 0.026761361915995017 0 0.0031887307632615953 0.026278912423519738 0 0.0021669951703910694 0.026761361915995017 0 0.002094365798888392 0.025925287508287081 0 0.0021669951703910694 0.026761361915995017 0 0.002094365798888392 0.025925287508287081 0 0.0012600953975359546 0.026451465716424729 0 0.002094365798888392 0.025925287508287081 0 0.002272423105812711 0.02499993533618983 0 0.00093811799984294902 0.025000029399107015 0 0.0036066502107612317 0.025000032517407719 0 0.0031887307632615953 0.026278912423519738 0 0.002094365798888392 0.025925287508287081 0 0.0036066502107612317 0.025000032517407719 0 0.002094365798888392 0.025925287508287081 0 0.002272423105812711 0.02499993533618983 0 0.002094365798888392 0.025925287508287081 0 0.0012600953975359546 0.026451465716424729 0 0.00093811799984294902 0.025000029399107015 0 0.00019988089876691285 0.026215496698914317 0 0.0012600953975359546 0.026451465716424729 0 0.00093811799984294902 0.025000029399107015 0 0.00019988089876691285 0.026215496698914317 0 0.00093811799984294902 0.025000029399107015 0 -0.00039617710580693987 0.024999949326070615 0 0.00019988089876691285 0.026215496698914317 0 -0.00039617710580693987 0.024999949326070615 0 -0.0010028123067467437 0.026134196451543721 0 -0.0010408929568159269 0.026024977882336257 0 -0.0017299673106300852 0.025000878879254864 0 -0.00039617710580693987 0.024999949326070615 0 -0.0010028123067467437 0.026134196451543721 0 -0.001730610969782502 0.024999994778345351 0 -0.0011566754815910461 0.025994395851402029 0 -0.0017308259743809935 0.024999923064841525 0 -0.0021141434214978234 0.025710729364781755 0 -0.0017308259743809935 0.024999923064841525 0 -0.0026145628825664249 0.024999953870116522 0 -0.0021141434214978234 0.025710729364781755 0 -0.0026145628825664249 0.024999953870116522 0 -0.0029639437545096623 0.025706442844724047 0 -0.0034982222017263887 0.024999966132944137 0 -0.0026145628825664249 0.024999953870116522 0 -0.0029639437545096623 0.025706442844724047 0 -0.0021141434214978234 0.025710729364781755 0 -0.0029639437545096623 0.025706442844724047 0 -0.0024820220005449512 0.026269012496182773 0 -0.0021141434214978234 0.025710729364781755 0 -0.0029639437545096623 0.025706442844724047 0 -0.0024820220005449512 0.026269012496182773 0 -0.0031369916770292937 0.026604907872150727 0 -0.0011566754815910461 0.025994395851402029 0 -0.0021141434214978234 0.025710729364781755 0 -0.0016886252900771414 0.026631088536220423 0 -0.0024820220005449512 0.026269012496182773 0 -0.0021141434214978234 0.025710729364781755 0 -0.0016886252900771414 0.026631088536220423 0 -0.0016886252900771414 0.026631088536220423 0 -0.0024513582782870426 0.026859308260920665 0 -0.0020006519030243055 0.027357867175337881 0 -0.0024820220005449512 0.026269012496182773 0 -0.0016886252900771414 0.026631088536220423 0 -0.0024513582782870426 0.026859308260920665 0 -0.0024513582782870426 0.026859308260920665 0 -0.0029779363609867644 0.027347276388964465 0 -0.0031369916770292937 0.026604907872150727 0 -0.0024820220005449512 0.026269012496182773 0 -0.0024513582782870426 0.026859308260920665 0 -0.0031369916770292937 0.026604907872150727 0 -0.0024513582782870426 0.026859308260920665 0 -0.0029779363609867644 0.027347276388964465 0 -0.0020006519030243055 0.027357867175337881 0 -0.0029779363609867644 0.027347276388964465 0 -0.0020006519030243055 0.027357867175337881 0 -0.0025507610848393022 0.02813790354404988 0 -0.0016886252900771414 0.026631088536220423 0 -0.0020006519030243055 0.027357867175337881 0 -0.0012267752704707567 0.027435924078950111 0 -0.0020006519030243055 0.027357867175337881 0 -0.0012267752704707567 0.027435924078950111 0 -0.0015602846444871554 0.027824452646302844 0 -0.0016886252900771414 0.026631088536220423 0 -0.0012267752704707567 0.027435924078950111 0 -0.00046932969662323939 0.026992630044138936 0 0.00033755642798286966 0.027891465365978568 0 -0.00033543805102923723 0.027022893673563274 0 -0.0012267752704707567 0.027435924078950111 0 -0.00046932969662323939 0.026992630044138936 0 -0.00054696678215309334 0.027745953599951592 0 0.00035075331756186708 0.02805289403368251 0 -0.00046932969662323939 0.026992630044138936 0 -0.00054696678215309334 0.027745953599951592 0 0.00019988089876691285 0.026215496698914317 0 -0.0010028123067467437 0.026134196451543721 0 -0.00027437959235687898 0.027171265758798566 0 -0.0010408929568159269 0.026024977882336257 0 -0.00033543805102923723 0.027022893673563274 0 -0.0011566754815910461 0.025994395851402029 0 -0.0016886252900771414 0.026631088536220423 0 -0.00046932969662323939 0.026992630044138936 0 -0.0050331044681828684 0.026080729488828471 0 -0.0058324719660506506 0.026854934003543333 0 -0.0062992537246035589 0.026140646480628815 0 -0.0057169208810421944 0.025000052545865875 0 -0.0050331044681828684 0.026080729488828471 0 -0.0062992537246035589 0.026140646480628815 0 -0.0057193454179204723 0.025000130917391034 0 -0.0073782554266002007 0.025559733828730669 0 -0.0050053633570000021 0.025001068634196912 0 -0.0052608024810691517 0.025996142464736211 0 -0.0050047558754012234 0.024999992194122193 0 -0.0049362363831844357 0.026145704412353438 0 -0.00433581869875107 0.025591022734017432 0 -0.0057169208810421944 0.025000052545865875 0 -0.0050051033213902116 0.024999923171823413 0 -0.0050331044681828684 0.026080729488828471 0 -0.0049362363831844357 0.026145704412353438 0 -0.00433581869875107 0.025591022734017432 0 -0.0038929068984749978 0.026193833934704758 0 -0.0049362363831844357 0.026145704412353438 0 -0.0038929068984749978 0.026193833934704758 0 -0.0044826896181734861 0.026675777289994235 0 -0.0050047558754012234 0.024999992194122193 0 -0.00433581869875107 0.025591022734017432 0 -0.0034985968544796698 0.024999992045890644 0 -0.0034993177232296897 0.025000839216985638 0 -0.0041054640238843108 0.02595821074901998 0 -0.00433581869875107 0.025591022734017432 0 -0.0034985968544796698 0.024999992045890644 0 -0.0038929068984749978 0.026193833934704758 0 -0.0029639437545096623 0.025706442844724047 0 -0.0034982222017263887 0.024999966132944137 0 -0.0036625694965403245 0.026071891229389722 0 -0.0029639437545096623 0.025706442844724047 0 -0.0036625694965403245 0.026071891229389722 0 -0.0031369916770292937 0.026604907872150727 0 -0.0036625694965403245 0.026071891229389722 0 -0.0031369916770292937 0.026604907872150727 0 -0.0039373964642497447 0.027137873806460506 0 -0.0029779363609867644 0.027347276388964465 0 -0.0031369916770292937 0.026604907872150727 0 -0.0039373964642497447 0.027137873806460506 0 -0.0029779363609867644 0.027347276388964465 0 -0.0039373964642497447 0.027137873806460506 0 -0.0037073498425856106 0.027943556979252271 0 -0.0042555245342416467 0.027311850475061031 0 -0.004882200850923577 0.027223792978304552 0 -0.0048499050840502787 0.028252357845776538 0 -0.0048739291043802084 0.026730015591813667 0 -0.0059308290580530939 0.026634683592691447 0 -0.0041054640238843108 0.02595821074901998 0 -0.0048739291043802084 0.026730015591813667 0 -0.0038929068984749978 0.026193833934704758 0 -0.0042555245342416467 0.027311850475061031 0 -0.0044826896181734861 0.026675777289994235 0 -0.0042555245342416467 0.027311850475061031 0 -0.0044826896181734861 0.026675777289994235 0 -0.004882200850923577 0.027223792978304552 0 -0.0050331044681828684 0.026080729488828471 0 -0.0050277849580996261 0.027105577553512176 0 -0.0058324719660506506 0.026854934003543333 0 -0.0052608024810691517 0.025996142464736211 0 -0.0056583324467815053 0.026744392633305736 0 -0.0049362363831844357 0.026145704412353438 0 -0.0044826896181734861 0.026675777289994235 0 -0.004882200850923577 0.027223792978304552 0 -0.0056583324467815053 0.026744392633305736 0 -0.0064282298326360128 0.026387674407406834 0 -0.0050277849580996261 0.027105577553512176 0 -0.0059347373824653119 0.027685443819634298 0 -0.00500372934218761 0.028122720409503005 0 -0.0050277849580996261 0.027105577553512176 0 -0.0059347373824653119 0.027685443819634298 0 -0.0058324719660506506 0.026854934003543333 0 -0.010677539714144252 0.024722893134769962 0 -0.010679542517973989 0.024615530585213159 0 -0.01054951559060513 0.024669092298558723 0 -0.010677539714144252 0.024722893134769962 0 -0.010817909682854367 0.024622790566591564 0 -0.010679542517973989 0.024615530585213159 0 -0.010658170349855091 0.024853077483498534 0 -0.010677539714144252 0.024722893134769962 0 -0.010550458297904375 0.02479366317984372 0 -0.010658170349855091 0.024853077483498534 0 -0.010677539714144252 0.024722893134769962 0 -0.01080827795516298 0.024781919246362864 0 -0.0081082184226667284 0.025933528324141863 0 -0.0064282298326360128 0.026387674407406834 0 -0.0064282298326360128 0.026387674407406834 0 -0.0059308290580530939 0.026634683592691447 0 -0.0064017681570087432 0.026930380436940939 0 -0.00641816424223309 0.026400483840092477 0 -0.0065518384446498715 0.026858962549077728 0 -0.010677539714144252 0.024722893134769962 0 -0.01080827795516298 0.024781919246362864 0 -0.010817909682854367 0.024622790566591564 0 -0.0064282298326360128 0.026387674407406834 0 -0.0066188999951826647 0.026609268089124741 0 -0.0066188999951826647 0.026609268089124741 0 -0.0059308290580530939 0.026634683592691447 0 -0.0042766865247372892 0.028669534111658259 0 -0.00400858870319451 0.028331030767596493 0 -0.0041376618092014835 0.028115882083749006 0 -0.0042766865247372892 0.028669534111658259 0 -0.0038764641836183775 0.028567066476966226 0 -0.00400858870319451 0.028331030767596493 0 -0.0038764641836183775 0.028567066476966226 0 -0.0037579624057026049 0.028273429645470569 0 -0.0035993250674202495 0.028542306255255404 0 -0.0038764641836183775 0.028567066476966226 0 -0.0035993250674202495 0.028542306255255404 0 -0.0037347423251797556 0.028701625552262643 0 -0.0038764641836183775 0.028567066476966226 0 -0.0037579624057026049 0.028273429645470569 0 -0.00400858870319451 0.028331030767596493 0 -0.0037579624057026049 0.028273429645470569 0 -0.00400858870319451 0.028331030767596493 0 -0.0039095373548010594 0.028205581465248951 0 -0.00400858870319451 0.028331030767596493 0 -0.0040773742643638007 0.028148778263779674 0 -0.0039095373548010594 0.028205581465248951 0 -0.0041628293447146768 0.028116944463786969 0 -0.0040773742643638007 0.028148778263779674 0 -0.0037073498425856106 0.027943556979252271 0 -0.0039373964642497447 0.027137873806460506 0 -0.0041628293447146768 0.028116944463786969 0 -0.0037073498425856106 0.027943556979252271 0 -0.0042555245342416467 0.027311850475061031 0 -0.0048499050840502787 0.028252357845776538 0 -0.0045800758562908224 0.028379996223656476 0 -0.0059308290580530939 0.026634683592691447 0 -0.0059116990757846072 0.026645322247207733 0 -0.00400858870319451 0.028331030767596493 0 -0.0041376618092014835 0.028115882083749006 0 -0.0040773742643638007 0.028148778263779674 0 -0.0037579624057026049 0.028273429645470569 0 -0.0037073498425856106 0.027943556979252271 0 -0.0039095373548010594 0.028205581465248951 0 -0.0040773742643638007 0.028148778263779674 0 -0.0037073498425856106 0.027943556979252271 0 -0.0039095373548010594 0.028205581465248951 0 -0.0037073498425856106 0.027943556979252271 0 -0.0033154895616540007 0.028243443578818334 0 -0.0035546300624422493 0.02829850946584422 0 -0.0037073498425856106 0.027943556979252271 0 -0.0033154895616540007 0.028243443578818334 0 -0.0029451176724713465 0.028042321015607781 0 -0.0029779363609867644 0.027347276388964465 0 -0.0037073498425856106 0.027943556979252271 0 -0.0025507610848393022 0.02813790354404988 0 -0.0030636913487897717 0.027932703560375027 0 -0.002530162838273248 0.02796456293826621 0 -0.0037579624057026049 0.028273429645470569 0 -0.0037073498425856106 0.027943556979252271 0 -0.0035546300624422493 0.02829850946584422 0 -0.0033154895616540007 0.028243443578818334 0 -0.0035546300624422493 0.02829850946584422 0 -0.0034311072503771084 0.028494819143634841 0 -0.0035546300624422493 0.02829850946584422 0 -0.0035993250674202495 0.028542306255255404 0 -0.0034311072503771084 0.028494819143634841 0 -0.0037579624057026049 0.028273429645470569 0 -0.0035546300624422493 0.02829850946584422 0 -0.0035993250674202495 0.028542306255255404 0 -0.0035993250674202495 0.028542306255255404 0 -0.0034311072503771084 0.028494819143634841 0 -0.0034562390084806514 0.028710708133147668 0 -0.0033154895616540007 0.028243443578818334 0 -0.0034311072503771084 0.028494819143634841 0 -0.0032287801761754558 0.028678928653647622 0 -0.0034311072503771084 0.028494819143634841 0 -0.0034562390084806514 0.028710708133147668 0 -0.0032287801761754558 0.028678928653647622 0 -0.0034562390084806514 0.028710708133147668 0 -0.0035141760401885764 0.029130526221422197 0 -0.0032287801761754558 0.028678928653647622 0 -0.0035993250674202495 0.028542306255255404 0 -0.0036039576716121371 0.028836208955108709 0 -0.0037347423251797556 0.028701625552262643 0 -0.0034562390084806514 0.028710708133147668 0 -0.0036039576716121371 0.028836208955108709 0 -0.0035141760401885764 0.029130526221422197 0 -0.0035993250674202495 0.028542306255255404 0 -0.0034562390084806514 0.028710708133147668 0 -0.0036039576716121371 0.028836208955108709 0 -0.0036039576716121371 0.028836208955108709 0 -0.0035141760401885764 0.029130526221422197 0 -0.0036908427401315821 0.02897583194656049 0 -0.0035141760401885764 0.029130526221422197 0 -0.0036908427401315821 0.02897583194656049 0 -0.0037875990566489052 0.029077756852293111 0 -0.0009914524356737205 0.028703884179521893 0 -0.0010224128924717279 0.02887216346862774 0 -0.00079596275495828837 0.028879702637716678 0 -0.0010224128924717279 0.02887216346862774 0 -0.0010153825341565532 0.029005626497644186 0 -0.00079596275495828837 0.028879702637716678 0 -0.0010153825341565532 0.029005626497644186 0 -0.0012783068614482449 0.028900429153553765 0 -0.0011685833148676592 0.029104219499129357 0 -0.0010224128924717279 0.02887216346862774 0 -0.0010153825341565532 0.029005626497644186 0 -0.0012783068614482449 0.028900429153553765 0 -0.0031685069425424479 0.027105943486202596 0 -0.0036621683659372032 0.027100305470754427 0 -0.0009914524356737205 0.028703884179521893 0 -0.0010224128924717279 0.02887216346862774 0 -0.0012783068614482449 0.028900429153553765 0 -0.001110074290425333 0.028719000349302887 0 -0.0009914524356737205 0.028703884179521893 0 -0.0013611413932409417 0.028897879964324226 0 -0.0039198097709585286 0.029267744938056953 0 -0.0040370593791744652 0.02906800976740366 0 -0.0037875990566489052 0.029077756852293111 0 -0.0035141760401885764 0.029130526221422197 0 -0.0039198097709585286 0.029267744938056953 0 -0.0037875990566489052 0.029077756852293111 0 -0.0032454379069146882 0.027857331020677556 0 -0.0053013489239263746 0.027118474257037901 0 -0.0035141760401885764 0.029130526221422197 0 -0.0039198097709585286 0.029267744938056953 0 -0.0041789804796409369 0.029606523064543651 0 -0.001110074290425333 0.028719000349302887 0 -0.0013611413932409417 0.028897879964324226 0 -0.0017431491624954022 0.029089090550625071 0 -0.0036621683659372032 0.027100305470754427 0 -0.0053013489239263746 0.027118474257037901 0 -0.0039198097709585286 0.029267744938056953 0 -0.0041248765101132663 0.029368602502606537 0 -0.0041789804796409369 0.029606523064543651 0 -0.0041248765101132663 0.029368602502606537 0 -0.0040370593791744652 0.02906800976740366 0 -0.0042560910533095556 0.029161727835202735 0 -0.0039198097709585286 0.029267744938056953 0 -0.0041248765101132663 0.029368602502606537 0 -0.0040370593791744652 0.02906800976740366 0 -0.0040370593791744652 0.02906800976740366 0 -0.0037875990566489052 0.029077756852293111 0 -0.0038578363994846354 0.028858745184592118 0 -0.0036908427401315821 0.02897583194656049 0 -0.0037875990566489052 0.029077756852293111 0 -0.0038578363994846354 0.028858745184592118 0 -0.0036039576716121371 0.028836208955108709 0 -0.0037347423251797556 0.028701625552262643 0 -0.0038578363994846354 0.028858745184592118 0 -0.0036039576716121371 0.028836208955108709 0 -0.0036908427401315821 0.02897583194656049 0 -0.0038578363994846354 0.028858745184592118 0 -0.0038764641836183775 0.028567066476966226 0 -0.0037347423251797556 0.028701625552262643 0 -0.0038578363994846354 0.028858745184592118 0 -0.0042766865247372892 0.028669534111658259 0 -0.0040370593791744652 0.02906800976740366 0 -0.0038578363994846354 0.028858745184592118 0 -0.0042766865247372892 0.028669534111658259 0 -0.0038764641836183775 0.028567066476966226 0 -0.0038578363994846354 0.028858745184592118 0 -0.0072311565018018439 0.026679511252534892 0 -0.0071834208978455698 0.02651349782323896 0 -0.0072355349800829966 0.026548114088457628 0 -0.0066188999951826647 0.026609268089124741 0 -0.0075740775775042079 0.026166796148759677 0 -0.0042766865247372892 0.028669534111658259 0 -0.0040370593791744652 0.02906800976740366 0 -0.0042560910533095556 0.029161727835202735 0 -0.0066188999951826647 0.026609268089124741 0 -0.0062477156210777873 0.027190698541537849 0 -0.010817909682854367 0.024622790566591564 0 -0.010779989546899687 0.024463588772601699 0 -0.010705374480954278 0.024525540033703212 0 -0.0062477156210777873 0.027190698541537849 0 -0.0060130626983695814 0.027023476556602297 0 -0.0071834208978455698 0.02651349782323896 0 -0.0072355349800829966 0.026548114088457628 0 -0.0072404186990308777 0.026414185593047031 0 -0.0041248765101132663 0.029368602502606537 0 -0.0042560910533095556 0.029161727835202735 0 -0.0042442126600539887 0.02965466486180153 0 -0.0041248765101132663 0.029368602502606537 0 -0.0041789804796409369 0.029606523064543651 0 -0.0042442126600539887 0.02965466486180153 0 -0.010668075085757579 0.024411117515281803 0 -0.010705374480954278 0.024525540033703212 0 -0.01057927928918698 0.024513181967700744 0 -0.010779989546899687 0.024463588772601699 0 -0.010668075085757579 0.024411117515281803 0 -0.010742014159042164 0.024302501860025843 0 -0.010779989546899687 0.024463588772601699 0 -0.010668075085757579 0.024411117515281803 0 -0.010705374480954278 0.024525540033703212 0 -0.010817909682854367 0.024622790566591564 0 -0.010705374480954278 0.024525540033703212 0 -0.010679542517973989 0.024615530585213159 0 -0.010705374480954278 0.024525540033703212 0 -0.010679542517973989 0.024615530585213159 0 -0.01057927928918698 0.024513181967700744 0 8.369125421932587e-05 0.028180290273310735 0 0.00025955286123996213 0.028093679181741604 0 -6.9149289915689503e-05 0.028019564146394289 0 8.369125421932587e-05 0.028180290273310735 0 -0.00014574614359066939 0.02827310221893399 0 -6.9149289915689503e-05 0.028019564146394289 0 -0.00014574614359066939 0.02827310221893399 0 7.0807795478576728e-05 0.028349821859765308 0 -0.00021813496066281214 0.028525268727428259 0 8.369125421932587e-05 0.028180290273310735 0 -0.00014574614359066939 0.02827310221893399 0 7.0807795478576728e-05 0.028349821859765308 0 8.369125421932587e-05 0.028180290273310735 0 7.0807795478576728e-05 0.028349821859765308 0 0.00022641185872234034 0.028240163272326684 0 7.0807795478576728e-05 0.028349821859765308 0 0.00022641185872234034 0.028240163272326684 0 0.00036062734179146143 0.028442306711078627 0 0.00045487385472992606 0.028176433235190094 0 0.00039062149992194874 0.028250076400606113 0 0.00025955286123996213 0.028093679181741604 0 0.00039062149992194874 0.028250076400606113 0 0.00022641185872234034 0.028240163272326684 0 0.00036062734179146143 0.028442306711078627 0 0.00039062149992194874 0.028250076400606113 0 0.00022641185872234034 0.028240163272326684 0 0.00025955286123996213 0.028093679181741604 0 8.369125421932587e-05 0.028180290273310735 0 0.00022641185872234034 0.028240163272326684 0 0.00025955286123996213 0.028093679181741604 0 -0.00041204304383422245 0.028358457209179771 0 -0.00054696678215309334 0.027745953599951592 0 -0.0010725536130341002 0.02814281407177156 0 -0.00039267785218146696 0.028107762691634102 0 -0.0006449462765393012 0.028077844686533061 0 0.00045487385472992606 0.028176433235190094 0 0.00035075331756186708 0.02805289403368251 0 -0.00041204304383422245 0.028358457209179771 0 0.00035075331756186708 0.02805289403368251 0 -0.00041204304383422245 0.028358457209179771 0 -0.00054696678215309334 0.027745953599951592 0 -0.0006449462765393012 0.028077844686533061 0 -0.0013441137017631147 0.027982522063082927 0 -0.00041204304383422245 0.028358457209179771 0 -0.0010725536130341002 0.02814281407177156 0 -0.0012956969773398105 0.028316707560921806 0 -0.0012267752704707567 0.027435924078950111 0 -0.00054696678215309334 0.027745953599951592 0 -0.0010725536130341002 0.02814281407177156 0 -0.0010725536130341002 0.02814281407177156 0 -0.0012848153918043124 0.028299347268073715 0 -0.0015602846444871554 0.027824452646302844 0 -0.001341116354415551 0.02798395439106293 0 -0.0013441137017631147 0.027982522063082927 0 -0.0012267752704707567 0.027435924078950111 0 -0.0010725536130341002 0.02814281407177156 0 -0.0015602846444871554 0.027824452646302844 0 -0.0012848153918043124 0.028299347268073715 0 -0.0015602846444871554 0.027824452646302844 0 -0.0025507610848393022 0.02813790354404988 0 -0.0013441137017631147 0.027982522063082927 0 -0.002530162838273248 0.02796456293826621 0 -0.0020006519030243055 0.027357867175337881 0 -0.0015602846444871554 0.027824452646302844 0 -0.0025507610848393022 0.02813790354404988 0 -0.0033154895616540007 0.028243443578818334 0 -0.0029451176724713465 0.028042321015607781 0 -0.0028341794340195352 0.02863306702657413 0 -0.0033154895616540007 0.028243443578818334 0 -0.0028341794340195352 0.02863306702657413 0 -0.0032287801761754558 0.028678928653647622 0 -0.0021613910270745673 0.02813102764821895 0 -0.0029451176724713465 0.028042321015607781 0 -0.0028341794340195352 0.02863306702657413 0 -0.0013441137017631147 0.027982522063082927 0 -0.0021018109476984527 0.028040158744122537 0 -0.00014574614359066939 0.02827310221893399 0 -6.9149289915689503e-05 0.028019564146394289 0 -0.0005679794355185427 0.028352671725847441 0 -0.00014574614359066939 0.02827310221893399 0 -0.0005679794355185427 0.028352671725847441 0 -0.00021813496066281214 0.028525268727428259 0 -0.0005679794355185427 0.028352671725847441 0 -0.00021813496066281214 0.028525268727428259 0 -0.00054466967640749394 0.028718140950420846 0 -0.00021813496066281214 0.028525268727428259 0 -0.00054466967640749394 0.028718140950420846 0 -0.00020636176013863458 0.02884655270834453 0 -0.0035141760401885764 0.029130526221422197 0 -0.0028341794340195352 0.02863306702657413 0 -0.0032287801761754558 0.028678928653647622 0 -0.001110074290425333 0.028719000349302887 0 -0.0009914524356737205 0.028703884179521893 0 -0.0005679794355185427 0.028352671725847441 0 -0.0009914524356737205 0.028703884179521893 0 -0.0005679794355185427 0.028352671725847441 0 -0.00054466967640749394 0.028718140950420846 0 -0.0032454379069146882 0.027857331020677556 0 -0.0021018109476984527 0.028040158744122537 0 -0.00054466967640749394 0.028718140950420846 0 -0.00079596275495828837 0.028879702637716678 0 -0.00051250687200294026 0.02907557205864289 0 -0.0009914524356737205 0.028703884179521893 0 -0.00054466967640749394 0.028718140950420846 0 -0.00079596275495828837 0.028879702637716678 0 -0.00079596275495828837 0.028879702637716678 0 -0.00051250687200294026 0.02907557205864289 0 -0.0008106256339645648 0.029143289407940014 0 -0.0010153825341565532 0.029005626497644186 0 -0.00079596275495828837 0.028879702637716678 0 -0.0008106256339645648 0.029143289407940014 0 -0.00054466967640749394 0.028718140950420846 0 -0.00020636176013863458 0.02884655270834453 0 -0.00051250687200294026 0.02907557205864289 0 -0.00020636176013863458 0.02884655270834453 0 -0.00051250687200294026 0.02907557205864289 0 -0.00015790627022489411 0.029221038403431349 0 -0.00020636176013863458 0.02884655270834453 0 0.00016602998805235122 0.028985803440724288 0 -0.00015790627022489411 0.029221038403431349 0 -0.00020636176013863458 0.02884655270834453 0 0.00016602998805235122 0.028985803440724288 0 7.0960770069832647e-05 0.028624309585834534 0 -0.00021813496066281214 0.028525268727428259 0 -0.00020636176013863458 0.02884655270834453 0 7.0960770069832647e-05 0.028624309585834534 0 7.0807795478576728e-05 0.028349821859765308 0 -0.00021813496066281214 0.028525268727428259 0 7.0960770069832647e-05 0.028624309585834534 0 7.0807795478576728e-05 0.028349821859765308 0 7.0960770069832647e-05 0.028624309585834534 0 0.00036062734179146143 0.028442306711078627 0 7.0960770069832647e-05 0.028624309585834534 0 0.00036062734179146143 0.028442306711078627 0 0.00035312239807520191 0.028697954720264107 0 0.00062844071998562317 0.028641028854432898 0 0.00036062734179146143 0.028442306711078627 0 0.00035312239807520191 0.028697954720264107 0 0.00057650299385029699 0.028915363887184176 0 0.00016602998805235122 0.028985803440724288 0 0.00035312239807520191 0.028697954720264107 0 0.00057650299385029699 0.028915363887184176 0 0.00016602998805235122 0.028985803440724288 0 0.00049272996371113771 0.029209127946494703 0 0.00016602998805235122 0.028985803440724288 0 7.0960770069832647e-05 0.028624309585834534 0 0.00035312239807520191 0.028697954720264107 0 0.00062844071998562317 0.028641028854432898 0 0.00057650299385029699 0.028915363887184176 0 0.00035312239807520191 0.028697954720264107 0 0.00079787987563190838 0.029555558759252577 0 0.00049272996371113771 0.029209127946494703 0 0.0002292229224806167 0.029496189612829286 0 0.00016602998805235122 0.028985803440724288 0 0.00049272996371113771 0.029209127946494703 0 0.0002292229224806167 0.029496189612829286 0 -0.00015790627022489411 0.029221038403431349 0 0.0002292229224806167 0.029496189612829286 0 -0.00019476387262348354 0.029585687112173808 0 0.00016602998805235122 0.028985803440724288 0 -0.00015790627022489411 0.029221038403431349 0 0.0002292229224806167 0.029496189612829286 0 0.0002292229224806167 0.029496189612829286 0 1.0317202810236575e-05 0.029882135571160699 0 -0.00019476387262348354 0.029585687112173808 0 0.0002292229224806167 0.029496189612829286 0 0.00035797727715104332 0.02995805721706513 0 1.0317202810236575e-05 0.029882135571160699 0 0.00079787987563190838 0.029555558759252577 0 0.0002292229224806167 0.029496189612829286 0 0.00035797727715104332 0.02995805721706513 0 0.00035797727715104332 0.02995805721706513 0 1.0317202810236575e-05 0.029882135571160699 0 -3.8826849471380882e-05 0.030370329967979941 0 1.0317202810236575e-05 0.029882135571160699 0 -3.8826849471380882e-05 0.030370329967979941 0 -0.00030184698046533152 0.029981146233269123 0 1.0317202810236575e-05 0.029882135571160699 0 -0.00030184698046533152 0.029981146233269123 0 -0.00019476387262348354 0.029585687112173808 0 0.0023792949136650253 0.026767485204264512 0 0.0028524167832171179 0.027675137808049106 0 0.0029394032954882538 0.026943062152269732 0 0.0028524167832171179 0.027675137808049106 0 0.0035147191086311131 0.026936901395531739 0 0.0029394032954882538 0.026943062152269732 0 0.00091873491084926736 0.028145670821987847 0 0.00031453249413104605 0.027182563391166845 0 -0.00067522149673322404 0.030226472315203853 0 -0.0011130108767287825 0.030222430206532751 0 -0.0007313956393516089 0.030537365419794574 0 -0.00067522149673322404 0.030226472315203853 0 -0.00041587242835737281 0.030421550964489015 0 -0.0007313956393516089 0.030537365419794574 0 -3.8826849471380882e-05 0.030370329967979941 0 -0.00030184698046533152 0.029981146233269123 0 -0.00041587242835737281 0.030421550964489015 0 -0.00067522149673322404 0.030226472315203853 0 -0.00030184698046533152 0.029981146233269123 0 -0.00041587242835737281 0.030421550964489015 0 -0.00030184698046533152 0.029981146233269123 0 -0.00062678311620384234 0.029910593794453266 0 -0.00057618938880617775 0.029597494801965413 0 -0.00067522149673322404 0.030226472315203853 0 -0.00030184698046533152 0.029981146233269123 0 -0.00062678311620384234 0.029910593794453266 0 -0.00067522149673322404 0.030226472315203853 0 -0.00062678311620384234 0.029910593794453266 0 -0.00093255481668845183 0.029954998508278156 0 -0.00062678311620384234 0.029910593794453266 0 -0.00091465916959710151 0.029658687506422674 0 -0.00093255481668845183 0.029954998508278156 0 -0.00062678311620384234 0.029910593794453266 0 -0.00057618938880617775 0.029597494801965413 0 -0.00091465916959710151 0.029658687506422674 0 -0.00057618938880617775 0.029597494801965413 0 -0.00083714364389423615 0.029419981055666677 0 -0.00064135875453227137 0.029319904622891895 0 -0.00057618938880617775 0.029597494801965413 0 -0.00042127838526804081 0.029356880562422 0 -0.00064135875453227137 0.029319904622891895 0 -0.00057618938880617775 0.029597494801965413 0 -0.00083714364389423615 0.029419981055666677 0 -0.00091465916959710151 0.029658687506422674 0 -0.00057618938880617775 0.029597494801965413 0 -0.00019476387262348354 0.029585687112173808 0 -0.00042127838526804081 0.029356880562422 0 -0.00030184698046533152 0.029981146233269123 0 -0.00057618938880617775 0.029597494801965413 0 -0.00019476387262348354 0.029585687112173808 0 -0.00051250687200294026 0.02907557205864289 0 -0.00015790627022489411 0.029221038403431349 0 -0.00042127838526804081 0.029356880562422 0 -0.00015790627022489411 0.029221038403431349 0 -0.00019476387262348354 0.029585687112173808 0 -0.00042127838526804081 0.029356880562422 0 -0.00051250687200294026 0.02907557205864289 0 -0.00042127838526804081 0.029356880562422 0 -0.00064135875453227137 0.029319904622891895 0 -0.00083714364389423615 0.029419981055666677 0 -0.00064135875453227137 0.029319904622891895 0 -0.0008106256339645648 0.029143289407940014 0 -0.00051250687200294026 0.02907557205864289 0 -0.00064135875453227137 0.029319904622891895 0 -0.0008106256339645648 0.029143289407940014 0 -0.0010153825341565532 0.029005626497644186 0 -0.0008106256339645648 0.029143289407940014 0 -0.001045217603700562 0.029223760236051024 0 -0.00083714364389423615 0.029419981055666677 0 -0.0008106256339645648 0.029143289407940014 0 -0.001045217603700562 0.029223760236051024 0 -0.00083714364389423615 0.029419981055666677 0 -0.001045217603700562 0.029223760236051024 0 -0.0010911386701085741 0.029432249044249317 0 -0.001045217603700562 0.029223760236051024 0 -0.0013350432633416221 0.029287451206183878 0 -0.0010911386701085741 0.029432249044249317 0 -0.001045217603700562 0.029223760236051024 0 -0.0011685833148676592 0.029104219499129357 0 -0.0013350432633416221 0.029287451206183878 0 -0.0010153825341565532 0.029005626497644186 0 -0.001045217603700562 0.029223760236051024 0 -0.0011685833148676592 0.029104219499129357 0 -0.0012783068614482449 0.028900429153553765 0 -0.0011685833148676592 0.029104219499129357 0 -0.0013350432633416221 0.029287451206183878 0 -0.0013350432633416221 0.029287451206183878 0 -0.001619352751030674 0.02912685674629887 0 -0.0015920623481989284 0.029765688625229065 0 -0.0012783068614482449 0.028900429153553765 0 -0.0013350432633416221 0.029287451206183878 0 -0.0015705549698667601 0.029090618469655927 0 -0.0013350432633416221 0.029287451206183878 0 -0.0015705549698667601 0.029090618469655927 0 -0.001619352751030674 0.02912685674629887 0 -0.0013350432633416221 0.029287451206183878 0 -0.0011967141939576097 0.029718037950730365 0 -0.0015920623481989284 0.029765688625229065 0 -0.0013350432633416221 0.029287451206183878 0 -0.0011967141939576097 0.029718037950730365 0 -0.0010911386701085741 0.029432249044249317 0 -0.0011967141939576097 0.029718037950730365 0 -0.00091465916959710151 0.029658687506422674 0 -0.0010911386701085741 0.029432249044249317 0 -0.00083714364389423615 0.029419981055666677 0 -0.00091465916959710151 0.029658687506422674 0 -0.0010911386701085741 0.029432249044249317 0 -0.010742014159042164 0.024302501860025843 0 -0.010590345111630197 0.02423608729951697 0 -0.010613217536281047 0.024327355141235157 0 -0.010668075085757579 0.024411117515281803 0 -0.010742014159042164 0.024302501860025843 0 -0.010613217536281047 0.024327355141235157 0 -0.011111063563713233 0.024545430936352575 0 -0.011441902141761058 0.024765844536884039 0 -0.011474228463575825 0.024009523550478043 0 -0.0071834208978455698 0.02651349782323896 0 -0.0071372651492259166 0.026346633000222761 0 -0.0072404186990308777 0.026414185593047031 0 -0.0075740775775042079 0.026166796148759677 0 -0.0080537900310552815 0.026450778609410797 0 -0.0080537900310552815 0.026450778609410797 0 -0.0060130626983695814 0.027023476556602297 0 -0.0053013489239263746 0.027118474257037901 0 -0.0060130626983695814 0.027023476556602297 0 -0.011111063563713233 0.024545430936352575 0 -0.011311179993135464 0.024032742969026775 0 -0.011474228463575825 0.024009523550478043 0 -0.011111063563713233 0.024545430936352575 0 -0.011050610459228916 0.024205042137533949 0 -0.011311179993135464 0.024032742969026775 0 -0.0060130626983695814 0.027023476556602297 0 -0.0063442986914432082 0.026846196255882075 0 -0.011050610459228916 0.024205042137533949 0 -0.010922453917674541 0.023978707509059196 0 -0.011311179993135464 0.024032742969026775 0 -0.011076470544005229 0.024518505173984545 0 -0.01083919272022482 0.02428947942977382 0 -0.010568652449603718 0.024157010046115292 0 -0.010742014159042164 0.024302501860025843 0 -0.010590345111630197 0.02423608729951697 0 -0.010568652449603718 0.024157010046115292 0 -0.0080537900310552815 0.026450778609410797 0 -0.0091403347181402174 0.026076554573869277 0 -0.011111063563713233 0.024545430936352575 0 -0.011050610459228916 0.024205042137533949 0 -0.01083919272022482 0.02428947942977382 0 -0.0080537900310552815 0.026450778609410797 0 -0.0084286812128548452 0.026374782425804408 0 -0.011050610459228916 0.024205042137533949 0 -0.01083919272022482 0.02428947942977382 0 -0.010922453917674541 0.023978707509059196 0 -0.01083919272022482 0.02428947942977382 0 -0.010922453917674541 0.023978707509059196 0 -0.010685433406019277 0.02406934874533307 0 -0.011017841501498276 0.02375541591691253 0 -0.011013824839868028 0.02349593888370638 0 -0.010692884320597075 0.023882370504151301 0 -0.011013726674569471 0.023946156622056354 0 -0.011192678268747138 0.023819936387095213 0 -0.011311179993135464 0.024032742969026775 0 -0.011017841501498276 0.02375541591691253 0 -0.011013726674569471 0.023946156622056354 0 -0.010692884320597075 0.023882370504151301 0 -0.011936745421264688 0.022687738142584561 0 -0.011766504599815684 0.022795478246069902 0 -0.011017841501498276 0.02375541591691253 0 -0.011192678268747138 0.023819936387095213 0 -0.011164456334538079 0.023633267331547903 0 -0.011017841501498276 0.02375541591691253 0 -0.011013726674569471 0.023946156622056354 0 -0.011192678268747138 0.023819936387095213 0 -0.011192678268747138 0.023819936387095213 0 -0.011352043164894991 0.023685615323309015 0 -0.011164456334538079 0.023633267331547903 0 -0.011192678268747138 0.023819936387095213 0 -0.011331182135014299 0.023885401977203478 0 -0.011352043164894991 0.023685615323309015 0 -0.011192678268747138 0.023819936387095213 0 -0.011311179993135464 0.024032742969026775 0 -0.011331182135014299 0.023885401977203478 0 -0.011311179993135464 0.024032742969026775 0 -0.011331182135014299 0.023885401977203478 0 -0.011474228463575825 0.024009523550478043 0 -0.011331182135014299 0.023885401977203478 0 -0.011474228463575825 0.024009523550478043 0 -0.011352043164894991 0.023685615323309015 0 -0.0063442986914432082 0.026846196255882075 0 -0.0065299939206014462 0.02641733021681909 0 -0.011474228463575825 0.024009523550478043 0 -0.011352043164894991 0.023685615323309015 0 -0.011472407075217314 0.023378121689164109 0 -0.011352043164894991 0.023685615323309015 0 -0.011256122791180795 0.023474330908862209 0 -0.011472407075217314 0.023378121689164109 0 -0.011352043164894991 0.023685615323309015 0 -0.011256122791180795 0.023474330908862209 0 -0.011164456334538079 0.023633267331547903 0 -0.011017841501498276 0.02375541591691253 0 -0.011164456334538079 0.023633267331547903 0 -0.011013824839868028 0.02349593888370638 0 -0.011256122791180795 0.023474330908862209 0 -0.011164456334538079 0.023633267331547903 0 -0.011013824839868028 0.02349593888370638 0 -0.011256122791180795 0.023474330908862209 0 -0.011013824839868028 0.02349593888370638 0 -0.011227150338570987 0.023242347476746712 0 -0.0011967141939576097 0.029718037950730365 0 -0.00093255481668845183 0.029954998508278156 0 -0.0011130108767287825 0.030222430206532751 0 -0.0011967141939576097 0.029718037950730365 0 -0.00091465916959710151 0.029658687506422674 0 -0.00093255481668845183 0.029954998508278156 0 -0.0011967141939576097 0.029718037950730365 0 -0.0015920623481989284 0.029765688625229065 0 -0.0011130108767287825 0.030222430206532751 0 -0.0015920623481989284 0.029765688625229065 0 -0.0011130108767287825 0.030222430206532751 0 -0.0015682607731911421 0.030389124378947859 0 -0.00067522149673322404 0.030226472315203853 0 -0.00093255481668845183 0.029954998508278156 0 -0.0011130108767287825 0.030222430206532751 0 -0.0011130108767287825 0.030222430206532751 0 -0.00098912020171032468 0.030899626858918606 0 -0.0015682607731911421 0.030389124378947859 0 -0.0011130108767287825 0.030222430206532751 0 -0.00098912020171032468 0.030899626858918606 0 -0.0007313956393516089 0.030537365419794574 0 -0.0015546150502632303 0.031002423139567095 0 -0.00098912020171032468 0.030899626858918606 0 -0.0015682607731911421 0.030389124378947859 0 -0.0067917395129441817 0.023363771933628912 0 -0.0032999461428561056 0.024583683055234506 0 -0.00450963983704221 0.02200519274885401 0 -0.0044428955042765707 0.021976892470719444 0 -0.0044759917838742879 0.022007774454743462 0 -0.011227150338570987 0.023242347476746712 0 -0.011008299509282579 0.022997079916047054 0 -0.010749694643114444 0.023182947467208316 0 -0.011013824839868028 0.02349593888370638 0 -0.011227150338570987 0.023242347476746712 0 -0.010711163048379779 0.023214168005679901 0 -0.011977128417864675 0.021939399063114682 0 -0.013873762731369072 0.021586196508202028 0 -0.011227150338570987 0.023242347476746712 0 -0.011472407075217314 0.023378121689164109 0 -0.011248341247896464 0.022987480190010505 0 -0.0067917395129441817 0.023363771933628912 0 -0.0065299939206014462 0.02641733021681909 0 -0.011256122791180795 0.023474330908862209 0 -0.011227150338570987 0.023242347476746712 0 -0.011472407075217314 0.023378121689164109 0 -0.011474295719744131 0.022828263648514598 0 -0.011472407075217314 0.023378121689164109 0 -0.011248341247896464 0.022987480190010505 0 -0.011474295719744131 0.022828263648514598 0 -0.011248341247896464 0.022987480190010505 0 -0.011108872690288481 0.022750199779296602 0 -0.011227150338570987 0.023242347476746712 0 -0.011248341247896464 0.022987480190010505 0 -0.011008299509282579 0.022997079916047054 0 -0.011248341247896464 0.022987480190010505 0 -0.011008299509282579 0.022997079916047054 0 -0.011108872690288481 0.022750199779296602 0 -0.011053373326825443 0.019531722090580534 0 -0.01095868082741467 0.019009827808067415 0 -0.010482390901950469 0.019402457909455328 0 -0.011008299509282579 0.022997079916047054 0 -0.011108872690288481 0.022750199779296602 0 -0.010755437484733907 0.022668781569651287 0 -0.011625087604069589 0.019662762850284773 0 -0.011053373326825443 0.019531722090580534 0 -0.011653534207044881 0.018944506190681155 0 -0.0067917395129441817 0.023363771933628912 0 -0.010880562315058857 0.021360871540334121 0 -0.01095868082741467 0.019009827808067415 0 -0.011653534207044881 0.018944506190681155 0 -0.011039576066756445 0.01843173877211279 0 -0.011053373326825443 0.019531722090580534 0 -0.01095868082741467 0.019009827808067415 0 -0.011653534207044881 0.018944506190681155 0 -0.0044428955042765707 0.021976892470719444 0 -0.0044523486569191259 0.022031790766314695 0 -0.0043635642431645201 0.022030282408291375 0 -0.0044492854876976131 0.022064434159435094 0 -0.0044523486569191259 0.022031790766314695 0 -0.0043635642431645201 0.022030282408291375 0 -0.0044492854876976131 0.022064434159435094 0 -0.0044298681648988489 0.022098805116638646 0 -0.0043635642431645201 0.022030282408291375 0 -0.0044910617933882459 0.022002820762915234 0 -0.0044999939373265331 0.022000648267357894 0 -0.0044982517321426373 0.021993286198795457 0 -0.0044910617933882459 0.022002820762915234 0 -0.0044999939373265331 0.022000648267357894 0 -0.0044759917838742879 0.022007774454743462 0 -0.0035979837376609431 0.021403179930571316 0 -0.0036098776427746686 0.021438951517741268 0 -0.0044428955042765707 0.021976892470719444 0 -0.0044759917838742879 0.022007774454743462 0 -0.0044523486569191259 0.022031790766314695 0 -0.0035979837376609431 0.021403179930571316 0 -0.0036324182263825799 0.021446599967518975 0 -0.0044522654160465943 0.022066619574071279 0 -0.0044759917838742879 0.022007774454743462 0 -0.0044523486569191259 0.022031790766314695 0 -0.0067917395129441817 0.023363771933628912 0 -0.0074596722692280926 0.02063135163671093 0 -0.00450963983704221 0.02200519274885401 0 -0.0044934747601500626 0.022003352523696288 0 -0.0044876969948602413 0.021989130587427019 0 -0.00450963983704221 0.02200519274885401 0 -0.0044759917838742879 0.022007774454743462 0 -0.0044934747601500626 0.022003352523696288 0 -0.0044910617933882459 0.022002820762915234 0 -0.0044934747601500626 0.022003352523696288 0 -0.0044982517321426373 0.021993286198795457 0 -0.0044910617933882459 0.022002820762915234 0 -0.0044759917838742879 0.022007774454743462 0 -0.0044934747601500626 0.022003352523696288 0 -0.0044982517321426373 0.021993286198795457 0 -0.0044876969948602413 0.021989130587427019 0 -0.0045065271102717091 0.021962904561912973 0 -0.0044934747601500626 0.022003352523696288 0 -0.0044982517321426373 0.021993286198795457 0 -0.0044876969948602413 0.021989130587427019 0 -0.0024319580887986999 0.02070414443144147 0 -0.0023036595675561692 0.020545498152134044 0 -0.0028346549231170041 0.019919206697047005 0 -0.0044982517321426373 0.021993286198795457 0 -0.0045086985770213372 0.021987157861575256 0 -0.0045065271102717091 0.021962904561912973 0 -0.0038834158310998277 0.020978990929549628 0 -0.0057307001255414679 0.019832096866061296 0 -0.0044999939373265331 0.022000648267357894 0 -0.0044982517321426373 0.021993286198795457 0 -0.0045086985770213372 0.021987157861575256 0 -0.004133543956269586 0.021608670313107241 0 -0.0042681643312601544 0.021350938649842478 0 -0.004147381865589066 0.02120158770795592 0 -0.0035979837376609431 0.021403179930571316 0 -0.0038834158310998277 0.020978990929549628 0 -0.0035979837376609431 0.021403179930571316 0 -0.0032111138239492797 0.021538781105818316 0 -0.0032111138239492797 0.021538781105818316 0 -0.0038834158310998277 0.020978990929549628 0 0.0054822609974577519 0.024621635527287779 0 0.0046782433234514587 0.024557280475939254 0 0.0050012217791092555 0.023677958896669331 0 -0.0032111138239492797 0.021538781105818316 0 -0.00088958963111031037 0.02188079286442756 0 0.0054822609974577519 0.024621635527287779 0 0.0046782433234514587 0.024557280475939254 0 0.0048928961087409068 0.025359888098280384 0 -0.0032111138239492797 0.021538781105818316 0 -0.0014536180883132875 0.022979976169749467 0 0.0046782433234514587 0.024557280475939254 0 0.0048928961087409068 0.025359888098280384 0 0.0039931447901301017 0.025025407223730405 0 0.0048928961087409068 0.025359888098280384 0 0.0039931447901301017 0.025025407223730405 0 0.0039765630401008356 0.025666954314254243 0 0.0046782433234514587 0.024557280475939254 0 0.0039931447901301017 0.025025407223730405 0 0.0040188990893342564 0.024099465576280094 0 0.0046782433234514587 0.024557280475939254 0 0.0040188990893342564 0.024099465576280094 0 0.0050012217791092555 0.023677958896669331 0 0.0040188990893342564 0.024099465576280094 0 0.0033808205433766697 0.024691408572925354 0 0.0030297066694530673 0.023917406916208268 0 0.0039931447901301017 0.025025407223730405 0 0.0040188990893342564 0.024099465576280094 0 0.0033808205433766697 0.024691408572925354 0 0.0023380454695604508 0.02423238204192989 0 0.0026706546187833936 0.024917457088936005 0 0.0030297066694530673 0.023917406916208268 0 0.0033808205433766697 0.024691408572925354 0 0.0026706546187833936 0.024917457088936005 0 0.0030297066694530673 0.023917406916208268 0 0.0033808205433766697 0.024691408572925354 0 0.0026706546187833936 0.024917457088936005 0 0.0033225777135761753 0.025595705901875924 0 0.002500926323419111 0.025972616186703427 0 0.0026706546187833936 0.024917457088936005 0 0.0033225777135761753 0.025595705901875924 0 0.0039931447901301017 0.025025407223730405 0 0.0033808205433766697 0.024691408572925354 0 0.0033225777135761753 0.025595705901875924 0 0.0039931447901301017 0.025025407223730405 0 0.0033225777135761753 0.025595705901875924 0 0.0039765630401008356 0.025666954314254243 0 0.0033225777135761753 0.025595705901875924 0 0.0038376021501422778 0.0261840838717779 0 0.0039765630401008356 0.025666954314254243 0 0.0033225777135761753 0.025595705901875924 0 0.0038376021501422778 0.0261840838717779 0 0.0030603408757248463 0.026415541836186371 0 0.002500926323419111 0.025972616186703427 0 0.0033225777135761753 0.025595705901875924 0 0.0030603408757248463 0.026415541836186371 0 0.0023792949136650253 0.026767485204264512 0 0.002500926323419111 0.025972616186703427 0 0.0030603408757248463 0.026415541836186371 0 0.0023792949136650253 0.026767485204264512 0 0.0029394032954882538 0.026943062152269732 0 0.0030603408757248463 0.026415541836186371 0 0.0035147191086311131 0.026936901395531739 0 0.0029394032954882538 0.026943062152269732 0 0.0030603408757248463 0.026415541836186371 0 0.0035147191086311131 0.026936901395531739 0 0.0038376021501422778 0.0261840838717779 0 0.0030603408757248463 0.026415541836186371 0 -3.8826849471380882e-05 0.030370329967979941 0 -0.00041587242835737281 0.030421550964489015 0 -0.0004162626418388267 0.030792274235225389 0 0.0035147191086311131 0.026936901395531739 0 0.0038376021501422778 0.0261840838717779 0 0.0042381812479244992 0.02609935103716482 0 0.00031453249413104605 0.027182563391166845 0 -0.00078475101865757438 0.024741685529715184 0 -0.00041587242835737281 0.030421550964489015 0 -0.0007313956393516089 0.030537365419794574 0 -0.0004162626418388267 0.030792274235225389 0 -0.0044428955042765707 0.021976892470719444 0 -0.0043635642431645201 0.022030282408291375 0 -0.0042786792002568472 0.021947946663759786 0 -0.0032999461428561056 0.024583683055234506 0 -0.00078475101865757438 0.024741685529715184 0 -0.0014536180883132875 0.022979976169749467 0 -0.00078475101865757438 0.024741685529715184 0 -0.00098912020171032468 0.030899626858918606 0 -0.0007313956393516089 0.030537365419794574 0 -0.0004162626418388267 0.030792274235225389 0 0.0048928961087409068 0.025359888098280384 0 0.0039765630401008356 0.025666954314254243 0 0.0042952909646222538 0.026092749085810319 0 0.0038376021501422778 0.0261840838717779 0 0.0039765630401008356 0.025666954314254243 0 0.0042952909646222538 0.026092749085810319 0 -0.00013793424717574489 0.024698933534026586 0 -0.00078475101865757438 0.024741685529715184 0 -0.017733279083745099 0.020908887624657545 0 -0.017628200339824686 0.020814353239929355 0 -0.017620029907071056 0.02100319227528627 0 -0.017733279083745099 0.020908887624657545 0 -0.017834729379158275 0.02096578597582506 0 -0.017620029907071056 0.02100319227528627 0 -0.017733279083745099 0.020908887624657545 0 -0.017628200339824686 0.020814353239929355 0 -0.017836025764918155 0.02085422778638377 0 -0.017499902667099363 0.020879754548816316 0 -0.017628200339824686 0.020814353239929355 0 -0.017404861648606187 0.020774312658039206 0 -0.017499902667099363 0.020879754548816316 0 -0.017620029907071056 0.02100319227528627 0 -0.017346588262041301 0.020926425664082135 0 -0.017499902667099363 0.020879754548816316 0 -0.017628200339824686 0.020814353239929355 0 -0.017620029907071056 0.02100319227528627 0 -0.017091491080357752 0.020694192873427344 0 -0.017321941012952594 0.020905639167172797 0 -0.016844253970551542 0.020887333387502156 0 -0.017343940034031252 0.021017365246283011 0 -0.016929338325476297 0.021099096380185482 0 -0.017091491080357752 0.020694192873427344 0 -0.017396371202323176 0.02068546643434338 0 -0.017321941012952594 0.020905639167172797 0 -0.017343940034031252 0.021017365246283011 0 -0.017522318449844785 0.02099598361178771 0 -0.017627263777829326 0.020751142901120706 0 -0.017838003696743245 0.020599708719625819 0 -0.017475529319887176 0.020465397745925696 0 -0.017321941012952594 0.020905639167172797 0 -0.017627263777829326 0.020751142901120706 0 -0.017836025764918155 0.02085422778638377 0 -0.017396371202323176 0.02068546643434338 0 -0.017321941012952594 0.020905639167172797 0 -0.017627263777829326 0.020751142901120706 0 -0.017396371202323176 0.02068546643434338 0 -0.017627263777829326 0.020751142901120706 0 -0.017420859903725845 0.020479825766732178 0 -0.017181115070879306 0.021069948783881614 0 -0.017165942461046788 0.021181186739993751 0 -0.017838003696743245 0.020599708719625819 0 -0.018112934804563087 0.020709285003397991 0 -0.017836025764918155 0.02085422778638377 0 -0.017627263777829326 0.020751142901120706 0 -0.017838003696743245 0.020599708719625819 0 -0.017836025764918155 0.02085422778638377 0 -0.017815591482005393 0.021007209295799429 0 -0.019530694518511214 0.020627983558448904 0 -0.018112934804563087 0.020709285003397991 0 -0.018052570755228405 0.020933852574740824 0 -0.017836025764918155 0.02085422778638377 0 -0.018052570755228405 0.020933852574740824 0 -0.017836025764918155 0.02085422778638377 0 -0.017834729379158275 0.02096578597582506 0 -0.018052570755228405 0.020933852574740824 0 -0.017834729379158275 0.02096578597582506 0 -0.017913710937805805 0.02109466815894092 0 -0.017733279083745099 0.020908887624657545 0 -0.017836025764918155 0.02085422778638377 0 -0.017834729379158275 0.02096578597582506 0 -0.017834729379158275 0.02096578597582506 0 -0.017913710937805805 0.02109466815894092 0 -0.017620029907071056 0.02100319227528627 0 -0.024078934718290056 0.012089363556747666 0 -0.024155494327842985 0.012197020232897525 0 -0.024258412667537033 0.012137524072378867 0 -0.018052570755228405 0.020933852574740824 0 -0.017913710937805805 0.02109466815894092 0 -0.018283324304725613 0.021164430675229242 0 -0.021357414304591954 0.016340579937163084 0 -0.023436759161813973 0.016121052389959381 0 -0.024078934718290056 0.012089363556747666 0 -0.024155494327842985 0.012197020232897525 0 -0.024069416020162545 0.01225364377649437 0 -0.024078934718290056 0.012089363556747666 0 -0.023939180992221708 0.012184614478587421 0 -0.024069416020162545 0.01225364377649437 0 -0.021357414304591954 0.016340579937163084 0 -0.020731007269724579 0.016589428456244591 0 -0.024078934718290056 0.012089363556747666 0 -0.023939180992221708 0.012184614478587421 0 -0.023893703676542092 0.012022772601363982 0 -0.023893703676542092 0.012022772601363982 0 -0.023766202769444973 0.012165809584544308 0 -0.023619481065229708 0.012077118797638729 0 -0.023939180992221708 0.012184614478587421 0 -0.023893703676542092 0.012022772601363982 0 -0.023766202769444973 0.012165809584544308 0 -0.020731007269724579 0.016589428456244591 0 -0.020168443197007363 0.016913107717213806 0 -0.023939180992221708 0.012184614478587421 0 -0.023766202769444973 0.012165809584544308 0 -0.023818930404999595 0.012265763964790082 0 -0.023766202769444973 0.012165809584544308 0 -0.023691312408844797 0.012234924623725146 0 -0.023818930404999595 0.012265763964790082 0 -0.023666476053909379 0.012171556110820204 0 -0.023614367060254937 0.012197935146899741 0 -0.023619481065229708 0.012077118797638729 0 -0.023766202769444973 0.012165809584544308 0 -0.023691312408844797 0.012234924623725146 0 -0.023666476053909379 0.012171556110820204 0 -0.023691312408844797 0.012234924623725146 0 -0.023666476053909379 0.012171556110820204 0 -0.023614367060254937 0.012197935146899741 0 -0.023614367060254937 0.012197935146899741 0 -0.023525029169770784 0.012205338263090408 0 -0.023619481065229708 0.012077118797638729 0 -0.023766202769444973 0.012165809584544308 0 -0.023666476053909379 0.012171556110820204 0 -0.023619481065229708 0.012077118797638729 0 -0.022925711696915395 0.012880230271764336 0 -0.02318219351226608 0.012176379649098302 0 -0.022892805087913869 0.012308943336246651 0 -0.022925711696915395 0.012880230271764336 0 -0.022892805087913869 0.012308943336246651 0 -0.022666518050508181 0.012523696042087258 0 -0.022134203516718985 0.012246581520112794 0 -0.022832430251485059 0.011950030602805342 0 -0.02318219351226608 0.012176379649098302 0 -0.02269371126534064 0.01196257400427022 0 -0.023453241971480725 0.011840572033825398 0 -0.022925711696915395 0.012880230271764336 0 -0.02318219351226608 0.012176379649098302 0 -0.023619481065229708 0.012077118797638729 0 -0.02318219351226608 0.012176379649098302 0 -0.022892805087913869 0.012308943336246651 0 -0.02269371126534064 0.01196257400427022 0 -0.02318219351226608 0.012176379649098302 0 -0.023619481065229708 0.012077118797638729 0 -0.023453241971480725 0.011840572033825398 0 -0.023893703676542092 0.012022772601363982 0 -0.023619481065229708 0.012077118797638729 0 -0.023453241971480725 0.011840572033825398 0 -0.01095868082741467 0.019009827808067415 0 -0.010484577634192254 0.018790135700635983 0 -0.010482390901950469 0.019402457909455328 0 -0.015425198069880311 0.017446563688698871 0 -0.014650835399225156 0.019394565661791929 0 -0.016726191999216804 0.016698213843661144 0 -0.01591470443990493 0.016793212596619027 0 -0.016709692661898815 0.019507177981354405 0 -0.022440426612239092 0.012434424444011665 0 -0.02220883854074656 0.012924825063406236 0 -0.022338950001531781 0.012226807075390613 0 -0.018214823972481059 0.015559991423432879 0 -0.017292728252334081 0.018262147015309021 0 -0.022925711696915395 0.012880230271764336 0 -0.02220883854074656 0.012924825063406236 0 -0.022666518050508181 0.012523696042087258 0 -0.022440426612239092 0.012434424444011665 0 -0.02220883854074656 0.012924825063406236 0 -0.022666518050508181 0.012523696042087258 0 -0.02269371126534064 0.01196257400427022 0 -0.022338950001531781 0.012226807075390613 0 -0.022434661929018988 0.011622342793425371 0 -0.01591470443990493 0.016793212596619027 0 -0.015555783306595367 0.01925706526892209 0 -0.016709692661898815 0.019507177981354405 0 -0.017292728252334081 0.018262147015309021 0 -0.019173790688506876 0.017576775895019457 0 -0.017059196095011196 0.020842622118459168 0 -0.017026206193943173 0.020839560683223048 0 -0.017050285878201114 0.020779310408067089 0 -0.022892805087913869 0.012308943336246651 0 -0.022628749550212473 0.012270051283104697 0 -0.02269371126534064 0.01196257400427022 0 -0.022440426612239092 0.012434424444011665 0 -0.022628749550212473 0.012270051283104697 0 -0.022338950001531781 0.012226807075390613 0 -0.022892805087913869 0.012308943336246651 0 -0.022666518050508181 0.012523696042087258 0 -0.022628749550212473 0.012270051283104697 0 -0.022440426612239092 0.012434424444011665 0 -0.022666518050508181 0.012523696042087258 0 -0.022628749550212473 0.012270051283104697 0 -0.022628749550212473 0.012270051283104697 0 -0.02269371126534064 0.01196257400427022 0 -0.022338950001531781 0.012226807075390613 0 -0.010880562315058857 0.021360871540334121 0 -0.014650835399225156 0.019394565661791929 0 -0.017292728252334081 0.018262147015309021 0 -0.014650835399225156 0.019394565661791929 0 -0.014650835399225156 0.019394565661791929 0 -0.013873762731369072 0.021586196508202028 0 -0.011008299509282579 0.022997079916047054 0 -0.010755437484733907 0.022668781569651287 0 -0.010749694643114444 0.023182947467208316 0 -0.017026206193943173 0.020839560683223048 0 -0.017050285878201114 0.020779310408067089 0 -0.017010650644114785 0.02072118340444332 0 -0.017059196095011196 0.020842622118459168 0 -0.017050285878201114 0.020779310408067089 0 -0.017069504841326178 0.02078115743109879 0 -0.019173790688506876 0.017576775895019457 0 -0.018995698764268532 0.018215334783397926 0 -0.017050285878201114 0.020779310408067089 0 -0.017078767858610774 0.020784410593330322 0 -0.017101283844249207 0.020743214753770344 0 -0.019099805142867757 0.017604566677543704 0 -0.019173790688506876 0.017576775895019457 0 -0.017078352610367609 0.020852223577174141 0 -0.017101283844249207 0.020743214753770344 0 -0.017195273194574385 0.020813194674742779 0 -0.013873762731369072 0.021586196508202028 0 -0.016122951311150237 0.021278835215905338 0 -0.017101283844249207 0.020743214753770344 0 -0.017010650644114785 0.02072118340444332 0 -0.017175409051811166 0.020738730632974895 0 -0.015893405039603719 0.020838387362501393 0 -0.016375429483748472 0.020868729881869906 0 -0.016143587063618944 0.020641909775008987 0 -0.017101283844249207 0.020743214753770344 0 -0.017195273194574385 0.020813194674742779 0 -0.017175409051811166 0.020738730632974895 0 -0.016375429483748472 0.020868729881869906 0 -0.0163805990197965 0.020577537980389148 0 -0.016143587063618944 0.020641909775008987 0 -0.017050285878201114 0.020779310408067089 0 -0.017101283844249207 0.020743214753770344 0 -0.017010650644114785 0.02072118340444332 0 -0.015893405039603719 0.020838387362501393 0 -0.015896282405745459 0.020491102573784409 0 -0.016143587063618944 0.020641909775008987 0 -0.013873762731369072 0.021586196508202028 0 -0.013530293034533996 0.021947420897938247 0 -0.017499902667099363 0.020879754548816316 0 -0.017346588262041301 0.020926425664082135 0 -0.017404861648606187 0.020774312658039206 0 -0.017346588262041301 0.020926425664082135 0 -0.017287720882138587 0.020811088958249783 0 -0.017404861648606187 0.020774312658039206 0 -0.02269371126534064 0.01196257400427022 0 -0.022434661929018988 0.011622342793425371 0 -0.023453241971480725 0.011840572033825398 0 -0.019173790688506876 0.017576775895019457 0 -0.020168443197007363 0.016913107717213806 0 -0.017078352610367609 0.020852223577174141 0 -0.017346588262041301 0.020926425664082135 0 -0.017195273194574385 0.020813194674742779 0 -0.017195273194574385 0.020813194674742779 0 -0.017287720882138587 0.020811088958249783 0 -0.017175409051811166 0.020738730632974895 0 -0.017346588262041301 0.020926425664082135 0 -0.017195273194574385 0.020813194674742779 0 -0.017287720882138587 0.020811088958249783 0 -0.016122951311150237 0.021278835215905338 0 -0.016929338325476297 0.021099096380185482 0 -0.016375429483748472 0.020868729881869906 0 -0.016567372884134977 0.020727839124499062 0 -0.016844253970551542 0.020887333387502156 0 -0.017287720882138587 0.020811088958249783 0 -0.017175409051811166 0.020738730632974895 0 -0.017404861648606187 0.020774312658039206 0 -0.016375429483748472 0.020868729881869906 0 -0.016567372884134977 0.020727839124499062 0 -0.0163805990197965 0.020577537980389148 0 -0.016844253970551542 0.020887333387502156 0 -0.016913535689384321 0.020578820842252172 0 -0.016664444609547857 0.020573598635590953 0 -0.016567372884134977 0.020727839124499062 0 -0.016844253970551542 0.020887333387502156 0 -0.016664444609547857 0.020573598635590953 0 -0.017091491080357752 0.020694192873427344 0 -0.016844253970551542 0.020887333387502156 0 -0.016913535689384321 0.020578820842252172 0 -0.016909495245006619 0.020350745833001976 0 -0.016664444609547857 0.020573598635590953 0 -0.016404520635218599 0.020240793915708842 0 -0.016913535689384321 0.020578820842252172 0 -0.016909495245006619 0.020350745833001976 0 -0.016664444609547857 0.020573598635590953 0 -0.016664444609547857 0.020573598635590953 0 -0.0163805990197965 0.020577537980389148 0 -0.016404520635218599 0.020240793915708842 0 -0.016567372884134977 0.020727839124499062 0 -0.016664444609547857 0.020573598635590953 0 -0.0163805990197965 0.020577537980389148 0 -0.016909495245006619 0.020350745833001976 0 -0.016790384365914655 0.020085919214878213 0 -0.01712756279045791 0.020138401503243149 0 -0.016909495245006619 0.020350745833001976 0 -0.016538917300914974 0.020296753887700192 0 -0.016790384365914655 0.020085919214878213 0 -0.016175392305319277 0.021404110415628553 0 -0.015606790657546511 0.021607988410340707 0 -0.011013824839868028 0.02349593888370638 0 -0.010711163048379779 0.023214168005679901 0 -0.010716923977654324 0.023512224624338104 0 -0.015896282405745459 0.020491102573784409 0 -0.016144221448496077 0.020419594199487325 0 -0.015895481636371649 0.020145523950081012 0 -0.011013824839868028 0.02349593888370638 0 -0.010716923977654324 0.023512224624338104 0 -0.010762580959554768 0.023797971690112468 0 -0.011933893292766269 0.02326099741841026 0 -0.012811997778712118 0.022405685473934896 0 -0.0163805990197965 0.020577537980389148 0 -0.016404520635218599 0.020240793915708842 0 -0.016144221448496077 0.020419594199487325 0 -0.015896282405745459 0.020491102573784409 0 -0.016144221448496077 0.020419594199487325 0 -0.016143587063618944 0.020641909775008987 0 -0.0163805990197965 0.020577537980389148 0 -0.016144221448496077 0.020419594199487325 0 -0.016143587063618944 0.020641909775008987 0 -0.016538917300914974 0.020296753887700192 0 -0.016166971142844037 0.020179531714717203 0 -0.016166224357671916 0.02023378462784612 0 -0.016404520635218599 0.020240793915708842 0 -0.016144221448496077 0.020419594199487325 0 -0.015895481636371649 0.020145523950081012 0 -0.015606790657546511 0.021607988410340707 0 -0.013239432765063066 0.022254904482287344 0 -0.013530293034533996 0.021947420897938247 0 -0.013239432765063066 0.022254904482287344 0 -0.010716923977654324 0.023512224624338104 0 -0.010721706237915246 0.023789661777372694 0 -0.010762580959554768 0.023797971690112468 0 -0.010922453917674541 0.023978707509059196 0 -0.010578249181457314 0.023928242322260696 0 -0.010685433406019277 0.02406934874533307 0 -0.011936745421264688 0.022687738142584561 0 -0.012811997778712118 0.022405685473934896 0 -0.013131520350816257 0.023019567917650866 0 -0.013141110789565737 0.021226405772398194 0 -0.014390501016040723 0.021470009129504232 0 -0.013080524851839873 0.022297020965043209 0 -0.012811997778712118 0.022405685473934896 0 -0.013080524851839873 0.022297020965043209 0 -0.013239432765063066 0.022254904482287344 0 -0.013239432765063066 0.022254904482287344 0 -0.012811997778712118 0.022405685473934896 0 -0.010525535447585267 0.023997661702669315 0 -0.010578249181457314 0.023928242322260696 0 -0.010685433406019277 0.02406934874533307 0 -0.016538917300914974 0.020296753887700192 0 -0.016166971142844037 0.020179531714717203 0 -0.016461492784754627 0.019829539556579463 0 -0.01083919272022482 0.02428947942977382 0 -0.010685433406019277 0.02406934874533307 0 -0.010568652449603718 0.024157010046115292 0 -0.013080524851839873 0.022297020965043209 0 -0.013006438432550593 0.022496842697141074 0 -0.010590345111630197 0.02423608729951697 0 -0.010568652449603718 0.024157010046115292 0 -0.010543938587340644 0.02417221469750443 0 -0.010525535447585267 0.023997661702669315 0 -0.010568652449603718 0.024157010046115292 0 -0.010543938587340644 0.02417221469750443 0 -0.010525535447585267 0.023997661702669315 0 -0.010685433406019277 0.02406934874533307 0 -0.010568652449603718 0.024157010046115292 0 -0.010590345111630197 0.02423608729951697 0 -0.010543938587340644 0.02417221469750443 0 -0.0105331952122006 0.024293540668361011 0 -0.010543938587340644 0.02417221469750443 0 -0.010411956057891058 0.024292716258996625 0 -0.0105331952122006 0.024293540668361011 0 -0.013080524851839873 0.022297020965043209 0 -0.013804386335361157 0.022522653403911012 0 -0.010543927692987551 0.024103946890454721 0 -0.010543938587340644 0.02417221469750443 0 -0.010411956057891058 0.024292716258996625 0 -0.010411956057891058 0.024292716258996625 0 -0.0105331952122006 0.024293540668361011 0 -0.010531219771463341 0.024393103415671951 0 -0.010668075085757579 0.024411117515281803 0 -0.010613217536281047 0.024327355141235157 0 -0.010531219771463341 0.024393103415671951 0 -0.0105331952122006 0.024293540668361011 0 -0.010613217536281047 0.024327355141235157 0 -0.010531219771463341 0.024393103415671951 0 -0.010590345111630197 0.02423608729951697 0 -0.0105331952122006 0.024293540668361011 0 -0.010613217536281047 0.024327355141235157 0 -0.016538917300914974 0.020296753887700192 0 -0.016461492784754627 0.019829539556579463 0 -0.016790384365914655 0.020085919214878213 0 -0.016790384365914655 0.020085919214878213 0 -0.016922495169655192 0.019818678050797664 0 -0.01712756279045791 0.020138401503243149 0 -0.016461492784754627 0.019829539556579463 0 -0.016790384365914655 0.020085919214878213 0 -0.016922495169655192 0.019818678050797664 0 -0.016461492784754627 0.019829539556579463 0 -0.016922495169655192 0.019818678050797664 0 -0.016739096420971669 0.019500973040603293 0 -0.015397922305458785 0.024026076382724689 0 -0.015424664635419194 0.024005508289774744 0 -0.0154000092648606 0.023991054635765219 0 -0.015397922305458785 0.024026076382724689 0 -0.015424664635419194 0.024005508289774744 0 -0.015450015033596018 0.024050777953836793 0 -0.015424664635419194 0.024005508289774744 0 -0.015514008922953116 0.024048319355702074 0 -0.015450015033596018 0.024050777953836793 0 -0.015469076578577967 0.02404657298694559 0 -0.01550149488884979 0.024074717835553004 0 -0.015444060978525177 0.024009875520517834 0 -0.015449007791019452 0.024053751735206831 0 -0.015470074080515005 0.024010925240181301 0 -0.015424664635419194 0.024005508289774744 0 -0.015444060978525177 0.024009875520517834 0 -0.015449007791019452 0.024053751735206831 0 -0.015478659877875087 0.024077566760686779 0 -0.015449786579182509 0.024103094231267913 0 -0.015504828262032231 0.024108635272171743 0 -0.015514008922953116 0.024048319355702074 0 -0.015478659877875087 0.024077566760686779 0 -0.015450015033596018 0.024050777953836793 0 -0.015514008922953116 0.024048319355702074 0 -0.015478659877875087 0.024077566760686779 0 -0.015504828262032231 0.024108635272171743 0 -0.015397922305458785 0.024026076382724689 0 -0.015450015033596018 0.024050777953836793 0 -0.015449786579182509 0.024103094231267913 0 -0.015506864387237865 0.022450220023431663 0 -0.016373035078338757 0.021973280031543658 0 -0.015478659877875087 0.024077566760686779 0 -0.015450015033596018 0.024050777953836793 0 -0.015449786579182509 0.024103094231267913 0 -0.016909495245006619 0.020350745833001976 0 -0.01712756279045791 0.020138401503243149 0 -0.017171516592601906 0.020419086623690096 0 -0.016373035078338757 0.021973280031543658 0 -0.017165942461046788 0.021181186739993751 0 -0.015449786579182509 0.024103094231267913 0 -0.015504828262032231 0.024108635272171743 0 -0.015502380515997744 0.024160000714872787 0 -0.015504828262032231 0.024108635272171743 0 -0.015502380515997744 0.024160000714872787 0 -0.015571365700426462 0.024140240454275187 0 -0.017165942461046788 0.021181186739993751 0 -0.017148448446347608 0.021133316508271695 0 -0.017396371202323176 0.02068546643434338 0 -0.017420859903725845 0.020479825766732178 0 -0.017171516592601906 0.020419086623690096 0 -0.017091491080357752 0.020694192873427344 0 -0.017396371202323176 0.02068546643434338 0 -0.017171516592601906 0.020419086623690096 0 -0.01712756279045791 0.020138401503243149 0 -0.017347456455243049 0.020481431091544211 0 -0.017171516592601906 0.020419086623690096 0 -0.017091491080357752 0.020694192873427344 0 -0.016913535689384321 0.020578820842252172 0 -0.017171516592601906 0.020419086623690096 0 -0.016913535689384321 0.020578820842252172 0 -0.016909495245006619 0.020350745833001976 0 -0.017171516592601906 0.020419086623690096 0 -0.019530694518511214 0.020627983558448904 0 -0.017847751927210977 0.02212527076756968 0 -0.015682539095966876 0.024359085250109849 0 -0.01558571188110325 0.024237164599274014 0 -0.015724665408203685 0.024261800738395917 0 -0.015568638098366486 0.024175564926591148 0 -0.015651407537963066 0.024187555122963451 0 -0.015571365700426462 0.024140240454275187 0 -0.017815591482005393 0.021007209295799429 0 -0.017165942461046788 0.021181186739993751 0 -0.015568638098366486 0.024175564926591148 0 -0.015502380515997744 0.024160000714872787 0 -0.015571365700426462 0.024140240454275187 0 -0.017348885240058631 0.022526618851313473 0 -0.017847751927210977 0.02212527076756968 0 -0.015504828262032231 0.024108635272171743 0 -0.01558571188110325 0.024237164599274014 0 -0.015618948649450612 0.024139485098632871 0 -0.015570514111577427 0.024135105273975624 0 -0.015626237454142829 0.024181690347177823 0 -0.01558571188110325 0.024237164599274014 0 -0.015618948649450612 0.024139485098632871 0 -0.015724665408203685 0.024261800738395917 0 -0.015508036626529191 0.024139044335468152 0 -0.015569133487276862 0.024074124253769799 0 -0.015665486309969764 0.02416190499047937 0 -0.015508036626529191 0.024139044335468152 0 -0.015724665408203685 0.024261800738395917 0 -0.015665486309969764 0.02416190499047937 0 -0.015508036626529191 0.024139044335468152 0 -0.015569133487276862 0.024074124253769799 0 -0.015495194056477458 0.024063193585097464 0 -0.015569133487276862 0.024074124253769799 0 -0.015495194056477458 0.024063193585097464 0 -0.015520957138445117 0.024045034047041704 0 -0.015569133487276862 0.024074124253769799 0 -0.015520957138445117 0.024045034047041704 0 -0.015586124949609299 0.024011357302492996 0 -0.01550149488884979 0.024074717835553004 0 -0.015570514111577427 0.024135105273975624 0 -0.015449007791019452 0.024053751735206831 0 -0.015508036626529191 0.024139044335468152 0 -0.015495194056477458 0.024063193585097464 0 -0.015514008922953116 0.024048319355702074 0 -0.015504828262032231 0.024108635272171743 0 -0.015618948649450612 0.024139485098632871 0 -0.015495194056477458 0.024063193585097464 0 -0.015470074080515005 0.024010925240181301 0 -0.015520957138445117 0.024045034047041704 0 -0.015449007791019452 0.024053751735206831 0 -0.015495194056477458 0.024063193585097464 0 -0.015470074080515005 0.024010925240181301 0 -0.015436389463658239 0.024179280151051485 0 -0.015453129262921299 0.024156667598769731 0 -0.015656836429437201 0.02423649447367484 0 -0.015520957138445117 0.024045034047041704 0 -0.01548858362169876 0.024292285728260168 0 -0.015520957138445117 0.024045034047041704 0 -0.01548858362169876 0.024292285728260168 0 -0.015452115896149411 0.024112770501488381 0 -0.01548858362169876 0.024292285728260168 0 -0.015239766026672244 0.024460772133586189 0 -0.015452115896149411 0.024112770501488381 0 -0.015239766026672244 0.024460772133586189 0 -0.015525621269916481 0.024740997224462127 0 -0.014734633901319912 0.025431375491935623 0 -0.015239766026672244 0.024460772133586189 0 -0.014734633901319912 0.025431375491935623 0 -0.015024555773808172 0.024952959016334385 0 -0.01548858362169876 0.024292285728260168 0 -0.015239766026672244 0.024460772133586189 0 -0.015525621269916481 0.024740997224462127 0 -0.015525621269916481 0.024740997224462127 0 -0.015716511212618366 0.024669585312705539 0 -0.015737202286247864 0.024934743832346312 0 -0.015525621269916481 0.024740997224462127 0 -0.015631899450026587 0.02442994690797776 0 -0.015716511212618366 0.024669585312705539 0 -0.01548858362169876 0.024292285728260168 0 -0.015525621269916481 0.024740997224462127 0 -0.015631899450026587 0.02442994690797776 0 -0.015656836429437201 0.02423649447367484 0 -0.01548858362169876 0.024292285728260168 0 -0.015631899450026587 0.02442994690797776 0 -0.015436389463658239 0.024179280151051485 0 -0.015264073594482258 0.024179703088611074 0 -0.015444060978525177 0.024009875520517834 0 -0.015470074080515005 0.024010925240181301 0 -0.015431888598556069 0.023983846239415949 0 -0.015656836429437201 0.02423649447367484 0 -0.015789582941496922 0.024439002604962682 0 -0.015798743719892566 0.024453513686168216 0 -0.015656836429437201 0.02423649447367484 0 -0.015631899450026587 0.02442994690797776 0 -0.015789582941496922 0.024439002604962682 0 -0.015789582941496922 0.024439002604962682 0 -0.015798743719892566 0.024453513686168216 0 -0.015763222143352587 0.024377700469287892 0 -0.015431888598556069 0.023983846239415949 0 -0.015403389426767873 0.023981108449992274 0 -0.015384309321853161 0.023953704606190104 0 -0.015264073594482258 0.024179703088611074 0 -0.014490335473574289 0.023939295442872995 0 -0.015419055409004904 0.023990245000318235 0 -0.015403389426767873 0.023981108449992274 0 -0.0154000092648606 0.023991054635765219 0 -0.015419055409004904 0.023990245000318235 0 -0.015431888598556069 0.023983846239415949 0 -0.015403389426767873 0.023981108449992274 0 -0.015424664635419194 0.024005508289774744 0 -0.015419055409004904 0.023990245000318235 0 -0.0154000092648606 0.023991054635765219 0 -0.015424664635419194 0.024005508289774744 0 -0.015444060978525177 0.024009875520517834 0 -0.015431888598556069 0.023983846239415949 0 -0.015424664635419194 0.024005508289774744 0 -0.015419055409004904 0.023990245000318235 0 -0.015431888598556069 0.023983846239415949 0 -0.015798743719892566 0.024453513686168216 0 -0.015570337441131335 0.024340592845246679 0 -0.015437772513214916 0.024382852898354495 0 -0.015570337441131335 0.024340592845246679 0 -0.015692106298047185 0.024334421610582187 0 -0.015616567781376302 0.02428469212415308 0 -0.015798743719892566 0.024453513686168216 0 -0.015570337441131335 0.024340592845246679 0 -0.015692106298047185 0.024334421610582187 0 -0.015798743719892566 0.024453513686168216 0 -0.015692106298047185 0.024334421610582187 0 -0.015763222143352587 0.024377700469287892 0 -0.015692106298047185 0.024334421610582187 0 -0.015732345570123381 0.024289941826664666 0 -0.015763222143352587 0.024377700469287892 0 -0.015692106298047185 0.024334421610582187 0 -0.015661859728048417 0.024219696938526152 0 -0.015732345570123381 0.024289941826664666 0 -0.015661859728048417 0.024219696938526152 0 -0.015732345570123381 0.024289941826664666 0 -0.015806106266951489 0.024220509935056915 0 -0.015692106298047185 0.024334421610582187 0 -0.015661859728048417 0.024219696938526152 0 -0.015616567781376302 0.02428469212415308 0 -0.015661859728048417 0.024219696938526152 0 -0.015616567781376302 0.02428469212415308 0 -0.015539478811221502 0.024243159378138358 0 -0.015570337441131335 0.024340592845246679 0 -0.015616567781376302 0.02428469212415308 0 -0.015539478811221502 0.024243159378138358 0 -0.014727227483332932 0.024813789371191938 0 -0.01455910328234301 0.024981049892331599 0 -0.015789582941496922 0.024439002604962682 0 -0.015716511212618366 0.024669585312705539 0 -0.015891432767283241 0.024803629474574613 0 -0.015789582941496922 0.024439002604962682 0 -0.015763222143352587 0.024377700469287892 0 -0.015806106266951489 0.024220509935056915 0 -0.015631899450026587 0.02442994690797776 0 -0.015789582941496922 0.024439002604962682 0 -0.015716511212618366 0.024669585312705539 0 -0.015732345570123381 0.024289941826664666 0 -0.015763222143352587 0.024377700469287892 0 -0.015806106266951489 0.024220509935056915 0 -0.015737202286247864 0.024934743832346312 0 -0.015891432767283241 0.024803629474574613 0 -0.015947101119808439 0.025158201459132699 0 -0.01455910328234301 0.024981049892331599 0 -0.014006837276772042 0.0256432884326626 0 -0.015716511212618366 0.024669585312705539 0 -0.015737202286247864 0.024934743832346312 0 -0.015891432767283241 0.024803629474574613 0 -0.014705788470889148 0.025701814850278781 0 -0.014006837276772042 0.0256432884326626 0 -0.015806106266951489 0.024220509935056915 0 -0.015657117732993327 0.024067318276232985 0 -0.015756664159064061 0.023912175814745914 0 -0.015661859728048417 0.024219696938526152 0 -0.015657117732993327 0.024067318276232985 0 -0.015512450650709391 0.024092271359528607 0 -0.015661859728048417 0.024219696938526152 0 -0.015539478811221502 0.024243159378138358 0 -0.015512450650709391 0.024092271359528607 0 -0.015661859728048417 0.024219696938526152 0 -0.015806106266951489 0.024220509935056915 0 -0.015657117732993327 0.024067318276232985 0 -0.015657117732993327 0.024067318276232985 0 -0.015537080953435154 0.023921699487359303 0 -0.015512450650709391 0.024092271359528607 0 -0.014006837276772042 0.0256432884326626 0 -0.012942072253160831 0.025503284083056844 0 -0.015537080953435154 0.023921699487359303 0 -0.015756664159064061 0.023912175814745914 0 -0.01548175950817204 0.023636088971160266 0 -0.015657117732993327 0.024067318276232985 0 -0.015537080953435154 0.023921699487359303 0 -0.015756664159064061 0.023912175814745914 0 -0.016644814950778155 0.026000111688905803 0 -0.015842109013378142 0.026280877591103501 0 -0.016821581400899888 0.027081794276962477 0 -0.016079620388823906 0.025386833290864337 0 -0.016644814950778155 0.026000111688905803 0 -0.015842109013378142 0.026280877591103501 0 -0.012786204076002851 0.02618847983959333 0 -0.013829834108235194 0.025780564245397031 0 -0.014734633901319912 0.025431375491935623 0 -0.013666721940443412 0.026162354762026635 0 -0.013819034458695234 0.025976002645084949 0 -0.013829834108235194 0.025780564245397031 0 -0.014734633901319912 0.025431375491935623 0 -0.014562050617486862 0.025513711967918067 0 -0.013829834108235194 0.025780564245397031 0 -0.013760933348184002 0.025691286552594606 0 -0.014562050617486862 0.025513711967918067 0 -0.015842109013378142 0.026280877591103501 0 -0.014734633901319912 0.025431375491935623 0 -0.015548984854616903 0.025462739357593342 0 -0.016079620388823906 0.025386833290864337 0 -0.015842109013378142 0.026280877591103501 0 -0.015548984854616903 0.025462739357593342 0 -0.015525621269916481 0.024740997224462127 0 -0.014734633901319912 0.025431375491935623 0 -0.015548984854616903 0.025462739357593342 0 -0.014819848841577058 0.025614900858588467 0 -0.014705788470889148 0.025701814850278781 0 -0.015525621269916481 0.024740997224462127 0 -0.016079620388823906 0.025386833290864337 0 -0.015548984854616903 0.025462739357593342 0 -0.01057927928918698 0.024513181967700744 0 -0.010491134616272327 0.024567341745615957 0 -0.01054951559060513 0.024669092298558723 0 -0.010679542517973989 0.024615530585213159 0 -0.01057927928918698 0.024513181967700744 0 -0.01054951559060513 0.024669092298558723 0 -0.01057927928918698 0.024513181967700744 0 -0.010531219771463341 0.024393103415671951 0 -0.010449662579654932 0.024463625668953499 0 -0.010668075085757579 0.024411117515281803 0 -0.01057927928918698 0.024513181967700744 0 -0.010531219771463341 0.024393103415671951 0 -0.010411956057891058 0.024292716258996625 0 -0.010531219771463341 0.024393103415671951 0 -0.010449662579654932 0.024463625668953499 0 -0.01057927928918698 0.024513181967700744 0 -0.010449662579654932 0.024463625668953499 0 -0.010491134616272327 0.024567341745615957 0 -0.010449662579654932 0.024463625668953499 0 -0.010491134616272327 0.024567341745615957 0 -0.010403564465193672 0.024544427220502027 0 -0.010491134616272327 0.024567341745615957 0 -0.010403564465193672 0.024544427220502027 0 -0.010406682114054969 0.024624014372915292 0 -0.010341643054432796 0.024587127197666654 0 -0.010403564465193672 0.024544427220502027 0 -0.010282356684206299 0.024468670252703814 0 -0.013370756715600042 0.023983548926880552 0 -0.01445251871556253 0.02359285873454002 0 -0.010341643054432796 0.024587127197666654 0 -0.010403564465193672 0.024544427220502027 0 -0.010406682114054969 0.024624014372915292 0 -0.013370756715600042 0.023983548926880552 0 -0.013012777304690543 0.023888185021838423 0 -0.010449662579654932 0.024463625668953499 0 -0.010403564465193672 0.024544427220502027 0 -0.010282356684206299 0.024468670252703814 0 -0.013804386335361157 0.022522653403911012 0 -0.01445251871556253 0.02359285873454002 0 -0.010411956057891058 0.024292716258996625 0 -0.010449662579654932 0.024463625668953499 0 -0.010282356684206299 0.024468670252703814 0 -0.015397922305458785 0.024026076382724689 0 -0.015367793950748759 0.023972567700248724 0 -0.0154000092648606 0.023991054635765219 0 -0.015506864387237865 0.022450220023431663 0 -0.01445251871556253 0.02359285873454002 0 -0.015367793950748759 0.023972567700248724 0 -0.01538659469196834 0.023971568453727454 0 -0.015384309321853161 0.023953704606190104 0 -0.015403389426767873 0.023981108449992274 0 -0.01538659469196834 0.023971568453727454 0 -0.015384309321853161 0.023953704606190104 0 -0.015367793950748759 0.023972567700248724 0 -0.0154000092648606 0.023991054635765219 0 -0.01538659469196834 0.023971568453727454 0 -0.015403389426767873 0.023981108449992274 0 -0.0154000092648606 0.023991054635765219 0 -0.01538659469196834 0.023971568453727454 0 -0.013926604168116367 0.024077838651944763 0 -0.013984220976891495 0.024183500151033953 0 -0.01402814386097761 0.024129625573865363 0 -0.015570337441131335 0.024340592845246679 0 -0.015500071389985928 0.02435275067694926 0 -0.015437772513214916 0.024382852898354495 0 -0.015570337441131335 0.024340592845246679 0 -0.015500071389985928 0.02435275067694926 0 -0.015486621917749254 0.024301396507340631 0 -0.015500071389985928 0.02435275067694926 0 -0.015437772513214916 0.024382852898354495 0 -0.015486621917749254 0.024301396507340631 0 -0.01445251871556253 0.02359285873454002 0 -0.014490335473574289 0.023939295442872995 0 -0.015186452797826305 0.024270127716163523 0 -0.015437772513214916 0.024382852898354495 0 -0.015379206985060633 0.024226586525437101 0 -0.013370756715600042 0.023983548926880552 0 -0.014490335473574289 0.023939295442872995 0 -0.015379206985060633 0.024226586525437101 0 -0.015539478811221502 0.024243159378138358 0 -0.015486621917749254 0.024301396507340631 0 -0.015437772513214916 0.024382852898354495 0 -0.015379206985060633 0.024226586525437101 0 -0.015486621917749254 0.024301396507340631 0 -0.015570337441131335 0.024340592845246679 0 -0.015539478811221502 0.024243159378138358 0 -0.015486621917749254 0.024301396507340631 0 -0.015537080953435154 0.023921699487359303 0 -0.015512450650709391 0.024092271359528607 0 -0.015257590184365436 0.0239737252486318 0 -0.015379206985060633 0.024226586525437101 0 -0.015512450650709391 0.024092271359528607 0 -0.015257590184365436 0.0239737252486318 0 -0.015379206985060633 0.024226586525437101 0 -0.015539478811221502 0.024243159378138358 0 -0.015512450650709391 0.024092271359528607 0 -0.015257590184365436 0.0239737252486318 0 -0.015160082436912173 0.02368275423312759 0 -0.01548175950817204 0.023636088971160266 0 -0.015537080953435154 0.023921699487359303 0 -0.015257590184365436 0.0239737252486318 0 -0.01548175950817204 0.023636088971160266 0 -0.015257590184365436 0.0239737252486318 0 -0.014979778118852642 0.02391928178894966 0 -0.015160082436912173 0.02368275423312759 0 -0.010346827024211925 0.02458933397387229 0 -0.010406682114054969 0.024624014372915292 0 -0.010423881935403792 0.024756882780914848 0 -0.013370756715600042 0.023983548926880552 0 -0.011832914289127109 0.024681733769505155 0 -0.015186452797826305 0.024270127716163523 0 -0.015257590184365436 0.0239737252486318 0 -0.014979778118852642 0.02391928178894966 0 -0.015186452797826305 0.024270127716163523 0 -0.015379206985060633 0.024226586525437101 0 -0.015257590184365436 0.0239737252486318 0 -0.010467690953218957 0.024654436152256126 0 -0.010423881935403792 0.024756882780914848 0 -0.01054951559060513 0.024669092298558723 0 -0.010406682114054969 0.024624014372915292 0 -0.010467690953218957 0.024654436152256126 0 -0.010423881935403792 0.024756882780914848 0 -0.010491134616272327 0.024567341745615957 0 -0.010406682114054969 0.024624014372915292 0 -0.010467690953218957 0.024654436152256126 0 -0.010491134616272327 0.024567341745615957 0 -0.010467690953218957 0.024654436152256126 0 -0.01054951559060513 0.024669092298558723 0 -0.010423881935403792 0.024756882780914848 0 -0.010550458297904375 0.02479366317984372 0 -0.010506371848376638 0.024925834236164193 0 -0.010423881935403792 0.024756882780914848 0 -0.010550458297904375 0.02479366317984372 0 -0.01054951559060513 0.024669092298558723 0 -0.010677539714144252 0.024722893134769962 0 -0.010550458297904375 0.02479366317984372 0 -0.01054951559060513 0.024669092298558723 0 -0.0058324719660506506 0.026854934003543333 0 -0.0068782611913430674 0.02724184056070833 0 -0.0062992537246035589 0.026140646480628815 0 -0.0096396246348785554 0.025339036342756725 0 -0.0073782554266002007 0.025559733828730669 0 -0.0070856191216962057 0.027558617200231849 0 -0.0071431102369153071 0.02648824270963477 0 -0.0063986275692843424 0.026274510705978894 0 -0.010658170349855091 0.024853077483498534 0 -0.010550458297904375 0.02479366317984372 0 -0.010506371848376638 0.024925834236164193 0 -0.0059347373824653119 0.027685443819634298 0 -0.0058324719660506506 0.026854934003543333 0 -0.0068782611913430674 0.02724184056070833 0 -0.0081082184226667284 0.025933528324141863 0 -0.0096396246348785554 0.025339036342756725 0 -0.014979778118852642 0.02391928178894966 0 -0.014774527162970943 0.023561132115690997 0 -0.015160082436912173 0.02368275423312759 0 -0.011832914289127109 0.024681733769505155 0 -0.0096396246348785554 0.025339036342756725 0 -0.0096396246348785554 0.025339036342756725 0 -0.011204330792004188 0.025624343454169727 0 -0.0070856191216962057 0.027558617200231849 0 -0.0084546591123502487 0.026909969471005424 0 -0.0071431102369153071 0.02648824270963477 0 -0.014774527162970943 0.023561132115690997 0 -0.015202270018482429 0.023359480294468958 0 -0.015160082436912173 0.02368275423312759 0 -0.015202270018482429 0.023359480294468958 0 -0.015160082436912173 0.02368275423312759 0 -0.01548175950817204 0.023636088971160266 0 -0.011204330792004188 0.025624343454169727 0 -0.012942072253160831 0.025503284083056844 0 -0.0089906190571208567 0.026824354328155969 0 -0.0094686647294004618 0.026597111830536254 0 -0.010375445099506346 0.027961539537434361 0 -0.012329535667054164 0.025770308013427931 0 -0.012098184711766225 0.02507327524006097 0 -0.012735599236073642 0.025595033267028222 0 -0.011790395114190767 0.025219402688881405 0 -0.012329535667054164 0.025770308013427931 0 -0.012098184711766225 0.02507327524006097 0 -0.011204330792004188 0.025624343454169727 0 -0.010657302271573157 0.025997129600987334 0 -0.010657302271573157 0.025997129600987334 0 -0.010534192451898048 0.026056426259381097 0 -0.0090112843521009608 0.026779173377020207 0 -0.0087686145900194978 0.025772857832303379 0 -0.009385392038365168 0.026013800361014833 0 -0.0090112843521009608 0.026779173377020207 0 -0.0094686647294004618 0.026597111830536254 0 -0.009385392038365168 0.026013800361014833 0 -0.0087686145900194978 0.025772857832303379 0 -0.009385392038365168 0.026013800361014833 0 -0.0091780429916630164 0.025417556776984037 0 -0.0091780429916630164 0.025417556776984037 0 -0.0082461363595027499 0.024999940190643687 0 -0.0096135413104850333 0.024999731046100298 0 -0.0087686145900194978 0.025772857832303379 0 -0.0091780429916630164 0.025417556776984037 0 -0.0082461363595027499 0.024999940190643687 0 -0.009385392038365168 0.026013800361014833 0 -0.0091780429916630164 0.025417556776984037 0 -0.0099802115139154979 0.025538099631829035 0 -0.0087686145900194978 0.025772857832303379 0 -0.0082461363595027499 0.024999940190643687 0 -0.0078861392010732417 0.02581440280658915 0 -0.0090112843521009608 0.026779173377020207 0 -0.0087686145900194978 0.025772857832303379 0 -0.0078861392010732417 0.02581440280658915 0 -0.008490383163914943 0.026952468255058374 0 -0.0090185168361831148 0.026702087041041097 0 -0.0079326385967608097 0.025823579879868393 0 -0.008490383163914943 0.026952468255058374 0 -0.0079326385967608097 0.025823579879868393 0 -0.0077064551261656102 0.026149891603066907 0 -0.010657302271573157 0.025997129600987334 0 -0.0084410372414457594 0.025467608217040857 0 -0.011204330792004188 0.025624343454169727 0 -0.010311734487213014 0.025357098290486199 0 -0.0084546591123502487 0.026909969471005424 0 -0.0071431102369153071 0.02648824270963477 0 -0.0077064551261656102 0.026149891603066907 0 -0.0079326385967608097 0.025823579879868393 0 -0.0077064551261656102 0.026149891603066907 0 -0.0069993938391781285 0.025772964555379151 0 -0.0071431102369153071 0.02648824270963477 0 -0.0077064551261656102 0.026149891603066907 0 -0.0069993938391781285 0.025772964555379151 0 -0.0079326385967608097 0.025823579879868393 0 -0.0068796651111034703 0.024999980531297313 0 -0.0069993938391781285 0.025772964555379151 0 -0.0082461363595027499 0.024999940190643687 0 -0.0078861392010732417 0.02581440280658915 0 -0.0068796408368150793 0.025000022652237809 0 -0.0084410372414457594 0.025467608217040857 0 -0.0068813637994095556 0.025000025444209831 0 -0.0057171374088394802 0.025000005693668316 0 -0.0068796651111034703 0.024999980531297313 0 -0.0069993938391781285 0.025772964555379151 0 -0.0057171374088394802 0.025000005693668316 0 -0.0069993938391781285 0.025772964555379151 0 -0.0063986275692843424 0.026274510705978894 0 -0.0071431102369153071 0.02648824270963477 0 -0.0069993938391781285 0.025772964555379151 0 -0.0063986275692843424 0.026274510705978894 0 -0.012167731909584293 0.0255932905558275 0 -0.012695996228380853 0.025799736252330382 0 -0.01150034457561875 0.025688348185620907 0 -0.012167731909584293 0.0255932905558275 0 -0.013145291737356176 0.025591161957107825 0 -0.012695996228380853 0.025799736252330382 0 -0.013145291737356176 0.025591161957107825 0 -0.013760933348184002 0.025691286552594606 0 -0.012695996228380853 0.025799736252330382 0 -0.013829834108235194 0.025780564245397031 0 -0.013760933348184002 0.025691286552594606 0 -0.012695996228380853 0.025799736252330382 0 -0.013145291737356176 0.025591161957107825 0 -0.013760933348184002 0.025691286552594606 0 -0.014005796197645649 0.025599833003478567 0 -0.012786204076002851 0.02618847983959333 0 -0.013829834108235194 0.025780564245397031 0 -0.012695996228380853 0.025799736252330382 0 -0.012786204076002851 0.02618847983959333 0 -0.012695996228380853 0.025799736252330382 0 -0.011337255225807082 0.026051474787621126 0 -0.013666721940443412 0.026162354762026635 0 -0.012638151527679657 0.02601183703536037 0 -0.012867925970802694 0.026318552106613175 0 -0.012329535667054164 0.025770308013427931 0 -0.012735599236073642 0.025595033267028222 0 -0.014006837276772042 0.0256432884326626 0 -0.012638151527679657 0.02601183703536037 0 -0.010657302271573157 0.025997129600987334 0 -0.012638151527679657 0.02601183703536037 0 -0.012638151527679657 0.02601183703536037 0 -0.011962756222614479 0.025812087728798859 0 -0.0094686647294004618 0.026597111830536254 0 -0.010375445099506346 0.027961539537434361 0 -0.010157645809804661 0.026765317810845138 0 -0.011337255225807082 0.026051474787621126 0 -0.010875931954837314 0.025717001943746768 0 -0.01150034457561875 0.025688348185620907 0 -0.012695996228380853 0.025799736252330382 0 -0.011337255225807082 0.026051474787621126 0 -0.01150034457561875 0.025688348185620907 0 -0.012167731909584293 0.0255932905558275 0 -0.01150034457561875 0.025688348185620907 0 -0.011355717960368805 0.025433791023126741 0 -0.01150034457561875 0.025688348185620907 0 -0.010846427363590674 0.025557051501405487 0 -0.011355717960368805 0.025433791023126741 0 -0.010846427363590674 0.025557051501405487 0 -0.011355717960368805 0.025433791023126741 0 -0.010582345094757799 0.025312598349440472 0 -0.010875931954837314 0.025717001943746768 0 -0.010846427363590674 0.025557051501405487 0 -0.0099802115139154979 0.025538099631829035 0 -0.009385392038365168 0.026013800361014833 0 -0.010157645809804661 0.026765317810845138 0 -0.0099802115139154979 0.025538099631829035 0 -0.011962756222614479 0.025812087728798859 0 -0.01170914083827327 0.025597062060541964 0 -0.0094686647294004618 0.026597111830536254 0 -0.009385392038365168 0.026013800361014833 0 -0.010157645809804661 0.026765317810845138 0 -0.010875931954837314 0.025717001943746768 0 -0.01150034457561875 0.025688348185620907 0 -0.010846427363590674 0.025557051501405487 0 -0.010846427363590674 0.025557051501405487 0 -0.0099802115139154979 0.025538099631829035 0 -0.010582345094757799 0.025312598349440472 0 -0.0091780429916630164 0.025417556776984037 0 -0.0099802115139154979 0.025538099631829035 0 -0.0096135413104850333 0.024999731046100298 0 -0.0099802115139154979 0.025538099631829035 0 -0.0096135413104850333 0.024999731046100298 0 -0.010582345094757799 0.025312598349440472 0 -0.0096135413104850333 0.024999731046100298 0 -0.010582345094757799 0.025312598349440472 0 -0.010980212488709907 0.024999615805978648 0 -0.011355717960368805 0.025433791023126741 0 -0.010582345094757799 0.025312598349440472 0 -0.010980212488709907 0.024999615805978648 0 -0.010980212488709907 0.024999615805978648 0 -0.012298350697526789 0.025364236775339406 0 -0.01234668056169539 0.024999751956263718 0 -0.011355717960368805 0.025433791023126741 0 -0.010980212488709907 0.024999615805978648 0 -0.012298350697526789 0.025364236775339406 0 -0.012167731909584293 0.0255932905558275 0 -0.013145291737356176 0.025591161957107825 0 -0.012298350697526789 0.025364236775339406 0 -0.012167731909584293 0.0255932905558275 0 -0.011355717960368805 0.025433791023126741 0 -0.012298350697526789 0.025364236775339406 0 -0.013145291737356176 0.025591161957107825 0 -0.012298350697526789 0.025364236775339406 0 -0.013489811504015854 0.025386258662272367 0 -0.012298350697526789 0.025364236775339406 0 -0.01234668056169539 0.024999751956263718 0 -0.013489811504015854 0.025386258662272367 0 -0.01234668056169539 0.024999751956263718 0 -0.013712624904060793 0.024998968456262628 0 -0.013489811504015854 0.025386258662272367 0 -0.013712624904060793 0.024998968456262628 0 -0.0141774014648176 0.025236342268835692 0 -0.013489811504015854 0.025386258662272367 0 -0.0141774014648176 0.025236342268835692 0 -0.013489811504015854 0.025386258662272367 0 -0.014336240681430931 0.02548344345890953 0 -0.013145291737356176 0.025591161957107825 0 -0.013489811504015854 0.025386258662272367 0 -0.014005796197645649 0.025599833003478567 0 -0.013489811504015854 0.025386258662272367 0 -0.014336240681430931 0.02548344345890953 0 -0.014005796197645649 0.025599833003478567 0 -0.014336240681430931 0.02548344345890953 0 -0.014571508110957133 0.025564841537691108 0 -0.014005796197645649 0.025599833003478567 0 -0.013760933348184002 0.025691286552594606 0 -0.014005796197645649 0.025599833003478567 0 -0.014562050617486862 0.025513711967918067 0 -0.014571508110957133 0.025564841537691108 0 -0.014005796197645649 0.025599833003478567 0 -0.014562050617486862 0.025513711967918067 0 -0.014827016761587061 0.025591007046651473 0 -0.01544882266702202 0.025631197647434902 0 -0.015142679421414078 0.025660792285465337 0 -0.01544882266702202 0.025631197647434902 0 -0.015365963853403497 0.025796793859436836 0 -0.015142679421414078 0.025660792285465337 0 -0.014336240681430931 0.02548344345890953 0 -0.014571508110957133 0.025564841537691108 0 -0.014827016761587061 0.025591007046651473 0 -0.014571508110957133 0.025564841537691108 0 -0.014827016761587061 0.025591007046651473 0 -0.015114260765636019 0.025431002368895752 0 -0.0141774014648176 0.025236342268835692 0 -0.014336240681430931 0.02548344345890953 0 -0.014774317500084871 0.025327705588221415 0 -0.014336240681430931 0.02548344345890953 0 -0.014827016761587061 0.025591007046651473 0 -0.014774317500084871 0.025327705588221415 0 -0.014827016761587061 0.025591007046651473 0 -0.014774317500084871 0.025327705588221415 0 -0.01544882266702202 0.025631197647434902 0 -0.014774317500084871 0.025327705588221415 0 -0.015418977332102766 0.025008132884614471 0 -0.01544882266702202 0.025631197647434902 0 -0.014661434895934283 0.025301649791380137 0 -0.015422193483150794 0.025534628915274461 0 -0.013712400902491626 0.025000016095531472 0 -0.014833647896550754 0.025569450580289102 0 -0.015358171541275301 0.024999802287413515 0 -0.014774317500084871 0.025327705588221415 0 -0.014614640925258576 0.024920583108945897 0 -0.015418977332102766 0.025008132884614471 0 -0.0141774014648176 0.025236342268835692 0 -0.014774317500084871 0.025327705588221415 0 -0.014614640925258576 0.024920583108945897 0 -0.013712624904060793 0.024998968456262628 0 -0.0141774014648176 0.025236342268835692 0 -0.014614640925258576 0.024920583108945897 0 -0.013713709102756606 0.02500012391966961 0 -0.014661434895934283 0.025301649791380137 0 -0.014833647896550754 0.025569450580289102 0 -0.015358171541275301 0.024999802287413515 0 -0.015953773457537762 0.02588125735781115 0 -0.015358171541275301 0.024999802287413515 0 -0.016726378012585152 0.02567776565611192 0 -0.017617752100596153 0.024999529949272164 0 -0.015358171541275301 0.024999802287413515 0 -0.016726378012585152 0.02567776565611192 0 -0.015953773457537762 0.02588125735781115 0 -0.016726378012585152 0.02567776565611192 0 -0.017617752100596153 0.024999529949272164 0 -0.018080509582904445 0.026194373718669693 0 -0.017617752100596153 0.024999529949272164 0 -0.018080509582904445 0.026194373718669693 0 -0.019633433724884221 0.025956069739255502 0 -0.018377110363508833 0.024531616409775695 0 -0.018922287665354743 0.025858993115887505 0 -0.019805129901439303 0.025135612105888789 0 -0.018377110363508833 0.024531616409775695 0 -0.017481519988089111 0.025589688863309843 0 -0.016724631697891203 0.025643384563339269 0 -0.016726378012585152 0.02567776565611192 0 -0.018080509582904445 0.026194373718669693 0 -0.016724631697891203 0.025643384563339269 0 -0.018661634653165698 0.025386625783250433 0 -0.018006455145670029 0.02549513027583988 0 -0.017481519988089111 0.025589688863309843 0 -0.018922287665354743 0.025858993115887505 0 -0.017529081926921004 0.026255543559028309 0 -0.017021584195199769 0.025822123633577748 0 -0.017481519988089111 0.025589688863309843 0 -0.016866529742115458 0.025682049733205013 0 -0.017481519988089111 0.025589688863309843 0 -0.016724631697891203 0.025643384563339269 0 -0.016866529742115458 0.025682049733205013 0 -0.017021584195199769 0.025822123633577748 0 -0.017481519988089111 0.025589688863309843 0 -0.017529081926921004 0.026255543559028309 0 -0.017021584195199769 0.025822123633577748 0 -0.01650293510749954 0.025969635926459532 0 -0.017529081926921004 0.026255543559028309 0 -0.018377110363508833 0.024531616409775695 0 -0.017481519988089111 0.025589688863309843 0 -0.018922287665354743 0.025858993115887505 0 -0.015418977332102766 0.025008132884614471 0 -0.015926837802209132 0.025494837232636805 0 -0.01544882266702202 0.025631197647434902 0 -0.015418977332102766 0.025008132884614471 0 -0.015926837802209132 0.025494837232636805 0 -0.016653136166766822 0.025628733128893424 0 -0.015422193483150794 0.025534628915274461 0 -0.015815497839575636 0.025672127020357496 0 -0.015926837802209132 0.025494837232636805 0 -0.016319999328907708 0.025625576745315987 0 -0.015851364097958204 0.025723890750727132 0 -0.016726378012585152 0.02567776565611192 0 -0.016724631697891203 0.025643384563339269 0 -0.016653136166766822 0.025628733128893424 0 -0.016726378012585152 0.02567776565611192 0 -0.015953773457537762 0.02588125735781115 0 -0.016653136166766822 0.025628733128893424 0 -0.016724631697891203 0.025643384563339269 0 -0.016595461238599469 0.025645941965957944 0 -0.016866529742115458 0.025682049733205013 0 -0.016724631697891203 0.025643384563339269 0 -0.016653136166766822 0.025628733128893424 0 -0.016595461238599469 0.025645941965957944 0 -0.015926837802209132 0.025494837232636805 0 -0.016653136166766822 0.025628733128893424 0 -0.016319999328907708 0.025625576745315987 0 -0.016595461238599469 0.025645941965957944 0 -0.016319999328907708 0.025625576745315987 0 -0.016520636457971392 0.02567651766184503 0 -0.016653136166766822 0.025628733128893424 0 -0.016595461238599469 0.025645941965957944 0 -0.016319999328907708 0.025625576745315987 0 -0.016319999328907708 0.025625576745315987 0 -0.016298258745492476 0.025745367882242631 0 -0.015851364097958204 0.025723890750727132 0 -0.016319999328907708 0.025625576745315987 0 -0.016298258745492476 0.025745367882242631 0 -0.016520636457971392 0.02567651766184503 0 -0.016595461238599469 0.025645941965957944 0 -0.016866529742115458 0.025682049733205013 0 -0.016520636457971392 0.02567651766184503 0 -0.016866529742115458 0.025682049733205013 0 -0.016520636457971392 0.02567651766184503 0 -0.016613409556323597 0.025763801841396514 0 -0.016298258745492476 0.025745367882242631 0 -0.016520636457971392 0.02567651766184503 0 -0.016613409556323597 0.025763801841396514 0 -0.017021584195199769 0.025822123633577748 0 -0.016866529742115458 0.025682049733205013 0 -0.016613409556323597 0.025763801841396514 0 -0.017021584195199769 0.025822123633577748 0 -0.016613409556323597 0.025763801841396514 0 -0.01650293510749954 0.025969635926459532 0 -0.016298258745492476 0.025745367882242631 0 -0.016613409556323597 0.025763801841396514 0 -0.01650293510749954 0.025969635926459532 0 -0.016298258745492476 0.025745367882242631 0 -0.01650293510749954 0.025969635926459532 0 -0.015896934514492245 0.025913609487082198 0 -0.016298258745492476 0.025745367882242631 0 -0.015896934514492245 0.025913609487082198 0 -0.015851364097958204 0.025723890750727132 0 -0.015896934514492245 0.025913609487082198 0 -0.015851364097958204 0.025723890750727132 0 -0.015365963853403497 0.025796793859436836 0 -0.015926837802209132 0.025494837232636805 0 -0.015851364097958204 0.025723890750727132 0 -0.01544882266702202 0.025631197647434902 0 -0.015851364097958204 0.025723890750727132 0 -0.01544882266702202 0.025631197647434902 0 -0.015365963853403497 0.025796793859436836 0 -0.015896934514492245 0.025913609487082198 0 -0.016224711813532567 0.02633826708750802 0 -0.015054910925370601 0.025809182402662237 0 -0.015896934514492245 0.025913609487082198 0 -0.015365963853403497 0.025796793859436836 0 -0.015054910925370601 0.025809182402662237 0 -0.01650293510749954 0.025969635926459532 0 -0.015896934514492245 0.025913609487082198 0 -0.016224711813532567 0.02633826708750802 0 -0.01650293510749954 0.025969635926459532 0 -0.016224711813532567 0.02633826708750802 0 -0.017529081926921004 0.026255543559028309 0 -0.013550522466252716 0.025413418606047431 0 -0.015054910925370601 0.025809182402662237 0 -0.013839647238956976 0.024433633441359549 0 -0.016671957548485234 0.024562194286582007 0 -0.016135867483816558 0.02475301385646414 0 -0.016224711813532567 0.02633826708750802 0 -0.016536210188431138 0.027320312079816708 0 -0.015054910925370601 0.025809182402662237 0 -0.016224711813532567 0.02633826708750802 0 -0.016536210188431138 0.027320312079816708 0 -0.017481344816855812 0.027034298455159058 0 -0.017529081926921004 0.026255543559028309 0 -0.017481344816855812 0.027034298455159058 0 -0.019145463531209096 0.026984880855447202 0 -0.018922287665354743 0.025858993115887505 0 -0.017529081926921004 0.026255543559028309 0 -0.019145463531209096 0.026984880855447202 0 -0.016224711813532567 0.02633826708750802 0 -0.017529081926921004 0.026255543559028309 0 -0.017481344816855812 0.027034298455159058 0 -0.016536210188431138 0.027320312079816708 0 -0.017481344816855812 0.027034298455159058 0 -0.018052943495286567 0.02794289771085361 0 -0.016671957548485234 0.024562194286582007 0 -0.019447304301213112 0.024008062117238667 0 -0.023432486219706606 0.02302746606229307 0 -0.023195511077583816 0.023357443389350013 0 -0.023037065443963688 0.022930771918884863 0 -0.019447304301213112 0.024008062117238667 0 -0.020447597717745514 0.024403846290654379 0 -0.017481344816855812 0.027034298455159058 0 -0.018052943495286567 0.02794289771085361 0 -0.019145463531209096 0.026984880855447202 0 -0.022685891471768062 0.022849039510573162 0 -0.022688751355782764 0.022846018446462512 0 -0.022686940303397771 0.022855685695051645 0 -0.019447304301213112 0.024008062117238667 0 -0.02177837142980843 0.023836914469190184 0 -0.022688751355782764 0.022846018446462512 0 -0.022692299144138291 0.022837455765240849 0 -0.022686940303397771 0.022855685695051645 0 -0.012142448651441817 0.025049827336623379 0 -0.01317556089730741 0.023718764568520227 0 -0.013839647238956976 0.024433633441359549 0 -0.022685891471768062 0.022849039510573162 0 -0.022688751355782764 0.022846018446462512 0 -0.022682484139516266 0.022844664620435256 0 -0.019447304301213112 0.024008062117238667 0 -0.018813101955238585 0.023373169363255758 0 -0.013550522466252716 0.025413418606047431 0 -0.012142448651441817 0.025049827336623379 0 -0.013839647238956976 0.024433633441359549 0 -0.018813101955238585 0.023373169363255758 0 -0.021944608791756675 0.02280445588325794 0 -0.021288089074723935 0.02116253821484794 0 -0.020331756285170782 0.020870365275256018 0 -0.020446241445209325 0.021959811284619133 0 -0.022688751355782764 0.022846018446462512 0 -0.022682484139516266 0.022844664620435256 0 -0.022692299144138291 0.022837455765240849 0 -0.020574553800482332 0.020542179327451421 0 -0.021288089074723935 0.02116253821484794 0 -0.022935989796177236 0.020385670355405051 0 -0.018813101955238585 0.023373169363255758 0 -0.018838178880560032 0.023339102158008305 0 -0.020574553800482332 0.020542179327451421 0 -0.021288089074723935 0.02116253821484794 0 -0.020331756285170782 0.020870365275256018 0 -0.015054910925370601 0.025809182402662237 0 -0.014782054129072629 0.024153945789158447 0 -0.013839647238956976 0.024433633441359549 0 -0.01317556089730741 0.023718764568520227 0 -0.014782054129072629 0.024153945789158447 0 -0.013839647238956976 0.024433633441359549 0 -0.018813101955238585 0.023373169363255758 0 -0.017282534192481942 0.0231825289286452 0 -0.020331756285170782 0.020870365275256018 0 -0.018771158963812311 0.021976122948340802 0 -0.020446241445209325 0.021959811284619133 0 -0.020497179469956092 0.020634005815154975 0 -0.017861460442774327 0.021727289761487131 0 -0.020331756285170782 0.020870365275256018 0 -0.017861460442774327 0.021727289761487131 0 -0.020331756285170782 0.020870365275256018 0 -0.018771158963812311 0.021976122948340802 0 -0.017861460442774327 0.021727289761487131 0 -0.018771158963812311 0.021976122948340802 0 -0.016973567629111692 0.022843331252012988 0 -0.015054910925370601 0.025809182402662237 0 -0.014782054129072629 0.024153945789158447 0 -0.015769519011884968 0.0240114767791627 0 -0.017861460442774327 0.021727289761487131 0 -0.016973567629111692 0.022843331252012988 0 -0.015769519011884968 0.0240114767791627 0 -0.017282534192481942 0.0231825289286452 0 -0.017000130204306175 0.023295502654683015 0 -0.015769519011884968 0.0240114767791627 0 -0.015960624032031797 0.023651426406631555 0 -0.015443506573387843 0.024300752860308115 0 -0.015960624032031797 0.023651426406631555 0 -0.015616659638173052 0.023932086608206567 0 -0.016195105969121364 0.023556096474766447 0 -0.016973567629111692 0.022843331252012988 0 -0.015769519011884968 0.0240114767791627 0 -0.015960624032031797 0.023651426406631555 0 -0.016973567629111692 0.022843331252012988 0 -0.015960624032031797 0.023651426406631555 0 -0.016195105969121364 0.023556096474766447 0 -0.015960624032031797 0.023651426406631555 0 -0.015616659638173052 0.023932086608206567 0 -0.015443506573387843 0.024300752860308115 0 -0.015239766026672244 0.024460772133586189 0 -0.015616659638173052 0.023932086608206567 0 -0.015443506573387843 0.024300752860308115 0 -0.015239766026672244 0.024460772133586189 0 -0.015616659638173052 0.023932086608206567 0 -0.015452115896149411 0.024112770501488381 0 -0.015239766026672244 0.024460772133586189 0 -0.015443506573387843 0.024300752860308115 0 -0.015024555773808172 0.024952959016334385 0 -0.015769519011884968 0.0240114767791627 0 -0.015443506573387843 0.024300752860308115 0 -0.015184307377889563 0.024941828261746703 0 -0.015443506573387843 0.024300752860308115 0 -0.015184307377889563 0.024941828261746703 0 -0.015024555773808172 0.024952959016334385 0 -0.014734633901319912 0.025431375491935623 0 -0.015024555773808172 0.024952959016334385 0 -0.014562050617486862 0.025513711967918067 0 -0.015184307377889563 0.024941828261746703 0 -0.015024555773808172 0.024952959016334385 0 -0.014562050617486862 0.025513711967918067 0 -0.015184307377889563 0.024941828261746703 0 -0.014562050617486862 0.025513711967918067 0 -0.015114260765636019 0.025431002368895752 0 -0.014571508110957133 0.025564841537691108 0 -0.014562050617486862 0.025513711967918067 0 -0.015114260765636019 0.025431002368895752 0 -0.014827016761587061 0.025591007046651473 0 -0.015114260765636019 0.025431002368895752 0 -0.015142679421414078 0.025660792285465337 0 -0.015365963853403497 0.025796793859436836 0 -0.015054910925370601 0.025809182402662237 0 -0.015230246174819504 0.025475044990249242 0 -0.015114260765636019 0.025431002368895752 0 -0.015142679421414078 0.025660792285465337 0 -0.015230246174819504 0.025475044990249242 0 -0.015365963853403497 0.025796793859436836 0 -0.015142679421414078 0.025660792285465337 0 -0.015230246174819504 0.025475044990249242 0 -0.015054910925370601 0.025809182402662237 0 -0.015769519011884968 0.0240114767791627 0 -0.015230246174819504 0.025475044990249242 0 -0.015769519011884968 0.0240114767791627 0 -0.015184307377889563 0.024941828261746703 0 -0.015114260765636019 0.025431002368895752 0 -0.015769519011884968 0.0240114767791627 0 -0.015114260765636019 0.025431002368895752 0 -0.015230246174819504 0.025475044990249242 0 -0.024998337695407546 0.02499887002646017 0 -0.023002328273775931 0.025072672692285022 0 -0.020729367703699018 0.024998291071243506 0 -0.024998337695407546 0.02499887002646017 0 -0.024971289185140039 0.024126302932033116 0 -0.024998571151931027 0.020009567459958726 0 -0.025533622423923857 0.022370938293632375 0 -0.024971289185140039 0.024126302932033116 0 -0.024998571151931027 0.020009567459958726 0 -0.025533622423923857 0.022370938293632375 0 -0.025416802177242973 0.023143904438612764 0 -0.024971289185140039 0.024126302932033116 0 -0.024998337695407546 0.02499887002646017 0 -0.024971289185140039 0.024126302932033116 0 -0.023002328273775931 0.025072672692285022 0 -0.023499235121004242 0.025402370759785943 0 -0.024971289185140039 0.024126302932033116 0 -0.023002328273775931 0.025072672692285022 0 -0.024088323143572194 0.024008073427164746 0 -0.024304181988443453 0.024021247351182756 0 -0.023002328273775931 0.025072672692285022 0 -0.022055020909266868 0.025247769115989128 0 -0.021817838950789172 0.02524607718190975 0 -0.024088323143572194 0.024008073427164746 0 -0.023717963909078377 0.023888418159958479 0 -0.023499235121004242 0.025402370759785943 0 -0.023002328273775931 0.025072672692285022 0 -0.022055020909266868 0.025247769115989128 0 -0.025533622423923857 0.022370938293632375 0 -0.025416802177242973 0.023143904438612764 0 -0.024846363061864194 0.022283565324600095 0 -0.025533622423923857 0.022370938293632375 0 -0.024846363061864194 0.022283565324600095 0 -0.024612832000435642 0.022751359869295062 0 -0.024846363061864194 0.022283565324600095 0 -0.023569805870367319 0.02317016352127952 0 -0.024612832000435642 0.022751359869295062 0 -0.023717963909078377 0.023888418159958479 0 -0.023506371573731762 0.023818554512475294 0 -0.024846363061864194 0.022283565324600095 0 -0.022634417212957992 0.023428872466883393 0 -0.023569805870367319 0.02317016352127952 0 -0.022055020909266868 0.025247769115989128 0 -0.022634417212957992 0.023428872466883393 0 -0.022055419083630571 0.024747744008610316 0 -0.022634417212957992 0.023428872466883393 0 -0.022278721340526376 0.024180985625903102 0 -0.022055419083630571 0.024747744008610316 0 -0.022634417212957992 0.023428872466883393 0 -0.022278721340526376 0.024180985625903102 0 -0.022574905608048111 0.023658260973968545 0 -0.022634417212957992 0.023428872466883393 0 -0.022574905608048111 0.023658260973968545 0 -0.022884034386381442 0.023397256003656042 0 -0.022278721340526376 0.024180985625903102 0 -0.022055419083630571 0.024747744008610316 0 -0.021875819244047728 0.024713321176375879 0 -0.022055419083630571 0.024747744008610316 0 -0.021495167239221707 0.02533795659146762 0 -0.021875819244047728 0.024713321176375879 0 -0.022055419083630571 0.024747744008610316 0 -0.021817838950789172 0.02524607718190975 0 -0.021495167239221707 0.02533795659146762 0 -0.022055020909266868 0.025247769115989128 0 -0.022055419083630571 0.024747744008610316 0 -0.021817838950789172 0.02524607718190975 0 -0.020729367703699018 0.024998291071243506 0 -0.021495167239221707 0.02533795659146762 0 -0.019633433724884221 0.025956069739255502 0 -0.023002328273775931 0.025072672692285022 0 -0.021817838950789172 0.02524607718190975 0 -0.020729367703699018 0.024998291071243506 0 -0.021817838950789172 0.02524607718190975 0 -0.020729367703699018 0.024998291071243506 0 -0.021495167239221707 0.02533795659146762 0 -0.017617752100596153 0.024999529949272164 0 -0.020729367703699018 0.024998291071243506 0 -0.019633433724884221 0.025956069739255502 0 -0.0203969388060758 0.025169925340205627 0 -0.019820059084019032 0.025224363469698145 0 -0.018377110363508833 0.024531616409775695 0 -0.019805129901439303 0.025135612105888789 0 -0.021055928817704891 0.024223633099434917 0 -0.019805129901439303 0.025135612105888789 0 -0.021055928817704891 0.024223633099434917 0 -0.020617336405695907 0.025924776154250699 0 -0.018661634653165698 0.025386625783250433 0 -0.019820059084019032 0.025224363469698145 0 -0.021495167239221707 0.02533795659146762 0 -0.021055928817704891 0.024223633099434917 0 -0.021875819244047728 0.024713321176375879 0 -0.021055928817704891 0.024223633099434917 0 -0.021875819244047728 0.024713321176375879 0 -0.020617336405695907 0.025924776154250699 0 -0.021346248971889071 0.024352131176131667 0 -0.021120422653174997 0.02438937786986586 0 -0.022278721340526376 0.024180985625903102 0 -0.022574905608048111 0.023658260973968545 0 -0.022984765438641117 0.023774003651498503 0 -0.022278721340526376 0.024180985625903102 0 -0.021875819244047728 0.024713321176375879 0 -0.022984765438641117 0.023774003651498503 0 -0.018922287665354743 0.025858993115887505 0 -0.020617336405695907 0.025924776154250699 0 -0.019145463531209096 0.026984880855447202 0 -0.018922287665354743 0.025858993115887505 0 -0.019805129901439303 0.025135612105888789 0 -0.020617336405695907 0.025924776154250699 0 -0.022984765438641117 0.023774003651498503 0 -0.023195511077583816 0.023357443389350013 0 -0.022831660947415226 0.023358830319186539 0 -0.021120422653174997 0.02438937786986586 0 -0.020447597717745514 0.024403846290654379 0 -0.022574905608048111 0.023658260973968545 0 -0.022984765438641117 0.023774003651498503 0 -0.022831660947415226 0.023358830319186539 0 -0.022574905608048111 0.023658260973968545 0 -0.022831660947415226 0.023358830319186539 0 -0.022583750111645751 0.023114008022124127 0 -0.022850973076190374 0.023118825229213321 0 -0.022646686051405497 0.022886013211034201 0 -0.022583750111645751 0.023114008022124127 0 -0.022831660947415226 0.023358830319186539 0 -0.022850973076190374 0.023118825229213321 0 -0.022583750111645751 0.023114008022124127 0 -0.023195511077583816 0.023357443389350013 0 -0.022850973076190374 0.023118825229213321 0 -0.023037065443963688 0.022930771918884863 0 -0.023195511077583816 0.023357443389350013 0 -0.022831660947415226 0.023358830319186539 0 -0.022850973076190374 0.023118825229213321 0 -0.022935989796177236 0.020385670355405051 0 -0.02481620926339885 0.020620747817621212 0 -0.024657220066081488 0.020713264409433812 0 -0.022692299144138291 0.022837455765240849 0 -0.022680015082208866 0.022841201477417944 0 -0.022682949066114105 0.022811280159936217 0 -0.021944608791756675 0.02280445588325794 0 -0.0235317892098168 0.022423241938630871 0 -0.022692299144138291 0.022837455765240849 0 -0.022686940303397771 0.022855685695051645 0 -0.022680015082208866 0.022841201477417944 0 -0.024019049046650389 0.022545891441431272 0 -0.0235317892098168 0.022423241938630871 0 -0.022680015082208866 0.022841201477417944 0 -0.022646686051405497 0.022886013211034201 0 -0.022595520325130555 0.022787197087930013 0 -0.024176858248335778 0.022182518644310235 0 -0.024195033563672964 0.022334659026353773 0 -0.023985639957499211 0.022276249520247957 0 -0.022680015082208866 0.022841201477417944 0 -0.022595520325130555 0.022787197087930013 0 -0.022682949066114105 0.022811280159936217 0 -0.022686940303397771 0.022855685695051645 0 -0.022680015082208866 0.022841201477417944 0 -0.022646686051405497 0.022886013211034201 0 -0.022850973076190374 0.023118825229213321 0 -0.023037065443963688 0.022930771918884863 0 -0.022646686051405497 0.022886013211034201 0 -0.02177837142980843 0.023836914469190184 0 -0.022182512172244456 0.023723679482593431 0 -0.024019049046650389 0.022545891441431272 0 -0.023399441673179672 0.023182235990962211 0 -0.022646686051405497 0.022886013211034201 0 -0.022595520325130555 0.022787197087930013 0 -0.022583750111645751 0.023114008022124127 0 -0.023276878434244322 0.023796799361239882 0 -0.022991613471311647 0.024310472867464118 0 -0.022923555851582959 0.023437724217874475 0 -0.024019049046650389 0.022545891441431272 0 -0.024514995706367358 0.022148781443673944 0 -0.025942025735377801 0.022064920832911422 0 -0.025571037317019565 0.021913458647007007 0 -0.025904057658688466 0.021687131913152392 0 -0.025942025735377801 0.022064920832911422 0 -0.025571037317019565 0.021913458647007007 0 -0.025583383647818245 0.022289999868361981 0 -0.025571037317019565 0.021913458647007007 0 -0.025583383647818245 0.022289999868361981 0 -0.025442059174143539 0.021997130773156948 0 -0.024019049046650389 0.022545891441431272 0 -0.024411449426143834 0.022712369558949484 0 -0.023276878434244322 0.023796799361239882 0 -0.022991613471311647 0.024310472867464118 0 -0.023833485202982986 0.023965880498403449 0 -0.023276878434244322 0.023796799361239882 0 -0.023833485202982986 0.023965880498403449 0 -0.023516840689097099 0.023479155326301404 0 -0.023833485202982986 0.023965880498403449 0 -0.023516840689097099 0.023479155326301404 0 -0.024224270873827138 0.023074384352374407 0 -0.023516840689097099 0.023479155326301404 0 -0.023385351374789594 0.023305020725624955 0 -0.024224270873827138 0.023074384352374407 0 -0.023276878434244322 0.023796799361239882 0 -0.023516840689097099 0.023479155326301404 0 -0.022923555851582959 0.023437724217874475 0 -0.023516840689097099 0.023479155326301404 0 -0.022923555851582959 0.023437724217874475 0 -0.023385351374789594 0.023305020725624955 0 -0.022574905608048111 0.023658260973968545 0 -0.022923555851582959 0.023437724217874475 0 -0.022884034386381442 0.023397256003656042 0 -0.023208433761129067 0.023335605246878402 0 -0.023399441673179672 0.023182235990962211 0 -0.022923555851582959 0.023437724217874475 0 -0.022884034386381442 0.023397256003656042 0 -0.023385351374789594 0.023305020725624955 0 -0.023569805870367319 0.02317016352127952 0 -0.023385351374789594 0.023305020725624955 0 -0.024612832000435642 0.022751359869295062 0 -0.022634417212957992 0.023428872466883393 0 -0.022884034386381442 0.023397256003656042 0 -0.023569805870367319 0.02317016352127952 0 -0.022884034386381442 0.023397256003656042 0 -0.023569805870367319 0.02317016352127952 0 -0.023385351374789594 0.023305020725624955 0 -0.023385351374789594 0.023305020725624955 0 -0.024612832000435642 0.022751359869295062 0 -0.024224270873827138 0.023074384352374407 0 -0.025533622423923857 0.022370938293632375 0 -0.025190508580002914 0.022385352456445001 0 -0.025582395794085746 0.021930590065966097 0 -0.025533622423923857 0.022370938293632375 0 -0.024612832000435642 0.022751359869295062 0 -0.025190508580002914 0.022385352456445001 0 -0.024612832000435642 0.022751359869295062 0 -0.025190508580002914 0.022385352456445001 0 -0.02495450911519885 0.022526245262899924 0 -0.02495450911519885 0.022526245262899924 0 -0.025582395794085746 0.021930590065966097 0 -0.025063380506639681 0.022666109690252782 0 -0.025190508580002914 0.022385352456445001 0 -0.02495450911519885 0.022526245262899924 0 -0.025582395794085746 0.021930590065966097 0 -0.025582395794085746 0.021930590065966097 0 -0.025063380506639681 0.022666109690252782 0 -0.024830698082268326 0.02257957393010911 0 -0.024612832000435642 0.022751359869295062 0 -0.02495450911519885 0.022526245262899924 0 -0.024224270873827138 0.023074384352374407 0 -0.02495450911519885 0.022526245262899924 0 -0.025063380506639681 0.022666109690252782 0 -0.024224270873827138 0.023074384352374407 0 -0.023833485202982986 0.023965880498403449 0 -0.025063380506639681 0.022666109690252782 0 -0.024224270873827138 0.023074384352374407 0 -0.025583383647818245 0.022289999868361981 0 -0.02530781998870623 0.022290160840636859 0 -0.025442059174143539 0.021997130773156948 0 -0.025583383647818245 0.022289999868361981 0 -0.025063380506639681 0.022666109690252782 0 -0.02530781998870623 0.022290160840636859 0 -0.024411449426143834 0.022712369558949484 0 -0.024579364865737096 0.02270997875594585 0 -0.02530781998870623 0.022290160840636859 0 -0.025442059174143539 0.021997130773156948 0 -0.025425693723078607 0.021853089263054314 0 -0.025442059174143539 0.021997130773156948 0 -0.025425693723078607 0.021853089263054314 0 -0.025313152418880189 0.021772075947625261 0 -0.025571037317019565 0.021913458647007007 0 -0.025442059174143539 0.021997130773156948 0 -0.025313152418880189 0.021772075947625261 0 -0.025425693723078607 0.021853089263054314 0 -0.024830698082268326 0.02257957393010911 0 -0.024394908696248448 0.020788606081416205 0 -0.02530781998870623 0.022290160840636859 0 -0.025425693723078607 0.021853089263054314 0 -0.024830698082268326 0.02257957393010911 0 -0.025484588510611774 0.020599702787441786 0 -0.025463012064902049 0.01957427344316626 0 -0.025063380506639681 0.022666109690252782 0 -0.02530781998870623 0.022290160840636859 0 -0.024830698082268326 0.02257957393010911 0 -0.025499545907456896 0.020995000978422856 0 -0.025484588510611774 0.020599702787441786 0 -0.025582395794085746 0.021930590065966097 0 -0.026192067268116365 0.019986434656491595 0 -0.024998571151931027 0.020009567459958726 0 -0.026192067268116365 0.019986434656491595 0 -0.024998571151931027 0.020009567459958726 0 -0.026265362250071159 0.018653083776194287 0 -0.025533622423923857 0.022370938293632375 0 -0.025582395794085746 0.021930590065966097 0 -0.024998571151931027 0.020009567459958726 0 -0.024998571151931027 0.020009567459958726 0 -0.024999760958125197 0.016272647415960819 0 -0.025643522018741986 0.017280643196480382 0 -0.024999760958125197 0.016272647415960819 0 -0.025643522018741986 0.017280643196480382 0 -0.025456701176203845 0.015635647625584257 0 -0.025643522018741986 0.017280643196480382 0 -0.025665116314180662 0.016427743378084472 0 -0.025456701176203845 0.015635647625584257 0 -0.025643522018741986 0.017280643196480382 0 -0.026179938909617034 0.01741135728112839 0 -0.025665116314180662 0.016427743378084472 0 -0.024998571151931027 0.020009567459958726 0 -0.025643522018741986 0.017280643196480382 0 -0.026265362250071159 0.018653083776194287 0 -0.025643522018741986 0.017280643196480382 0 -0.026179938909617034 0.01741135728112839 0 -0.026265362250071159 0.018653083776194287 0 -0.024734739104816668 0.018122407026938327 0 -0.024394908696248448 0.020788606081416205 0 -0.026379672971493743 0.018614902831610148 0 -0.024734739104816668 0.018122407026938327 0 -0.026379672971493743 0.018614902831610148 0 -0.025710384292443312 0.017245455266982977 0 -0.025425693723078607 0.021853089263054314 0 -0.024394908696248448 0.020788606081416205 0 -0.026379672971493743 0.018614902831610148 0 -0.025477015215419344 0.018384395509233587 0 -0.025463012064902049 0.01957427344316626 0 -0.025237658052325626 0.021578678195561127 0 -0.025313152418880189 0.021772075947625261 0 -0.0248558568288548 0.021474805124280537 0 -0.025376616271516376 0.020616257811247079 0 -0.025398664808059294 0.019776473004793921 0 -0.025571037317019565 0.021913458647007007 0 -0.025237658052325626 0.021578678195561127 0 -0.025313152418880189 0.021772075947625261 0 -0.025425693723078607 0.021853089263054314 0 -0.025313152418880189 0.021772075947625261 0 -0.0248558568288548 0.021474805124280537 0 -0.025237658052325626 0.021578678195561127 0 -0.0248558568288548 0.021474805124280537 0 -0.025179956910737912 0.021123775363856713 0 -0.024234220119002402 0.020187774646698391 0 -0.02527128918835115 0.020355226506086229 0 -0.025179956910737912 0.021123775363856713 0 -0.026379672971493743 0.018614902831610148 0 -0.025710384292443312 0.017245455266982977 0 -0.026139686968827576 0.016235016522141731 0 -0.0248558568288548 0.021474805124280537 0 -0.024234220119002402 0.020187774646698391 0 -0.025179956910737912 0.021123775363856713 0 -0.025398664808059294 0.019776473004793921 0 -0.0253602039367893 0.018503788029622596 0 -0.025477015215419344 0.018384395509233587 0 -0.02549644893008118 0.017788051738222344 0 -0.024734739104816668 0.018122407026938327 0 -0.025710384292443312 0.017245455266982977 0 -0.025665116314180662 0.016427743378084472 0 -0.025710384292443312 0.017245455266982977 0 -0.025665116314180662 0.016427743378084472 0 -0.026139686968827576 0.016235016522141731 0 -0.025665116314180662 0.016427743378084472 0 -0.025819384992223401 0.016054972149749387 0 -0.025456701176203845 0.015635647625584257 0 -0.025665116314180662 0.016427743378084472 0 -0.026139686968827576 0.016235016522141731 0 -0.025819384992223401 0.016054972149749387 0 -0.024234220119002402 0.020187774646698391 0 -0.025158016023709189 0.019462887001991547 0 -0.025291287756140902 0.018219140527121917 0 -0.024234220119002402 0.020187774646698391 0 -0.02527128918835115 0.020355226506086229 0 -0.025158016023709189 0.019462887001991547 0 -0.02527128918835115 0.020355226506086229 0 -0.025769943671674955 0.020343619968788203 0 -0.025560752450788201 0.019105670536873127 0 -0.02527128918835115 0.020355226506086229 0 -0.025158016023709189 0.019462887001991547 0 -0.025560752450788201 0.019105670536873127 0 -0.025158016023709189 0.019462887001991547 0 -0.025560752450788201 0.019105670536873127 0 -0.025291287756140902 0.018219140527121917 0 -0.025769943671674955 0.020343619968788203 0 -0.025948078706209816 0.019435062003387356 0 -0.025560752450788201 0.019105670536873127 0 -0.025769943671674955 0.020343619968788203 0 -0.026163194697390021 0.020603492101018469 0 -0.025948078706209816 0.019435062003387356 0 -0.026163194697390021 0.020603492101018469 0 -0.026310034546600209 0.019621893759504554 0 -0.025948078706209816 0.019435062003387356 0 -0.025769943671674955 0.020343619968788203 0 -0.025745275876106134 0.021064577755099113 0 -0.026163194697390021 0.020603492101018469 0 -0.02527128918835115 0.020355226506086229 0 -0.025769943671674955 0.020343619968788203 0 -0.025641422310378494 0.021084038109091017 0 -0.025769943671674955 0.020343619968788203 0 -0.025745275876106134 0.021064577755099113 0 -0.025641422310378494 0.021084038109091017 0 -0.025745275876106134 0.021064577755099113 0 -0.025641422310378494 0.021084038109091017 0 -0.025483028430401258 0.021298441057485164 0 -0.02527128918835115 0.020355226506086229 0 -0.025641422310378494 0.021084038109091017 0 -0.025179956910737912 0.021123775363856713 0 -0.025641422310378494 0.021084038109091017 0 -0.025179956910737912 0.021123775363856713 0 -0.025442408409485497 0.021385504531954928 0 -0.025237658052325626 0.021578678195561127 0 -0.025179956910737912 0.021123775363856713 0 -0.025442408409485497 0.021385504531954928 0 -0.025571037317019565 0.021913458647007007 0 -0.025237658052325626 0.021578678195561127 0 -0.025904057658688466 0.021687131913152392 0 -0.025237658052325626 0.021578678195561127 0 -0.025442408409485497 0.021385504531954928 0 -0.025678220097237369 0.021691935444063046 0 -0.025003301779429221 0.02211035362129889 0 -0.024514995706367358 0.022148781443673944 0 -0.025641422310378494 0.021084038109091017 0 -0.025442408409485497 0.021385504531954928 0 -0.025678220097237369 0.021691935444063046 0 -0.025641422310378494 0.021084038109091017 0 -0.025572353301473883 0.021086798368673686 0 -0.025483028430401258 0.021298441057485164 0 -0.02479512513660815 0.021514365474890853 0 -0.024514995706367358 0.022148781443673944 0 -0.025572353301473883 0.021086798368673686 0 -0.025483028430401258 0.021298441057485164 0 -0.025194350659354495 0.021300879907326795 0 -0.025483028430401258 0.021298441057485164 0 -0.025222908717158543 0.021470333405097079 0 -0.025194350659354495 0.021300879907326795 0 -0.025222908717158543 0.021470333405097079 0 -0.024745232009979103 0.021711413096965011 0 -0.02539900843370296 0.021495993954234172 0 -0.025222908717158543 0.021470333405097079 0 -0.025194350659354495 0.021300879907326795 0 -0.024745232009979103 0.021711413096965011 0 -0.025572353301473883 0.021086798368673686 0 -0.025194350659354495 0.021300879907326795 0 -0.02488531879169514 0.021012349291090304 0 -0.024514995706367358 0.022148781443673944 0 -0.0235317892098168 0.022423241938630871 0 -0.025572353301473883 0.021086798368673686 0 -0.02488531879169514 0.021012349291090304 0 -0.024773584184145044 0.02069669151713309 0 -0.025194350659354495 0.021300879907326795 0 -0.02488531879169514 0.021012349291090304 0 -0.024546080042196938 0.021393067209023363 0 -0.022935989796177236 0.020385670355405051 0 -0.023698179291583171 0.021133674471891756 0 -0.024657220066081488 0.020713264409433812 0 -0.023698179291583171 0.021133674471891756 0 -0.024657220066081488 0.020713264409433812 0 -0.024394325017430073 0.021147783637656469 0 -0.02488531879169514 0.021012349291090304 0 -0.024657220066081488 0.020713264409433812 0 -0.024394325017430073 0.021147783637656469 0 -0.02488531879169514 0.021012349291090304 0 -0.024773584184145044 0.02069669151713309 0 -0.024657220066081488 0.020713264409433812 0 -0.0235317892098168 0.022423241938630871 0 -0.023541484126175054 0.02241642451294816 0 -0.02488531879169514 0.021012349291090304 0 -0.024394325017430073 0.021147783637656469 0 -0.024546080042196938 0.021393067209023363 0 -0.024394325017430073 0.021147783637656469 0 -0.024106704507938226 0.021382495222437257 0 -0.024546080042196938 0.021393067209023363 0 -0.023698179291583171 0.021133674471891756 0 -0.024394325017430073 0.021147783637656469 0 -0.024106704507938226 0.021382495222437257 0 -0.023698179291583171 0.021133674471891756 0 -0.024106704507938226 0.021382495222437257 0 -0.023812479680068874 0.021782897404947103 0 -0.024106704507938226 0.021382495222437257 0 -0.024546080042196938 0.021393067209023363 0 -0.023812479680068874 0.021782897404947103 0 -0.024546080042196938 0.021393067209023363 0 -0.024745232009979103 0.021711413096965011 0 -0.023812479680068874 0.021782897404947103 0 -0.025194350659354495 0.021300879907326795 0 -0.024546080042196938 0.021393067209023363 0 -0.024745232009979103 0.021711413096965011 0 -0.024745232009979103 0.021711413096965011 0 -0.023841509754461847 0.022205090776908167 0 -0.023812479680068874 0.021782897404947103 0 -0.024745232009979103 0.021711413096965011 0 -0.024416104037333384 0.022435294045750436 0 -0.023841509754461847 0.022205090776908167 0 -0.024745232009979103 0.021711413096965011 0 -0.024416104037333384 0.022435294045750436 0 -0.02539900843370296 0.021495993954234172 0 -0.024416104037333384 0.022435294045750436 0 -0.02539900843370296 0.021495993954234172 0 -0.026163194697390021 0.020603492101018469 0 -0.025745275876106134 0.021064577755099113 0 -0.02539900843370296 0.021495993954234172 0 -0.026163194697390021 0.020603492101018469 0 -0.025745275876106134 0.021064577755099113 0 -0.025483028430401258 0.021298441057485164 0 -0.02539900843370296 0.021495993954234172 0 -0.025483028430401258 0.021298441057485164 0 -0.025222908717158543 0.021470333405097079 0 -0.02539900843370296 0.021495993954234172 0 -0.025151825761868824 0.022022644236431011 0 -0.026163194697390021 0.020603492101018469 0 -0.026463908166551406 0.020598777513935795 0 -0.026163194697390021 0.020603492101018469 0 -0.026463908166551406 0.020598777513935795 0 -0.026310034546600209 0.019621893759504554 0 -0.024050458360386041 0.022267248152732191 0 -0.024774471606833316 0.022097321700903363 0 -0.026463908166551406 0.020598777513935795 0 -0.02813723190965579 0.019272351195299728 0 -0.029037985427190119 0.020181627061402477 0 -0.025151825761868824 0.022022644236431011 0 -0.026463908166551406 0.020598777513935795 0 -0.024055405913252611 0.023405881971777519 0 -0.025514685370652362 0.02136856261355579 0 -0.025620516548428535 0.021588950842023204 0 -0.02813723190965579 0.019272351195299728 0 -0.026893864374329949 0.018672011781315789 0 -0.027763451867395865 0.017920965968196732 0 -0.026463908166551406 0.020598777513935795 0 -0.02813723190965579 0.019272351195299728 0 -0.026893864374329949 0.018672011781315789 0 -0.026463908166551406 0.020598777513935795 0 -0.026310034546600209 0.019621893759504554 0 -0.026893864374329949 0.018672011781315789 0 -0.026310034546600209 0.019621893759504554 0 -0.026893864374329949 0.018672011781315789 0 -0.026221369100264104 0.018391099746420444 0 -0.027784963302251373 0.016952804460182928 0 -0.026257162336565037 0.016080640496049316 0 -0.026893864374329949 0.018672011781315789 0 -0.026362254813058934 0.016711396421269054 0 -0.026221369100264104 0.018391099746420444 0 -0.026893864374329949 0.018672011781315789 0 -0.027763451867395865 0.017920965968196732 0 -0.026362254813058934 0.016711396421269054 0 -0.027429392816439888 0.016119802105998022 0 -0.027598400236458417 0.014518252797582424 0 -0.026519830311285037 0.014217941195673304 0 -0.027429392816439888 0.016119802105998022 0 -0.027598400236458417 0.014518252797582424 0 -0.028701295392176175 0.015386425613157898 0 -0.027598400236458417 0.014518252797582424 0 -0.028654097145729997 0.013580405460332037 0 -0.026756716899898531 0.013098641004828236 0 -0.027598400236458417 0.014518252797582424 0 -0.026519830311285037 0.014217941195673304 0 -0.026756716899898531 0.013098641004828236 0 -0.027429392816439888 0.016119802105998022 0 -0.026519830311285037 0.014217941195673304 0 -0.026112609213069855 0.015118841511122534 0 -0.026519830311285037 0.014217941195673304 0 -0.025855871448992301 0.014118412617471432 0 -0.026185677746077912 0.012841439062739733 0 -0.026519830311285037 0.014217941195673304 0 -0.026112609213069855 0.015118841511122534 0 -0.025855871448992301 0.014118412617471432 0 -0.025855871448992301 0.014118412617471432 0 -0.025263662252422856 0.01499045532915134 0 -0.025204872701257323 0.013948461214842894 0 -0.026362254813058934 0.016711396421269054 0 -0.025263662252422856 0.01499045532915134 0 -0.025639098593025975 0.016373573687023909 0 -0.026257162336565037 0.016080640496049316 0 -0.025504036889409939 0.015636325916021418 0 -0.026112609213069855 0.015118841511122534 0 -0.025855871448992301 0.014118412617471432 0 -0.025263662252422856 0.01499045532915134 0 -0.025263662252422856 0.01499045532915134 0 -0.025639098593025975 0.016373573687023909 0 -0.025277534635828425 0.015799516568075645 0 -0.025639098593025975 0.016373573687023909 0 -0.025488558152147994 0.01674516025569469 0 -0.025277534635828425 0.015799516568075645 0 -0.025488558152147994 0.01674516025569469 0 -0.02542101682739463 0.016406921612609981 0 -0.025277534635828425 0.015799516568075645 0 -0.025488558152147994 0.01674516025569469 0 -0.02540087677807059 0.016979916904855522 0 -0.025579950234308188 0.017642736931845968 0 -0.025488558152147994 0.01674516025569469 0 -0.02540087677807059 0.016979916904855522 0 -0.02542101682739463 0.016406921612609981 0 -0.025488558152147994 0.01674516025569469 0 -0.025828900237918673 0.017350083515799641 0 -0.025579950234308188 0.017642736931845968 0 -0.025639098593025975 0.016373573687023909 0 -0.025488558152147994 0.01674516025569469 0 -0.025828900237918673 0.017350083515799641 0 -0.026362254813058934 0.016711396421269054 0 -0.025639098593025975 0.016373573687023909 0 -0.025828900237918673 0.017350083515799641 0 -0.026362254813058934 0.016711396421269054 0 -0.025828900237918673 0.017350083515799641 0 -0.026221369100264104 0.018391099746420444 0 -0.025828900237918673 0.017350083515799641 0 -0.025786365534922286 0.018465356935398917 0 -0.026221369100264104 0.018391099746420444 0 -0.025786365534922286 0.018465356935398917 0 -0.026221369100264104 0.018391099746420444 0 -0.025948078706209816 0.019435062003387356 0 -0.026310034546600209 0.019621893759504554 0 -0.026221369100264104 0.018391099746420444 0 -0.025948078706209816 0.019435062003387356 0 -0.025786365534922286 0.018465356935398917 0 -0.025948078706209816 0.019435062003387356 0 -0.025560752450788201 0.019105670536873127 0 -0.025786365534922286 0.018465356935398917 0 -0.025560752450788201 0.019105670536873127 0 -0.025579950234308188 0.017642736931845968 0 -0.025560752450788201 0.019105670536873127 0 -0.025291287756140902 0.018219140527121917 0 -0.025579950234308188 0.017642736931845968 0 -0.02540087677807059 0.016979916904855522 0 -0.025291287756140902 0.018219140527121917 0 -0.025579950234308188 0.017642736931845968 0 -0.025828900237918673 0.017350083515799641 0 -0.025786365534922286 0.018465356935398917 0 -0.025579950234308188 0.017642736931845968 0 -0.026139686968827576 0.016235016522141731 0 -0.025819384992223401 0.016054972149749387 0 -0.025215326898885133 0.016586975509940687 0 -0.0253602039367893 0.018503788029622596 0 -0.025356103748928702 0.01777578401764569 0 -0.024234220119002402 0.020187774646698391 0 -0.025291287756140902 0.018219140527121917 0 -0.025215326898885133 0.016586975509940687 0 -0.025819384992223401 0.016054972149749387 0 -0.02563430493248783 0.016074373158497357 0 -0.025215326898885133 0.016586975509940687 0 -0.02540087677807059 0.016979916904855522 0 -0.025291287756140902 0.018219140527121917 0 -0.025215326898885133 0.016586975509940687 0 -0.025819384992223401 0.016054972149749387 0 -0.025665418435205457 0.015664375655665645 0 -0.025456701176203845 0.015635647625584257 0 -0.025819384992223401 0.016054972149749387 0 -0.025665418435205457 0.015664375655665645 0 -0.02563430493248783 0.016074373158497357 0 -0.025628989483887706 0.015845259747311366 0 -0.025811996706855297 0.015044940587677014 0 -0.025555252038122044 0.014741234539353854 0 -0.025665418435205457 0.015664375655665645 0 -0.025628989483887706 0.015845259747311366 0 -0.025555252038122044 0.014741234539353854 0 -0.025665418435205457 0.015664375655665645 0 -0.02563430493248783 0.016074373158497357 0 -0.025628989483887706 0.015845259747311366 0 -0.025628989483887706 0.015845259747311366 0 -0.02542101682739463 0.016406921612609981 0 -0.025811996706855297 0.015044940587677014 0 -0.02563430493248783 0.016074373158497357 0 -0.025628989483887706 0.015845259747311366 0 -0.025215326898885133 0.016586975509940687 0 -0.025628989483887706 0.015845259747311366 0 -0.025215326898885133 0.016586975509940687 0 -0.02542101682739463 0.016406921612609981 0 -0.02540087677807059 0.016979916904855522 0 -0.025215326898885133 0.016586975509940687 0 -0.02542101682739463 0.016406921612609981 0 -0.025610219275315753 0.014819555025603939 0 -0.025555525910400619 0.014021459470052584 0 -0.025263662252422856 0.01499045532915134 0 -0.025277534635828425 0.015799516568075645 0 -0.024543709992014856 0.014635244908022036 0 -0.02542101682739463 0.016406921612609981 0 -0.026625778168214136 0.013796232492351809 0 -0.025811996706855297 0.015044940587677014 0 -0.02542101682739463 0.016406921612609981 0 -0.025277534635828425 0.015799516568075645 0 -0.024543709992014856 0.014635244908022036 0 -0.025263662252422856 0.01499045532915134 0 -0.024543709992014856 0.014635244908022036 0 -0.025204872701257323 0.013948461214842894 0 -0.026625778168214136 0.013796232492351809 0 -0.02584206591945885 0.01382324173461098 0 -0.026259989045629029 0.011993275144314225 0 -0.026625778168214136 0.013796232492351809 0 -0.02584206591945885 0.01382324173461098 0 -0.025811996706855297 0.015044940587677014 0 -0.02584206591945885 0.01382324173461098 0 -0.025811996706855297 0.015044940587677014 0 -0.025555252038122044 0.014741234539353854 0 -0.025555252038122044 0.014741234539353854 0 -0.025542466335888761 0.01302855818399473 0 -0.024998773283728785 0.013503540528679149 0 -0.02584206591945885 0.01382324173461098 0 -0.025555252038122044 0.014741234539353854 0 -0.025542466335888761 0.01302855818399473 0 -0.024999760958125197 0.016272647415960819 0 -0.024998773283728785 0.013503540528679149 0 -0.025456701176203845 0.015635647625584257 0 -0.025555252038122044 0.014741234539353854 0 -0.024998773283728785 0.013503540528679149 0 -0.025456701176203845 0.015635647625584257 0 -0.025665418435205457 0.015664375655665645 0 -0.025555252038122044 0.014741234539353854 0 -0.025456701176203845 0.015635647625584257 0 -0.016122292386846229 0.024264048031609382 0 -0.015945048965926259 0.024194559892021777 0 -0.015997029337292436 0.024036570432439973 0 -0.024257930546554052 0.020891241270023137 0 -0.023754059241711967 0.020871861343223785 0 -0.024257930546554052 0.020891241270023137 0 -0.025339670671055036 0.021735244644096631 0 -0.016188671421814304 0.024536280106973708 0 -0.017962568844976681 0.024582904981924808 0 -0.017081596575825874 0.024146336060252956 0 -0.035346669425885935 0.021201608295961322 0 -0.032911403444200252 0.020675569808640538 0 -0.034399306905237417 0.01995465091664295 0 -0.032911403444200252 0.020675569808640538 0 -0.034399306905237417 0.01995465091664295 0 -0.033642525006591921 0.018690646419092356 0 -0.034669750037648224 0.018989881064876497 0 -0.034399306905237417 0.01995465091664295 0 -0.033642525006591921 0.018690646419092356 0 -0.034669750037648224 0.018989881064876497 0 -0.034399306905237417 0.01995465091664295 0 -0.035708152518535138 0.01923567337702338 0 -0.035346669425885935 0.021201608295961322 0 -0.034399306905237417 0.01995465091664295 0 -0.035708152518535138 0.01923567337702338 0 -0.024257930546554052 0.020891241270023137 0 -0.024998760674207327 0.021003428587034783 0 -0.01596711176678246 0.024196264392001177 0 -0.015905105843877401 0.024301079622623921 0 -0.015903237557809573 0.024240698851355085 0 -0.015905105843877401 0.024301079622623921 0 -0.015871914111937016 0.024310228411173897 0 -0.015872122554403401 0.024279207217210282 0 -0.015871914111937016 0.024310228411173897 0 -0.015817232292053965 0.024278359263073847 0 -0.015780436740994715 0.024331909463875541 0 -0.015871914111937016 0.024310228411173897 0 -0.015817232292053965 0.024278359263073847 0 -0.015872122554403401 0.024279207217210282 0 -0.015817232292053965 0.024278359263073847 0 -0.015855011159006883 0.024249772180684581 0 -0.015872122554403401 0.024279207217210282 0 -0.015817232292053965 0.024278359263073847 0 -0.015855011159006883 0.024249772180684581 0 -0.01577818958935041 0.024230635021381019 0 -0.015855011159006883 0.024249772180684581 0 -0.015872122554403401 0.024279207217210282 0 -0.015903237557809573 0.024240698851355085 0 -0.015905105843877401 0.024301079622623921 0 -0.015872122554403401 0.024279207217210282 0 -0.015903237557809573 0.024240698851355085 0 -0.015682539095966876 0.024359085250109849 0 -0.015724665408203685 0.024261800738395917 0 -0.015780436740994715 0.024331909463875541 0 -0.015817232292053965 0.024278359263073847 0 -0.015724665408203685 0.024261800738395917 0 -0.015780436740994715 0.024331909463875541 0 -0.015817232292053965 0.024278359263073847 0 -0.015724665408203685 0.024261800738395917 0 -0.01577818958935041 0.024230635021381019 0 -0.015724665408203685 0.024261800738395917 0 -0.01577818958935041 0.024230635021381019 0 -0.015665486309969764 0.02416190499047937 0 -0.01577818958935041 0.024230635021381019 0 -0.015665486309969764 0.02416190499047937 0 -0.015771188455091515 0.024172129056043854 0 -0.015665486309969764 0.02416190499047937 0 -0.015771188455091515 0.024172129056043854 0 -0.015688100933742916 0.024090740339904076 0 -0.015903237557809573 0.024240698851355085 0 -0.015860043521776401 0.024213062156599168 0 -0.015945048965926259 0.024194559892021777 0 -0.01596711176678246 0.024196264392001177 0 -0.015903237557809573 0.024240698851355085 0 -0.015945048965926259 0.024194559892021777 0 -0.015855011159006883 0.024249772180684581 0 -0.015903237557809573 0.024240698851355085 0 -0.015860043521776401 0.024213062156599168 0 -0.015855011159006883 0.024249772180684581 0 -0.01577818958935041 0.024230635021381019 0 -0.015860043521776401 0.024213062156599168 0 -0.01577818958935041 0.024230635021381019 0 -0.015860043521776401 0.024213062156599168 0 -0.015771188455091515 0.024172129056043854 0 -0.015837899183668125 0.024110869473926363 0 -0.015771188455091515 0.024172129056043854 0 -0.015688100933742916 0.024090740339904076 0 -0.015860043521776401 0.024213062156599168 0 -0.015837899183668125 0.024110869473926363 0 -0.015771188455091515 0.024172129056043854 0 -0.015860043521776401 0.024213062156599168 0 -0.015837899183668125 0.024110869473926363 0 -0.015945048965926259 0.024194559892021777 0 -0.015837899183668125 0.024110869473926363 0 -0.015945048965926259 0.024194559892021777 0 -0.015997029337292436 0.024036570432439973 0 -0.015837899183668125 0.024110869473926363 0 -0.015997029337292436 0.024036570432439973 0 -0.01581578250561581 0.023918869325065654 0 -0.015837899183668125 0.024110869473926363 0 -0.01581578250561581 0.023918869325065654 0 -0.015688100933742916 0.024090740339904076 0 -0.015997029337292436 0.024036570432439973 0 -0.01581578250561581 0.023918869325065654 0 -0.016282261111849581 0.023827526496211768 0 -0.015569133487276862 0.024074124253769799 0 -0.015665486309969764 0.02416190499047937 0 -0.015688100933742916 0.024090740339904076 0 -0.01581578250561581 0.023918869325065654 0 -0.015688100933742916 0.024090740339904076 0 -0.015586124949609299 0.024011357302492996 0 -0.015569133487276862 0.024074124253769799 0 -0.015688100933742916 0.024090740339904076 0 -0.015586124949609299 0.024011357302492996 0 -0.015616659638173052 0.023932086608206567 0 -0.015452115896149411 0.024112770501488381 0 -0.015586124949609299 0.024011357302492996 0 -0.015520957138445117 0.024045034047041704 0 -0.015452115896149411 0.024112770501488381 0 -0.015586124949609299 0.024011357302492996 0 -0.015616659638173052 0.023932086608206567 0 -0.01581578250561581 0.023918869325065654 0 -0.015586124949609299 0.024011357302492996 0 -0.015616659638173052 0.023932086608206567 0 -0.01581578250561581 0.023918869325065654 0 -0.016195105969121364 0.023556096474766447 0 -0.016195105969121364 0.023556096474766447 0 -0.016282261111849581 0.023827526496211768 0 -0.016997661509272219 0.023379349041451405 0 -0.01581578250561581 0.023918869325065654 0 -0.016195105969121364 0.023556096474766447 0 -0.016282261111849581 0.023827526496211768 0 -0.024257930546554052 0.020891241270023137 0 -0.023279337242331336 0.022215313204484156 0 -0.016122292386846229 0.024264048031609382 0 -0.015997029337292436 0.024036570432439973 0 -0.016282261111849581 0.023827526496211768 0 -0.016188671421814304 0.024536280106973708 0 -0.017081596575825874 0.024146336060252956 0 -0.016282261111849581 0.023827526496211768 0 -0.017081596575825874 0.024146336060252956 0 -0.016997661509272219 0.023379349041451405 0 -0.018872730988086762 0.022753511839058924 0 -0.017081596575825874 0.024146336060252956 0 -0.016282261111849581 0.023827526496211768 0 -0.016997661509272219 0.023379349041451405 0 -0.016973567629111692 0.022843331252012988 0 -0.016195105969121364 0.023556096474766447 0 -0.016997661509272219 0.023379349041451405 0 -0.016973567629111692 0.022843331252012988 0 -0.016997661509272219 0.023379349041451405 0 -0.018872730988086762 0.022753511839058924 0 -0.018771158963812311 0.021976122948340802 0 -0.016973567629111692 0.022843331252012988 0 -0.018872730988086762 0.022753511839058924 0 -0.018771158963812311 0.021976122948340802 0 -0.018872730988086762 0.022753511839058924 0 -0.020446241445209325 0.021959811284619133 0 -0.020936281290645242 0.022031419851551139 0 -0.022199181462070585 0.02221575504736344 0 -0.018872730988086762 0.022753511839058924 0 -0.021874247110746387 0.022263846729474485 0 -0.019942089127672896 0.023340171246610045 0 -0.018872730988086762 0.022753511839058924 0 -0.020446241445209325 0.021959811284619133 0 -0.021731929946966395 0.023015959000912523 0 -0.017962568844976681 0.024582904981924808 0 -0.017081596575825874 0.024146336060252956 0 -0.018872730988086762 0.022753511839058924 0 -0.017962568844976681 0.024582904981924808 0 -0.018872730988086762 0.022753511839058924 0 -0.019942089127672896 0.023340171246610045 0 -0.021288089074723935 0.02116253821484794 0 -0.022935989796177236 0.020385670355405051 0 -0.022349587281745437 0.021611405614941261 0 -0.023698179291583171 0.021133674471891756 0 -0.022349587281745437 0.021611405614941261 0 -0.023812479680068874 0.021782897404947103 0 -0.022935989796177236 0.020385670355405051 0 -0.023698179291583171 0.021133674471891756 0 -0.022349587281745437 0.021611405614941261 0 -0.020446241445209325 0.021959811284619133 0 -0.022349587281745437 0.021611405614941261 0 -0.021731929946966395 0.023015959000912523 0 -0.021288089074723935 0.02116253821484794 0 -0.020446241445209325 0.021959811284619133 0 -0.022349587281745437 0.021611405614941261 0 -0.022349587281745437 0.021611405614941261 0 -0.021731929946966395 0.023015959000912523 0 -0.023812479680068874 0.021782897404947103 0 -0.021731929946966395 0.023015959000912523 0 -0.023841509754461847 0.022205090776908167 0 -0.023812479680068874 0.021782897404947103 0 -0.025151825761868824 0.022022644236431011 0 -0.022399293689543649 0.023207634149629609 0 -0.024055405913252611 0.023405881971777519 0 -0.024050458360386041 0.022267248152732191 0 -0.022199181462070585 0.02221575504736344 0 -0.024416104037333384 0.022435294045750436 0 -0.021731929946966395 0.023015959000912523 0 -0.023841509754461847 0.022205090776908167 0 -0.025151825761868824 0.022022644236431011 0 -0.021874247110746387 0.022263846729474485 0 -0.022399293689543649 0.023207634149629609 0 -0.021874247110746387 0.022263846729474485 0 -0.022399293689543649 0.023207634149629609 0 -0.019942089127672896 0.023340171246610045 0 -0.022399293689543649 0.023207634149629609 0 -0.024055405913252611 0.023405881971777519 0 -0.020576791019876792 0.024450662647139465 0 -0.025620516548428535 0.021588950842023204 0 -0.025509003688689295 0.021810611736617285 0 -0.029982135031227174 0.019622247597537244 0 -0.029037985427190119 0.020181627061402477 0 -0.030701011964537086 0.020184685058703501 0 -0.025339670671055036 0.021735244644096631 0 -0.025509003688689295 0.021810611736617285 0 -0.017962568844976681 0.024582904981924808 0 -0.019942089127672896 0.023340171246610045 0 -0.020576791019876792 0.024450662647139465 0 -0.022399293689543649 0.023207634149629609 0 -0.019942089127672896 0.023340171246610045 0 -0.020576791019876792 0.024450662647139465 0 -0.029982135031227174 0.019622247597537244 0 -0.030701011964537086 0.020184685058703501 0 -0.031505868704198865 0.018869773223402289 0 -0.032911403444200252 0.020675569808640538 0 -0.030701011964537086 0.020184685058703501 0 -0.031505868704198865 0.018869773223402289 0 -0.032911403444200252 0.020675569808640538 0 -0.031505868704198865 0.018869773223402289 0 -0.033642525006591921 0.018690646419092356 0 -0.031505868704198865 0.018869773223402289 0 -0.032664898570365426 0.017395238152153058 0 -0.033642525006591921 0.018690646419092356 0 -0.031505868704198865 0.018869773223402289 0 -0.031129100038203548 0.01686835521382081 0 -0.032664898570365426 0.017395238152153058 0 -0.031505868704198865 0.018869773223402289 0 -0.031129100038203548 0.01686835521382081 0 -0.029149841195560612 0.01732920545458692 0 -0.030639655494478925 0.018347967279698649 0 -0.029548101438480884 0.017848752144728891 0 -0.031129100038203548 0.01686835521382081 0 -0.029847016327332391 0.015940937124502935 0 -0.030673614854597967 0.015125788374763567 0 -0.031129100038203548 0.01686835521382081 0 -0.032664898570365426 0.017395238152153058 0 -0.032581237316360881 0.015848341500147429 0 -0.031129100038203548 0.01686835521382081 0 -0.032581237316360881 0.015848341500147429 0 -0.030673614854597967 0.015125788374763567 0 -0.02813723190965579 0.019272351195299728 0 -0.027763451867395865 0.017920965968196732 0 -0.02973706567633656 0.018688247383915481 0 -0.02813723190965579 0.019272351195299728 0 -0.029037985427190119 0.020181627061402477 0 -0.02973706567633656 0.018688247383915481 0 -0.029982135031227174 0.019622247597537244 0 -0.029037985427190119 0.020181627061402477 0 -0.02973706567633656 0.018688247383915481 0 -0.029982135031227174 0.019622247597537244 0 -0.031505868704198865 0.018869773223402289 0 -0.02973706567633656 0.018688247383915481 0 -0.029149841195560612 0.01732920545458692 0 -0.029847016327332391 0.015940937124502935 0 -0.028701295392176175 0.015386425613157898 0 -0.031129100038203548 0.01686835521382081 0 -0.029149841195560612 0.01732920545458692 0 -0.029847016327332391 0.015940937124502935 0 -0.027429392816439888 0.016119802105998022 0 -0.029149841195560612 0.01732920545458692 0 -0.028701295392176175 0.015386425613157898 0 -0.027784963302251373 0.016952804460182928 0 -0.029548101438480884 0.017848752144728891 0 -0.029847016327332391 0.015940937124502935 0 -0.028701295392176175 0.015386425613157898 0 -0.029682490771715014 0.01482338580492131 0 -0.029847016327332391 0.015940937124502935 0 -0.029682490771715014 0.01482338580492131 0 -0.030673614854597967 0.015125788374763567 0 -0.029682490771715014 0.01482338580492131 0 -0.030412415332311194 0.014187567422363061 0 -0.028654097145729997 0.013580405460332037 0 -0.027611986843821063 0.013499692332940429 0 -0.027204709414694762 0.013226926993701265 0 -0.027598400236458417 0.014518252797582424 0 -0.028701295392176175 0.015386425613157898 0 -0.028654097145729997 0.013580405460332037 0 -0.028701295392176175 0.015386425613157898 0 -0.029682490771715014 0.01482338580492131 0 -0.028654097145729997 0.013580405460332037 0 -0.03060254503451355 0.017641348459645781 0 -0.030537813224329267 0.017230702557307805 0 -0.031131024859505255 0.015143554429335503 0 -0.030673614854597967 0.015125788374763567 0 -0.031250808135078724 0.014737467754178134 0 -0.029682490771715014 0.01482338580492131 0 -0.030673614854597967 0.015125788374763567 0 -0.030412415332311194 0.014187567422363061 0 -0.030673614854597967 0.015125788374763567 0 -0.030412415332311194 0.014187567422363061 0 -0.031250808135078724 0.014737467754178134 0 -0.025456950739344987 0.012005455754715066 0 -0.024976308077156888 0.011906139949457507 0 -0.025203696980475646 0.012206243859877437 0 -0.027611986843821063 0.013499692332940429 0 -0.02767172305300734 0.013986344641651218 0 -0.031250808135078724 0.014737467754178134 0 -0.031353771341987573 0.014994740841156214 0 -0.031326234452274643 0.015013532093881394 0 -0.024976308077156888 0.011906139949457507 0 -0.024610142427444033 0.011869203436047308 0 -0.024723904528391391 0.012059836781965561 0 -0.02767172305300734 0.013986344641651218 0 -0.026955683017411927 0.014808567800373424 0 -0.024610142427444033 0.011869203436047308 0 -0.024494162720704826 0.012063940233205943 0 -0.024723904528391391 0.012059836781965561 0 -0.031353771341987573 0.014994740841156214 0 -0.031344907479612737 0.01502855347703636 0 -0.031329763127312699 0.01504176611960137 0 -0.031353771341987573 0.014994740841156214 0 -0.031344907479612737 0.01502855347703636 0 -0.031326234452274643 0.015013532093881394 0 -0.031339963513323257 0.015058788886667777 0 -0.031326234452274643 0.015013532093881394 0 -0.031311901998294762 0.015104936317280104 0 -0.031344907479612737 0.01502855347703636 0 -0.031339963513323257 0.015058788886667777 0 -0.031326234452274643 0.015013532093881394 0 -0.031344907479612737 0.01502855347703636 0 -0.031339963513323257 0.015058788886667777 0 -0.031342410178195723 0.015055508692413705 0 -0.031131024859505255 0.015143554429335503 0 -0.031250808135078724 0.014737467754178134 0 -0.031326234452274643 0.015013532093881394 0 -0.031131024859505255 0.015143554429335503 0 -0.031326234452274643 0.015013532093881394 0 -0.031311901998294762 0.015104936317280104 0 -0.03060254503451355 0.017641348459645781 0 -0.029795957908314758 0.018656209519798041 0 -0.032664898570365426 0.017395238152153058 0 -0.032581237316360881 0.015848341500147429 0 -0.034342433823005537 0.016580203032188816 0 -0.034342433823005537 0.016580203032188816 0 -0.03493418799316593 0.018075063418419857 0 -0.036062316130448378 0.017253015629389943 0 -0.031339963513323257 0.015058788886667777 0 -0.031311901998294762 0.015104936317280104 0 -0.031351847282699172 0.015088091044564792 0 -0.029795957908314758 0.018656209519798041 0 -0.025572162214284651 0.019814701759766788 0 -0.031339963513323257 0.015058788886667777 0 -0.031351847282699172 0.015088091044564792 0 -0.031342410178195723 0.015055508692413705 0 -0.035708152518535138 0.01923567337702338 0 -0.03493418799316593 0.018075063418419857 0 -0.036062316130448378 0.017253015629389943 0 -0.034669750037648224 0.018989881064876497 0 -0.035708152518535138 0.01923567337702338 0 -0.03493418799316593 0.018075063418419857 0 -0.034669750037648224 0.018989881064876497 0 -0.03493418799316593 0.018075063418419857 0 -0.033642525006591921 0.018690646419092356 0 -0.034342433823005537 0.016580203032188816 0 -0.03493418799316593 0.018075063418419857 0 -0.033642525006591921 0.018690646419092356 0 -0.032664898570365426 0.017395238152153058 0 -0.034342433823005537 0.016580203032188816 0 -0.033642525006591921 0.018690646419092356 0 -0.015682539095966876 0.024359085250109849 0 -0.015780436740994715 0.024331909463875541 0 -0.015837928671997941 0.024421734628877801 0 -0.019530694518511214 0.020627983558448904 0 -0.023101357321988286 0.020021350889066838 0 -0.015871914111937016 0.024310228411173897 0 -0.015898365936980224 0.024306590526565204 0 -0.015904301388518945 0.024310931282257149 0 -0.022110028556025559 0.021677305066250773 0 -0.023101357321988286 0.020021350889066838 0 -0.015871914111937016 0.024310228411173897 0 -0.015780436740994715 0.024331909463875541 0 -0.015837928671997941 0.024421734628877801 0 -0.024998760674207327 0.021003428587034783 0 -0.025572162214284651 0.019814701759766788 0 -0.015905105843877401 0.024301079622623921 0 -0.015871914111937016 0.024310228411173897 0 -0.015904301388518945 0.024310931282257149 0 -0.023101357321988286 0.020021350889066838 0 -0.023217245778876485 0.018970243480289417 0 -0.023101357321988286 0.020021350889066838 0 -0.025572162214284651 0.019814701759766788 0 -0.031351847282699172 0.015088091044564792 0 -0.031342410178195723 0.015055508692413705 0 -0.031329763127312699 0.01504176611960137 0 -0.031241132315864183 0.015277418597791879 0 -0.031396054265640926 0.015190307299403584 0 -0.031325295038861459 0.015081455932871496 0 -0.03135298602783728 0.015327148934782993 0 -0.031241132315864183 0.015277418597791879 0 -0.031396054265640926 0.015190307299403584 0 -0.025572162214284651 0.019814701759766788 0 -0.026868169022185109 0.017154276427916171 0 -0.023217245778876485 0.018970243480289417 0 -0.024009332552825086 0.019037269684244525 0 -0.019530694518511214 0.020627983558448904 0 -0.023217245778876485 0.018970243480289417 0 -0.021309491005182188 0.020033050995431158 0 -0.022209347331804231 0.020357716762406053 0 -0.022079266814002248 0.020860856194754949 0 -0.018112934804563087 0.020709285003397991 0 -0.018052570755228405 0.020933852574740824 0 -0.018341252344403081 0.020947671385031306 0 -0.023217245778876485 0.018970243480289417 0 -0.023436759161813973 0.016121052389959381 0 -0.018052570755228405 0.020933852574740824 0 -0.018341252344403081 0.020947671385031306 0 -0.018283324304725613 0.021164430675229242 0 -0.031353771341987573 0.014994740841156214 0 -0.031318974070554485 0.015065260385457002 0 -0.031329763127312699 0.01504176611960137 0 -0.031312741724099556 0.01508460511088169 0 -0.031318974070554485 0.015065260385457002 0 -0.031325295038861459 0.015081455932871496 0 -0.026955683017411927 0.014808567800373424 0 -0.023436759161813973 0.016121052389959381 0 -0.031241132315864183 0.015277418597791879 0 -0.031325295038861459 0.015081455932871496 0 -0.031329763127312699 0.01504176611960137 0 -0.031344907479612737 0.01502855347703636 0 -0.031342410178195723 0.015055508692413705 0 -0.031329763127312699 0.01504176611960137 0 -0.031318974070554485 0.015065260385457002 0 -0.031325295038861459 0.015081455932871496 0 -0.031329763127312699 0.01504176611960137 0 -0.024610142427444033 0.011869203436047308 0 -0.024296814001350045 0.011833212037248882 0 -0.024494162720704826 0.012063940233205943 0 -0.023436759161813973 0.016121052389959381 0 -0.02416440632208031 0.012886311883036431 0 -0.024296814001350045 0.011833212037248882 0 -0.024222118165836481 0.0121475921954113 0 -0.024494162720704826 0.012063940233205943 0 -0.024155494327842985 0.012197020232897525 0 -0.024258412667537033 0.012137524072378867 0 -0.024211952312550862 0.012303554925914426 0 -0.024222118165836481 0.0121475921954113 0 -0.024494162720704826 0.012063940233205943 0 -0.024480862609742689 0.012246735973813113 0 -0.024480862609742689 0.012246735973813113 0 -0.024362387342680484 0.012389725784986812 0 -0.024592463941448622 0.012397257091032838 0 -0.024222118165836481 0.0121475921954113 0 -0.024480862609742689 0.012246735973813113 0 -0.024362387342680484 0.012389725784986812 0 -0.024222118165836481 0.0121475921954113 0 -0.024362387342680484 0.012389725784986812 0 -0.024167879813369389 0.012446548030752109 0 -0.024362387342680484 0.012389725784986812 0 -0.024266210839800555 0.012521568608915096 0 -0.024167879813369389 0.012446548030752109 0 -0.024362387342680484 0.012389725784986812 0 -0.024469715483866554 0.012485369696182339 0 -0.024266210839800555 0.012521568608915096 0 -0.024362387342680484 0.012389725784986812 0 -0.024469715483866554 0.012485369696182339 0 -0.024592463941448622 0.012397257091032838 0 -0.024469715483866554 0.012485369696182339 0 -0.024266210839800555 0.012521568608915096 0 -0.024523344186071629 0.012588058647889786 0 -0.024266210839800555 0.012521568608915096 0 -0.024167879813369389 0.012446548030752109 0 -0.024139508882782931 0.012541513352332948 0 -0.024266210839800555 0.012521568608915096 0 -0.024139508882782931 0.012541513352332948 0 -0.024092736646447982 0.012554176467240814 0 -0.024787642741145293 0.012621367714283753 0 -0.024636551903055595 0.012517331833006353 0 -0.024827006199550545 0.012441198907898184 0 -0.024469715483866554 0.012485369696182339 0 -0.024636551903055595 0.012517331833006353 0 -0.024523344186071629 0.012588058647889786 0 -0.024787642741145293 0.012621367714283753 0 -0.024636551903055595 0.012517331833006353 0 -0.024523344186071629 0.012588058647889786 0 -0.024636551903055595 0.012517331833006353 0 -0.024592463941448622 0.012397257091032838 0 -0.024827006199550545 0.012441198907898184 0 -0.024469715483866554 0.012485369696182339 0 -0.024636551903055595 0.012517331833006353 0 -0.024592463941448622 0.012397257091032838 0 -0.024787642741145293 0.012621367714283753 0 -0.024827006199550545 0.012441198907898184 0 -0.025082312364736278 0.012577575826087147 0 -0.024827006199550545 0.012441198907898184 0 -0.024661671218590316 0.012234883428564313 0 -0.024915839788300104 0.012220736502582865 0 -0.024827006199550545 0.012441198907898184 0 -0.024915839788300104 0.012220736502582865 0 -0.025136296633315874 0.012428430056970955 0 -0.024592463941448622 0.012397257091032838 0 -0.024827006199550545 0.012441198907898184 0 -0.024661671218590316 0.012234883428564313 0 -0.024480862609742689 0.012246735973813113 0 -0.024592463941448622 0.012397257091032838 0 -0.024661671218590316 0.012234883428564313 0 -0.024494162720704826 0.012063940233205943 0 -0.024661671218590316 0.012234883428564313 0 -0.024723904528391391 0.012059836781965561 0 -0.024494162720704826 0.012063940233205943 0 -0.024480862609742689 0.012246735973813113 0 -0.024661671218590316 0.012234883428564313 0 -0.024661671218590316 0.012234883428564313 0 -0.024723904528391391 0.012059836781965561 0 -0.024915839788300104 0.012220736502582865 0 -0.024976308077156888 0.011906139949457507 0 -0.024723904528391391 0.012059836781965561 0 -0.024915839788300104 0.012220736502582865 0 -0.024976308077156888 0.011906139949457507 0 -0.024915839788300104 0.012220736502582865 0 -0.025203696980475646 0.012206243859877437 0 -0.025456950739344987 0.012005455754715066 0 -0.025203696980475646 0.012206243859877437 0 -0.025613696434866922 0.012468777154250779 0 -0.025203696980475646 0.012206243859877437 0 -0.025136296633315874 0.012428430056970955 0 -0.025613696434866922 0.012468777154250779 0 -0.025136296633315874 0.012428430056970955 0 -0.025613696434866922 0.012468777154250779 0 -0.025365674982921048 0.012584059419712182 0 -0.024915839788300104 0.012220736502582865 0 -0.025203696980475646 0.012206243859877437 0 -0.025136296633315874 0.012428430056970955 0 -0.02607521262459277 0.012289471070234242 0 -0.025613696434866922 0.012468777154250779 0 -0.026189071719185712 0.012684932985596859 0 -0.025456950739344987 0.012005455754715066 0 -0.02607521262459277 0.012289471070234242 0 -0.025613696434866922 0.012468777154250779 0 -0.026189071719185712 0.012684932985596859 0 -0.025965083775373748 0.012862940412644455 0 -0.026521054331352868 0.012799340969817146 0 -0.025613696434866922 0.012468777154250779 0 -0.026189071719185712 0.012684932985596859 0 -0.025965083775373748 0.012862940412644455 0 -0.025613696434866922 0.012468777154250779 0 -0.025965083775373748 0.012862940412644455 0 -0.025365674982921048 0.012584059419712182 0 -0.025965083775373748 0.012862940412644455 0 -0.025365674982921048 0.012584059419712182 0 -0.02536757527779256 0.012643517403512824 0 -0.025941876488176585 0.012206017450966694 0 -0.02536757527779256 0.012643517403512824 0 -0.025774903702554842 0.012752455297631702 0 -0.026009917765880325 0.012579662882036496 0 -0.025835766082806622 0.012623542189131778 0 -0.025941876488176585 0.012206017450966694 0 -0.026051629872191673 0.012405447694272747 0 -0.025774903702554842 0.012752455297631702 0 -0.025136296633315874 0.012428430056970955 0 -0.025082312364736278 0.012577575826087147 0 -0.025365674982921048 0.012584059419712182 0 -0.024827006199550545 0.012441198907898184 0 -0.025136296633315874 0.012428430056970955 0 -0.025082312364736278 0.012577575826087147 0 -0.025082312364736278 0.012577575826087147 0 -0.025365674982921048 0.012584059419712182 0 -0.02536757527779256 0.012643517403512824 0 -0.025082312364736278 0.012577575826087147 0 -0.02536757527779256 0.012643517403512824 0 -0.025002638882574212 0.012721800584942636 0 -0.024787642741145293 0.012621367714283753 0 -0.025082312364736278 0.012577575826087147 0 -0.025002638882574212 0.012721800584942636 0 -0.025002638882574212 0.012721800584942636 0 -0.025161658471299482 0.012830013807301631 0 -0.025039089149014843 0.012862631955165659 0 -0.02536757527779256 0.012643517403512824 0 -0.025002638882574212 0.012721800584942636 0 -0.025161658471299482 0.012830013807301631 0 -0.024422343417531824 0.012853459376439537 0 -0.024228906667236563 0.012864496229613918 0 -0.025161658471299482 0.012830013807301631 0 -0.025039089149014843 0.012862631955165659 0 -0.024982893168462666 0.012730684899367458 0 -0.025002638882574212 0.012721800584942636 0 -0.025039089149014843 0.012862631955165659 0 -0.024714581106337168 0.012725570913510073 0 -0.024797864732909753 0.012964445391868721 0 -0.024136136985072023 0.012978524095221572 0 -0.024370049958923001 0.012787579885297417 0 -0.024797864732909753 0.012964445391868721 0 -0.024982893168462666 0.012730684899367458 0 -0.024370049958923001 0.012787579885297417 0 -0.025139843279248956 0.012492803501151745 0 -0.02503778664806703 0.012245563037121926 0 -0.026051629872191673 0.012405447694272747 0 -0.025774903702554842 0.012752455297631702 0 -0.026212648398625273 0.012396308780342631 0 -0.025161658471299482 0.012830013807301631 0 -0.024797864732909753 0.012964445391868721 0 -0.024982893168462666 0.012730684899367458 0 -0.02514763314203888 0.012566785969005723 0 -0.025139843279248956 0.012492803501151745 0 -0.02536757527779256 0.012643517403512824 0 -0.025161658471299482 0.012830013807301631 0 -0.025774903702554842 0.012752455297631702 0 -0.023526874750566838 0.012949646034717701 0 -0.023553100240075266 0.012892415573913006 0 -0.023533990658141778 0.012868229163963118 0 -0.024228906667236563 0.012864496229613918 0 -0.023997768561409599 0.012891812216329139 0 -0.023526874750566838 0.012949646034717701 0 -0.023553100240075266 0.012892415573913006 0 -0.023585304281565508 0.012849567195269786 0 -0.023553100240075266 0.012892415573913006 0 -0.023569494573868234 0.012882266344769982 0 -0.023533990658141778 0.012868229163963118 0 -0.023526874750566838 0.012949646034717701 0 -0.023533990658141778 0.012868229163963118 0 -0.023515534401816095 0.012829601450545181 0 -0.023533990658141778 0.012868229163963118 0 -0.023515534401816095 0.012829601450545181 0 -0.023555413098011388 0.01290402978098353 0 -0.02389822648730984 0.01209605863392977 0 -0.023860198651114023 0.011629170661923798 0 -0.023515534401816095 0.012829601450545181 0 -0.022922989987891253 0.012252883461064616 0 -0.02344863262401178 0.012057971396912049 0 -0.023583880341017324 0.012895798799185553 0 -0.023582318515462289 0.012906138511775822 0 -0.023555413098011388 0.01290402978098353 0 -0.023569494573868234 0.012882266344769982 0 -0.023533990658141778 0.012868229163963118 0 -0.023555413098011388 0.01290402978098353 0 -0.023569494573868234 0.012882266344769982 0 -0.023583880341017324 0.012895798799185553 0 -0.023555413098011388 0.01290402978098353 0 -0.023863558157374322 0.01303950942022832 0 -0.023861617162539008 0.012684770887268706 0 -0.02457364093502783 0.012856116096476917 0 -0.024422343417531824 0.012853459376439537 0 -0.024514257696119823 0.01283763823776239 0 -0.023863558157374322 0.01303950942022832 0 -0.023515534401816095 0.012829601450545181 0 -0.023861617162539008 0.012684770887268706 0 -0.023863558157374322 0.01303950942022832 0 -0.023526874750566838 0.012949646034717701 0 -0.023515534401816095 0.012829601450545181 0 -0.023861617162539008 0.012684770887268706 0 -0.024057738051668383 0.012333932831364934 0 -0.02344863262401178 0.012057971396912049 0 -0.023515534401816095 0.012829601450545181 0 -0.023861617162539008 0.012684770887268706 0 -0.02344863262401178 0.012057971396912049 0 -0.023861617162539008 0.012684770887268706 0 -0.02457364093502783 0.012856116096476917 0 -0.024057738051668383 0.012333932831364934 0 -0.02457364093502783 0.012856116096476917 0 -0.024619044452670599 0.012654938899024516 0 -0.024481406432718754 0.012317343214053384 0 -0.02457364093502783 0.012856116096476917 0 -0.024481406432718754 0.012317343214053384 0 -0.024057738051668383 0.012333932831364934 0 -0.02457364093502783 0.012856116096476917 0 -0.024557154143099301 0.012747005961828978 0 -0.024517942116062168 0.012686063704635592 0 -0.02457364093502783 0.012856116096476917 0 -0.024619044452670599 0.012654938899024516 0 -0.024557154143099301 0.012747005961828978 0 -0.024611712431645592 0.012666653334975091 0 -0.024619044452670599 0.012654938899024516 0 -0.024557154143099301 0.012747005961828978 0 -0.024611712431645592 0.012666653334975091 0 -0.024619044452670599 0.012654938899024516 0 -0.02480233712865914 0.012322575897436761 0 -0.022880183165692982 0.011704476189143363 0 -0.0228101360562253 0.011772941702404408 0 -0.0221318521789164 0.01106952538005827 0 -0.024611712431645592 0.012666653334975091 0 -0.024488973929469474 0.012793544613736812 0 -0.02480233712865914 0.012322575897436761 0 -0.023611650825825999 0.011972561348501031 0 -0.023392639097831593 0.011516914083731386 0 -0.023098673297330171 0.011435747382399584 0 -0.023376867021078444 0.011174009930633385 0 -0.022880183165692982 0.011704476189143363 0 -0.023701905589267054 0.011250343785725659 0 -0.023813843675554051 0.011887168807410154 0 -0.022880183165692982 0.011704476189143363 0 -0.023939729191011925 0.012541279459431473 0 -0.023813843675554051 0.011887168807410154 0 -0.022880183165692982 0.011704476189143363 0 -0.0228101360562253 0.011772941702404408 0 -0.023939729191011925 0.012541279459431473 0 -0.023611650825825999 0.011972561348501031 0 -0.023725687107626861 0.012169602652914984 0 -0.024488973929469474 0.012793544613736812 0 -0.024557154143099301 0.012747005961828978 0 -0.023939729191011925 0.012541279459431473 0 -0.024611712431645592 0.012666653334975091 0 -0.024488973929469474 0.012793544613736812 0 -0.024557154143099301 0.012747005961828978 0 -0.024557154143099301 0.012747005961828978 0 -0.023939729191011925 0.012541279459431473 0 -0.024517942116062168 0.012686063704635592 0 -0.023939729191011925 0.012541279459431473 0 -0.024240644443007959 0.012561769187240087 0 -0.024517942116062168 0.012686063704635592 0 -0.023939729191011925 0.012541279459431473 0 -0.024240644443007959 0.012561769187240087 0 -0.024092736646447982 0.012554176467240814 0 -0.024266210839800555 0.012521568608915096 0 -0.024240644443007959 0.012561769187240087 0 -0.024092736646447982 0.012554176467240814 0 -0.024266210839800555 0.012521568608915096 0 -0.024240644443007959 0.012561769187240087 0 -0.024523344186071629 0.012588058647889786 0 -0.024240644443007959 0.012561769187240087 0 -0.024523344186071629 0.012588058647889786 0 -0.024517942116062168 0.012686063704635592 0 -0.024523344186071629 0.012588058647889786 0 -0.024714581106337168 0.012725570913510073 0 -0.024517942116062168 0.012686063704635592 0 -0.024787642741145293 0.012621367714283753 0 -0.025002638882574212 0.012721800584942636 0 -0.024714581106337168 0.012725570913510073 0 -0.024787642741145293 0.012621367714283753 0 -0.024523344186071629 0.012588058647889786 0 -0.024714581106337168 0.012725570913510073 0 -0.02457364093502783 0.012856116096476917 0 -0.024714581106337168 0.012725570913510073 0 -0.024517942116062168 0.012686063704635592 0 -0.025039089149014843 0.012862631955165659 0 -0.02457364093502783 0.012856116096476917 0 -0.024714581106337168 0.012725570913510073 0 -0.024998773283728785 0.013503540528679149 0 -0.024999587499535625 0.0099226224856715749 0 -0.025537345951103466 0.01158756860775966 0 -0.025000294339232041 0.0099207479607747312 0 -0.025368426122669825 0.010187649593125922 0 -0.025000012836656139 0.0099198083150826618 0 -0.025932354778427206 0.0095975130975822012 0 -0.02548860498043232 0.009245501810151319 0 -0.025423884815887723 0.01073071288535824 0 -0.025537345951103466 0.01158756860775966 0 -0.025528652810084804 0.011362308629761668 0 -0.024999587499535625 0.0099226224856715749 0 -0.025423884815887723 0.01073071288535824 0 -0.025537345951103466 0.01158756860775966 0 -0.025542466335888761 0.01302855818399473 0 -0.024998773283728785 0.013503540528679149 0 -0.025537345951103466 0.01158756860775966 0 -0.025542466335888761 0.01302855818399473 0 -0.025537345951103466 0.01158756860775966 0 -0.026259989045629029 0.011993275144314225 0 -0.025537345951103466 0.01158756860775966 0 -0.026259989045629029 0.011993275144314225 0 -0.025528652810084804 0.011362308629761668 0 -0.025479927054869865 0.012895323540655257 0 -0.025437316251326159 0.012329330743105653 0 -0.02584206591945885 0.01382324173461098 0 -0.025542466335888761 0.01302855818399473 0 -0.026259989045629029 0.011993275144314225 0 -0.024543709992014856 0.014635244908022036 0 -0.025204872701257323 0.013948461214842894 0 -0.024739294613845456 0.01278846900306555 0 -0.025555525910400619 0.014021459470052584 0 -0.025479927054869865 0.012895323540655257 0 -0.025204872701257323 0.013948461214842894 0 -0.024739294613845456 0.01278846900306555 0 -0.025584497881130479 0.013330600568959747 0 -0.024739294613845456 0.01278846900306555 0 -0.025439917081089503 0.011916163241080068 0 -0.02565360300905083 0.012554376781335783 0 -0.024739294613845456 0.01278846900306555 0 -0.02565360300905083 0.012554376781335783 0 -0.025584497881130479 0.013330600568959747 0 -0.025588099605438154 0.011870999425660536 0 -0.025439917081089503 0.011916163241080068 0 -0.025705482423703407 0.012086215755929769 0 -0.025588099605438154 0.011870999425660536 0 -0.025537073965287822 0.011693629188880277 0 -0.025670657455362848 0.011815567283105007 0 -0.025588099605438154 0.011870999425660536 0 -0.025439917081089503 0.011916163241080068 0 -0.025537073965287822 0.011693629188880277 0 -0.025439917081089503 0.011916163241080068 0 -0.025537073965287822 0.011693629188880277 0 -0.025503351022794343 0.011549392212527002 0 -0.025439917081089503 0.011916163241080068 0 -0.025528652810084804 0.011362308629761668 0 -0.025503351022794343 0.011549392212527002 0 -0.024739294613845456 0.01278846900306555 0 -0.025439917081089503 0.011916163241080068 0 -0.025528652810084804 0.011362308629761668 0 -0.025423884815887723 0.01073071288535824 0 -0.025528652810084804 0.011362308629761668 0 -0.02550442527412787 0.011407008450340693 0 -0.025368426122669825 0.010187649593125922 0 -0.025733815115780607 0.010451459930263918 0 -0.025932354778427206 0.0095975130975822012 0 -0.026533384362312163 0.0093119964809363735 0 -0.026685156345737454 0.0093729897845135027 0 -0.025528652810084804 0.011362308629761668 0 -0.02550442527412787 0.011407008450340693 0 -0.025503351022794343 0.011549392212527002 0 -0.026533384362312163 0.0093119964809363735 0 -0.026685156345737454 0.0093729897845135027 0 -0.026689379577663416 0.0091731414478897558 0 -0.026685156345737454 0.0093729897845135027 0 -0.026689379577663416 0.0091731414478897558 0 -0.02695455126448508 0.0091626316917397255 0 -0.02550442527412787 0.011407008450340693 0 -0.025574011948188001 0.01160043637481894 0 -0.025668926458127069 0.011694078123810762 0 -0.025733815115780607 0.010451459930263918 0 -0.025651386478555454 0.010789204654822721 0 -0.026685156345737454 0.0093729897845135027 0 -0.02695455126448508 0.0091626316917397255 0 -0.027536405367326103 0.0092337867289576814 0 -0.025639698678308308 0.011692392867836274 0 -0.025574011948188001 0.01160043637481894 0 -0.025662267500617272 0.011691909207207994 0 -0.025574011948188001 0.01160043637481894 0 -0.025662267500617272 0.011691909207207994 0 -0.025668926458127069 0.011694078123810762 0 -0.025639698678308308 0.011692392867836274 0 -0.025609565696567943 0.011694111013500492 0 -0.025574011948188001 0.01160043637481894 0 -0.025609565696567943 0.011694111013500492 0 -0.025537073965287822 0.011693629188880277 0 -0.025574011948188001 0.01160043637481894 0 -0.025609565696567943 0.011694111013500492 0 -0.025537073965287822 0.011693629188880277 0 -0.025670657455362848 0.011815567283105007 0 -0.025639698678308308 0.011692392867836274 0 -0.025609565696567943 0.011694111013500492 0 -0.025685555239972138 0.011753764198361823 0 -0.025537073965287822 0.011693629188880277 0 -0.025503351022794343 0.011549392212527002 0 -0.025574011948188001 0.01160043637481894 0 -0.02550442527412787 0.011407008450340693 0 -0.025503351022794343 0.011549392212527002 0 -0.025574011948188001 0.01160043637481894 0 -0.025696314380773223 0.011671073975664458 0 -0.025906229630042327 0.011870985334821066 0 -0.026143322660444758 0.011982412763075798 0 -0.025651386478555454 0.010789204654822721 0 -0.024969570585281854 0.011754899022327044 0 -0.025842359869145223 0.011878670014540366 0 -0.025906229630042327 0.011870985334821066 0 -0.025963417046275722 0.011971291221293982 0 -0.025842359869145223 0.011878670014540366 0 -0.025963417046275722 0.011971291221293982 0 -0.025830123530140255 0.011957420405267273 0 -0.025842359869145223 0.011878670014540366 0 -0.025754932237823831 0.011830515157063279 0 -0.025830123530140255 0.011957420405267273 0 -0.025670657455362848 0.011815567283105007 0 -0.025754932237823831 0.011830515157063279 0 -0.025830123530140255 0.011957420405267273 0 -0.025609565696567943 0.011694111013500492 0 -0.025670657455362848 0.011815567283105007 0 -0.025685555239972138 0.011753764198361823 0 -0.025670657455362848 0.011815567283105007 0 -0.025685555239972138 0.011753764198361823 0 -0.025754932237823831 0.011830515157063279 0 -0.025685555239972138 0.011753764198361823 0 -0.025754932237823831 0.011830515157063279 0 -0.025748252242794943 0.011753842260840981 0 -0.025842359869145223 0.011878670014540366 0 -0.025754932237823831 0.011830515157063279 0 -0.025748252242794943 0.011753842260840981 0 -0.025748252242794943 0.011753842260840981 0 -0.025696314380773223 0.011671073975664458 0 -0.025906229630042327 0.011870985334821066 0 -0.025639698678308308 0.011692392867836274 0 -0.025685555239972138 0.011753764198361823 0 -0.025685704080597883 0.011724834704793444 0 -0.025639698678308308 0.011692392867836274 0 -0.025685704080597883 0.011724834704793444 0 -0.025662267500617272 0.011691909207207994 0 -0.025685555239972138 0.011753764198361823 0 -0.025748252242794943 0.011753842260840981 0 -0.025685704080597883 0.011724834704793444 0 -0.025748252242794943 0.011753842260840981 0 -0.02569928285989509 0.011712391240432128 0 -0.025696314380773223 0.011671073975664458 0 -0.025685704080597883 0.011724834704793444 0 -0.02569928285989509 0.011712391240432128 0 -0.025662267500617272 0.011691909207207994 0 -0.025748252242794943 0.011753842260840981 0 -0.025685704080597883 0.011724834704793444 0 -0.02569928285989509 0.011712391240432128 0 -0.025649206102787887 0.010794427123911595 0 -0.025651386478555454 0.010789204654822721 0 -0.02569928285989509 0.011712391240432128 0 -0.025662267500617272 0.011691909207207994 0 -0.025696314380773223 0.011671073975664458 0 -0.025842359869145223 0.011878670014540366 0 -0.025748252242794943 0.011753842260840981 0 -0.025906229630042327 0.011870985334821066 0 -0.025906229630042327 0.011870985334821066 0 -0.026035128985062331 0.01197322857466755 0 -0.026143322660444758 0.011982412763075798 0 -0.025906229630042327 0.011870985334821066 0 -0.026035128985062331 0.01197322857466755 0 -0.025963417046275722 0.011971291221293982 0 -0.026107528353646537 0.012054411689304741 0 -0.026168410177485429 0.012103286332808908 0 -0.026143322660444758 0.011982412763075798 0 -0.026035128985062331 0.01197322857466755 0 -0.026107528353646537 0.012054411689304741 0 -0.026143322660444758 0.011982412763075798 0 -0.026107528353646537 0.012054411689304741 0 -0.026060551403770116 0.012108266353724247 0 -0.026210974884919507 0.012183775513066033 0 -0.025963417046275722 0.011971291221293982 0 -0.026060551403770116 0.012108266353724247 0 -0.025830123530140255 0.011957420405267273 0 -0.026035128985062331 0.01197322857466755 0 -0.026107528353646537 0.012054411689304741 0 -0.025963417046275722 0.011971291221293982 0 -0.026107528353646537 0.012054411689304741 0 -0.025963417046275722 0.011971291221293982 0 -0.026060551403770116 0.012108266353724247 0 -0.026060551403770116 0.012108266353724247 0 -0.026072376360975175 0.012311215953085569 0 -0.025830123530140255 0.011957420405267273 0 -0.026060551403770116 0.012108266353724247 0 -0.026072376360975175 0.012311215953085569 0 -0.026210974884919507 0.012183775513066033 0 -0.026072376360975175 0.012311215953085569 0 -0.025830123530140255 0.011957420405267273 0 -0.025705482423703407 0.012086215755929769 0 -0.026072376360975175 0.012311215953085569 0 -0.025705482423703407 0.012086215755929769 0 -0.02565360300905083 0.012554376781335783 0 -0.025588099605438154 0.011870999425660536 0 -0.025670657455362848 0.011815567283105007 0 -0.025705482423703407 0.012086215755929769 0 -0.025670657455362848 0.011815567283105007 0 -0.025830123530140255 0.011957420405267273 0 -0.025705482423703407 0.012086215755929769 0 -0.025439917081089503 0.011916163241080068 0 -0.025705482423703407 0.012086215755929769 0 -0.02565360300905083 0.012554376781335783 0 -0.02565360300905083 0.012554376781335783 0 -0.025584497881130479 0.013330600568959747 0 -0.026185677746077912 0.012841439062739733 0 -0.025855871448992301 0.014118412617471432 0 -0.025204872701257323 0.013948461214842894 0 -0.025584497881130479 0.013330600568959747 0 -0.025855871448992301 0.014118412617471432 0 -0.025584497881130479 0.013330600568959747 0 -0.026185677746077912 0.012841439062739733 0 -0.026072376360975175 0.012311215953085569 0 -0.02565360300905083 0.012554376781335783 0 -0.026185677746077912 0.012841439062739733 0 -0.026185677746077912 0.012841439062739733 0 -0.026756716899898531 0.013098641004828236 0 -0.026521054331352868 0.012799340969817146 0 -0.026072376360975175 0.012311215953085569 0 -0.026185677746077912 0.012841439062739733 0 -0.02632562333440263 0.012273859894519949 0 -0.026120792046152374 0.012664259116267507 0 -0.02616524864622834 0.012589994062364258 0 -0.026519830311285037 0.014217941195673304 0 -0.026185677746077912 0.012841439062739733 0 -0.026756716899898531 0.013098641004828236 0 -0.027204709414694762 0.013226926993701265 0 -0.026913938494101123 0.013141779000548403 0 -0.02607521262459277 0.012289471070234242 0 -0.026189071719185712 0.012684932985596859 0 -0.026756716899898531 0.013098641004828236 0 -0.026189071719185712 0.012684932985596859 0 -0.026756716899898531 0.013098641004828236 0 -0.026521054331352868 0.012799340969817146 0 -0.025941876488176585 0.012206017450966694 0 -0.02632562333440263 0.012273859894519949 0 -0.02620693575084793 0.012268795628567669 0 -0.026009917765880325 0.012579662882036496 0 -0.02616524864622834 0.012589994062364258 0 -0.026072376360975175 0.012311215953085569 0 -0.02632562333440263 0.012273859894519949 0 -0.026210974884919507 0.012183775513066033 0 -0.02632562333440263 0.012273859894519949 0 -0.026210974884919507 0.012183775513066033 0 -0.02620693575084793 0.012268795628567669 0 -0.026210974884919507 0.012183775513066033 0 -0.026202387117254648 0.012194253587097985 0 -0.02620693575084793 0.012268795628567669 0 -0.026107528353646537 0.012054411689304741 0 -0.026210974884919507 0.012183775513066033 0 -0.026168410177485429 0.012103286332808908 0 -0.026210974884919507 0.012183775513066033 0 -0.026168410177485429 0.012103286332808908 0 -0.026202387117254648 0.012194253587097985 0 -0.026168410177485429 0.012103286332808908 0 -0.026202387117254648 0.012194253587097985 0 -0.026143322660444758 0.011982412763075798 0 -0.025941876488176585 0.012206017450966694 0 -0.026051629872191673 0.012405447694272747 0 -0.02620693575084793 0.012268795628567669 0 -0.026051629872191673 0.012405447694272747 0 -0.02620693575084793 0.012268795628567669 0 -0.026212648398625273 0.012396308780342631 0 -0.026202387117254648 0.012194253587097985 0 -0.02620693575084793 0.012268795628567669 0 -0.026212648398625273 0.012396308780342631 0 -0.023997768561409599 0.012891812216329139 0 -0.023866436372898689 0.012919608277680546 0 -0.024136136985072023 0.012978524095221572 0 -0.024370049958923001 0.012787579885297417 0 -0.023737320960439425 0.012901046673684835 0 -0.023585304281565508 0.012849567195269786 0 -0.023737320960439425 0.012901046673684835 0 -0.023650531525952343 0.012874863956351238 0 -0.026202387117254648 0.012194253587097985 0 -0.026212648398625273 0.012396308780342631 0 -0.026143322660444758 0.011982412763075798 0 -0.02503778664806703 0.012245563037121926 0 -0.024969570585281854 0.011754899022327044 0 -0.024136136985072023 0.012978524095221572 0 -0.023737320960439425 0.012901046673684835 0 -0.023564845658750645 0.012941089352565032 0 -0.023737320960439425 0.012901046673684835 0 -0.023650531525952343 0.012874863956351238 0 -0.023649610200508375 0.012866125315615923 0 -0.023737320960439425 0.012901046673684835 0 -0.023649610200508375 0.012866125315615923 0 -0.023634486276836921 0.012899479783081943 0 -0.023650531525952343 0.012874863956351238 0 -0.023649610200508375 0.012866125315615923 0 -0.023632899576842593 0.012873198455236802 0 -0.023649610200508375 0.012866125315615923 0 -0.023632899576842593 0.012873198455236802 0 -0.023632141815771533 0.012869733443863707 0 -0.023650531525952343 0.012874863956351238 0 -0.023632899576842593 0.012873198455236802 0 -0.023601977901390014 0.012882768220882987 0 -0.023585304281565508 0.012849567195269786 0 -0.023650531525952343 0.012874863956351238 0 -0.023601977901390014 0.012882768220882987 0 -0.023553100240075266 0.012892415573913006 0 -0.023585304281565508 0.012849567195269786 0 -0.023601977901390014 0.012882768220882987 0 -0.023553100240075266 0.012892415573913006 0 -0.023569494573868234 0.012882266344769982 0 -0.023601977901390014 0.012882768220882987 0 -0.023569494573868234 0.012882266344769982 0 -0.023601977901390014 0.012882768220882987 0 -0.023608169858477641 0.012881531277508802 0 -0.023569494573868234 0.012882266344769982 0 -0.023608169858477641 0.012881531277508802 0 -0.023583880341017324 0.012895798799185553 0 -0.023632899576842593 0.012873198455236802 0 -0.023601977901390014 0.012882768220882987 0 -0.023608169858477641 0.012881531277508802 0 -0.023608169858477641 0.012881531277508802 0 -0.023583880341017324 0.012895798799185553 0 -0.023606385557091641 0.012901304661801191 0 -0.023583880341017324 0.012895798799185553 0 -0.023606385557091641 0.012901304661801191 0 -0.023582318515462289 0.012906138511775822 0 -0.023608169858477641 0.012881531277508802 0 -0.023632141815771533 0.012869733443863707 0 -0.023606385557091641 0.012901304661801191 0 -0.025234489108554369 0.0061932656436521688 0 -0.025274108648687527 0.0067000263962585229 0 -0.024973615141893585 0.0066017283365086893 0 -0.024650677535659447 0.0097159338677540071 0 -0.024137113197319638 0.0096756155532774866 0 -0.023632899576842593 0.012873198455236802 0 -0.023608169858477641 0.012881531277508802 0 -0.023632141815771533 0.012869733443863707 0 -0.025234489108554369 0.0061932656436521688 0 -0.025541627053112206 0.0064954617960745866 0 -0.025274108648687527 0.0067000263962585229 0 -0.025541627053112206 0.0064954617960745866 0 -0.025722615415260816 0.0060861452916145826 0 -0.025971380503052918 0.0063713871572033103 0 -0.025234489108554369 0.0061932656436521688 0 -0.025541627053112206 0.0064954617960745866 0 -0.025722615415260816 0.0060861452916145826 0 -0.025234489108554369 0.0061932656436521688 0 -0.025722615415260816 0.0060861452916145826 0 -0.025484094797502261 0.0058000193674410507 0 -0.025504679015194515 0.0082851149713631389 0 -0.025247180847788785 0.0099462485218713426 0 -0.027497532806191577 0.0076928726421201165 0 -0.028050053393209436 0.0083707799468550632 0 -0.027357052632259758 0.0082466500846004355 0 -0.028050053393209436 0.0083707799468550632 0 -0.027489617835295972 0.008699078475233251 0 -0.027357052632259758 0.0082466500846004355 0 -0.023649610200508375 0.012866125315615923 0 -0.023632141815771533 0.012869733443863707 0 -0.023618706554943986 0.012867592743337751 0 -0.024650677535659447 0.0097159338677540071 0 -0.025247180847788785 0.0099462485218713426 0 -0.023632141815771533 0.012869733443863707 0 -0.023611496281270034 0.012863859452632954 0 -0.023618706554943986 0.012867592743337751 0 -0.025247180847788785 0.0099462485218713426 0 -0.025272568415863606 0.010356568105850264 0 -0.023544057787355688 0.012918466863646717 0 -0.023585567621764489 0.012901759789165881 0 -0.023564845658750645 0.012941089352565032 0 -0.023611496281270034 0.012863859452632954 0 -0.023618706554943986 0.012867592743337751 0 -0.023585567621764489 0.012901759789165881 0 -0.023649610200508375 0.012866125315615923 0 -0.023618706554943986 0.012867592743337751 0 -0.023585567621764489 0.012901759789165881 0 -0.023649610200508375 0.012866125315615923 0 -0.023585567621764489 0.012901759789165881 0 -0.023634486276836921 0.012899479783081943 0 -0.023737320960439425 0.012901046673684835 0 -0.023634486276836921 0.012899479783081943 0 -0.023564845658750645 0.012941089352565032 0 -0.023585567621764489 0.012901759789165881 0 -0.023634486276836921 0.012899479783081943 0 -0.023564845658750645 0.012941089352565032 0 -0.025651386478555454 0.010789204654822721 0 -0.025247180847788785 0.0099462485218713426 0 -0.023544057787355688 0.012918466863646717 0 -0.023570402249158736 0.012874616993676466 0 -0.023585567621764489 0.012901759789165881 0 -0.027536405367326103 0.0092337867289576814 0 -0.028050053393209436 0.0083707799468550632 0 -0.027489617835295972 0.008699078475233251 0 -0.027536405367326103 0.0092337867289576814 0 -0.027489617835295972 0.008699078475233251 0 -0.02733098165207044 0.0089197419359980032 0 -0.026910907162243692 0.0087746043676761552 0 -0.027186089726569277 0.0086767364961618069 0 -0.027110280185081412 0.0090028681435685119 0 -0.026910907162243692 0.0087746043676761552 0 -0.026687713511221137 0.0087386927181284761 0 -0.026883961682386642 0.0084659713364908622 0 -0.026910907162243692 0.0087746043676761552 0 -0.027186089726569277 0.0086767364961618069 0 -0.026883961682386642 0.0084659713364908622 0 -0.027489617835295972 0.008699078475233251 0 -0.027186089726569277 0.0086767364961618069 0 -0.027357052632259758 0.0082466500846004355 0 -0.027489617835295972 0.008699078475233251 0 -0.027186089726569277 0.0086767364961618069 0 -0.02733098165207044 0.0089197419359980032 0 -0.027536405367326103 0.0092337867289576814 0 -0.02733098165207044 0.0089197419359980032 0 -0.027110280185081412 0.0090028681435685119 0 -0.02695455126448508 0.0091626316917397255 0 -0.027536405367326103 0.0092337867289576814 0 -0.027110280185081412 0.0090028681435685119 0 -0.027186089726569277 0.0086767364961618069 0 -0.02733098165207044 0.0089197419359980032 0 -0.027110280185081412 0.0090028681435685119 0 -0.02695455126448508 0.0091626316917397255 0 -0.027110280185081412 0.0090028681435685119 0 -0.026774521257481518 0.0090037660211655639 0 -0.026910907162243692 0.0087746043676761552 0 -0.027110280185081412 0.0090028681435685119 0 -0.026774521257481518 0.0090037660211655639 0 -0.026533384362312163 0.0093119964809363735 0 -0.026689379577663416 0.0091731414478897558 0 -0.026469604639489861 0.0088674683767796282 0 -0.026689379577663416 0.0091731414478897558 0 -0.02695455126448508 0.0091626316917397255 0 -0.026774521257481518 0.0090037660211655639 0 -0.026533384362312163 0.0093119964809363735 0 -0.026469604639489861 0.0088674683767796282 0 -0.025745563793570601 0.0085048257939801999 0 -0.026689379577663416 0.0091731414478897558 0 -0.026774521257481518 0.0090037660211655639 0 -0.026469604639489861 0.0088674683767796282 0 -0.026774521257481518 0.0090037660211655639 0 -0.026469604639489861 0.0088674683767796282 0 -0.026687713511221137 0.0087386927181284761 0 -0.026910907162243692 0.0087746043676761552 0 -0.026774521257481518 0.0090037660211655639 0 -0.026687713511221137 0.0087386927181284761 0 -0.026469604639489861 0.0088674683767796282 0 -0.026687713511221137 0.0087386927181284761 0 -0.026370836380585631 0.0084609488904590011 0 -0.026687713511221137 0.0087386927181284761 0 -0.026370836380585631 0.0084609488904590011 0 -0.026883961682386642 0.0084659713364908622 0 -0.026370836380585631 0.0084609488904590011 0 -0.02686077155410381 0.0079012892997893727 0 -0.02632327623311297 0.0075388788916936622 0 -0.026370836380585631 0.0084609488904590011 0 -0.02686077155410381 0.0079012892997893727 0 -0.026883961682386642 0.0084659713364908622 0 -0.027497532806191577 0.0076928726421201165 0 -0.02686077155410381 0.0079012892997893727 0 -0.027357052632259758 0.0082466500846004355 0 -0.02686077155410381 0.0079012892997893727 0 -0.026883961682386642 0.0084659713364908622 0 -0.027357052632259758 0.0082466500846004355 0 -0.027186089726569277 0.0086767364961618069 0 -0.026883961682386642 0.0084659713364908622 0 -0.027357052632259758 0.0082466500846004355 0 -0.027497532806191577 0.0076928726421201165 0 -0.02686077155410381 0.0079012892997893727 0 -0.026882430670152422 0.0070467559242543025 0 -0.025504679015194515 0.0082851149713631389 0 -0.025700551004798223 0.0075944695364385893 0 -0.025971380503052918 0.0063713871572033103 0 -0.026257213211969169 0.0066760421407783196 0 -0.02580848016022701 0.0066247334424759143 0 -0.025541627053112206 0.0064954617960745866 0 -0.025971380503052918 0.0063713871572033103 0 -0.02580848016022701 0.0066247334424759143 0 -0.025700551004798223 0.0075944695364385893 0 -0.025757862556495512 0.0074001162794692264 0 -0.026882430670152422 0.0070467559242543025 0 -0.026301996983338446 0.0070182123574054909 0 -0.026257213211969169 0.0066760421407783196 0 -0.026882430670152422 0.0070467559242543025 0 -0.026301996983338446 0.0070182123574054909 0 -0.02632327623311297 0.0075388788916936622 0 -0.02686077155410381 0.0079012892997893727 0 -0.026882430670152422 0.0070467559242543025 0 -0.02632327623311297 0.0075388788916936622 0 -0.02632327623311297 0.0075388788916936622 0 -0.025693644698060174 0.0077975671618562802 0 -0.025846775316289507 0.0070920735120089291 0 -0.026301996983338446 0.0070182123574054909 0 -0.02632327623311297 0.0075388788916936622 0 -0.025846775316289507 0.0070920735120089291 0 -0.026301996983338446 0.0070182123574054909 0 -0.025846775316289507 0.0070920735120089291 0 -0.025947930003210037 0.0065572812280340195 0 -0.025846775316289507 0.0070920735120089291 0 -0.025000437335132162 0.0067920036059383711 0 -0.025947930003210037 0.0065572812280340195 0 -0.025000725543287909 0.0067907080099447866 0 -0.025687145088217862 0.0063519379580699578 0 -0.025693644698060174 0.0077975671618562802 0 -0.025846775316289507 0.0070920735120089291 0 -0.025000437335132162 0.0067920036059383711 0 -0.025693644698060174 0.0077975671618562802 0 -0.025000437335132162 0.0067920036059383711 0 -0.024999629681134523 0.0077735787896005435 0 -0.025693644698060174 0.0077975671618562802 0 -0.024999629681134523 0.0077735787896005435 0 -0.025745563793570601 0.0085048257939801999 0 -0.025000009388477955 0.007774256215692851 0 -0.025877473145921984 0.0086933248116639241 0 -0.02499994859528188 0.0088471482587430209 0 -0.02500068845173329 0.0077748984988836962 0 -0.025719514059912192 0.0084673106262774783 0 -0.026370836380585631 0.0084609488904590011 0 -0.025693644698060174 0.0077975671618562802 0 -0.025745563793570601 0.0085048257939801999 0 -0.026370836380585631 0.0084609488904590011 0 -0.02632327623311297 0.0075388788916936622 0 -0.025693644698060174 0.0077975671618562802 0 -0.026107889529128438 0.0088369900218063582 0 -0.025719514059912192 0.0084673106262774783 0 -0.026469604639489861 0.0088674683767796282 0 -0.026370836380585631 0.0084609488904590011 0 -0.025745563793570601 0.0085048257939801999 0 -0.025932354778427206 0.0095975130975822012 0 -0.026533384362312163 0.0093119964809363735 0 -0.025877473145921984 0.0086933248116639241 0 -0.025932354778427206 0.0095975130975822012 0 -0.025877473145921984 0.0086933248116639241 0 -0.02548860498043232 0.009245501810151319 0 -0.025000012836656139 0.0099198083150826618 0 -0.02548860498043232 0.009245501810151319 0 -0.02499994859528188 0.0088471482587430209 0 -0.025877473145921984 0.0086933248116639241 0 -0.02548860498043232 0.009245501810151319 0 -0.02499994859528188 0.0088471482587430209 0 -0.025713363846985665 0.0037546976864742394 0 -0.025000045668272727 0.0035525114006790728 0 -0.025956900963849852 0.0031338737614040138 0 -0.025000989099700929 0.0035518877006321505 0 -0.025920854167739999 0.0030799347340568525 0 -0.025713363846985665 0.0037546976864742394 0 -0.026386924119331041 0.0031015669370427711 0 -0.025956900963849852 0.0031338737614040138 0 -0.025711281905776547 0.0038331109334715893 0 -0.026431127622231116 0.0037186275120630508 0 -0.026386924119331041 0.0031015669370427711 0 -0.025711281905776547 0.0038331109334715893 0 -0.026431127622231116 0.0037186275120630508 0 -0.026189809668847298 0.0041983982965644101 0 -0.02558038334552399 0.0039403663309808849 0 -0.025885971384855481 0.0036087829521467031 0 -0.025711281905776547 0.0038331109334715893 0 -0.026189809668847298 0.0041983982965644101 0 -0.025886728282390525 0.0047479827660124301 0 -0.026189809668847298 0.0041983982965644101 0 -0.025886728282390525 0.0047479827660124301 0 -0.026785921164246881 0.0049863868708086108 0 -0.025711281905776547 0.0038331109334715893 0 -0.024999997546148813 0.0045728804466533563 0 -0.025886728282390525 0.0047479827660124301 0 -0.02558038334552399 0.0039403663309808849 0 -0.025000678768945593 0.0045720189431323324 0 -0.025713363846985665 0.0037546976864742394 0 -0.025000045668272727 0.0035525114006790728 0 -0.024999968396101038 0.0045726378025538663 0 -0.024999970935521188 0.0056818001814490761 0 -0.025924462214874121 0.0058740059386529452 0 -0.025886728282390525 0.0047479827660124301 0 -0.024999997546148813 0.0045728804466533563 0 -0.024999970935521188 0.0056818001814490761 0 -0.025886728282390525 0.0047479827660124301 0 -0.025000005702240868 0.0067909865365821777 0 -0.024999970935521188 0.0056818001814490761 0 -0.025924462214874121 0.0058740059386529452 0 -0.025924462214874121 0.0058740059386529452 0 -0.025886728282390525 0.0047479827660124301 0 -0.026785921164246881 0.0049863868708086108 0 -0.025687145088217862 0.0063519379580699578 0 -0.026185422280690752 0.006025190369732732 0 -0.026299253346182012 0.0069826589744552943 0 -0.026257213211969169 0.0066760421407783196 0 -0.025895180505797654 0.0068673126837179915 0 -0.025947930003210037 0.0065572812280340195 0 -0.026299253346182012 0.0069826589744552943 0 -0.026257213211969169 0.0066760421407783196 0 -0.026301996983338446 0.0070182123574054909 0 -0.025947930003210037 0.0065572812280340195 0 -0.026257213211969169 0.0066760421407783196 0 -0.026257213211969169 0.0066760421407783196 0 -0.02580848016022701 0.0066247334424759143 0 -0.025895180505797654 0.0068673126837179915 0 -0.026299253346182012 0.0069826589744552943 0 -0.025895180505797654 0.0068673126837179915 0 -0.025796879927101241 0.0078140940970817165 0 -0.026185422280690752 0.006025190369732732 0 -0.02636186450597636 0.005836978696242846 0 -0.026189809668847298 0.0041983982965644101 0 -0.026785921164246881 0.0049863868708086108 0 -0.026776698741512863 0.0040706650296006954 0 -0.026785921164246881 0.0049863868708086108 0 -0.027585449448526065 0.0041693551338126151 0 -0.026776698741512863 0.0040706650296006954 0 -0.026431127622231116 0.0037186275120630508 0 -0.026189809668847298 0.0041983982965644101 0 -0.026776698741512863 0.0040706650296006954 0 -0.026431127622231116 0.0037186275120630508 0 -0.026776698741512863 0.0040706650296006954 0 -0.027111845238130435 0.0034223184567182623 0 -0.026431127622231116 0.0037186275120630508 0 -0.027111845238130435 0.0034223184567182623 0 -0.026386924119331041 0.0031015669370427711 0 -0.027585449448526065 0.0041693551338126151 0 -0.026776698741512863 0.0040706650296006954 0 -0.027111845238130435 0.0034223184567182623 0 -0.027585449448526065 0.0041693551338126151 0 -0.027111845238130435 0.0034223184567182623 0 -0.028363280697494546 0.0034134795402262766 0 -0.025796879927101241 0.0078140940970817165 0 -0.025068848338125164 0.0086052886709263952 0 -0.024811585445971177 0.007799598116685535 0 -0.02636186450597636 0.005836978696242846 0 -0.026229470492724987 0.0056636020848261715 0 -0.025068848338125164 0.0086052886709263952 0 -0.024811585445971177 0.007799598116685535 0 -0.024435625688345963 0.0083798874038901149 0 -0.025796879927101241 0.0078140940970817165 0 -0.024811585445971177 0.007799598116685535 0 -0.025136408075201098 0.007004311951318334 0 -0.025495489619701564 0.0077178287234535006 0 -0.025226233016891413 0.0078984556275698142 0 -0.025895180505797654 0.0068673126837179915 0 -0.025796879927101241 0.0078140940970817165 0 -0.025136408075201098 0.007004311951318334 0 -0.02580848016022701 0.0066247334424759143 0 -0.025895180505797654 0.0068673126837179915 0 -0.025519079460326877 0.0069339102236758874 0 -0.025541627053112206 0.0064954617960745866 0 -0.02580848016022701 0.0066247334424759143 0 -0.025519079460326877 0.0069339102236758874 0 -0.025541627053112206 0.0064954617960745866 0 -0.025519079460326877 0.0069339102236758874 0 -0.025274108648687527 0.0067000263962585229 0 -0.025226233016891413 0.0078984556275698142 0 -0.02460012566194943 0.0084648591319606038 0 -0.025519079460326877 0.0069339102236758874 0 -0.025274108648687527 0.0067000263962585229 0 -0.025129092946248301 0.0069965591642838438 0 -0.024811585445971177 0.007799598116685535 0 -0.025136408075201098 0.007004311951318334 0 -0.024351398102571621 0.0071422189943408775 0 -0.025129092946248301 0.0069965591642838438 0 -0.024913895297639519 0.0068834913989455314 0 -0.024710203780996063 0.0070259888358701044 0 -0.024351398102571621 0.0071422189943408775 0 -0.023463822698789594 0.0072019597577842502 0 -0.024033944284920148 0.0078987813846462026 0 -0.02460012566194943 0.0084648591319606038 0 -0.023511975141811959 0.0096226175885001375 0 -0.025274108648687527 0.0067000263962585229 0 -0.025129092946248301 0.0069965591642838438 0 -0.024913895297639519 0.0068834913989455314 0 -0.025274108648687527 0.0067000263962585229 0 -0.024913895297639519 0.0068834913989455314 0 -0.024973615141893585 0.0066017283365086893 0 -0.023606385557091641 0.012901304661801191 0 -0.023582318515462289 0.012906138511775822 0 -0.023583630383666673 0.01292585695710388 0 -0.024913895297639519 0.0068834913989455314 0 -0.024973615141893585 0.0066017283365086893 0 -0.024710203780996063 0.0070259888358701044 0 -0.024137113197319638 0.0096756155532774866 0 -0.023511975141811959 0.0096226175885001375 0 -0.023582318515462289 0.012906138511775822 0 -0.023583630383666673 0.01292585695710388 0 -0.023555413098011388 0.01290402978098353 0 -0.022446062608438136 0.011672100481002017 0 -0.022474338776571109 0.01162695472399361 0 -0.022806721778541005 0.011860633587838778 0 -0.02351300716091561 0.007274349770037057 0 -0.023471912861624554 0.0073348912878927657 0 -0.023532118107381032 0.007632415591166045 0 -0.023511975141811959 0.0096226175885001375 0 -0.023358969899742066 0.0097695828951603093 0 -0.023471912861624554 0.0073348912878927657 0 -0.023532118107381032 0.007632415591166045 0 -0.022944572183963414 0.0082345718516791348 0 -0.023511975141811959 0.0096226175885001375 0 -0.023295211165060184 0.0089516759339067914 0 -0.02351300716091561 0.007274349770037057 0 -0.023532118107381032 0.007632415591166045 0 -0.024033944284920148 0.0078987813846462026 0 -0.023528309816536173 0.0079985182192449707 0 -0.023559606923116941 0.008297884652073248 0 -0.022944572183963414 0.0082345718516791348 0 -0.023532118107381032 0.007632415591166045 0 -0.023528309816536173 0.0079985182192449707 0 -0.022944572183963414 0.0082345718516791348 0 -0.024033944284920148 0.0078987813846462026 0 -0.023992504007402316 0.0083358490083779314 0 -0.023559606923116941 0.008297884652073248 0 -0.023528309816536173 0.0079985182192449707 0 -0.024033944284920148 0.0078987813846462026 0 -0.023559606923116941 0.008297884652073248 0 -0.023532118107381032 0.007632415591166045 0 -0.023528309816536173 0.0079985182192449707 0 -0.024033944284920148 0.0078987813846462026 0 -0.024811585445971177 0.007799598116685535 0 -0.024351398102571621 0.0071422189943408775 0 -0.024033944284920148 0.0078987813846462026 0 -0.024811585445971177 0.007799598116685535 0 -0.024033944284920148 0.0078987813846462026 0 -0.024435625688345963 0.0083798874038901149 0 -0.024033944284920148 0.0078987813846462026 0 -0.023992504007402316 0.0083358490083779314 0 -0.024435625688345963 0.0083798874038901149 0 -0.023992504007402316 0.0083358490083779314 0 -0.024435625688345963 0.0083798874038901149 0 -0.023949880808303025 0.0087430796985621291 0 -0.025245124817372153 0.0071287709207643246 0 -0.025413804308341593 0.0068798226068701764 0 -0.023559606923116941 0.008297884652073248 0 -0.023933049387026464 0.0089592734268794504 0 -0.023160659573510951 0.0089918696586453756 0 -0.023992504007402316 0.0083358490083779314 0 -0.023559606923116941 0.008297884652073248 0 -0.023949880808303025 0.0087430796985621291 0 -0.023307135644773162 0.009350480293915971 0 -0.023651872625638715 0.0095307773613100728 0 -0.023029192168401776 0.0095955437129950933 0 -0.023307135644773162 0.009350480293915971 0 -0.023933049387026464 0.0089592734268794504 0 -0.023651872625638715 0.0095307773613100728 0 -0.023307135644773162 0.009350480293915971 0 -0.023933049387026464 0.0089592734268794504 0 -0.023160659573510951 0.0089918696586453756 0 -0.024435625688345963 0.0083798874038901149 0 -0.023949880808303025 0.0087430796985621291 0 -0.02433577733848279 0.009283786574672619 0 -0.023933049387026464 0.0089592734268794504 0 -0.024276942682648048 0.009491004152973272 0 -0.023651872625638715 0.0095307773613100728 0 -0.025413804308341593 0.0068798226068701764 0 -0.025569262636408612 0.0054954859684720886 0 -0.025569262636408612 0.0054954859684720886 0 -0.024039168428194355 0.0058728778414862716 0 -0.025531239394628671 0.0032171275323842584 0 -0.025067967554504699 0.0036346255996843354 0 -0.025482507993434607 0.0036383300550893731 0 -0.023651872625638715 0.0095307773613100728 0 -0.023539287680171526 0.010126279408326271 0 -0.023029192168401776 0.0095955437129950933 0 -0.024276942682648048 0.009491004152973272 0 -0.023651872625638715 0.0095307773613100728 0 -0.023539287680171526 0.010126279408326271 0 -0.025067967554504699 0.0036346255996843354 0 -0.024973133809724272 0.0040003573593198659 0 -0.025347867910481554 0.0040248372536364953 0 -0.024803037163808089 0.0043304571072668475 0 -0.024973133809724272 0.0040003573593198659 0 -0.025347867910481554 0.0040248372536364953 0 -0.024356144162020563 0.0014113356701002493 0 -0.026702110806705193 0.0018274393945920543 0 -0.03090238648361646 -6.0039788995812991e-05 0 -0.030000299780756169 -0.00027138597319407959 0 -0.029831211535869786 0.00055870335493258638 0 -0.029341871112057341 -3.2934695922458386e-05 0 -0.029831211535869786 0.00055870335493258638 0 -0.028954324983710058 0.00043087746093881248 0 -0.030000299780756169 -0.00027138597319407959 0 -0.029341871112057341 -3.2934695922458386e-05 0 -0.029831211535869786 0.00055870335493258638 0 -0.025347867910481554 0.0040248372536364953 0 -0.025482507993434607 0.0036383300550893731 0 -0.025887349990410865 0.0037198328827239336 0 -0.025067967554504699 0.0036346255996843354 0 -0.025347867910481554 0.0040248372536364953 0 -0.025482507993434607 0.0036383300550893731 0 -0.026702110806705193 0.0018274393945920543 0 -0.026978365989303022 0.0027961591912319533 0 -0.029831211535869786 0.00055870335493258638 0 -0.028778137177500284 0.0011669418709897984 0 -0.028954324983710058 0.00043087746093881248 0 -0.028778137177500284 0.0011669418709897984 0 -0.028954324983710058 0.00043087746093881248 0 -0.028345565729517474 0.00054290880199259152 0 -0.028485113784215529 -0.00037280337745145372 0 -0.028954324983710058 0.00043087746093881248 0 -0.028345565729517474 0.00054290880199259152 0 -0.026978365989303022 0.0027961591912319533 0 -0.027407233177225054 0.002384676000678133 0 -0.028818823557246982 0.0012187082621674286 0 -0.027881147278419179 0.0017701182077573647 0 -0.027818836603201762 0.0010378346136658363 0 -0.028818823557246982 0.0012187082621674286 0 -0.028345565729517474 0.00054290880199259152 0 -0.027818836603201762 0.0010378346136658363 0 -0.026978365989303022 0.0027961591912319533 0 -0.027031683798721687 0.0024044932263305738 0 -0.028506281904085027 0.0017944504312478896 0 -0.028332895172582133 0.0025712525367598809 0 -0.027686932517993559 0.0022518363220912418 0 -0.028332895172582133 0.0025712525367598809 0 -0.027683497907788887 0.0028649014190117528 0 -0.027686932517993559 0.0022518363220912418 0 -0.025569262636408612 0.0054954859684720886 0 -0.026978365989303022 0.0027961591912319533 0 -0.025531239394628671 0.0032171275323842584 0 -0.025482507993434607 0.0036383300550893731 0 -0.025887349990410865 0.0037198328827239336 0 -0.029129671752036165 0.002691421347176945 0 -0.028506281904085027 0.0017944504312478896 0 -0.028332895172582133 0.0025712525367598809 0 -0.025068848338125164 0.0086052886709263952 0 -0.024435625688345963 0.0083798874038901149 0 -0.02433577733848279 0.009283786574672619 0 -0.026229470492724987 0.0056636020848261715 0 -0.025569262636408612 0.0054954859684720886 0 -0.028363280697494546 0.0034134795402262766 0 -0.029129671752036165 0.002691421347176945 0 -0.028332895172582133 0.0025712525367598809 0 -0.028363280697494546 0.0034134795402262766 0 -0.028332895172582133 0.0025712525367598809 0 -0.027683497907788887 0.0028649014190117528 0 -0.027111845238130435 0.0034223184567182623 0 -0.028363280697494546 0.0034134795402262766 0 -0.027683497907788887 0.0028649014190117528 0 -0.027111845238130435 0.0034223184567182623 0 -0.027683497907788887 0.0028649014190117528 0 -0.02684366418458238 0.0027002457372285174 0 -0.027111845238130435 0.0034223184567182623 0 -0.02684366418458238 0.0027002457372285174 0 -0.026386924119331041 0.0031015669370427711 0 -0.026948550044762928 0.002343866022821522 0 -0.027064277140730446 0.0011871022238730256 0 -0.02607324887785949 0.0015929133933471741 0 -0.02679094155998854 0.0026445137467032056 0 -0.027407233177225054 0.002384676000678133 0 -0.027683497907788887 0.0028649014190117528 0 -0.02684366418458238 0.0027002457372285174 0 -0.027686932517993559 0.0022518363220912418 0 -0.026948550044762928 0.002343866022821522 0 -0.027881147278419179 0.0017701182077573647 0 -0.027064277140730446 0.0011871022238730256 0 -0.027881147278419179 0.0017701182077573647 0 -0.027818836603201762 0.0010378346136658363 0 -0.027064277140730446 0.0011871022238730256 0 -0.027387679688050757 1.1334318104319956e-05 0 -0.028345565729517474 0.00054290880199259152 0 -0.027818836603201762 0.0010378346136658363 0 -0.027387679688050757 1.1334318104319956e-05 0 -0.027818836603201762 0.0010378346136658363 0 -0.027064277140730446 0.0011871022238730256 0 -0.027385822388928043 -3.9029751472986663e-05 0 -0.026379974768360008 0.00030550771423069379 0 -0.027387679688050757 1.1334318104319956e-05 0 -0.027064277140730446 0.0011871022238730256 0 -0.026255259071875529 0.00038881971520422954 0 -0.027064277140730446 0.0011871022238730256 0 -0.026255259071875529 0.00038881971520422954 0 -0.02607324887785949 0.0015929133933471741 0 -0.026255259071875529 0.00038881971520422954 0 -0.025088518425190966 0.00075443420170536986 0 -0.02607324887785949 0.0015929133933471741 0 -0.025000001451201827 -0.00076089585667459241 0 -0.025544859307904122 0.00011177087117181414 0 -0.024999992152173512 0.00067686344518616299 0 -0.026276851551458275 0.00031298606867895029 0 -0.025544859307904122 0.00011177087117181414 0 -0.025088518425190966 0.00075443420170536986 0 -0.026379974768360008 0.00030550771423069379 0 -0.0258115391580289 0.00049944479980300598 0 -0.025544859307904122 0.00011177087117181414 0 -0.025088518425190966 0.00075443420170536986 0 -0.024999992152173512 0.00067686344518616299 0 -0.025088518425190966 0.00075443420170536986 0 -0.024999992152173512 0.00067686344518616299 0 -0.024999981197254481 0.0021145704765657509 0 -0.025088518425190966 0.00075443420170536986 0 -0.024999981197254481 0.0021145704765657509 0 -0.02607324887785949 0.0015929133933471741 0 -0.024999981197254481 0.0021145704765657509 0 -0.02607324887785949 0.0015929133933471741 0 -0.025989142246832207 0.0029421783130596417 0 -0.026948550044762928 0.002343866022821522 0 -0.02607324887785949 0.0015929133933471741 0 -0.025989142246832207 0.0029421783130596417 0 -0.02684366418458238 0.0027002457372285174 0 -0.026386924119331041 0.0031015669370427711 0 -0.025956900963849852 0.0031338737614040138 0 -0.02679094155998854 0.0026445137467032056 0 -0.025920854167739999 0.0030799347340568525 0 -0.024999990334860795 0.0035522939051260164 0 -0.024999981197254481 0.0021145704765657509 0 -0.025989142246832207 0.0029421783130596417 0 -0.022088506862719209 0.01002997052588084 0 -0.021726492413089955 0.0099622797927990635 0 -0.021708098199570064 0.010469276204304911 0 -0.022088506862719209 0.01002997052588084 0 -0.022364070825786314 0.01046636404507157 0 -0.021708098199570064 0.010469276204304911 0 -0.021726492413089955 0.0099622797927990635 0 -0.021708098199570064 0.010469276204304911 0 -0.021354101227768128 0.0099376366568679677 0 -0.023095464480295987 0.010902626045430925 0 -0.022689353849929671 0.010156418254779909 0 -0.021726492413089955 0.0099622797927990635 0 -0.021354101227768128 0.0099376366568679677 0 -0.021549297729064599 0.0095694229089122035 0 -0.021726492413089955 0.0099622797927990635 0 -0.021867431324563598 0.0098180500332410107 0 -0.021549297729064599 0.0095694229089122035 0 -0.021867431324563598 0.0098180500332410107 0 -0.022105780114068302 0.0097084089624224611 0 -0.021549297729064599 0.0095694229089122035 0 -0.022088506862719209 0.01002997052588084 0 -0.021726492413089955 0.0099622797927990635 0 -0.021867431324563598 0.0098180500332410107 0 -0.022088506862719209 0.01002997052588084 0 -0.021867431324563598 0.0098180500332410107 0 -0.022105780114068302 0.0097084089624224611 0 -0.021946570762180109 0.009506318850622664 0 -0.022212087932288915 0.0095978774682010364 0 -0.022088506862719209 0.01002997052588084 0 -0.022105780114068302 0.0097084089624224611 0 -0.022588576146396831 0.0097891357890050289 0 -0.022588576146396831 0.0097891357890050289 0 -0.022364070825786314 0.01046636404507157 0 -0.022940335599515527 0.010513891175758605 0 -0.022088506862719209 0.01002997052588084 0 -0.022588576146396831 0.0097891357890050289 0 -0.022364070825786314 0.01046636404507157 0 -0.022364070825786314 0.01046636404507157 0 -0.022708275550866876 0.01099580973841934 0 -0.0221318521789164 0.01106952538005827 0 -0.022364070825786314 0.01046636404507157 0 -0.022940335599515527 0.010513891175758605 0 -0.022708275550866876 0.01099580973841934 0 -0.022880183165692982 0.011704476189143363 0 -0.022708275550866876 0.01099580973841934 0 -0.023124685295965636 0.011119946575118719 0 -0.022940335599515527 0.010513891175758605 0 -0.022708275550866876 0.01099580973841934 0 -0.023124685295965636 0.011119946575118719 0 -0.022880183165692982 0.011704476189143363 0 -0.022708275550866876 0.01099580973841934 0 -0.0221318521789164 0.01106952538005827 0 -0.024619044452670599 0.012654938899024516 0 -0.02480233712865914 0.012322575897436761 0 -0.024481406432718754 0.012317343214053384 0 -0.02480233712865914 0.012322575897436761 0 -0.02468149023427281 0.01154036674784434 0 -0.024481406432718754 0.012317343214053384 0 -0.023392639097831593 0.011516914083731386 0 -0.023095464480295987 0.010902626045430925 0 -0.022364070825786314 0.01046636404507157 0 -0.0221318521789164 0.01106952538005827 0 -0.021708098199570064 0.010469276204304911 0 -0.02468149023427281 0.01154036674784434 0 -0.024481406432718754 0.012317343214053384 0 -0.02409123459203772 0.011785254204390755 0 -0.024481406432718754 0.012317343214053384 0 -0.024057738051668383 0.012333932831364934 0 -0.02409123459203772 0.011785254204390755 0 -0.024057738051668383 0.012333932831364934 0 -0.02409123459203772 0.011785254204390755 0 -0.02344863262401178 0.012057971396912049 0 -0.023552289322985722 0.011436454159116448 0 -0.02409123459203772 0.011785254204390755 0 -0.02344863262401178 0.012057971396912049 0 -0.023552289322985722 0.011436454159116448 0 -0.02409123459203772 0.011785254204390755 0 -0.023876939436914036 0.011059641227391849 0 -0.02468149023427281 0.01154036674784434 0 -0.02409123459203772 0.011785254204390755 0 -0.023876939436914036 0.011059641227391849 0 -0.023511975141811959 0.0096226175885001375 0 -0.023860198651114023 0.011629170661923798 0 -0.022446062608438136 0.011672100481002017 0 -0.022922989987891253 0.012252883461064616 0 -0.022806721778541005 0.011860633587838778 0 -0.022922989987891253 0.012252883461064616 0 -0.02344863262401178 0.012057971396912049 0 -0.022806721778541005 0.011860633587838778 0 -0.02344863262401178 0.012057971396912049 0 -0.023057345802861649 0.011553347389289318 0 -0.022806721778541005 0.011860633587838778 0 -0.023552289322985722 0.011436454159116448 0 -0.02344863262401178 0.012057971396912049 0 -0.023057345802861649 0.011553347389289318 0 -0.02304729699001264 0.010643498161591696 0 -0.02288570830450902 0.01047688030386448 0 -0.023358969899742066 0.0097695828951603093 0 -0.02288570830450902 0.01047688030386448 0 -0.022474338776571109 0.01162695472399361 0 -0.023057345802861649 0.011553347389289318 0 -0.022806721778541005 0.011860633587838778 0 -0.021162898402154049 0.011742108483311866 0 -0.022345165299908227 0.011599752557889413 0 -0.021837826517705709 0.010614586924203709 0 -0.023358969899742066 0.0097695828951603093 0 -0.022948846764045457 0.0096514773866761532 0 -0.023552289322985722 0.011436454159116448 0 -0.022345165299908227 0.011599752557889413 0 -0.022946790616338444 0.010920020336230084 0 -0.021837826517705709 0.010614586924203709 0 -0.022946790616338444 0.010920020336230084 0 -0.022584337159527942 0.010256190524170906 0 -0.022345165299908227 0.011599752557889413 0 -0.021837826517705709 0.010614586924203709 0 -0.022946790616338444 0.010920020336230084 0 -0.021837826517705709 0.010614586924203709 0 -0.022584337159527942 0.010256190524170906 0 -0.022600541052938621 0.0093765263627935604 0 -0.022946790616338444 0.010920020336230084 0 -0.022584337159527942 0.010256190524170906 0 -0.023298496663434521 0.010338393038833049 0 -0.022825536623871556 0.0098209366854359586 0 -0.022584337159527942 0.010256190524170906 0 -0.023298496663434521 0.010338393038833049 0 -0.022825536623871556 0.0098209366854359586 0 -0.022584337159527942 0.010256190524170906 0 -0.022600541052938621 0.0093765263627935604 0 -0.022948846764045457 0.0096514773866761532 0 -0.022883583443392239 0.0095577642190808245 0 -0.023559606923116941 0.008297884652073248 0 -0.022944572183963414 0.0082345718516791348 0 -0.023160659573510951 0.0089918696586453756 0 -0.022944572183963414 0.0082345718516791348 0 -0.023160659573510951 0.0089918696586453756 0 -0.022600541052938621 0.0093765263627935604 0 -0.02468149023427281 0.01154036674784434 0 -0.023876939436914036 0.011059641227391849 0 -0.024311384027096782 0.010506188658303373 0 -0.023552289322985722 0.011436454159116448 0 -0.022946790616338444 0.010920020336230084 0 -0.023876939436914036 0.011059641227391849 0 -0.022946790616338444 0.010920020336230084 0 -0.023876939436914036 0.011059641227391849 0 -0.023298496663434521 0.010338393038833049 0 -0.023298496663434521 0.010338393038833049 0 -0.024311384027096782 0.010506188658303373 0 -0.023573132019813092 0.0093116809119624146 0 -0.022825536623871556 0.0098209366854359586 0 -0.023298496663434521 0.010338393038833049 0 -0.023094084415645918 0.0096967179150482825 0 -0.022689353849929671 0.010156418254779909 0 -0.022107714345119735 0.0092314855441068822 0 -0.023876939436914036 0.011059641227391849 0 -0.023298496663434521 0.010338393038833049 0 -0.024311384027096782 0.010506188658303373 0 -0.022107714345119735 0.0092314855441068822 0 -0.021637872190453041 0.0093337254728621463 0 -0.020482882467601136 0.009227980118030818 0 -0.020852561821907357 0.0090276068888485456 0 -0.021094189214191237 0.0093848115399517811 0 -0.021354101227768128 0.0099376366568679677 0 -0.02100126476682021 0.0094359328973209339 0 -0.021549297729064599 0.0095694229089122035 0 -0.022107714345119735 0.0092314855441068822 0 -0.022309555666486583 0.0090301480174351315 0 -0.023298496663434521 0.010338393038833049 0 -0.023094084415645918 0.0096967179150482825 0 -0.023573132019813092 0.0093116809119624146 0 -0.023094084415645918 0.0096967179150482825 0 -0.023573132019813092 0.0093116809119624146 0 -0.022767644415464781 0.0093768833798684881 0 -0.021977247219067148 0.0091041535724517998 0 -0.022060596209352253 0.009219058946300724 0 -0.022176446011331594 0.0091515770241526895 0 -0.020482882467601136 0.009227980118030818 0 -0.02026539689982227 0.008924740566352965 0 -0.020852561821907357 0.0090276068888485456 0 -0.022089991090683544 0.0087673342918992443 0 -0.021459111419894039 0.0087483357109639677 0 -0.02082274165282565 0.0085552726574971601 0 -0.02110469183905107 0.0083931977331926488 0 -0.020879875516344491 0.0083309323355053779 0 -0.022107714345119735 0.0092314855441068822 0 -0.022089991090683544 0.0087673342918992443 0 -0.02026539689982227 0.008924740566352965 0 -0.020852561821907357 0.0090276068888485456 0 -0.020728419343281304 0.0086502560060129595 0 -0.020852561821907357 0.0090276068888485456 0 -0.020728419343281304 0.0086502560060129595 0 -0.021093541187308721 0.0087614643953102932 0 -0.023160659573510951 0.0089918696586453756 0 -0.022866528275491887 0.0093259856431241357 0 -0.022600541052938621 0.0093765263627935604 0 -0.023307135644773162 0.009350480293915971 0 -0.022866528275491887 0.0093259856431241357 0 -0.023029192168401776 0.0095955437129950933 0 -0.023307135644773162 0.009350480293915971 0 -0.023160659573510951 0.0089918696586453756 0 -0.022866528275491887 0.0093259856431241357 0 -0.022866528275491887 0.0093259856431241357 0 -0.022651025396021488 0.0093271326876796911 0 -0.023029192168401776 0.0095955437129950933 0 -0.023573132019813092 0.0093116809119624146 0 -0.022682328568489205 0.0092263945461522976 0 -0.022767644415464781 0.0093768833798684881 0 -0.022866528275491887 0.0093259856431241357 0 -0.022708833948886741 0.0093404049037927542 0 -0.022651025396021488 0.0093271326876796911 0 -0.022708833948886741 0.0093404049037927542 0 -0.022651025396021488 0.0093271326876796911 0 -0.022767644415464781 0.0093768833798684881 0 -0.022651025396021488 0.0093271326876796911 0 -0.022682328568489205 0.0092263945461522976 0 -0.022767644415464781 0.0093768833798684881 0 -0.022312444764575279 0.0090295379058076986 0 -0.022309555666486583 0.0090301480174351315 0 -0.022866528275491887 0.0093259856431241357 0 -0.022708833948886741 0.0093404049037927542 0 -0.022600541052938621 0.0093765263627935604 0 -0.022708833948886741 0.0093404049037927542 0 -0.022600541052938621 0.0093765263627935604 0 -0.022767644415464781 0.0093768833798684881 0 -0.022825536623871556 0.0098209366854359586 0 -0.022600541052938621 0.0093765263627935604 0 -0.022767644415464781 0.0093768833798684881 0 -0.022825536623871556 0.0098209366854359586 0 -0.023094084415645918 0.0096967179150482825 0 -0.022767644415464781 0.0093768833798684881 0 -0.022651025396021488 0.0093271326876796911 0 -0.022594727655592558 0.0093504899129973427 0 -0.023029192168401776 0.0095955437129950933 0 -0.022089991090683544 0.0087673342918992443 0 -0.022309555666486583 0.0090301480174351315 0 -0.022090879020443321 0.009693380783543348 0 -0.022486074111161033 0.0094637992194130053 0 -0.022450036560576706 0.0097227415802260565 0 -0.022090879020443321 0.009693380783543348 0 -0.022450036560576706 0.0097227415802260565 0 -0.022549799890866858 0.0099841039655815499 0 -0.022090879020443321 0.009693380783543348 0 -0.022549799890866858 0.0099841039655815499 0 -0.02246085437175353 0.010203934867663482 0 -0.022089991090683544 0.0087673342918992443 0 -0.022569181680758405 0.0072825698223373562 0 -0.022450036560576706 0.0097227415802260565 0 -0.022549799890866858 0.0099841039655815499 0 -0.022673423940938475 0.0097496228470998932 0 -0.022486074111161033 0.0094637992194130053 0 -0.022450036560576706 0.0097227415802260565 0 -0.022673423940938475 0.0097496228470998932 0 -0.023539287680171526 0.010126279408326271 0 -0.022941831593215497 0.0099446193905953096 0 -0.023029192168401776 0.0095955437129950933 0 -0.022486074111161033 0.0094637992194130053 0 -0.022673423940938475 0.0097496228470998932 0 -0.023029192168401776 0.0095955437129950933 0 -0.022309555666486583 0.0090301480174351315 0 -0.022538248581139335 0.00912360311810698 0 -0.022673423940938475 0.0097496228470998932 0 -0.022941831593215497 0.0099446193905953096 0 -0.023029192168401776 0.0095955437129950933 0 -0.022549799890866858 0.0099841039655815499 0 -0.022673423940938475 0.0097496228470998932 0 -0.022941831593215497 0.0099446193905953096 0 -0.024039168428194355 0.0058728778414862716 0 -0.02348406151787142 0.0045298219693743194 0 -0.023539287680171526 0.010126279408326271 0 -0.02293442894340398 0.010271952501457732 0 -0.022839324325181411 0.010731235837009728 0 -0.023539287680171526 0.010126279408326271 0 -0.022941831593215497 0.0099446193905953096 0 -0.02293442894340398 0.010271952501457732 0 -0.025067967554504699 0.0036346255996843354 0 -0.024973133809724272 0.0040003573593198659 0 -0.024601263145713537 0.0040541911798944921 0 -0.022549799890866858 0.0099841039655815499 0 -0.022941831593215497 0.0099446193905953096 0 -0.02293442894340398 0.010271952501457732 0 -0.02293442894340398 0.010271952501457732 0 -0.022460214724316821 0.010209339846632644 0 -0.022839324325181411 0.010731235837009728 0 -0.022569181680758405 0.0072825698223373562 0 -0.021972804944861944 0.0063825519234272602 0 -0.020649039074842619 0.0083144550200358654 0 -0.020756997427962699 0.0080314702935198705 0 -0.020879875516344491 0.0083309323355053779 0 -0.022569181680758405 0.0072825698223373562 0 -0.02348406151787142 0.0045298219693743194 0 -0.022549799890866858 0.0099841039655815499 0 -0.02293442894340398 0.010271952501457732 0 -0.022460214724316821 0.010209339846632644 0 -0.02251298598291656 0.007476186633842568 0 -0.022569181680758405 0.0072825698223373562 0 -0.021916493705457472 0.0046426787384670157 0 -0.02348406151787142 0.0045298219693743194 0 -0.022279724078718904 0.0051345223821605097 0 -0.022266905958148796 0.0052232973070692763 0 -0.02217632661240735 0.0052347876501073155 0 -0.022233305629929399 0.0053165697508491738 0 -0.022266905958148796 0.0052232973070692763 0 -0.02217632661240735 0.0052347876501073155 0 -0.024803037163808089 0.0043304571072668475 0 -0.024973133809724272 0.0040003573593198659 0 -0.024601263145713537 0.0040541911798944921 0 -0.022833992342665803 0.0026300625376136891 0 -0.023439664243748458 0.0024055723779089731 0 -0.023029212456742283 0.001841026505052925 0 -0.024356144162020563 0.0014113356701002493 0 -0.02348406151787142 0.0045298219693743194 0 -0.021459111419894039 0.0087483357109639677 0 -0.021472461236064333 0.0085563431273030146 0 -0.02110469183905107 0.0083931977331926488 0 -0.02120338226190235 0.0081536183571877963 0 -0.021393780164064839 0.0082367675501467709 0 -0.02110469183905107 0.0083931977331926488 0 -0.020993076503576083 0.0081447779410404389 0 -0.02120338226190235 0.0081536183571877963 0 -0.02110469183905107 0.0083931977331926488 0 -0.020879875516344491 0.0083309323355053779 0 -0.020993076503576083 0.0081447779410404389 0 -0.020756997427962699 0.0080314702935198705 0 -0.020879875516344491 0.0083309323355053779 0 -0.020993076503576083 0.0081447779410404389 0 -0.02082274165282565 0.0085552726574971601 0 -0.020649039074842619 0.0083144550200358654 0 -0.020879875516344491 0.0083309323355053779 0 -0.020756997427962699 0.0080314702935198705 0 -0.020993076503576083 0.0081447779410404389 0 -0.020927418395521969 0.0079657677417709107 0 -0.02086571046617031 0.0077425280972919976 0 -0.020756997427962699 0.0080314702935198705 0 -0.020927418395521969 0.0079657677417709107 0 -0.020993076503576083 0.0081447779410404389 0 -0.020927418395521969 0.0079657677417709107 0 -0.021107297205336547 0.0079411902433902237 0 -0.021107297205336547 0.0079411902433902237 0 -0.02120338226190235 0.0081536183571877963 0 -0.021461829958703098 0.0079520003695068876 0 -0.020993076503576083 0.0081447779410404389 0 -0.021107297205336547 0.0079411902433902237 0 -0.02120338226190235 0.0081536183571877963 0 -0.021461829958703098 0.0079520003695068876 0 -0.02169795198276718 0.008095045932357197 0 -0.021393780164064839 0.0082367675501467709 0 -0.02120338226190235 0.0081536183571877963 0 -0.021461829958703098 0.0079520003695068876 0 -0.021393780164064839 0.0082367675501467709 0 -0.021830087418130473 0.0078729958559139879 0 -0.021461829958703098 0.0079520003695068876 0 -0.02169795198276718 0.008095045932357197 0 -0.021566721156445975 0.0084482195833249316 0 -0.021472461236064333 0.0085563431273030146 0 -0.02169795198276718 0.008095045932357197 0 -0.021207108193930558 0.0083687668782024965 0 -0.021922182505306254 0.0087283725799975481 0 -0.020728419343281304 0.0086502560060129595 0 -0.021207108193930558 0.0083687668782024965 0 -0.021093541187308721 0.0087614643953102932 0 -0.021207108193930558 0.0083687668782024965 0 -0.021093541187308721 0.0087614643953102932 0 -0.021448656108029884 0.0089919475292009141 0 -0.020852561821907357 0.0090276068888485456 0 -0.021093541187308721 0.0087614643953102932 0 -0.021448656108029884 0.0089919475292009141 0 -0.021207108193930558 0.0083687668782024965 0 -0.021448656108029884 0.0089919475292009141 0 -0.021922182505306254 0.0087283725799975481 0 -0.021448656108029884 0.0089919475292009141 0 -0.021632462691433263 0.009503975161598387 0 -0.021922182505306254 0.0087283725799975481 0 -0.021946570762180109 0.009506318850622664 0 -0.021637872190453041 0.0093337254728621463 0 -0.021752239334629993 0.0090354473061443497 0 -0.021901536555027027 0.0085844687633361179 0 -0.021722466470848186 0.0095627730104098554 0 -0.021632462691433263 0.009503975161598387 0 -0.021094189214191237 0.0093848115399517811 0 -0.021448656108029884 0.0089919475292009141 0 -0.021632462691433263 0.009503975161598387 0 -0.021094189214191237 0.0093848115399517811 0 -0.020852561821907357 0.0090276068888485456 0 -0.021448656108029884 0.0089919475292009141 0 -0.021094189214191237 0.0093848115399517811 0 -0.022588576146396831 0.0097891357890050289 0 -0.022198286207016832 0.0091642959642072291 0 -0.022832991875393886 0.0090127778753938612 0 -0.021722466470848186 0.0095627730104098554 0 -0.022588576146396831 0.0097891357890050289 0 -0.022198286207016832 0.0091642959642072291 0 -0.021632462691433263 0.009503975161598387 0 -0.022198286207016832 0.0091642959642072291 0 -0.021900273545976606 0.00858569728655241 0 -0.021722466470848186 0.0095627730104098554 0 -0.021632462691433263 0.009503975161598387 0 -0.022198286207016832 0.0091642959642072291 0 -0.022198286207016832 0.0091642959642072291 0 -0.021900273545976606 0.00858569728655241 0 -0.02243655741375981 0.0085991547715197868 0 -0.022198286207016832 0.0091642959642072291 0 -0.02243655741375981 0.0085991547715197868 0 -0.022832991875393886 0.0090127778753938612 0 -0.02243655741375981 0.0085991547715197868 0 -0.022806060515452461 0.0082252638982779885 0 -0.022832991875393886 0.0090127778753938612 0 -0.02243655741375981 0.0085991547715197868 0 -0.022134658346255023 0.007642753307429734 0 -0.022806060515452461 0.0082252638982779885 0 -0.02169795198276718 0.008095045932357197 0 -0.021922182505306254 0.0087283725799975481 0 -0.022135141958436636 0.008029391087274098 0 -0.021900273545976606 0.00858569728655241 0 -0.02243655741375981 0.0085991547715197868 0 -0.022134658346255023 0.007642753307429734 0 -0.021901536555027027 0.0085844687633361179 0 -0.022142478178344686 0.007820875902748067 0 -0.021830087418130473 0.0078729958559139879 0 -0.02169795198276718 0.008095045932357197 0 -0.022135141958436636 0.008029391087274098 0 -0.022134658346255023 0.007642753307429734 0 -0.022848353039228442 0.0076324813896217203 0 -0.022806060515452461 0.0082252638982779885 0 -0.02268013847442809 0.0071679849804283779 0 -0.022134658346255023 0.007642753307429734 0 -0.022848353039228442 0.0076324813896217203 0 -0.022848353039228442 0.0076324813896217203 0 -0.023227279034961974 0.0075578293509605717 0 -0.023265044829846163 0.0081056699012853999 0 -0.022987279792744664 0.0071509291397199165 0 -0.022848353039228442 0.0076324813896217203 0 -0.023227279034961974 0.0075578293509605717 0 -0.023500851984705723 0.0072005831402384242 0 -0.023227279034961974 0.0075578293509605717 0 -0.023673287612673597 0.0078707378165555689 0 -0.023227279034961974 0.0075578293509605717 0 -0.023265044829846163 0.0081056699012853999 0 -0.023673287612673597 0.0078707378165555689 0 -0.023265044829846163 0.0081056699012853999 0 -0.023655070418907721 0.0084236224263147044 0 -0.023673287612673597 0.0078707378165555689 0 -0.023265044829846163 0.0081056699012853999 0 -0.023655070418907721 0.0084236224263147044 0 -0.023369547657203026 0.0088425880297139017 0 -0.022848353039228442 0.0076324813896217203 0 -0.023265044829846163 0.0081056699012853999 0 -0.022806060515452461 0.0082252638982779885 0 -0.023265044829846163 0.0081056699012853999 0 -0.022806060515452461 0.0082252638982779885 0 -0.023369547657203026 0.0088425880297139017 0 -0.023500851984705723 0.0072005831402384242 0 -0.024234155530200193 0.0075915410166861597 0 -0.023673287612673597 0.0078707378165555689 0 -0.024234155530200193 0.0075915410166861597 0 -0.023673287612673597 0.0078707378165555689 0 -0.024185791703026684 0.0083251700883478028 0 -0.023655070418907721 0.0084236224263147044 0 -0.023673287612673597 0.0078707378165555689 0 -0.024185791703026684 0.0083251700883478028 0 -0.024185791703026684 0.0083251700883478028 0 -0.024715408994782639 0.0085964227509401549 0 -0.024858213661420225 0.0081095684944572435 0 -0.024234155530200193 0.0075915410166861597 0 -0.024185791703026684 0.0083251700883478028 0 -0.024858213661420225 0.0081095684944572435 0 -0.024104838497456465 0.0091007668557441124 0 -0.024963364807847485 0.0091601392529455684 0 -0.024715408994782639 0.0085964227509401549 0 -0.024185791703026684 0.0083251700883478028 0 -0.024104838497456465 0.0091007668557441124 0 -0.024715408994782639 0.0085964227509401549 0 -0.023655070418907721 0.0084236224263147044 0 -0.024185791703026684 0.0083251700883478028 0 -0.024104838497456465 0.0091007668557441124 0 -0.023655070418907721 0.0084236224263147044 0 -0.024104838497456465 0.0091007668557441124 0 -0.023369547657203026 0.0088425880297139017 0 -0.024104838497456465 0.0091007668557441124 0 -0.023445765026567925 0.009452435674589494 0 -0.023970505756315038 0.0096781343139879499 0 -0.024104838497456465 0.0091007668557441124 0 -0.024772325321347974 0.0097426206958960444 0 -0.024963364807847485 0.0091601392529455684 0 -0.024104838497456465 0.0091007668557441124 0 -0.023970505756315038 0.0096781343139879499 0 -0.024772325321347974 0.0097426206958960444 0 -0.022588576146396831 0.0097891357890050289 0 -0.022832991875393886 0.0090127778753938612 0 -0.023445765026567925 0.009452435674589494 0 -0.022806060515452461 0.0082252638982779885 0 -0.022832991875393886 0.0090127778753938612 0 -0.023369547657203026 0.0088425880297139017 0 -0.024104838497456465 0.0091007668557441124 0 -0.023369547657203026 0.0088425880297139017 0 -0.023445765026567925 0.009452435674589494 0 -0.022832991875393886 0.0090127778753938612 0 -0.023369547657203026 0.0088425880297139017 0 -0.023445765026567925 0.009452435674589494 0 -0.022588576146396831 0.0097891357890050289 0 -0.023445765026567925 0.009452435674589494 0 -0.023360208259900029 0.01009501177074096 0 -0.022588576146396831 0.0097891357890050289 0 -0.022940335599515527 0.010513891175758605 0 -0.023360208259900029 0.01009501177074096 0 -0.022940335599515527 0.010513891175758605 0 -0.023360208259900029 0.01009501177074096 0 -0.023550099518582938 0.010669358969995456 0 -0.023360208259900029 0.01009501177074096 0 -0.024100340650078187 0.010218003644102068 0 -0.023550099518582938 0.010669358969995456 0 -0.023445765026567925 0.009452435674589494 0 -0.023360208259900029 0.01009501177074096 0 -0.023970505756315038 0.0096781343139879499 0 -0.023360208259900029 0.01009501177074096 0 -0.023970505756315038 0.0096781343139879499 0 -0.024100340650078187 0.010218003644102068 0 -0.024267431112744244 0.010307120372978864 0 -0.024534429001186946 0.010051252443184966 0 -0.023970505756315038 0.0096781343139879499 0 -0.024100340650078187 0.010218003644102068 0 -0.024772325321347974 0.0097426206958960444 0 -0.024815735410682899 0.010532266027354539 0 -0.024385658445788282 0.01036353569052248 0 -0.024772325321347974 0.0097426206958960444 0 -0.024267431112744244 0.010307120372978864 0 -0.023823899663487743 0.01074048383586549 0 -0.024385658445788282 0.01036353569052248 0 -0.024488464711142341 0.010907138613849102 0 -0.024054299906414923 0.010861942554036243 0 -0.024815735410682899 0.010532266027354539 0 -0.024488464711142341 0.010907138613849102 0 -0.025111935033094029 0.011090575763798674 0 -0.024815735410682899 0.010532266027354539 0 -0.024385658445788282 0.01036353569052248 0 -0.024488464711142341 0.010907138613849102 0 -0.024488464711142341 0.010907138613849102 0 -0.025111935033094029 0.011090575763798674 0 -0.024647584650334335 0.011395035165533685 0 -0.024488464711142341 0.010907138613849102 0 -0.024205037719397627 0.011496785621521791 0 -0.024647584650334335 0.011395035165533685 0 -0.024488464711142341 0.010907138613849102 0 -0.024054299906414923 0.010861942554036243 0 -0.024205037719397627 0.011496785621521791 0 -0.023701905589267054 0.011250343785725659 0 -0.024054299906414923 0.010861942554036243 0 -0.024205037719397627 0.011496785621521791 0 -0.023376867021078444 0.011174009930633385 0 -0.023823899663487743 0.01074048383586549 0 -0.022940335599515527 0.010513891175758605 0 -0.023124685295965636 0.011119946575118719 0 -0.023550099518582938 0.010669358969995456 0 -0.025793194115585113 0.010699060378538629 0 -0.025855441323710558 0.011138608357414254 0 -0.025554519387683525 0.010990429037415863 0 -0.025793194115585113 0.010699060378538629 0 -0.026272445197859397 0.01068786695008425 0 -0.025855441323710558 0.011138608357414254 0 -0.017649195497566821 0.0078205231295794403 0 -0.019489405678683513 0.0076517439405178363 0 -0.026109236210255116 0.010760574669403325 0 -0.026065188213066439 0.010877260743213345 0 -0.025855441323710558 0.011138608357414254 0 -0.012365821014159261 0.0090949650863461906 0 -0.012595637364716073 0.0087981129958650331 0 -0.01296194969111928 0.0093263975126930652 0 -0.017649195497566821 0.0078205231295794403 0 -0.015332775992031776 0.0069212696500788639 0 -0.015139385205275777 0.0060436578337504055 0 -0.015381472227115573 0.0057325175932615704 0 -0.015232824054207552 0.0057046468502031699 0 -0.012365821014159261 0.0090949650863461906 0 -0.012361781998983129 0.0095514748934062959 0 -0.01296194969111928 0.0093263975126930652 0 -0.026109236210255116 0.010760574669403325 0 -0.026065188213066439 0.010877260743213345 0 -0.026110842830794876 0.010965266806977845 0 -0.017649195497566821 0.0078205231295794403 0 -0.018463233437774226 0.0095599173362455863 0 -0.018594026104081122 0.0096837389217974343 0 -0.018463233437774226 0.0095599173362455863 0 -0.026125272112311217 0.010971596788298848 0 -0.025855441323710558 0.011138608357414254 0 -0.026135752441350329 0.011616732009342918 0 -0.018553659438909638 0.010586738532159143 0 -0.018799964550513006 0.011030762296750454 0 -0.01855131840762729 0.011223627666095304 0 -0.026065188213066439 0.010877260743213345 0 -0.026125272112311217 0.010971596788298848 0 -0.025855441323710558 0.011138608357414254 0 -0.012361781998983129 0.0095514748934062959 0 -0.01296194969111928 0.0093263975126930652 0 -0.012879268851835981 0.010494452009303689 0 -0.018463233437774226 0.0095599173362455863 0 -0.017078216140745065 0.010348007528128478 0 -0.018463233437774226 0.0095599173362455863 0 -0.020517883405072667 0.011198199126178794 0 -0.025855441323710558 0.011138608357414254 0 -0.025554519387683525 0.010990429037415863 0 -0.025651135233194136 0.011483971207399571 0 -0.025554519387683525 0.010990429037415863 0 -0.025111935033094029 0.011090575763798674 0 -0.025651135233194136 0.011483971207399571 0 -0.024815735410682899 0.010532266027354539 0 -0.025111935033094029 0.011090575763798674 0 -0.025368894645509635 0.010462391466778726 0 -0.025554519387683525 0.010990429037415863 0 -0.025111935033094029 0.011090575763798674 0 -0.025368894645509635 0.010462391466778726 0 -0.025793194115585113 0.010699060378538629 0 -0.025554519387683525 0.010990429037415863 0 -0.025368894645509635 0.010462391466778726 0 -0.025793194115585113 0.010699060378538629 0 -0.025368894645509635 0.010462391466778726 0 -0.025845542103754903 0.010122129078974659 0 -0.025368894645509635 0.010462391466778726 0 -0.02542325442136879 0.0096642812023535751 0 -0.025845542103754903 0.010122129078974659 0 -0.024815735410682899 0.010532266027354539 0 -0.025368894645509635 0.010462391466778726 0 -0.024772325321347974 0.0097426206958960444 0 -0.025368894645509635 0.010462391466778726 0 -0.024772325321347974 0.0097426206958960444 0 -0.02542325442136879 0.0096642812023535751 0 -0.02542325442136879 0.0096642812023535751 0 -0.025845542103754903 0.010122129078974659 0 -0.025875860787582704 0.0093630711621949698 0 -0.025845542103754903 0.010122129078974659 0 -0.026331890978805773 0.0097850950484185614 0 -0.025875860787582704 0.0093630711621949698 0 -0.025793194115585113 0.010699060378538629 0 -0.026272445197859397 0.01068786695008425 0 -0.025845542103754903 0.010122129078974659 0 -0.026272445197859397 0.01068786695008425 0 -0.025845542103754903 0.010122129078974659 0 -0.026331890978805773 0.0097850950484185614 0 -0.015139385205275777 0.0060436578337504055 0 -0.015232824054207552 0.0057046468502031699 0 -0.015145530302358979 0.0045019020329458174 0 -0.017649195497566821 0.0078205231295794403 0 -0.017894475862023973 0.0067191580654614256 0 -0.015232824054207552 0.0057046468502031699 0 -0.015145530302358979 0.0045019020329458174 0 -0.015937616305339294 0.004999465107858243 0 -0.015379137723518278 0.00573118764460107 0 -0.015232824054207552 0.0057046468502031699 0 -0.015937616305339294 0.004999465107858243 0 -0.015332775992031776 0.0069212696500788639 0 -0.015329878634005503 0.0069166228438681549 0 -0.015145530302358979 0.0045019020329458174 0 -0.015825556990586534 0.0036233979876836189 0 -0.015850453283662878 0.0043488563863415611 0 -0.015145530302358979 0.0045019020329458174 0 -0.015159434059032115 0.0029733687107115409 0 -0.015825556990586534 0.0036233979876836189 0 -0.026331890978805773 0.0097850950484185614 0 -0.025875860787582704 0.0093630711621949698 0 -0.026363548053749766 0.0088136762033183807 0 -0.017894475862023973 0.0067191580654614256 0 -0.015813899448305205 0.0033941859512176867 0 -0.025875860787582704 0.0093630711621949698 0 -0.025741006800514367 0.0087917572578894015 0 -0.02548280523988249 0.0090754528871893354 0 -0.025875860787582704 0.0093630711621949698 0 -0.025741006800514367 0.0087917572578894015 0 -0.026363548053749766 0.0088136762033183807 0 -0.025741006800514367 0.0087917572578894015 0 -0.026363548053749766 0.0088136762033183807 0 -0.025710536543224451 0.0081322161662266464 0 -0.0091394040064947182 -0.0049481043808880416 0 -0.0090602365327479405 -0.0051892021073041321 0 -0.0097594047346637128 -0.0044645063923501593 0 -0.015756244118667936 0.0031017473016889175 0 -0.015813899448305205 0.0033941859512176867 0 -0.0091394040064947182 -0.0049481043808880416 0 -0.0088974103143162914 -0.0046031602888282654 0 -0.0088185976497541733 -0.0048752962676860247 0 -0.0091394040064947182 -0.0049481043808880416 0 -0.0091315011990036089 -0.0049816080596057129 0 -0.0088185976497541733 -0.0048752962676860247 0 -0.015813899448305205 0.0033941859512176867 0 -0.012573322379554963 0.0015522009598451976 0 -0.0091315011990036089 -0.0049816080596057129 0 -0.0087327216729902995 -0.005283746176791569 0 -0.0088185976497541733 -0.0048752962676860247 0 -0.024772325321347974 0.0097426206958960444 0 -0.02542325442136879 0.0096642812023535751 0 -0.024963364807847485 0.0091601392529455684 0 -0.02542325442136879 0.0096642812023535751 0 -0.024963364807847485 0.0091601392529455684 0 -0.02548280523988249 0.0090754528871893354 0 -0.02542325442136879 0.0096642812023535751 0 -0.025875860787582704 0.0093630711621949698 0 -0.02548280523988249 0.0090754528871893354 0 -0.024963364807847485 0.0091601392529455684 0 -0.02548280523988249 0.0090754528871893354 0 -0.025263991268586087 0.0085628435352198239 0 -0.025741006800514367 0.0087917572578894015 0 -0.02548280523988249 0.0090754528871893354 0 -0.025263991268586087 0.0085628435352198239 0 -0.024963364807847485 0.0091601392529455684 0 -0.025263991268586087 0.0085628435352198239 0 -0.024715408994782639 0.0085964227509401549 0 -0.025263991268586087 0.0085628435352198239 0 -0.024715408994782639 0.0085964227509401549 0 -0.024858213661420225 0.0081095684944572435 0 -0.025263991268586087 0.0085628435352198239 0 -0.024858213661420225 0.0081095684944572435 0 -0.025710536543224451 0.0081322161662266464 0 -0.025741006800514367 0.0087917572578894015 0 -0.025263991268586087 0.0085628435352198239 0 -0.025710536543224451 0.0081322161662266464 0 -0.025015570928699271 0.0074198216570344573 0 -0.024858213661420225 0.0081095684944572435 0 -0.025710536543224451 0.0081322161662266464 0 -0.019732336982290658 0.0034630000054602377 0 -0.017945712370643317 0.0029686419199823496 0 -0.015117507578438914 -0.001813091590573454 0 -0.011084411689174819 -0.0045620320177580395 0 -0.011302217582200336 -0.0024027458270948691 0 -0.025015570928699271 0.0074198216570344573 0 -0.024234155530200193 0.0075915410166861597 0 -0.024858213661420225 0.0081095684944572435 0 -0.0088858031102211025 -0.0041847101064503827 0 -0.0097594047346637128 -0.0044645063923501593 0 -0.0091577396991360353 -0.0035499757345657046 0 -0.0088858031102211025 -0.0041847101064503827 0 -0.0091550188215230414 -0.0045666729294087981 0 -0.0097594047346637128 -0.0044645063923501593 0 -0.0091394040064947182 -0.0049481043808880416 0 -0.0088974103143162914 -0.0046031602888282654 0 -0.0091550188215230414 -0.0045666729294087981 0 -0.0088858031102211025 -0.0041847101064503827 0 -0.0088974103143162914 -0.0046031602888282654 0 -0.0091550188215230414 -0.0045666729294087981 0 -0.0091394040064947182 -0.0049481043808880416 0 -0.0091550188215230414 -0.0045666729294087981 0 -0.0097594047346637128 -0.0044645063923501593 0 -0.015813899448305205 0.0033941859512176867 0 -0.017945712370643317 0.0029686419199823496 0 -0.011084411689174819 -0.0045620320177580395 0 -0.0097594047346637128 -0.0044645063923501593 0 -0.0091577396991360353 -0.0035499757345657046 0 -0.0090602365327479405 -0.0051892021073041321 0 -0.011084411689174819 -0.0045620320177580395 0 -0.0097594047346637128 -0.0044645063923501593 0 -0.011084411689174819 -0.0045620320177580395 0 -0.011302217582200336 -0.0024027458270948691 0 -0.0091577396991360353 -0.0035499757345657046 0 -0.0088858031102211025 -0.0041847101064503827 0 -0.0091577396991360353 -0.0035499757345657046 0 -0.0086236084484513677 -0.0037532141723786777 0 -0.0088858031102211025 -0.0041847101064503827 0 -0.0086236084484513677 -0.0037532141723786777 0 -0.0084533448411839036 -0.0040552573483014914 0 -0.0088858031102211025 -0.0041847101064503827 0 -0.0085349572341746737 -0.0043812762144204978 0 -0.0084533448411839036 -0.0040552573483014914 0 -0.0088858031102211025 -0.0041847101064503827 0 -0.0088974103143162914 -0.0046031602888282654 0 -0.0085349572341746737 -0.0043812762144204978 0 -0.0084533448411839036 -0.0040552573483014914 0 -0.008278163738314798 -0.0040603882891415239 0 -0.0083698147673808825 -0.0043343941223878682 0 -0.0085349572341746737 -0.0043812762144204978 0 -0.0084533448411839036 -0.0040552573483014914 0 -0.0083698147673808825 -0.0043343941223878682 0 -0.008278163738314798 -0.0040603882891415239 0 -0.008228889885245616 -0.004208971454493885 0 -0.0083698147673808825 -0.0043343941223878682 0 -0.0084533448411839036 -0.0040552573483014914 0 -0.0083490423782623963 -0.0038540368965039942 0 -0.008278163738314798 -0.0040603882891415239 0 -0.0086236084484513677 -0.0037532141723786777 0 -0.0084533448411839036 -0.0040552573483014914 0 -0.0083490423782623963 -0.0038540368965039942 0 -0.0083490423782623963 -0.0038540368965039942 0 -0.0081469699498595474 -0.0039307290260638785 0 -0.008278163738314798 -0.0040603882891415239 0 -0.0081469699498595474 -0.0039307290260638785 0 -0.0080424635627262403 -0.0039638703814991582 0 -0.0081710723523526502 -0.0040335904280212427 0 -0.0081469699498595474 -0.0039307290260638785 0 -0.008278163738314798 -0.0040603882891415239 0 -0.0081710723523526502 -0.0040335904280212427 0 -0.0081469699498595474 -0.0039307290260638785 0 -0.0080424635627262403 -0.0039638703814991582 0 -0.008043300994367222 -0.0039808964474992107 0 -0.0080424635627262403 -0.0039638703814991582 0 -0.008043300994367222 -0.0039808964474992107 0 -0.0082168909608464052 -0.0037503901174473367 0 -0.0080424635627262403 -0.0039638703814991582 0 -0.0076756559050561194 -0.0034428999413327181 0 -0.0082168909608464052 -0.0037503901174473367 0 -0.0092324034647108203 -0.0027054141227364093 0 -0.0094670615954582683 -0.0021313607218867679 0 -0.0080424635627262403 -0.0039638703814991582 0 -0.008228889885245616 -0.004208971454493885 0 -0.008204473744867458 -0.0044062096448512561 0 -0.0080424635627262403 -0.0039638703814991582 0 -0.0081710723523526502 -0.0040335904280212427 0 -0.008228889885245616 -0.004208971454493885 0 -0.008278163738314798 -0.0040603882891415239 0 -0.0081710723523526502 -0.0040335904280212427 0 -0.008228889885245616 -0.004208971454493885 0 -0.0080424635627262403 -0.0039638703814991582 0 -0.0076756559050561194 -0.0034428999413327181 0 -0.0073422514370652036 -0.0033598777003947646 0 -0.008228889885245616 -0.004208971454493885 0 -0.008204473744867458 -0.0044062096448512561 0 -0.0082984578188664525 -0.004366195735127548 0 -0.0076756559050561194 -0.0034428999413327181 0 -0.0073422514370652036 -0.0033598777003947646 0 -0.007701514976619952 -0.0025937397248792871 0 -0.0067117989911274888 0.00010119720110779227 0 -0.007251451291654565 -0.0019957411387285535 0 -0.0076756559050561194 -0.0034428999413327181 0 -0.0082019086203004212 -0.0027854207413876612 0 -0.0082168909608464052 -0.0037503901174473367 0 -0.0065916012160211921 -0.0012422324757653625 0 -0.0067117989911274888 0.00010119720110779227 0 -0.0089134932479298327 -0.0020905604444327818 0 -0.007701514976619952 -0.0025937397248792871 0 -0.0076696580195270885 -0.0019554876662311945 0 -0.0076756559050561194 -0.0034428999413327181 0 -0.0089134932479298327 -0.0020905604444327818 0 -0.007701514976619952 -0.0025937397248792871 0 -0.0073422514370652036 -0.0033598777003947646 0 -0.007701514976619952 -0.0025937397248792871 0 -0.007085566926697387 -0.001915831028332256 0 -0.007701514976619952 -0.0025937397248792871 0 -0.0076696580195270885 -0.0019554876662311945 0 -0.007085566926697387 -0.001915831028332256 0 -0.0084149227054024708 -0.0046400142814501024 0 -0.0083525616283756012 -0.0044387114433115764 0 -0.0084650018196942081 -0.0044580729890318603 0 -0.010328594710977705 4.5794774383399326e-06 0 -0.009307157089118067 -0.0028222955165855264 0 -0.0073422514370652036 -0.0033598777003947646 0 -0.007085566926697387 -0.001915831028332256 0 -0.0061931142427908304 -0.0019673654137140313 0 -0.0082319047482649482 -0.0054891417404397619 0 -0.0084357424021593089 -0.0053083878889797808 0 -0.0083628324714719055 -0.0050362129577884449 0 -0.0094670615954582683 -0.0021313607218867679 0 -0.010328594710977705 4.5794774383399326e-06 0 -0.008204473744867458 -0.0044062096448512561 0 -0.0084149227054024708 -0.0046400142814501024 0 -0.0083525616283756012 -0.0044387114433115764 0 -0.0082319047482649482 -0.0054891417404397619 0 -0.0084357424021593089 -0.0053083878889797808 0 -0.0083391434557297927 -0.005629339082972023 0 -0.015825556990586534 0.0036233979876836189 0 -0.015850453283662878 0.0043488563863415611 0 -0.016491000873489207 0.0042723487058630594 0 -0.012573322379554963 0.0015522009598451976 0 -0.010809740506298784 0.0017366420195411337 0 -0.0087327216729902995 -0.005283746176791569 0 -0.0084357424021593089 -0.0053083878889797808 0 -0.0083391434557297927 -0.005629339082972023 0 -0.0087327216729902995 -0.005283746176791569 0 -0.0084357424021593089 -0.0053083878889797808 0 -0.0083628324714719055 -0.0050362129577884449 0 -0.0085349572341746737 -0.0043812762144204978 0 -0.0088185976497541733 -0.0048752962676860247 0 -0.0083628324714719055 -0.0050362129577884449 0 -0.0090763986371484081 -0.003437413472165213 0 -0.009307157089118067 -0.0028222955165855264 0 -0.0087327216729902995 -0.005283746176791569 0 -0.0088185976497541733 -0.0048752962676860247 0 -0.0083628324714719055 -0.0050362129577884449 0 -0.0088974103143162914 -0.0046031602888282654 0 -0.0085349572341746737 -0.0043812762144204978 0 -0.0088185976497541733 -0.0048752962676860247 0 -0.0085349572341746737 -0.0043812762144204978 0 -0.0083698147673808825 -0.0043343941223878682 0 -0.0084650018196942081 -0.0044580729890318603 0 -0.0082984578188664525 -0.004366195735127548 0 -0.0083698147673808825 -0.0043343941223878682 0 -0.0083525616283756012 -0.0044387114433115764 0 -0.008228889885245616 -0.004208971454493885 0 -0.0082984578188664525 -0.004366195735127548 0 -0.0083698147673808825 -0.0043343941223878682 0 -0.008204473744867458 -0.0044062096448512561 0 -0.0082984578188664525 -0.004366195735127548 0 -0.0083525616283756012 -0.0044387114433115764 0 -0.0083698147673808825 -0.0043343941223878682 0 -0.0083525616283756012 -0.0044387114433115764 0 -0.0084650018196942081 -0.0044580729890318603 0 -0.009797771229261211 -0.0010040607154196913 0 -0.0088789205392707272 -0.00090296442081034742 0 -0.0091520846131608428 -0.0019138256192436777 0 -0.0088789205392707272 -0.00090296442081034742 0 -0.0091520846131608428 -0.0019138256192436777 0 -0.0083655882055127233 -0.0014321613373055107 0 -0.0091520846131608428 -0.0019138256192436777 0 -0.008443251882350138 -0.0021198656556612036 0 -0.0083655882055127233 -0.0014321613373055107 0 -0.0088789205392707272 -0.00090296442081034742 0 -0.0083655882055127233 -0.0014321613373055107 0 -0.0082748384953670699 -0.00057508556479054281 0 -0.0083655882055127233 -0.0014321613373055107 0 -0.0074537894842424332 -0.00093510606464317536 0 -0.0082748384953670699 -0.00057508556479054281 0 -0.0083655882055127233 -0.0014321613373055107 0 -0.0074537894842424332 -0.00093510606464317536 0 -0.0074525228242325907 -0.0018649411542382623 0 -0.0074537894842424332 -0.00093510606464317536 0 -0.0074525228242325907 -0.0018649411542382623 0 -0.0070099520112549014 -0.0014994091531189001 0 -0.0081925053676886756 -0.0021437906503483689 0 -0.0079701537324501307 -0.0023556699049279138 0 -0.0082503406228040168 -0.0026056775840139724 0 -0.008443251882350138 -0.0021198656556612036 0 -0.008096717381247228 -0.0019750937094477807 0 -0.008443251882350138 -0.0021198656556612036 0 -0.0083655882055127233 -0.0014321613373055107 0 -0.008096717381247228 -0.0019750937094477807 0 -0.0074525228242325907 -0.0018649411542382623 0 -0.0065829225424964884 -0.0023023412403553102 0 -0.0070099520112549014 -0.0014994091531189001 0 -0.0065829225424964884 -0.0023023412403553102 0 -0.0070099520112549014 -0.0014994091531189001 0 -0.006553497322130372 -0.00089921602079372275 0 -0.0079701537324501307 -0.0023556699049279138 0 -0.0076623996782019263 -0.0028040975241650419 0 -0.0076623996782019263 -0.0028040975241650419 0 -0.007251451291654565 -0.0019957411387285535 0 -0.0074537894842424332 -0.00093510606464317536 0 -0.0070099520112549014 -0.0014994091531189001 0 -0.006553497322130372 -0.00089921602079372275 0 -0.0074537894842424332 -0.00093510606464317536 0 -0.006553497322130372 -0.00089921602079372275 0 -0.0071447830008050323 -0.0002223500988867322 0 -0.0065485434733979454 0.00040901731690239898 0 -0.006553497322130372 -0.00089921602079372275 0 -0.0071447830008050323 -0.0002223500988867322 0 -0.0065485434733979454 0.00040901731690239898 0 -0.0071447830008050323 -0.0002223500988867322 0 -0.0075554036868571766 0.00047398542445227119 0 -0.0075554036868571766 0.00047398542445227119 0 -0.0077681609499454232 -0.0001608034894715727 0 -0.0083120534550627841 0.00018827388512767412 0 -0.0071447830008050323 -0.0002223500988867322 0 -0.0075554036868571766 0.00047398542445227119 0 -0.0077681609499454232 -0.0001608034894715727 0 -0.0074537894842424332 -0.00093510606464317536 0 -0.0071447830008050323 -0.0002223500988867322 0 -0.0077681609499454232 -0.0001608034894715727 0 -0.0074537894842424332 -0.00093510606464317536 0 -0.0077681609499454232 -0.0001608034894715727 0 -0.0082748384953670699 -0.00057508556479054281 0 -0.0077681609499454232 -0.0001608034894715727 0 -0.0082748384953670699 -0.00057508556479054281 0 -0.0083120534550627841 0.00018827388512767412 0 -0.0082748384953670699 -0.00057508556479054281 0 -0.0083120534550627841 0.00018827388512767412 0 -0.0086898593006598506 -0.00026460283245306282 0 -0.0088789205392707272 -0.00090296442081034742 0 -0.0082748384953670699 -0.00057508556479054281 0 -0.0086898593006598506 -0.00026460283245306282 0 -0.0075554036868571766 0.00047398542445227119 0 -0.0083120534550627841 0.00018827388512767412 0 -0.0080971846407804516 0.0010224110073492711 0 -0.0083120534550627841 0.00018827388512767412 0 -0.0088639420660952713 6.8154988917881474e-05 0 -0.0086898593006598506 -0.00026460283245306282 0 -0.0083120534550627841 0.00018827388512767412 0 -0.0088639420660952713 6.8154988917881474e-05 0 -0.0086808898069398593 0.00074518521335191175 0 -0.0088639420660952713 6.8154988917881474e-05 0 -0.0090827377041168226 -0.00019883194631122673 0 -0.0086898593006598506 -0.00026460283245306282 0 -0.009797771229261211 -0.0010040607154196913 0 -0.0088789205392707272 -0.00090296442081034742 0 -0.0090827377041168226 -0.00019883194631122673 0 -0.0090268028642856556 -8.0354233600481989e-06 0 -0.0088639420660952713 6.8154988917881474e-05 0 -0.0090827377041168226 -0.00019883194631122673 0 -0.0088789205392707272 -0.00090296442081034742 0 -0.0090827377041168226 -0.00019883194631122673 0 -0.0086898593006598506 -0.00026460283245306282 0 -0.0093541763693178598 0.0011171797453063831 0 -0.0086881904435614742 0.0013740250160201707 0 -0.0089331238306748599 0.0020437185487187318 0 -0.0083625249724901922 0.0011767547777559223 0 -0.0084447413388162446 0.00080462555625929514 0 -0.0093541763693178598 0.0011171797453063831 0 -0.0088639420660952713 6.8154988917881474e-05 0 -0.0086808898069398593 0.00074518521335191175 0 -0.0093541763693178598 0.0011171797453063831 0 -0.0086881904435614742 0.0013740250160201707 0 -0.0086808898069398593 0.00074518521335191175 0 -0.0086881904435614742 0.0013740250160201707 0 -0.0086808898069398593 0.00074518521335191175 0 -0.0080971846407804516 0.0010224110073492711 0 -0.0083120534550627841 0.00018827388512767412 0 -0.0086808898069398593 0.00074518521335191175 0 -0.0080971846407804516 0.0010224110073492711 0 -0.0086881904435614742 0.0013740250160201707 0 -0.007911835583011978 0.0020383362345995039 0 -0.0089331238306748599 0.0020437185487187318 0 -0.0086881904435614742 0.0013740250160201707 0 -0.0080971846407804516 0.0010224110073492711 0 -0.007911835583011978 0.0020383362345995039 0 -0.0052721953082739137 0.0043399595823833508 0 -0.0053978268658931095 0.0057284692537105872 0 -0.0063753099835123766 0.0057287857747647828 0 -0.0080971846407804516 0.0010224110073492711 0 -0.0072560757942250363 0.001236649022533252 0 -0.007911835583011978 0.0020383362345995039 0 -0.0067985770921765252 0.0022303227417737824 0 -0.0070585978564487234 0.0038813360763838311 0 -0.0075554036868571766 0.00047398542445227119 0 -0.0080971846407804516 0.0010224110073492711 0 -0.0072560757942250363 0.001236649022533252 0 -0.0067117989911274888 0.00010119720110779227 0 -0.0067985770921765252 0.0022303227417737824 0 -0.0065485434733979454 0.00040901731690239898 0 -0.0075554036868571766 0.00047398542445227119 0 -0.0072560757942250363 0.001236649022533252 0 -0.0041568499128227616 0.0029415196478494608 0 -0.0052721953082739137 0.0043399595823833508 0 -0.0040936933324404526 0.0046086605925118691 0 -0.0052721953082739137 0.0043399595823833508 0 -0.0046540534998973761 0.0054661724911801608 0 -0.0040936933324404526 0.0046086605925118691 0 -0.0052721953082739137 0.0043399595823833508 0 -0.0046540534998973761 0.0054661724911801608 0 -0.0053978268658931095 0.0057284692537105872 0 -0.0046540534998973761 0.0054661724911801608 0 -0.0040936933324404526 0.0046086605925118691 0 -0.004034691493968747 0.006346693219983191 0 -0.0046540534998973761 0.0054661724911801608 0 -0.0047916509727288347 0.0064062760714128407 0 -0.0053978268658931095 0.0057284692537105872 0 -0.0046540534998973761 0.0054661724911801608 0 -0.0047916509727288347 0.0064062760714128407 0 -0.004034691493968747 0.006346693219983191 0 -0.006828459332291828 0.00562570009852866 0 -0.0072872297950119166 0.0056148215307570979 0 -0.0047916509727288347 0.0064062760714128407 0 -0.0052124937367123737 0.0075044510611794691 0 -0.0040415568693985817 0.0063459689377370803 0 -0.0065338120179054974 0.0064948550223007601 0 -0.0072872297950119166 0.0056148215307570979 0 -0.0047916509727288347 0.0064062760714128407 0 -0.0052124937367123737 0.0075044510611794691 0 -0.005787999204855278 0.0066453032543021444 0 -0.0052544448380553227 0.0076509421923999536 0 -0.0041411574680833545 0.0065665621314081818 0 -0.004069698871638017 0.0084689326915062535 0 -0.0052124937367123737 0.0075044510611794691 0 -0.005787999204855278 0.0066453032543021444 0 -0.0064020801363589511 0.0076038770173149682 0 -0.005787999204855278 0.0066453032543021444 0 -0.0053978268658931095 0.0057284692537105872 0 -0.0063753099835123766 0.0057287857747647828 0 -0.0047916509727288347 0.0064062760714128407 0 -0.005787999204855278 0.0066453032543021444 0 -0.0053978268658931095 0.0057284692537105872 0 -0.0070585978564487234 0.0038813360763838311 0 -0.0071882813843588619 0.0054288776642921893 0 -0.007911835583011978 0.0020383362345995039 0 -0.0085496493241176245 0.0028431313751669952 0 -0.0089331238306748599 0.0020437185487187318 0 -0.005787999204855278 0.0066453032543021444 0 -0.0063753099835123766 0.0057287857747647828 0 -0.0074810396430344565 0.0071153480479005087 0 -0.005787999204855278 0.0066453032543021444 0 -0.0064020801363589511 0.0076038770173149682 0 -0.0074810396430344565 0.0071153480479005087 0 -0.0064020801363589511 0.0076038770173149682 0 -0.0074810396430344565 0.0071153480479005087 0 -0.0071540239190805779 0.0081033394309148622 0 -0.0094158105797617214 0.0028950491722028481 0 -0.0085496493241176245 0.0028431313751669952 0 -0.0089331238306748599 0.0020437185487187318 0 -0.0094158105797617214 0.0028950491722028481 0 -0.0091848385821195946 0.0036501721119545508 0 -0.0085496493241176245 0.0028431313751669952 0 -0.010182012604182767 0.0019449907554146425 0 -0.010628804347457166 0.0036367016644024029 0 -0.010882825743222089 0.0045468775471637392 0 -0.010822378744451744 0.0050795640360884473 0 -0.010503620092498661 0.004133913408798635 0 -0.011067506026408882 0.0047307332077447563 0 -0.010882825743222089 0.0045468775471637392 0 -0.010822378744451744 0.0050795640360884473 0 -0.011067506026408882 0.0047307332077447563 0 -0.010882825743222089 0.0045468775471637392 0 -0.011138747594434104 0.0042421948015955221 0 -0.011886987934027676 0.0043809617824325138 0 -0.011495256020570777 0.0048700006965783646 0 -0.011138747594434104 0.0042421948015955221 0 -0.011067506026408882 0.0047307332077447563 0 -0.011495256020570777 0.0048700006965783646 0 -0.011138747594434104 0.0042421948015955221 0 -0.015332775992031776 0.0069212696500788639 0 -0.013134828186283108 0.0044185595205561683 0 -0.013134828186283108 0.0044185595205561683 0 -0.010809740506298784 0.0017366420195411337 0 -0.011067506026408882 0.0047307332077447563 0 -0.011495256020570777 0.0048700006965783646 0 -0.01110915419127763 0.0053542056465777765 0 -0.015937616305339294 0.004999465107858243 0 -0.015850453283662878 0.0043488563863415611 0 -0.016491000873489207 0.0042723487058630594 0 -0.015145530302358979 0.0045019020329458174 0 -0.015937616305339294 0.004999465107858243 0 -0.015850453283662878 0.0043488563863415611 0 -0.010328594710977705 4.5794774383399326e-06 0 -0.010809740506298784 0.0017366420195411337 0 -0.010328594710977705 4.5794774383399326e-06 0 -0.010182012604182767 0.0019449907554146425 0 -0.010809740506298784 0.0017366420195411337 0 -0.010182012604182767 0.0019449907554146425 0 -0.011067506026408882 0.0047307332077447563 0 -0.01110915419127763 0.0053542056465777765 0 -0.010822378744451744 0.0050795640360884473 0 -0.0098235329694570592 0.0024858308793312221 0 -0.010127995549099785 0.0020958225995947408 0 -0.0094919831024749234 0.0014845322736900168 0 -0.007085566926697387 -0.001915831028332256 0 -0.0061931142427908304 -0.0019673654137140313 0 -0.0064782145653864004 -0.0010801351800314312 0 -0.007085566926697387 -0.001915831028332256 0 -0.0064782145653864004 -0.0010801351800314312 0 -0.0076069833488739205 -0.0010055848557527815 0 -0.0076696580195270885 -0.0019554876662311945 0 -0.007085566926697387 -0.001915831028332256 0 -0.0076069833488739205 -0.0010055848557527815 0 -0.0067117989911274888 0.00010119720110779227 0 -0.0068976863901959156 0.0023722222475784285 0 -0.0089134932479298327 -0.0020905604444327818 0 -0.0076069833488739205 -0.0010055848557527815 0 -0.0088768740201742996 -0.0004740319563930839 0 -0.0089134932479298327 -0.0020905604444327818 0 -0.0076696580195270885 -0.0019554876662311945 0 -0.0076069833488739205 -0.0010055848557527815 0 -0.0076069833488739205 -0.0010055848557527815 0 -0.0088768740201742996 -0.0004740319563930839 0 -0.0075857637798280282 1.9772736635827433e-05 0 -0.0088768740201742996 -0.0004740319563930839 0 -0.0075857637798280282 1.9772736635827433e-05 0 -0.0087156079726253555 0.0011356865867242353 0 -0.0064782145653864004 -0.0010801351800314312 0 -0.0076069833488739205 -0.0010055848557527815 0 -0.0075857637798280282 1.9772736635827433e-05 0 -0.010182012604182767 0.0019449907554146425 0 -0.0086544433009823601 0.0032131468509588217 0 -0.010729788540499023 0.0048712719334582169 0 -0.010279476444781558 0.0044450581899282623 0 -0.010503620092498661 0.004133913408798635 0 -0.010279476444781558 0.0044450581899282623 0 -0.010408445650993674 0.0040959029869286684 0 -0.0098004106094395829 0.0040046742429361033 0 -0.010279476444781558 0.0044450581899282623 0 -0.010503620092498661 0.004133913408798635 0 -0.010408445650993674 0.0040959029869286684 0 -0.0066425544383116571 0.0069420148307359269 0 -0.0074610111882636009 0.0075026493076711352 0 -0.0084183794747717984 0.0072353577329673652 0 -0.0086544433009823601 0.0032131468509588217 0 -0.0076660494758316426 0.0055783503475411852 0 -0.0088768740201742996 -0.0004740319563930839 0 -0.0088199431920213175 0.0012375225005231835 0 -0.0087156079726253555 0.0011356865867242353 0 -0.0068976863901959156 0.0023722222475784285 0 -0.0072872297950119166 0.0056148215307570979 0 -0.010505859125597773 0.0075980981661376299 0 -0.0076660494758316426 0.0055783503475411852 0 -0.0074610111882636009 0.0075026493076711352 0 -0.0085440662156108533 0.0073569371884777716 0 -0.0084183794747717984 0.0072353577329673652 0 -0.0072872297950119166 0.0056148215307570979 0 -0.0076660494758316426 0.0055783503475411852 0 -0.0072872297950119166 0.0056148215307570979 0 -0.0064604827147565136 0.0089176892254343269 0 -0.0074610111882636009 0.0075026493076711352 0 -0.0085440662156108533 0.0073569371884777716 0 -0.0076798909313081339 0.0087285517658673064 0 -0.0085440662156108533 0.0073569371884777716 0 -0.0076798909313081339 0.0087285517658673064 0 -0.0084578846586304286 0.0097508908803051603 0 -0.0066425544383116571 0.0069420148307359269 0 -0.0074610111882636009 0.0075026493076711352 0 -0.0065693937485342378 0.009068187674816517 0 -0.010505859125597773 0.0075980981661376299 0 -0.010380818967217785 0.0096801651305967983 0 -0.0074610111882636009 0.0075026493076711352 0 -0.0076798909313081339 0.0087285517658673064 0 -0.0065693937485342378 0.009068187674816517 0 -0.014648551139492734 0.0091959151999692831 0 -0.013777121117448218 0.0098852460456426948 0 -0.014617588639189969 0.010458767225957365 0 -0.014648551139492734 0.0091959151999692831 0 -0.013777121117448218 0.0098852460456426948 0 -0.013625295681628707 0.0089891143597627086 0 -0.010505859125597773 0.0075980981661376299 0 -0.012614573740761066 0.0071183177303905604 0 -0.010882825743222089 0.0045468775471637392 0 -0.010503620092498661 0.004133913408798635 0 -0.011138747594434104 0.0042421948015955221 0 -0.010503620092498661 0.004133913408798635 0 -0.010408445650993674 0.0040959029869286684 0 -0.011138747594434104 0.0042421948015955221 0 -0.012595637364716073 0.0087981129958650331 0 -0.013625295681628707 0.0089891143597627086 0 -0.01296194969111928 0.0093263975126930652 0 -0.015332775992031776 0.0069212696500788639 0 -0.012614573740761066 0.0071183177303905604 0 -0.013777121117448218 0.0098852460456426948 0 -0.013625295681628707 0.0089891143597627086 0 -0.01296194969111928 0.0093263975126930652 0 -0.013777121117448218 0.0098852460456426948 0 -0.01296194969111928 0.0093263975126930652 0 -0.012879268851835981 0.010494452009303689 0 -0.012879268851835981 0.010494452009303689 0 -0.013401264808874137 0.011451951718461962 0 -0.013901170225695725 0.010922376477852436 0 -0.017078216140745065 0.010348007528128478 0 -0.01640271426026221 0.011318340588063289 0 -0.013777121117448218 0.0098852460456426948 0 -0.012879268851835981 0.010494452009303689 0 -0.013901170225695725 0.010922376477852436 0 -0.018799964550513006 0.011030762296750454 0 -0.019038914170586091 0.011468915113912792 0 -0.018721078398216268 0.011501673605288171 0 -0.019038914170586091 0.011468915113912792 0 -0.018922137302095032 0.011780595314930408 0 -0.018721078398216268 0.011501673605288171 0 -0.014078404935831564 0.011674535771936017 0 -0.013901170225695725 0.010922376477852436 0 -0.014589593586615495 0.011739834943223558 0 -0.013401264808874137 0.011451951718461962 0 -0.014078404935831564 0.011674535771936017 0 -0.01393533880025109 0.012413480669451915 0 -0.013401264808874137 0.011451951718461962 0 -0.014078404935831564 0.011674535771936017 0 -0.013901170225695725 0.010922376477852436 0 -0.013777121117448218 0.0098852460456426948 0 -0.013901170225695725 0.010922376477852436 0 -0.014617588639189969 0.010458767225957365 0 -0.0065693937485342378 0.009068187674816517 0 -0.0073665060763319478 0.0099667643409547934 0 -0.0064950168819856071 0.011202141093864304 0 -0.010380818967217785 0.0096801651305967983 0 -0.010140550857771758 0.011490759520196828 0 -0.013901170225695725 0.010922376477852436 0 -0.014617588639189969 0.010458767225957365 0 -0.014589593586615495 0.011739834943223558 0 -0.0076798909313081339 0.0087285517658673064 0 -0.0065693937485342378 0.009068187674816517 0 -0.0073665060763319478 0.0099667643409547934 0 -0.0076798909313081339 0.0087285517658673064 0 -0.0073665060763319478 0.0099667643409547934 0 -0.0084578846586304286 0.0097508908803051603 0 -0.0064604827147565136 0.0089176892254343269 0 -0.0057991991006477051 0.011385480889898969 0 -0.0084578846586304286 0.0097508908803051603 0 -0.0075455640553510573 0.011101615820155746 0 -0.0083667423850789669 0.012152840243443533 0 -0.004069698871638017 0.0084689326915062535 0 -0.0040902294849619152 0.010218180802268441 0 -0.0043134003308636995 0.010007135043103275 0 -0.0073665060763319478 0.0099667643409547934 0 -0.0084578846586304286 0.0097508908803051603 0 -0.0075455640553510573 0.011101615820155746 0 -0.0073665060763319478 0.0099667643409547934 0 -0.0075455640553510573 0.011101615820155746 0 -0.0064950168819856071 0.011202141093864304 0 -0.014078404935831564 0.011674535771936017 0 -0.014589593586615495 0.011739834943223558 0 -0.014542322854440038 0.011908902976101135 0 -0.014589593586615495 0.011739834943223558 0 -0.014542322854440038 0.011908902976101135 0 -0.014501821134493839 0.013207170875662902 0 -0.010140550857771758 0.011490759520196828 0 -0.0096709113272704095 0.013353803335251931 0 -0.014542322854440038 0.011908902976101135 0 -0.01436169604910628 0.012646346444315646 0 -0.014501821134493839 0.013207170875662902 0 -0.0064950168819856071 0.011202141093864304 0 -0.0072827880468834625 0.012249401633141385 0 -0.0064247674276740677 0.013338715119730154 0 -0.0075455640553510573 0.011101615820155746 0 -0.0064950168819856071 0.011202141093864304 0 -0.0072827880468834625 0.012249401633141385 0 -0.0075455640553510573 0.011101615820155746 0 -0.0072827880468834625 0.012249401633141385 0 -0.0083667423850789669 0.012152840243443533 0 -0.0072827880468834625 0.012249401633141385 0 -0.0083667423850789669 0.012152840243443533 0 -0.0074641490982303308 0.013329033174713964 0 -0.0040902294849619152 0.010218180802268441 0 -0.0043747262745390571 0.010369483968754247 0 -0.0041821888385226869 0.010736751840256419 0 -0.0057991991006477051 0.011385480889898969 0 -0.0047660976451510146 0.01545672481596461 0 -0.0083667423850789669 0.012152840243443533 0 -0.0074641490982303308 0.013329033174713964 0 -0.0082721345005747939 0.014549630636395038 0 -0.0074641490982303308 0.013329033174713964 0 -0.0072516551580262129 0.014334016676442528 0 -0.0082721345005747939 0.014549630636395038 0 -0.01436169604910628 0.012646346444315646 0 -0.014501821134493839 0.013207170875662902 0 -0.014307942440982454 0.012922226892824769 0 -0.014501821134493839 0.013207170875662902 0 -0.014236669157531268 0.01320366554054947 0 -0.014307942440982454 0.012922226892824769 0 -0.0072827880468834625 0.012249401633141385 0 -0.0074641490982303308 0.013329033174713964 0 -0.0064247674276740677 0.013338715119730154 0 -0.0074641490982303308 0.013329033174713964 0 -0.0069210792532059546 0.013925201113004786 0 -0.0072516551580262129 0.014334016676442528 0 -0.0074641490982303308 0.013329033174713964 0 -0.0064247674276740677 0.013338715119730154 0 -0.0069210792532059546 0.013925201113004786 0 -0.014204043117243085 0.013442804007613133 0 -0.013915209725964651 0.01348341780453032 0 -0.014219770117391107 0.01378863209411791 0 -0.014236669157531268 0.01320366554054947 0 -0.013915209725964651 0.01348341780453032 0 -0.013988674816307257 0.012766876685539399 0 -0.013915209725964651 0.01348341780453032 0 -0.013387595756630155 0.013311299625046893 0 -0.013988674816307257 0.012766876685539399 0 -0.014204043117243085 0.013442804007613133 0 -0.014236669157531268 0.01320366554054947 0 -0.013915209725964651 0.01348341780453032 0 -0.014501821134493839 0.013207170875662902 0 -0.014204043117243085 0.013442804007613133 0 -0.014219770117391107 0.01378863209411791 0 -0.014501821134493839 0.013207170875662902 0 -0.014204043117243085 0.013442804007613133 0 -0.014236669157531268 0.01320366554054947 0 -0.014236669157531268 0.01320366554054947 0 -0.014307942440982454 0.012922226892824769 0 -0.01382192016842854 0.012510973217564069 0 -0.015645485859114593 0.012224570052226477 0 -0.015772958748784937 0.012178592106184955 0 -0.013915209725964651 0.01348341780453032 0 -0.013387595756630155 0.013311299625046893 0 -0.013710128032329084 0.013759926279021105 0 -0.017044063993022524 0.012855059177412425 0 -0.015772958748784937 0.012178592106184955 0 -0.018913324410914201 0.01220948607361232 0 -0.018922137302095032 0.011780595314930408 0 -0.019273902730595545 0.011899005936458609 0 -0.019038914170586091 0.011468915113912792 0 -0.018922137302095032 0.011780595314930408 0 -0.019273902730595545 0.011899005936458609 0 -0.018913324410914201 0.01220948607361232 0 -0.018922137302095032 0.011780595314930408 0 -0.01866153429012557 0.011819218797917811 0 -0.01640271426026221 0.011318340588063289 0 -0.015772958748784937 0.012178592106184955 0 -0.014542322854440038 0.011908902976101135 0 -0.01436169604910628 0.012646346444315646 0 -0.01382192016842854 0.012510973217564069 0 -0.014078404935831564 0.011674535771936017 0 -0.014542322854440038 0.011908902976101135 0 -0.01393533880025109 0.012413480669451915 0 -0.01544891507311855 0.012325499274326291 0 -0.015772958748784937 0.012178592106184955 0 -0.01436169604910628 0.012646346444315646 0 -0.014307942440982454 0.012922226892824769 0 -0.01382192016842854 0.012510973217564069 0 -0.0065655395981095684 0.0068820666400545294 0 -0.0058485641959477464 0.0081809002109587171 0 -0.0047847916422626936 0.010452610830934041 0 -0.0047652216816808516 0.010455169427109568 0 -0.0047748691613310667 0.010462702199374327 0 -0.0058470717616189785 0.0070954544313371788 0 -0.0047151219508891019 0.0090672411863396314 0 -0.0058508603757274156 0.0096202642897773756 0 -0.0052042562881829124 0.0097029825522696941 0 -0.0052618980170658159 0.010019662799100874 0 -0.0058508603757274156 0.0096202642897773756 0 -0.0057497736321126267 0.0094953910095311768 0 -0.0052042562881829124 0.0097029825522696941 0 -0.0065655395981095684 0.0068820666400545294 0 -0.0071882813843588619 0.0054288776642921893 0 -0.0085961538291274425 0.0084993972234274195 0 -0.0074810396430344565 0.0071153480479005087 0 -0.0071540239190805779 0.0081033394309148622 0 -0.0085961538291274425 0.0084993972234274195 0 -0.0071540239190805779 0.0081033394309148622 0 -0.0071268895348213668 0.0090358143730415244 0 -0.0071540239190805779 0.0081033394309148622 0 -0.0063917514607646038 0.0086896274196745522 0 -0.0071268895348213668 0.0090358143730415244 0 -0.0064020801363589511 0.0076038770173149682 0 -0.0071540239190805779 0.0081033394309148622 0 -0.0063917514607646038 0.0086896274196745522 0 -0.0052042562881829124 0.0097029825522696941 0 -0.0046846807951423921 0.0099114350923451486 0 -0.0052618980170658159 0.010019662799100874 0 -0.0063917514607646038 0.0086896274196745522 0 -0.0071268895348213668 0.0090358143730415244 0 -0.0056859222410066681 0.0095470044701164557 0 -0.0058485641959477464 0.0081809002109587171 0 -0.0051494693195615945 0.0089196660327749908 0 -0.0056859222410066681 0.0095470044701164557 0 -0.0053842740007800129 0.0085909678993192455 0 -0.0048243510267331905 0.0091415816235826172 0 -0.0063917514607646038 0.0086896274196745522 0 -0.0056859222410066681 0.0095470044701164557 0 -0.0053842740007800129 0.0085909678993192455 0 -0.0052544448380553227 0.0076509421923999536 0 -0.0063917514607646038 0.0086896274196745522 0 -0.0053842740007800129 0.0085909678993192455 0 -0.0052124937367123737 0.0075044510611794691 0 -0.0064020801363589511 0.0076038770173149682 0 -0.0063917514607646038 0.0086896274196745522 0 -0.0065338120179054974 0.0064948550223007601 0 -0.0066730150242075561 0.0070897719763153184 0 -0.0052544448380553227 0.0076509421923999536 0 -0.004069698871638017 0.0084689326915062535 0 -0.0053842740007800129 0.0085909678993192455 0 -0.004069698871638017 0.0084689326915062535 0 -0.0053842740007800129 0.0085909678993192455 0 -0.0048243510267331905 0.0091415816235826172 0 -0.004069698871638017 0.0084689326915062535 0 -0.0048243510267331905 0.0091415816235826172 0 -0.0043134003308636995 0.010007135043103275 0 -0.0056859222410066681 0.0095470044701164557 0 -0.0048243510267331905 0.0091415816235826172 0 -0.0043134003308636995 0.010007135043103275 0 -0.0046846807951423921 0.0099114350923451486 0 -0.0043134003308636995 0.010007135043103275 0 -0.0045167188960367243 0.010165360881116933 0 -0.0045167188960367243 0.010165360881116933 0 -0.0043747262745390571 0.010369483968754247 0 -0.0046852998892500577 0.010389929927218492 0 -0.0051494693195615945 0.0089196660327749908 0 -0.0047783233628502031 0.0091934969634565426 0 -0.0040902294849619152 0.010218180802268441 0 -0.0043134003308636995 0.010007135043103275 0 -0.0043747262745390571 0.010369483968754247 0 -0.0043134003308636995 0.010007135043103275 0 -0.0045167188960367243 0.010165360881116933 0 -0.0043747262745390571 0.010369483968754247 0 -0.0043747262745390571 0.010369483968754247 0 -0.0044884020253730846 0.010563677169517623 0 -0.0046852998892500577 0.010389929927218492 0 -0.0043747262745390571 0.010369483968754247 0 -0.0044884020253730846 0.010563677169517623 0 -0.0041821888385226869 0.010736751840256419 0 -0.0046852998892500577 0.010389929927218492 0 -0.0047154576879962643 0.010498372254478781 0 -0.0047508933671447841 0.010480365177740106 0 -0.0044884020253730846 0.010563677169517623 0 -0.0046852998892500577 0.010389929927218492 0 -0.0046606516905098793 0.01056963067830804 0 -0.0046852998892500577 0.010389929927218492 0 -0.0046606516905098793 0.01056963067830804 0 -0.0047154576879962643 0.010498372254478781 0 -0.0046606516905098793 0.01056963067830804 0 -0.0047154576879962643 0.010498372254478781 0 -0.004723109446600436 0.010549913879875378 0 -0.0046846807951423921 0.0099114350923451486 0 -0.0046852998892500577 0.010389929927218492 0 -0.0052618980170658159 0.010019662799100874 0 -0.0046846807951423921 0.0099114350923451486 0 -0.0045167188960367243 0.010165360881116933 0 -0.0046852998892500577 0.010389929927218492 0 -0.0045033887923862067 0.0095350756359319465 0 -0.0047151219508891019 0.0090672411863396314 0 -0.0046852998892500577 0.010389929927218492 0 -0.0047567709942687971 0.010456063824510635 0 -0.0047508933671447841 0.010480365177740106 0 -0.0046852998892500577 0.010389929927218492 0 -0.0047652216816808516 0.010455169427109568 0 -0.0047567709942687971 0.010456063824510635 0 -0.0047567709942687971 0.010456063824510635 0 -0.0047508933671447841 0.010480365177740106 0 -0.004773386560204403 0.010474128544319235 0 -0.0047154576879962643 0.010498372254478781 0 -0.0047535478252344627 0.010530558925733048 0 -0.0047508933671447841 0.010480365177740106 0 -0.0047154576879962643 0.010498372254478781 0 -0.004723109446600436 0.010549913879875378 0 -0.0047535478252344627 0.010530558925733048 0 -0.0047535478252344627 0.010530558925733048 0 -0.0047508933671447841 0.010480365177740106 0 -0.0047738602407153326 0.010496890406790655 0 -0.0047508933671447841 0.010480365177740106 0 -0.0047738602407153326 0.010496890406790655 0 -0.004773386560204403 0.010474128544319235 0 -0.0047738602407153326 0.010496890406790655 0 -0.0047822484576797658 0.010488551122865085 0 -0.004773386560204403 0.010474128544319235 0 -0.0047535478252344627 0.010530558925733048 0 -0.0047738602407153326 0.010496890406790655 0 -0.0047883718118132586 0.010507096897916209 0 -0.0047738602407153326 0.010496890406790655 0 -0.0047822484576797658 0.010488551122865085 0 -0.0047883718118132586 0.010507096897916209 0 -0.0047809521665343035 0.01047244664312679 0 -0.0047822484576797658 0.010488551122865085 0 -0.004773386560204403 0.010474128544319235 0 -0.0047567709942687971 0.010456063824510635 0 -0.004773386560204403 0.010474128544319235 0 -0.0047748691613310667 0.010462702199374327 0 -0.0047652216816808516 0.010455169427109568 0 -0.0047567709942687971 0.010456063824510635 0 -0.0047748691613310667 0.010462702199374327 0 -0.0047809521665343035 0.01047244664312679 0 -0.004773386560204403 0.010474128544319235 0 -0.0047748691613310667 0.010462702199374327 0 -0.0047809521665343035 0.01047244664312679 0 -0.0047816441833061817 0.010464016130265387 0 -0.0047748691613310667 0.010462702199374327 0 0.002059222844454697 0.022258120251135091 0 0.0027236932883743579 0.022051074784755046 0 0.0026411693038244726 0.022610366316933091 0 0.0027236932883743579 0.022051074784755046 0 0.0026411693038244726 0.022610366316933091 0 0.0034819860629044545 0.022693492070929022 0 0.0020144942476149996 0.022044590548273943 0 0.0019532262616319307 0.021793389276492214 0 0.0023274691389036971 0.021864585861012545 0 0.0020144942476149996 0.022044590548273943 0 0.0023274691389036971 0.021864585861012545 0 0.0023687904004835859 0.021945807847969127 0 -0.0012185285837795273 0.015917115141852487 0 -0.001017557277475454 0.017526426175615943 0 0.0015750482849757773 0.020253059071420793 0 -0.00052391802020714353 0.01872016397779316 0 -0.0047535478252344627 0.010530558925733048 0 -0.0047883718118132586 0.010507096897916209 0 -0.004726711970009163 0.010613888098136936 0 -0.004723109446600436 0.010549913879875378 0 -0.0047535478252344627 0.010530558925733048 0 -0.004726711970009163 0.010613888098136936 0 0.0027236932883743579 0.022051074784755046 0 0.0040139084540970369 0.021771536576121863 0 0.0034819860629044545 0.022693492070929022 0 -0.00052391802020714353 0.01872016397779316 0 -0.00025468426376561593 0.020797100737100522 0 0.0040139084540970369 0.021771536576121863 0 0.0045126328786429266 0.022724066605445275 0 0.0034819860629044545 0.022693492070929022 0 -0.0036304881555716821 0.018362285536432526 0 -0.0030694942351618881 0.018242347438487915 0 -0.0032333929639243001 0.019136923131588858 0 -0.001017557277475454 0.017526426175615943 0 -0.0028929885730166723 0.017046985183798161 0 -0.0046606516905098793 0.01056963067830804 0 -0.004726711970009163 0.010613888098136936 0 -0.0045006337929987877 0.01075203225211868 0 -8.3282812240489324e-05 0.017706057628268539 0 -0.00046349915675095187 0.016982224555984096 0 -0.002190738333998599 0.017344965040965572 0 -0.001017557277475454 0.017526426175615943 0 -0.00052391802020714353 0.01872016397779316 0 -0.0046606516905098793 0.01056963067830804 0 -0.004723109446600436 0.010549913879875378 0 -0.004726711970009163 0.010613888098136936 0 -0.0044884020253730846 0.010563677169517623 0 -0.0046606516905098793 0.01056963067830804 0 -0.0045006337929987877 0.01075203225211868 0 -0.00052391802020714353 0.01872016397779316 0 -0.0028929885730166723 0.017046985183798161 0 -0.0034593019811479907 0.016586341587959703 0 -0.00517951364134358 0.0169447270463766 0 -0.0052026391381696539 0.016284756628765051 0 -0.0030694942351618881 0.018242347438487915 0 -0.002755278985315347 0.018796491483797417 0 -0.0023777918442945373 0.018360287851065499 0 -0.0028929885730166723 0.017046985183798161 0 -0.0048393292095846334 0.016436185955598686 0 -0.0028929885730166723 0.017046985183798161 0 -0.0047660976451510146 0.01545672481596461 0 -0.0044884020253730846 0.010563677169517623 0 -0.0045006337929987877 0.01075203225211868 0 -0.0041821888385226869 0.010736751840256419 0 -0.0030694942351618881 0.018242347438487915 0 -0.002755278985315347 0.018796491483797417 0 -0.0032333929639243001 0.019136923131588858 0 -0.0028346549231170041 0.019919206697047005 0 -0.0032333929639243001 0.019136923131588858 0 -0.0023389243287961553 0.019448251869050411 0 -0.002755278985315347 0.018796491483797417 0 -0.0032333929639243001 0.019136923131588858 0 -0.0023389243287961553 0.019448251869050411 0 -0.00088958963111031037 0.02188079286442756 0 -0.00025468426376561593 0.020797100737100522 0 0.0040188990893342564 0.024099465576280094 0 0.0050012217791092555 0.023677958896669331 0 0.0041738895927809841 0.023358352723586547 0 0.0040188990893342564 0.024099465576280094 0 0.0041738895927809841 0.023358352723586547 0 0.0035332439793281678 0.02345776598809143 0 0.0045126328786429266 0.022724066605445275 0 0.0041738895927809841 0.023358352723586547 0 0.0034819860629044545 0.022693492070929022 0 0.0050012217791092555 0.023677958896669331 0 0.0045126328786429266 0.022724066605445275 0 0.0041738895927809841 0.023358352723586547 0 0.0034819860629044545 0.022693492070929022 0 0.0035332439793281678 0.02345776598809143 0 0.0028031175016321091 0.02315072703123643 0 0.0041738895927809841 0.023358352723586547 0 0.0034819860629044545 0.022693492070929022 0 0.0035332439793281678 0.02345776598809143 0 0.0040188990893342564 0.024099465576280094 0 0.0035332439793281678 0.02345776598809143 0 0.0030297066694530673 0.023917406916208268 0 0.0020672324392434242 0.023515154207875859 0 0.0030297066694530673 0.023917406916208268 0 0.0028031175016321091 0.02315072703123643 0 0.0035332439793281678 0.02345776598809143 0 0.0030297066694530673 0.023917406916208268 0 0.0028031175016321091 0.02315072703123643 0 0.0026411693038244726 0.022610366316933091 0 0.0034819860629044545 0.022693492070929022 0 0.0028031175016321091 0.02315072703123643 0 0.0021546371377918327 0.022911438118922853 0 0.0026411693038244726 0.022610366316933091 0 0.0028031175016321091 0.02315072703123643 0 -0.011705690879205789 0.016017013563804191 0 -0.0087330646059761326 0.015682705429106398 0 -0.011705690879205789 0.016017013563804191 0 -0.0077513701661429575 0.018522591629396505 0 -0.0085321955866312638 0.016301943389962856 0 -0.0090111718798674793 0.016238877301830493 0 -0.0089881320310617914 0.016880050605882223 0 -0.01080134677551825 0.017876296689668437 0 -0.011147035615594438 0.017549223935334021 0 -0.011160236595602058 0.017935638173049651 0 -0.013223918417407539 0.014659380004544677 0 -0.013209150832512237 0.014368735025379869 0 -0.013632338576501861 0.014272155805663933 0 -0.013820206438818313 0.015863877773608447 0 -0.011705690879205789 0.016017013563804191 0 -0.013209150832512237 0.014368735025379869 0 -0.013651152264503138 0.014263138415125354 0 -0.013386705179801662 0.013932323295157223 0 -0.012149427326870698 0.01582389765026615 0 -0.011705690879205789 0.016017013563804191 0 -0.013387595756630155 0.013311299625046893 0 -0.013386705179801662 0.013932323295157223 0 -0.012829788084634265 0.013823300367750398 0 -0.011705690879205789 0.016017013563804191 0 -0.011769121695106001 0.015855008088320219 0 -0.013387595756630155 0.013311299625046893 0 -0.013386705179801662 0.013932323295157223 0 -0.013710128032329084 0.013759926279021105 0 -0.013658082269498599 0.014281904764556777 0 -0.013386705179801662 0.013932323295157223 0 -0.013710128032329084 0.013759926279021105 0 -0.013545788630125099 0.014414546505700409 0 -0.014219770117391107 0.01378863209411791 0 -0.014431123647668269 0.014284374664348693 0 -0.013915209725964651 0.01348341780453032 0 -0.013710128032329084 0.013759926279021105 0 -0.014219770117391107 0.01378863209411791 0 -0.013658082269498599 0.014281904764556777 0 -0.013710128032329084 0.013759926279021105 0 -0.014219770117391107 0.01378863209411791 0 -0.011705690879205789 0.016017013563804191 0 -0.012781938918219434 0.015026697456786788 0 -0.0069210792532059546 0.013925201113004786 0 -0.0072516551580262129 0.014334016676442528 0 -0.0063641772873039744 0.015456690179089334 0 -0.014501821134493839 0.013207170875662902 0 -0.014219770117391107 0.01378863209411791 0 -0.014431123647668269 0.014284374664348693 0 -0.0096709113272704095 0.013353803335251931 0 -0.0087330646059761326 0.015682705429106398 0 -0.0064247674276740677 0.013338715119730154 0 -0.0069210792532059546 0.013925201113004786 0 -0.0063641772873039744 0.015456690179089334 0 -0.0048393292095846334 0.016436185955598686 0 -0.0087330646059761326 0.015682705429106398 0 -0.0072516551580262129 0.014334016676442528 0 -0.0082380944947017618 0.015129206693940814 0 -0.0063641772873039744 0.015456690179089334 0 -0.0072516551580262129 0.014334016676442528 0 -0.0082569182246749161 0.014550599257204004 0 -0.0082380944947017618 0.015129206693940814 0 -0.005326909333594883 0.015474379955560695 0 -0.0047660976451510146 0.01545672481596461 0 -0.0047660976451510146 0.01545672481596461 0 -0.0048393292095846334 0.016436185955598686 0 -0.0048393292095846334 0.016436185955598686 0 -0.0043282733167621986 0.018750111129550648 0 -0.0062040527868917382 0.016492742924632521 0 -0.0054678558398491188 0.017467680650217695 0 -0.0061474459305641393 0.018082887492373731 0 -0.002755278985315347 0.018796491483797417 0 -0.0023777918442945373 0.018360287851065499 0 -0.0023389243287961553 0.019448251869050411 0 -0.0062040527868917382 0.016492742924632521 0 -0.0049503910745266411 0.016710126801085544 0 -0.0054678558398491188 0.017467680650217695 0 -0.0049503910745266411 0.016710126801085544 0 -0.0054678558398491188 0.017467680650217695 0 -0.0049011411719714036 0.018191264198862505 0 -0.0087330646059761326 0.015682705429106398 0 -0.0077513701661429575 0.018522591629396505 0 -0.0054678558398491188 0.017467680650217695 0 -0.0049011411719714036 0.018191264198862505 0 -0.0061474459305641393 0.018082887492373731 0 -0.0023036595675561692 0.020545498152134044 0 -0.0028346549231170041 0.019919206697047005 0 -0.0023389243287961553 0.019448251869050411 0 -0.0038834158310998277 0.020978990929549628 0 -0.0043282733167621986 0.018750111129550648 0 -0.0060859513002363367 0.019674212534833504 0 -0.0061474459305641393 0.018082887492373731 0 -0.0054934520000386325 0.018932343663071824 0 -0.0074596722692280926 0.02063135163671093 0 -0.0077513701661429575 0.018522591629396505 0 -0.0049011411719714036 0.018191264198862505 0 -0.0061474459305641393 0.018082887492373731 0 -0.0054934520000386325 0.018932343663071824 0 -0.0044876969948602413 0.021989130587427019 0 -0.0044925726727796673 0.021928739973659881 0 -0.0045065271102717091 0.021962904561912973 0 -0.0077513701661429575 0.018522591629396505 0 -0.0057307001255414679 0.019832096866061296 0 -0.011653534207044881 0.018944506190681155 0 -0.01167963825541257 0.018223028846136229 0 -0.011039576066756445 0.01843173877211279 0 -0.011147035615594438 0.017549223935334021 0 -0.01167963825541257 0.018223028846136229 0 -0.011160236595602058 0.017935638173049651 0 -0.01167963825541257 0.018223028846136229 0 -0.011160236595602058 0.017935638173049651 0 -0.011039576066756445 0.01843173877211279 0 -0.01080134677551825 0.017876296689668437 0 -0.011160236595602058 0.017935638173049651 0 -0.011039576066756445 0.01843173877211279 0 -0.01080134677551825 0.017876296689668437 0 -0.011039576066756445 0.01843173877211279 0 -0.010488645918345862 0.018173998692302424 0 -0.01095868082741467 0.019009827808067415 0 -0.010484577634192254 0.018790135700635983 0 -0.011039576066756445 0.01843173877211279 0 -0.016726191999216804 0.016698213843661144 0 -0.01591470443990493 0.016793212596619027 0 -0.016269617685732499 0.014327722979210263 0 -0.010484577634192254 0.018790135700635983 0 -0.011039576066756445 0.01843173877211279 0 -0.010488645918345862 0.018173998692302424 0 -0.015425198069880311 0.017446563688698871 0 -0.016959373362196495 0.014857149071527343 0 -0.016726191999216804 0.016698213843661144 0 -0.016269617685732499 0.014327722979210263 0 -0.016737563722560269 0.01388725065368155 0 -0.018214823972481059 0.015559991423432879 0 -0.018722897075859574 0.014049876829983769 0 -0.022134203516718985 0.012246581520112794 0 -0.018722897075859574 0.014049876829983769 0 -0.023525029169770784 0.012205338263090408 0 -0.02332152256175718 0.012346686632052186 0 -0.023490398159926859 0.012346621496706373 0 -0.022925711696915395 0.012880230271764336 0 -0.02220883854074656 0.012924825063406236 0 -0.022089600202116311 0.013664148486435409 0 -0.023430777176572902 0.012398135873468358 0 -0.023374171434691938 0.012456650634449116 0 -0.023524090097885041 0.012444854077565558 0 -0.023430777176572902 0.012398135873468358 0 -0.02332152256175718 0.012346686632052186 0 -0.023490398159926859 0.012346621496706373 0 -0.023430777176572902 0.012398135873468358 0 -0.023374171434691938 0.012456650634449116 0 -0.02332152256175718 0.012346686632052186 0 -0.018722897075859574 0.014049876829983769 0 -0.019704460251028691 0.012981361536215676 0 -0.016959373362196495 0.014857149071527343 0 -0.018162605382979247 0.013747468215611909 0 -0.023240437752331655 0.012435245158585004 0 -0.023227893246319624 0.012454104165670905 0 -0.02325918406154099 0.012545284493110894 0 -0.013223918417407539 0.014659380004544677 0 -0.012850719965730782 0.015018784170803072 0 -0.012841049470806588 0.014431638363726422 0 -0.023374171434691938 0.012456650634449116 0 -0.02332152256175718 0.012346686632052186 0 -0.023264066359907201 0.012560081053660188 0 -0.018722897075859574 0.014049876829983769 0 -0.016959373362196495 0.014857149071527343 0 -0.013820206438818313 0.015863877773608447 0 -0.016959373362196495 0.014857149071527343 0 -0.023240437752331655 0.012435245158585004 0 -0.023264066359907201 0.012560081053660188 0 -0.02325918406154099 0.012545284493110894 0 -0.013209150832512237 0.014368735025379869 0 -0.012841049470806588 0.014431638363726422 0 -0.012829788084634265 0.013823300367750398 0 -0.013223918417407539 0.014659380004544677 0 -0.013209150832512237 0.014368735025379869 0 -0.012841049470806588 0.014431638363726422 0 -0.023264066359907201 0.012560081053660188 0 -0.02325918406154099 0.012545284493110894 0 -0.023253738895212699 0.012698207414484608 0 -0.023374171434691938 0.012456650634449116 0 -0.023462196506853758 0.012533679914916662 0 -0.023524090097885041 0.012444854077565558 0 -0.023374171434691938 0.012456650634449116 0 -0.023264066359907201 0.012560081053660188 0 -0.023462196506853758 0.012533679914916662 0 -0.023264066359907201 0.012560081053660188 0 -0.023462196506853758 0.012533679914916662 0 -0.023253738895212699 0.012698207414484608 0 -0.023462196506853758 0.012533679914916662 0 -0.023467353002953446 0.012698248311810184 0 -0.02328680258718354 0.012666078696022173 0 -0.021299095513907414 0.012023528128674738 0 -0.01939443067761033 0.012952747596385403 0 -0.013209150832512237 0.014368735025379869 0 -0.013386705179801662 0.013932323295157223 0 -0.012829788084634265 0.013823300367750398 0 -0.018162605382979247 0.013747468215611909 0 -0.01939443067761033 0.012952747596385403 0 -0.023662118649055115 0.012551912185270535 0 -0.023847956356534448 0.012637252236584132 0 -0.023639860156542403 0.012728136083731115 0 -0.023462196506853758 0.012533679914916662 0 -0.023467353002953446 0.012698248311810184 0 -0.023662118649055115 0.012551912185270535 0 -0.023467353002953446 0.012698248311810184 0 -0.023662118649055115 0.012551912185270535 0 -0.023639860156542403 0.012728136083731115 0 -0.023462196506853758 0.012533679914916662 0 -0.023662118649055115 0.012551912185270535 0 -0.023524090097885041 0.012444854077565558 0 -0.023662118649055115 0.012551912185270535 0 -0.023642032906369782 0.01240000891977101 0 -0.023524090097885041 0.012444854077565558 0 -0.023662118649055115 0.012551912185270535 0 -0.023642032906369782 0.01240000891977101 0 -0.02378514515054482 0.012433112849076021 0 -0.023642032906369782 0.01240000891977101 0 -0.023727374633101362 0.012329537595509109 0 -0.02378514515054482 0.012433112849076021 0 -0.023642032906369782 0.01240000891977101 0 -0.023524090097885041 0.012444854077565558 0 -0.023490398159926859 0.012346621496706373 0 -0.023642032906369782 0.01240000891977101 0 -0.023490398159926859 0.012346621496706373 0 -0.023599956839178118 0.012289300913076494 0 -0.023430777176572902 0.012398135873468358 0 -0.023524090097885041 0.012444854077565558 0 -0.023490398159926859 0.012346621496706373 0 -0.023525029169770784 0.012205338263090408 0 -0.023490398159926859 0.012346621496706373 0 -0.023599956839178118 0.012289300913076494 0 -0.023614367060254937 0.012197935146899741 0 -0.023525029169770784 0.012205338263090408 0 -0.023599956839178118 0.012289300913076494 0 -0.023642032906369782 0.01240000891977101 0 -0.023599956839178118 0.012289300913076494 0 -0.023727374633101362 0.012329537595509109 0 -0.023691312408844797 0.012234924623725146 0 -0.023614367060254937 0.012197935146899741 0 -0.023599956839178118 0.012289300913076494 0 -0.023691312408844797 0.012234924623725146 0 -0.023599956839178118 0.012289300913076494 0 -0.023727374633101362 0.012329537595509109 0 -0.023691312408844797 0.012234924623725146 0 -0.023727374633101362 0.012329537595509109 0 -0.023818930404999595 0.012265763964790082 0 -0.023727374633101362 0.012329537595509109 0 -0.023818930404999595 0.012265763964790082 0 -0.023844796563954371 0.012358163869981516 0 -0.023818930404999595 0.012265763964790082 0 -0.023946069806996952 0.012313715035805023 0 -0.023844796563954371 0.012358163869981516 0 -0.023939180992221708 0.012184614478587421 0 -0.023818930404999595 0.012265763964790082 0 -0.023946069806996952 0.012313715035805023 0 -0.023939180992221708 0.012184614478587421 0 -0.023946069806996952 0.012313715035805023 0 -0.024069416020162545 0.01225364377649437 0 -0.023931819420373406 0.012429854334521043 0 -0.024061041766000879 0.012386340606869809 0 -0.024035363187628795 0.012497131594286903 0 -0.023946069806996952 0.012313715035805023 0 -0.023931819420373406 0.012429854334521043 0 -0.023844796563954371 0.012358163869981516 0 -0.023946069806996952 0.012313715035805023 0 -0.023931819420373406 0.012429854334521043 0 -0.024061041766000879 0.012386340606869809 0 -0.023931819420373406 0.012429854334521043 0 -0.02378514515054482 0.012433112849076021 0 -0.023844796563954371 0.012358163869981516 0 -0.023727374633101362 0.012329537595509109 0 -0.02378514515054482 0.012433112849076021 0 -0.023844796563954371 0.012358163869981516 0 -0.024211952312550862 0.012303554925914426 0 -0.024069416020162545 0.01225364377649437 0 -0.024061041766000879 0.012386340606869809 0 -0.024155494327842985 0.012197020232897525 0 -0.024211952312550862 0.012303554925914426 0 -0.024069416020162545 0.01225364377649437 0 -0.023946069806996952 0.012313715035805023 0 -0.024069416020162545 0.01225364377649437 0 -0.024061041766000879 0.012386340606869809 0 -0.024211952312550862 0.012303554925914426 0 -0.024061041766000879 0.012386340606869809 0 -0.024167879813369389 0.012446548030752109 0 -0.02416440632208031 0.012886311883036431 0 -0.02422485603840923 0.012538777995029586 0 -0.024167879813369389 0.012446548030752109 0 -0.024092275311878474 0.012587645546978249 0 -0.024139508882782931 0.012541513352332948 0 -0.024061041766000879 0.012386340606869809 0 -0.024167879813369389 0.012446548030752109 0 -0.024035363187628795 0.012497131594286903 0 -0.024167879813369389 0.012446548030752109 0 -0.024035363187628795 0.012497131594286903 0 -0.024092275311878474 0.012587645546978249 0 -0.024092275311878474 0.012587645546978249 0 -0.024139508882782931 0.012541513352332948 0 -0.02413078493527733 0.012556838425185214 0 -0.024035363187628795 0.012497131594286903 0 -0.024092275311878474 0.012587645546978249 0 -0.02400880900090966 0.01258228534181322 0 -0.023662118649055115 0.012551912185270535 0 -0.02378514515054482 0.012433112849076021 0 -0.023889927568836324 0.012530128825138608 0 -0.023931819420373406 0.012429854334521043 0 -0.02378514515054482 0.012433112849076021 0 -0.023889927568836324 0.012530128825138608 0 -0.023931819420373406 0.012429854334521043 0 -0.024035363187628795 0.012497131594286903 0 -0.023889927568836324 0.012530128825138608 0 -0.024035363187628795 0.012497131594286903 0 -0.023889927568836324 0.012530128825138608 0 -0.02400880900090966 0.01258228534181322 0 -0.02400880900090966 0.01258228534181322 0 -0.023847956356534448 0.012637252236584132 0 -0.024097228265671785 0.012641132664854424 0 -0.024092275311878474 0.012587645546978249 0 -0.02400880900090966 0.01258228534181322 0 -0.024097228265671785 0.012641132664854424 0 -0.023889927568836324 0.012530128825138608 0 -0.02400880900090966 0.01258228534181322 0 -0.023847956356534448 0.012637252236584132 0 -0.023662118649055115 0.012551912185270535 0 -0.023889927568836324 0.012530128825138608 0 -0.023847956356534448 0.012637252236584132 0 -0.024782517026001039 0.012628428818976961 0 -0.024097228265671785 0.012641132664854424 0 -0.024447731093607719 0.012407669428649456 0 -0.023847956356534448 0.012637252236584132 0 -0.023792829792669695 0.012800599842240854 0 -0.024097228265671785 0.012641132664854424 0 -0.024156500882431139 0.012378855638193064 0 -0.024141577916501417 0.01245736290743055 0 -0.024097228265671785 0.012641132664854424 0 -0.024111970815321321 0.012576251765624482 0 -0.024447731093607719 0.012407669428649456 0 -0.024111970815321321 0.012576251765624482 0 -0.024447731093607719 0.012407669428649456 0 -0.024356863737587043 0.011972367376429673 0 -0.02426253326885118 0.012378602264899485 0 -0.024405621863699763 0.012038376792228786 0 -0.024293603754873085 0.012522473319542489 0 -0.02427235937668629 0.012314038579324452 0 -0.024542866933966907 0.012058650585136138 0 -0.024447731093607719 0.012407669428649456 0 -0.024356863737587043 0.011972367376429673 0 -0.024935457141562898 0.012055575576409744 0 -0.024782517026001039 0.012628428818976961 0 -0.024447731093607719 0.012407669428649456 0 -0.024935457141562898 0.012055575576409744 0 -0.024139508882782931 0.012541513352332948 0 -0.024092736646447982 0.012554176467240814 0 -0.02413078493527733 0.012556838425185214 0 -0.024092736646447982 0.012554176467240814 0 -0.02413078493527733 0.012556838425185214 0 -0.024146779614202626 0.012465792152073414 0 -0.024207330362838456 0.012489371268485188 0 -0.02426253326885118 0.012378602264899485 0 -0.024092275311878474 0.012587645546978249 0 -0.024293603754873085 0.012522473319542489 0 -0.02413078493527733 0.012556838425185214 0 -0.024092275311878474 0.012587645546978249 0 -0.024097228265671785 0.012641132664854424 0 -0.024111970815321321 0.012576251765624482 0 -0.024293603754873085 0.012522473319542489 0 -0.02413078493527733 0.012556838425185214 0 -0.024146779614202626 0.012465792152073414 0 -0.02427235937668629 0.012314038579324452 0 -0.024146779614202626 0.012465792152073414 0 -0.02413196552232753 0.012180742074966827 0 -0.024293603754873085 0.012522473319542489 0 -0.02427235937668629 0.012314038579324452 0 -0.024146779614202626 0.012465792152073414 0 -0.023939729191011925 0.012541279459431473 0 -0.024092736646447982 0.012554176467240814 0 -0.024146779614202626 0.012465792152073414 0 -0.023939729191011925 0.012541279459431473 0 -0.024146779614202626 0.012465792152073414 0 -0.02413196552232753 0.012180742074966827 0 -0.023939729191011925 0.012541279459431473 0 -0.023813843675554051 0.011887168807410154 0 -0.02413196552232753 0.012180742074966827 0 -0.023813843675554051 0.011887168807410154 0 -0.02413196552232753 0.012180742074966827 0 -0.024205037719397627 0.011496785621521791 0 -0.02413196552232753 0.012180742074966827 0 -0.024205037719397627 0.011496785621521791 0 -0.024542866933966907 0.012058650585136138 0 -0.02427235937668629 0.012314038579324452 0 -0.02413196552232753 0.012180742074966827 0 -0.024542866933966907 0.012058650585136138 0 -0.023701905589267054 0.011250343785725659 0 -0.023813843675554051 0.011887168807410154 0 -0.024205037719397627 0.011496785621521791 0 -0.024356863737587043 0.011972367376429673 0 -0.024647584650334335 0.011395035165533685 0 -0.024935457141562898 0.012055575576409744 0 -0.024405621863699763 0.012038376792228786 0 -0.024501524576020828 0.011789094376503001 0 -0.024205037719397627 0.011496785621521791 0 -0.024542866933966907 0.012058650585136138 0 -0.024647584650334335 0.011395035165533685 0 -0.025111935033094029 0.011090575763798674 0 -0.024647584650334335 0.011395035165533685 0 -0.025212343906860432 0.011623893159915053 0 -0.024647584650334335 0.011395035165533685 0 -0.025212343906860432 0.011623893159915053 0 -0.024935457141562898 0.012055575576409744 0 -0.025212343906860432 0.011623893159915053 0 -0.024935457141562898 0.012055575576409744 0 -0.025604119637267837 0.011947422529509753 0 -0.025111935033094029 0.011090575763798674 0 -0.025212343906860432 0.011623893159915053 0 -0.025651135233194136 0.011483971207399571 0 -0.025212343906860432 0.011623893159915053 0 -0.025604119637267837 0.011947422529509753 0 -0.025651135233194136 0.011483971207399571 0 -0.025604119637267837 0.011947422529509753 0 -0.025651135233194136 0.011483971207399571 0 -0.026135752441350329 0.011616732009342918 0 -0.025855441323710558 0.011138608357414254 0 -0.025651135233194136 0.011483971207399571 0 -0.026135752441350329 0.011616732009342918 0 -0.018799964550513006 0.011030762296750454 0 -0.01855131840762729 0.011223627666095304 0 -0.018721078398216268 0.011501673605288171 0 -0.020517883405072667 0.011198199126178794 0 -0.021349350886338096 0.01196497371169759 0 -0.01855131840762729 0.011223627666095304 0 -0.018721078398216268 0.011501673605288171 0 -0.018553292722079329 0.011847310469753529 0 -0.025604119637267837 0.011947422529509753 0 -0.026135752441350329 0.011616732009342918 0 -0.026126598588737684 0.012287687009817515 0 -0.021349350886338096 0.01196497371169759 0 -0.023852570812038645 0.012136043552461942 0 -0.025604119637267837 0.011947422529509753 0 -0.026126598588737684 0.012287687009817515 0 -0.025473632365955141 0.012458406475462468 0 -0.018913324410914201 0.01220948607361232 0 -0.01866153429012557 0.011819218797917811 0 -0.018554725583764062 0.011846884377952288 0 -0.018922137302095032 0.011780595314930408 0 -0.018721078398216268 0.011501673605288171 0 -0.01866153429012557 0.011819218797917811 0 -0.018721078398216268 0.011501673605288171 0 -0.01866153429012557 0.011819218797917811 0 -0.018553292722079329 0.011847310469753529 0 -0.021248546361783947 0.011982249484417411 0 -0.021349350886338096 0.01196497371169759 0 -0.01939443067761033 0.012952747596385403 0 -0.021349350886338096 0.01196497371169759 0 -0.017044063993022524 0.012855059177412425 0 -0.01939443067761033 0.012952747596385403 0 -0.018913324410914201 0.01220948607361232 0 -0.018553196134555246 0.012520148338263254 0 -0.018554725583764062 0.011846884377952288 0 -0.023467353002953446 0.012698248311810184 0 -0.023280043535584351 0.012929652301601197 0 -0.023528403700879965 0.012870749744257858 0 -0.023467353002953446 0.012698248311810184 0 -0.02328680258718354 0.012666078696022173 0 -0.023280043535584351 0.012929652301601197 0 -0.023467353002953446 0.012698248311810184 0 -0.023639860156542403 0.012728136083731115 0 -0.023528403700879965 0.012870749744257858 0 -0.023792829792669695 0.012800599842240854 0 -0.023639860156542403 0.012728136083731115 0 -0.023528403700879965 0.012870749744257858 0 -0.024156500882431139 0.012378855638193064 0 -0.023852570812038645 0.012136043552461942 0 -0.023847956356534448 0.012637252236584132 0 -0.023792829792669695 0.012800599842240854 0 -0.023639860156542403 0.012728136083731115 0 -0.024782517026001039 0.012628428818976961 0 -0.024935457141562898 0.012055575576409744 0 -0.025473632365955141 0.012458406475462468 0 -0.024935457141562898 0.012055575576409744 0 -0.025604119637267837 0.011947422529509753 0 -0.025473632365955141 0.012458406475462468 0 
</DataArray>
</PointData>
<CellData Scalars="region_id,cross_section_updated," Vectors="" Tensors="stress,">
<DataArray type="Float64" Name="region_id" format="ascii">
5 5 6 5 5 5 5 6 5 5 5 5 5 5 5 5 5 5 5 5 6 5 5 5 5 6 5 5 5 5 5 5 5 6 5 5 5 5 5 5 5 5 6 5 5 5 5 5 5 5 5 5 5 5 6 6 5 5 5 5 5 5 5 5 6 5 5 5 5 5 5 5 5 5 5 5 5 5 5 5 5 5 5 5 5 5 5 6 5 5 5 5 5 5 5 5 5 5 5 6 5 5 5 6 5 5 5 5 5 5 5 5 5 5 5 5 5 5 5 5 5 5 5 5 5 5 5 5 5 5 5 5 5 5 5 5 5 5 5 5 5 5 5 5 5 5 5 5 5 6 5 6 5 5 5 5 5 5 5 5 5 5 5 5 5 5 5 5 5 5 5 5 5 5 5 5 5 5 6 5 5 6 5 6 5 5 5 5 5 5 5 5 5 5 5 5 5 5 6 5 6 5 5 5 5 5 5 5 6 5 6 5 5 5 5 5 5 6 5 5 6 5 5 5 5 5 5 6 6 5 5 6 5 6 5 6 6 5 5 5 6 5 5 5 5 5 5 5 5 5 5 5 5 5 6 5 5 5 5 5 5 5 6 5 5 5 5 5 5 5 6 5 5 5 5 6 5 5 5 5 5 5 6 5 5 5 6 5 5 5 5 5 5 5 6 5 5 5 5 5 5 6 5 5 5 5 5 5 6 5 5 5 5 5 5 5 6 5 5 5 5 5 5 5 5 5 5 5 5 5 5 5 5 5 5 5 5 5 6 6 5 5 5 5 5 6 5 5 5 5 5 5 5 6 5 6 5 5 5 6 5 5 5 6 5 6 5 5 5 5 5 5 5 6 5 5 5 5 5 5 5 6 5 5 5 6 5 5 5 5 5 5 5 5 5 5 5 5 5 5 5 5 5 5 5 5 5 5 5 5 5 5 5 5 5 5 5 5 6 5 5 5 5 5 5 5 5 5 5 5 5 5 5 5 5 5 5 5 5 5 5 5 5 5 5 5 5 5 5 5 5 6 5 5 5 5 5 5 5 5 5 5 5 5 5 5 5 5 5 5 5 5 6 5 5 5 5 5 5 5 6 5 5 5 5 5 6 5 5 6 5 6 5 5 5 5 6 5 5 6 5 5 5 5 5 5 6 5 5 5 5 5 5 5 5 5 5 5 5 5 5 5 5 5 5 5 6 5 5 5 5 5 5 5 5 5 5 5 6 6 5 5 5 5 5 5 5 5 5 5 5 5 5 5 5 5 5 5 5 5 5 6 5 6 6 5 5 6 5 5 5 5 5 5 5 5 5 5 5 5 5 6 5 5 5 5 5 5 5 6 6 5 5 5 5 5 5 5 5 6 6 5 5 5 6 5 5 5 5 5 5 5 5 5 5 5 5 5 5 5 5 5 5 5 5 5 5 5 5 5 5 5 5 5 5 5 5 5 5 5 6 5 5 6 5 5 5 5 6 5 5 5 6 5 5 5 6 5 5 6 5 5 5 5 5 5 5 5 5 5 5 5 5 5 5 5 5 5 5 5 5 6 5 5 5 6 5 5 5 5 5 6 5 5 5 5 5 5 6 5 5 5 5 5 5 5 5 5 5 5 5 5 5 5 5 5 5 6 5 5 5 5 5 5 5 5 5 5 5 5 5 5 5 5 5 5 5 5 5 6 5 5 5 5 5 5 5 5 5 5 5 5 5 5 5 6 5 5 5 5 5 5 5 5 5 5 5 5 5 5 5 5 5 5 6 5 5 5 5 5 5 5 6 5 5 5 5 5 5 5 5 5 5 5 5 5 5 5 5 5 5 5 5 5 6 5 5 5 5 5 5 5 5 5 6 5 5 5 5 5 5 5 5 6 5 5 5 5 5 5 5 5 5 5 5 5 5 5 5 5 5 5 5 6 5 5 5 5 5 6 5 5 5 6 5 5 5 5 5 5 6 5 5 5 5 5 5 5 5 5 5 6 5 5 5 5 5 5 5 5 5 5 5 5 6 5 6 5 5 5 5 5 5 5 6 5 6 5 5 5 5 5 5 5 5 5 5 5 5 5 5 5 5 5 5 5 5 5 5 5 5 5 5 5 5 5 5 5 5 5 5 5 5 5 5 5 5 5 5 5 5 5 6 6 5 5 6 5 5 5 5 5 5 5 5 5 5 5 5 5 5 5 5 6 5 5 5 5 6 5 5 6 5 5 5 5 5 5 6 5 6 5 5 6 5 5 5 5 5 5 5 5 5 5 6 5 5 5 5 5 6 6 5 5 5 5 6 5 5 6 5 6 5 5 5 5 5 6 5 5 6 5 5 5 5 5 5 5 5 5 5 5 5 6 5 5 5 5 5 5 5 5 5 5 5 5 5 5 5 6 5 6 5 6 6 5 6 5 5 6 5 5 5 5 5 5 6 5 6 5 5 6 5 5 5 6 5 5 6 5 5 5 5 5 6 5 5 6 5 5 5 5 5 6 5 6 5 5 6 5 5 6 5 5 5 5 5 5 5 5 6 5 5 5 5 5 5 5 5 5 5 6 5 5 5 5 6 5 5 6 5 5 5 5 5 6 5 5 5 5 5 6 5 6 5 5 5 5 5 5 6 5 5 5 5 5 5 5 5 6 6 6 5 5 5 5 6 5 6 5 5 5 6 6 5 5 5 6 5 5 5 6 5 6 5 6 6 5 6 5 5 5 5 6 5 5 5 6 5 6 5 6 5 5 5 5 5 5 5 6 5 5 5 5 6 5 5 5 5 5 5 5 5 6 5 6 6 5 5 5 6 5 5 5 5 6 6 5 5 6 6 5 5 5 5 5 6 5 5 5 5 5 5 5 5 6 5 6 5 5 5 5 5 5 5 5 5 5 5 5 5 5 5 5 5 6 5 5 5 5 5 5 5 5 5 5 5 5 5 5 5 5 5 5 5 5 5 5 5 5 5 6 5 6 5 5 5 5 5 6 6 5 5 5 5 6 6 5 6 5 5 6 5 5 6 5 5 5 5 6 6 5 5 5 5 5 5 5 5 6 5 5 6 5 5 5 6 5 5 6 5 5 5 5 5 5 6 5 5 5 5 5 5 6 5 5 5 5 5 6 5 5 6 6 5 5 6 5 5 6 5 5 5 5 5 5 5 5 5 5 5 5 6 5 6 5 5 6 5 5 5 5 5 5 6 5 5 5 6 6 6 5 5 5 6 6 5 6 6 5 5 6 5 5 6 5 6 5 6 5 5 5 6 6 5 5 6 6 6 6 5 5 5 6 6 5 5 6 6 6 5 6 6 5 5 6 5 6 6 5 6 5 5 6 5 6 6 5 5 5 5 6 6 5 5 6 5 5 5 6 5 5 5 5 5 5 5 5 5 5 5 5 5 5 5 5 5 5 5 5 5 5 5 5 5 5 5 5 5 5 5 5 5 5 5 5 5 5 5 5 5 5 5 5 5 5 5 5 5 5 5 5 5 5 5 5 5 5 6 5 6 5 5 5 5 5 5 5 5 5 5 5 5 5 5 6 5 5 5 5 5 5 5 5 5 5 6 5 5 5 5 5 5 5 5 5 5 5 5 5 5 5 5 5 5 5 5 5 5 5 5 5 5 5 5 5 5 5 5 5 5 5 5 5 5 5 5 5 5 5 5 5 5 6 5 5 5 6 5 6 5 5 5 5 5 6 5 6 5 5 5 5 5 5 5 5 5 5 5 5 5 5 5 5 5 5 5 5 5 5 5 5 5 6 5 5 5 5 5 5 6 5 6 5 5 5 6 5 5 6 5 5 5 5 5 5 5 5 5 5 5 5 5 5 5 5 5 5 5 5 5 5 5 5 5 5 5 5 5 5 5 5 5 5 5 5 5 6 5 6 5 5 5 5 5 5 5 5 5 5 6 5 5 5 5 5 5 5 5 5 5 5 5 5 5 5 5 5 6 5 5 5 6 6 5 6 5 5 5 5 5 5 5 5 6 5 5 5 5 6 5 5 5 5 5 5 5 6 5 5 6 5 6 5 5 6 5 5 6 6 5 5 5 5 5 5 5 5 5 5 5 5 5 5 5 6 5 6 5 5 5 6 5 6 5 5 5 5 5 5 5 5 5 5 5 5 6 5 6 5 5 5 5 5 5 5 5 6 5 5 6 5 5 5 6 6 5 5 5 5 5 5 5 5 5 5 5 5 5 5 5 5 5 5 5 5 5 6 5 5 5 5 5 6 5 6 5 5 5 5 6 5 5 6 5 5 5 5 5 6 5 5 5 5 6 5 5 5 5 5 5 5 6 5 5 5 6 5 5 5 5 5 5 5 5 5 5 5 6 5 5 5 5 5 5 5 5 6 5 5 5 5 5 5 6 5 5 5 5 5 5 6 5 5 5 5 5 5 5 5 5 5 5 6 5 5 5 6 5 5 5 6 5 6 5 5 5 5 5 5 6 5 5 5 5 5 5 5 5 5 5 5 5 5 5 5 6 5 5 5 5 5 6 5 5 5 5 5 5 5 5 6 5 5 5 5 5 5 5 5 5 5 5 5 5 5 5 5 6 5 5 5 5 6 5 5 5 5 5 5 5 5 5 5 5 5 5 5 5 5 5 5 5 5 5 5 5 5 5 5 6 5 5 5 6 5 6 5 5 5 5 6 5 6 5 5 5 5 5 6 5 5 5 5 5 5 5 5 5 6 5 5 5 5 5 5 5 5 5 5 5 5 5 5 5 5 5 5 5 5 5 5 5 5 6 6 5 5 5 5 5 6 5 5 5 6 5 5 5 6 5 5 6 5 6 5 5 5 5 6 5 5 5 5 6 6 5 5 5 5 5 5 5 5 5 5 5 5 6 5 5 5 5 6 5 5 5 5 5 6 5 5 6 5 5 5 5 5 5 5 5 5 5 5 5 5 5 5 5 6 5 5 6 5 5 5 6 5 5 5 5 5 5 5 5 5 5 5 6 5 5 5 5 5 5 5 5 5 5 5 5 5 5 5 5 6 5 5 6 5 6 5 5 6 5 6 5 6 5 5 5 5 5 5 5 5 5 5 5 5 5 6 5 6 6 5 5 6 6 5 5 6 6 5 5 5 6 5 6 5 5 6 5 5 5 5 6 6 5 6 5 5 6 6 5 5 6 5 5 5 6 5 5 5 6 6 6 5 5 6 5 6 6 5 5 5 5 5 5 5 5 5 5 5 6 6 5 6 5 6 5 6 5 5 5 6 5 5 5 5 5 6 5 5 5 5 5 5 5 5 5 5 5 5 5 5 5 5 5 5 5 5 5 5 5 5 6 5 5 5 5 5 5 5 5 5 5 5 5 5 5 5 5 5 5 6 5 5 5 5 5 5 5 5 5 5 5 6 5 5 5 5 5 6 5 5 5 5 5 5 5 5 5 5 5 5 5 5 6 5 5 5 5 5 5 5 5 5 5 5 5 5 5 6 5 6 5 5 5 5 6 5 5 5 5 5 5 5 5 5 5 5 5 6 5 6 5 5 5 5 6 5 5 5 5 5 5 5 6 5 5 5 5 5 5 5 6 5 5 5 6 5 6 5 5 5 5 5 5 5 5 5 6 5 5 5 5 5 5 5 5 5 5 5 5 5 5 5 5 5 5 5 5 5 5 5 5 5 5 5 5 5 5 5 5 5 5 5 5 5 5 5 5 5 5 5 6 5 5 6 5 5 5 5 5 5 5 5 5 5 6 5 5 5 5 5 6 5 5 6 5 5 5 5 5 5 6 5 5 5 5 6 5 5 6 5 6 5 5 5 5 5 5 5 5 5 5 5 6 5 6 5 5 5 5 6 5 5 5 5 5 5 5 5 5 5 5 5 5 5 5 5 5 5 5 5 5 6 5 5 5 5 6 5 5 5 5 5 5 5 6 5 5 5 5 5 6 5 5 5 6 5 5 5 6 5 5 6 5 5 5 6 5 5 6 5 5 5 5 5 5 5 5 5 5 5 5 5 5 5 5 5 5 5 5 5 5 5 5 5 5 5 5 5 5 5 6 5 5 5 5 5 5 5 5 5 5 5 6 5 5 5 5 5 5 5 5 5 5 5 5 5 5 5 6 6 5 5 5 6 5 5 5 5 6 5 5 6 5 5 5 5 5 5 5 5 5 5 5 5 5 6 6 5 5 5 5 5 5 5 5 5 5 5 6 5 5 6 5 5 5 5 5 5 5 5 5 5 5 5 5 5 5 5 5 5 5 6 5 5 5 6 5 5 5 5 5 6 5 5 5 5 5 5 5 5 5 5 5 5 5 5 5 5 5 5 5 5 6 5 5 6 5 5 5 5 5 5 5 5 5 5 5 5 5 5 5 5 5 5 5 6 5 5 5 5 5 5 5 5 5 5 5 5 5 5 5 5 5 5 5 5 5 5 5 5 5 5 5 5 5 5 5 5 6 5 5 5 5 5 5 6 5 5 5 5 5 6 5 5 5 5 6 5 5 5 5 5 5 5 5 5 5 5 5 5 5 5 5 5 5 5 5 5 5 6 5 5 5 5 5 5 5 6 5 5 6 5 5 6 5 5 5 5 5 5 6 5 5 5 5 5 5 5 5 5 5 6 5 6 5 5 5 5 5 5 5 5 6 5 5 6 5 5 5 6 5 5 5 6 5 5 5 6 6 5 5 6 5 5 6 5 5 6 5 5 5 5 5 5 5 5 5 6 5 5 5 6 5 5 5 6 5 5 5 6 5 6 5 5 6 5 5 5 5 5 5 5 5 6 5 5 6 5 5 5 5 5 5 5 5 5 5 5 5 5 6 5 6 5 5 5 6 6 5 6 5 5 5 5 6 5 6 5 5 5 5 5 5 5 5 5 6 5 5 5 5 5 5 5 5 5 5 5 5 5 5 5 5 5 5 5 5 5 5 5 5 5 5 5 5 6 5 5 5 5 5 5 6 5 5 5 5 5 5 6 5 5 5 5 5 5 6 5 5 5 6 5 5 5 6 5 5 6 5 5 5 5 5 5 6 5 5 5 6 6 5 5 5 5 5 5 5 5 5 5 5 5 5 5 5 5 5 6 5 5 5 5 5 5 5 6 5 5 5 5 5 6 5 5 5 5 5 6 5 5 6 5 5 5 5 6 5 5 5 5 5 5 6 5 6 5 6 6 5 6 5 5 5 6 5 5 5 5 5 6 5 5 5 6 5 5 5 5 6 6 6 5 5 5 5 6 6 5 6 5 5 5 5 5 5 6 5 6 5 5 6 5 5 5 6 5 5 6 5 5 5 5 5 5 5 5 5 5 5 5 6 5 5 5 5 6 5 5 5 5 6 5 5 5 5 5 5 5 5 5 6 6 6 5 5 5 6 6 5 5 6 5 6 5 5 5 5 5 5 5 6 5 5 5 5 5 5 5 5 5 5 5 5 5 5 5 5 6 5 5 5 5 5 5 5 5 5 6 5 5 6 5 6 5 6 5 5 6 5 5 5 6 6 5 5 6 5 5 5 6 5 5 5 5 6 5 5 5 5 5 5 5 5 5 5 5 6 6 5 5 5 5 5 5 5 5 5 5 5 5 5 5 5 5 5 5 5 5 5 5 5 5 5 5 5 5 5 5 5 5 6 5 5 5 5 5 5 5 5 5 5 5 5 5 5 5 5 5 5 5 6 5 5 5 5 5 5 6 6 5 5 6 6 5 5 5 6 5 5 5 5 5 5 5 5 5 5 5 5 5 5 5 5 5 5 5 5 5 5 5 6 5 6 5 6 5 5 5 5 5 5 6 5 6 6 5 5 6 5 5 5 5 5 5 6 6 5 5 6 6 5 5 6 6 5 5 5 5 5 5 5 5 6 5 5 5 5 5 6 5 5 6 5 5 5 6 5 5 5 5 5 5 5 5 5 5 5 5 5 5 5 5 5 5 5 5 5 5 5 5 5 5 5 5 5 5 5 5 5 5 6 5 5 6 5 6 6 5 5 5 5 5 5 5 5 5 6 5 5 5 5 5 6 5 5 5 5 5 5 5 6 5 5 5 5 5 5 5 5 6 5 5 5 5 5 6 5 5 5 5 5 5 5 5 5 5 5 5 5 5 5 5 5 5 5 5 5 5 5 5 5 5 5 5 5 5 6 6 5 5 5 5 5 5 5 6 5 5 5 6 5 6 5 5 5 5 5 5 5 5 5 5 5 5 5 5 5 5 5 5 5 5 5 6 5 5 5 5 5 5 6 5 5 5 5 5 5 5 6 5 5 6 5 5 5 5 5 5 6 5 5 5 6 5 5 6 6 5 5 5 5 5 5 5 5 5 5 5 5 5 5 5 5 5 5 5 5 5 5 5 5 5 5 5 5 6 5 5 5 5 5 5 5 5 5 5 5 5 5 5 5 5 5 5 5 6 5 5 5 6 6 5 5 5 5 5 6 5 5 5 6 5 5 5 5 5 6 5 5 5 5 5 5 5 5 5 5 5 5 5 5 5 5 5 5 5 5 5 6 5 5 5 5 5 5 6 5 5 5 5 5 5 5 5 5 5 5 5 6 5 5 5 5 6 5 6 5 5 5 5 5 5 5 5 5 5 5 5 5 6 5 5 5 5 5 6 5 5 5 5 5 5 6 5 5 5 5 5 5 5 5 5 5 5 5 6 5 5 6 5 5 6 5 5 6 5 5 5 5 5 5 5 5 5 5 6 5 5 5 5 5 5 5 5 6 5 5 5 6 5 5 5 6 5 5 6 5 5 5 6 5 5 5 5 5 6 5 6 5 5 5 5 6 6 5 5 5 6 5 5 5 5 6 5 5 5 5 5 5 5 5 5 5 5 5 5 5 5 6 5 5 6 6 5 5 5 5 6 5 5 5 5 5 5 6 5 5 5 5 5 5 6 5 5 5 5 5 5 5 5 6 5 5 5 5 5 5 5 5 5 5 6 5 5 6 5 5 6 5 5 5 5 5 6 6 5 5 6 6 5 6 5 6 5 6 6 5 5 6 5 6 5 6 5 6 5 6 5 5 6 5 6 5 6 5 5 5 5 5 5 6 5 5 5 6 5 5 5 5 5 5 5 5 5 6 5 5 6 5 6 5 6 5 5 5 6 6 5 5 5 5 5 5 5 5 5 5 5 6 5 5 5 5 5 6 5 5 5 5 5 5 5 5 5 5 5 5 5 5 5 5 5 6 5 5 5 5 5 5 6 5 5 5 6 5 5 6 5 5 5 6 5 6 6 5 5 5 5 5 5 5 5 5 6 5 5 5 5 5 5 5 6 5 6 5 6 5 5 5 5 5 5 5 5 5 5 5 5 5 5 5 5 5 5 5 5 5 5 5 5 5 5 5 5 5 5 5 5 5 5 5 5 5 6 5 5 6 6 5 5 5 5 6 5 5 5 5 5 6 5 5 6 6 5 5 5 5 5 5 6 5 6 5 5 6 6 5 6 5 5 5 6 5 5 5 5 6 5 5 5 6 5 5 6 6 5 5 5 6 5 5 5 5 6 5 5 6 5 5 5 6 5 5 6 5 5 5 6 5 6 5 5 6 5 5 6 6 5 5 6 5 6 6 5 5 5 5 6 5 5 5 5 6 5 5 5 5 5 5 5 5 5 5 5 5 6 5 5 5 5 6 5 6 5 5 5 5 5 6 6 6 5 5 5 5 5 5 5 5 6 5 5 5 5 5 5 6 5 5 5 5 6 5 5 5 5 5 5 5 5 5 5 5 5 5 5 5 5 5 5 6 5 6 5 5 6 6 5 6 5 5 6 5 6 5 6 5 6 5 5 5 5 6 5 5 5 6 5 5 5 5 5 5 5 5 5 5 5 5 5 5 5 5 5 5 5 5 5 5 5 5 5 6 5 5 5 5 5 6 5 5 5 5 5 5 5 5 5 5 5 6 5 5 5 5 5 6 5 5 6 6 5 5 5 6 5 5 6 6 5 6 5 5 5 5 5 5 5 5 5 5 5 5 5 5 5 5 6 5 5 5 5 6 5 5 5 5 5 5 5 5 6 6 5 5 6 5 5 5 5 5 5 5 5 5 6 6 5 5 6 5 5 5 6 5 5 5 5 5 5 5 5 5 5 5 5 5 5 5 5 5 5 5 5 5 5 5 5 5 5 6 5 5 5 5 5 5 5 5 5 5 5 5 5 5 5 5 5 5 5 5 6 5 5 5 6 6 5 5 5 6 5 5 6 5 5 5 5 5 6 5 6 5 5 5 5 5 5 5 5 6 5 5 5 6 5 5 6 5 6 5 5 5 6 5 5 5 6 5 5 5 5 5 5 5 5 5 5 5 5 5 5 5 5 5 6 5 5 5 5 5 5 5 5 5 6 5 5 5 5 5 5 5 5 6 5 5 5 5 5 5 5 5 5 5 5 5 5 6 5 5 5 6 5 5 5 5 5 5 5 5 5 5 5 5 5 5 5 5 5 5 5 6 5 5 5 6 5 6 5 5 5 6 5 5 5 6 6 5 5 5 5 5 5 5 5 5 5 5 5 5 5 5 5 5 5 5 5 5 5 6 5 5 5 5 6 5 5 5 5 6 5 5 5 5 5 5 5 6 5 5 5 5 6 5 5 5 5 5 5 6 5 5 5 5 5 5 6 5 5 5 6 5 5 5 5 5 5 5 5 5 6 5 5 5 5 5 5 6 5 5 5 5 5 5 5 5 5 5 5 6 5 5 6 5 5 5 5 5 6 5 5 6 5 5 5 5 5 5 5 6 6 5 5 5 5 6 5 5 5 5 5 5 6 5 5 5 5 5 5 5 5 5 5 6 5 5 5 5 5 5 5 5 5 5 5 5 6 5 6 5 5 5 6 5 5 6 5 5 5 5 6 5 5 5 5 5 6 5 5 5 5 5 5 5 5 6 5 5 5 5 6 5 5 5 5 5 5 5 6 5 5 5 5 5 5 5 5 5 5 6 5 5 5 6 5 6 5 5 5 5 5 5 6 5 6 5 6 5 5 5 5 6 5 5 5 5 5 5 5 5 5 5 5 5 5 5 6 5 6 5 5 5 5 5 5 5 6 5 5 5 5 5 5 5 5 5 5 5 5 5 6 5 5 5 5 6 5 5 5 5 5 5 5 5 5 5 5 5 5 5 5 5 5 5 5 5 5 5 5 5 6 5 5 5 5 6 5 5 5 6 5 5 6 5 5 6 5 5 5 5 5 5 5 5 5 5 5 5 5 5 5 6 5 5 6 5 5 5 5 5 5 5 6 5 5 5 5 5 6 5 5 5 6 5 5 5 6 5 5 5 5 5 5 5 6 5 5 5 6 5 6 6 5 5 5 5 5 6 5 5 5 5 5 5 5 5 5 5 6 5 5 5 5 5 5 5 5 5 5 5 5 5 5 5 5 5 5 5 5 5 5 5 5 5 5 5 5 5 5 5 5 5 5 5 5 5 6 5 5 5 5 5 5 5 5 5 5 5 5 5 5 5 5 6 5 5 5 5 5 5 5 5 5 6 5 5 5 5 5 5 5 6 5 5 5 5 5 5 5 5 5 5 5 5 5 5 5 5 5 5 5 5 5 6 5 5 5 5 5 5 5 5 5 5 5 5 5 5 5 5 5 6 5 5 5 5 5 5 5 5 5 5 5 5 5 5 5 5 5 5 5 5 5 5 5 5 5 5 5 5 5 5 5 5 5 5 5 5 5 5 5 5 5 5 5 5 5 5 6 5 5 5 5 5 5 5 5 5 5 5 5 5 6 5 6 5 5 5 5 5 6 5 5 5 5 5 6 6 5 5 5 5 5 5 5 5 5 5 5 5 5 5 5 5 5 6 6 5 5 5 5 5 5 6 5 6 5 5 5 5 5 5 5 5 5 6 5 5 5 5 5 5 5 5 5 5 5 5 5 5 5 5 5 5 5 6 5 5 5 5 5 6 5 6 5 5 5 5 5 5 5 6 5 5 5 6 5 5 5 6 5 5 6 5 5 5 6 5 5 6 5 6 5 6 5 5 6 5 5 5 5 5 5 5 5 5 5 5 5 5 5 5 5 5 5 5 5 5 6 5 6 5 5 5 5 5 5 5 6 5 5 5 5 5 5 5 5 5 5 5 5 5 5 5 5 5 5 5 6 5 5 5 6 5 5 5 5 5 5 5 5 5 5 6 5 5 5 5 6 5 5 6 5 5 5 5 5 6 5 5 5 5 6 5 6 5 5 6 5 5 5 5 5 5 5 6 5 5 6 5 6 5 5 5 5 5 5 5 5 5 5 5 5 5 5 5 5 5 5 6 5 5 5 5 5 5 5 6 5 5 5 5 6 5 5 5 5 5 5 5 5 5 6 5 5 5 5 6 5 5 5 5 5 5 5 5 5 5 5 5 6 5 5 5 5 5 5 5 5 5 6 5 5 5 5 5 5 5 5 5 5 5 5 6 5 5 6 5 5 5 5 5 5 5 5 5 6 6 6 5 5 5 6 5 5 5 5 5 5 6 5 5 5 6 6 5 5 5 5 5 5 5 5 5 5 5 5 6 5 5 5 6 6 5 5 5 5 5 6 5 5 5 5 6 5 5 5 5 6 5 5 5 5 5 6 6 6 5 5 5 6 6 5 5 5 5 5 5 5 5 5 6 6 5 5 5 6 6 5 5 5 5 5 5 5 5 5 5 5 5 5 5 5 5 5 6 5 6 5 5 5 5 6 5 5 5 5 5 5 5 6 5 5 5 5 5 5 5 6 5 5 6 5 6 6 5 5 5 6 6 5 5 5 6 6 5 5 5 5 5 5 5 5 5 5 6 5 5 5 5 5 5 5 6 5 5 5 5 6 5 5 5 5 5 5 6 5 5 5 5 6 5 6 5 5 5 5 5 5 5 5 5 5 5 5 5 5 6 5 5 5 5 5 5 5 6 5 5 5 5 6 5 5 5 6 5 5 5 5 5 5 5 5 5 5 5 5 5 5 5 5 5 5 5 5 5 5 6 5 6 5 5 6 5 5 5 6 5 5 6 5 5 5 5 5 5 5 5 5 5 5 5 5 5 5 5 5 5 5 5 6 6 6 5 5 5 5 5 5 5 5 5 5 5 5 5 6 5 5 5 6 5 5 6 5 5 5 5 6 5 5 6 6 5 5 5 5 6 5 5 6 5 6 5 5 5 5 5 5 5 5 5 5 5 5 6 5 5 5 5 5 5 5 6 5 6 5 5 5 5 6 5 5 5 5 5 5 5 5 5 5 5 5 5 5 5 5 5 5 5 5 5 5 5 6 5 5 5 6 5 6 5 5 5 6 5 5 5 5 5 6 5 5 6 5 5 5 5 5 5 5 5 6 5 5 5 5 5 6 5 5 5 5 5 5 5 5 5 5 5 5 5 5 6 5 5 5 5 6 5 5 5 5 5 5 5 5 5 5 5 5 6 5 5 5 5 6 5 5 5 5 5 5 5 5 5 5 5 5 5 6 5 5 6 5 5 5 6 5 5 5 5 5 5 5 5 5 5 5 5 5 6 6 5 6 6 5 5 5 6 6 5 6 5 6 5 6 5 5 5 6 5 6 5 5 5 5 6 5 5 5 5 5 5 6 5 5 5 5 5 6 5 5 6 5 5 6 5 5 6 5 5 5 5 5 6 5 6 5 5 5 5 5 5 5 5 5 5 5 5 5 6 5 5 6 5 5 5 5 5 5 5 5 5 6 5 5 5 5 5 5 5 5 5 6 5 5 6 5 6 5 5 5 5 5 5 5 6 5 5 5 5 5 5 5 6 5 6 5 5 6 5 5 5 6 5 5 5 5 6 5 5 5 5 5 6 5 5 5 5 5 5 5 5 5 5 5 5 5 5 5 5 5 5 5 5 5 6 5 5 6 5 5 5 6 5 5 5 5 6 5 5 5 5 5 5 5 5 5 5 5 5 5 5 5 5 5 5 5 5 5 5 5 6 5 5 5 5 5 5 6 5 5 5 5 5 5 5 5 5 5 5 5 5 6 5 6 5 5 6 5 5 5 5 6 6 5 6 5 6 5 5 5 5 5 6 5 5 6 6 5 5 5 5 5 6 5 5 6 5 5 5 5 5 5 5 5 6 6 5 5 5 6 5 6 5 5 5 5 5 6 5 6 5 5 5 5 5 6 6 5 5 5 5 6 5 5 5 5 6 5 5 5 5 5 5 5 5 5 5 5 5 5 5 5 5 5 6 5 5 6 5 5 5 6 5 5 5 5 5 5 5 5 5 5 5 5 5 5 5 5 5 5 5 6 5 5 5 5 5 5 5 5 5 5 5 5 5 5 6 6 5 5 5 6 5 5 5 5 5 6 5 5 5 5 5 5 5 5 5 5 5 6 5 5 6 5 5 5 5 5 5 5 5 5 5 6 5 5 5 6 5 6 5 6 5 5 5 6 6 5 6 5 5 6 5 5 6 6 5 5 5 6 5 5 6 5 6 5 5 5 6 5 5 6 6 5 6 5 5 6 5 6 5 5 5 5 5 5 5 5 5 6 5 5 5 5 5 6 5 5 5 5 5 5 5 5 5 5 6 5 5 5 5 6 6 5 5 6 5 6 5 5 5 5 5 6 5 5 6 5 6 5 5 5 5 5 5 5 6 5 5 5 5 5 5 5 5 5 6 5 6 5 6 5 6 5 5 5 5 6 5 5 5 5 5 6 6 5 5 5 5 5 5 6 5 5 5 5 5 6 5 5 5 5 6 5 5 6 5 6 5 5 5 6 5 6 5 5 6 6 6 5 5 5 5 5 5 6 6 6 5 5 5 5 6 5 6 5 6 5 5 5 5 5 5 6 5 5 5 5 5 5 5 5 5 5 5 5 5 5 5 5 5 5 5 5 5 5 5 5 5 5 5 5 5 5 5 5 5 5 5 5 5 5 5 5 5 5 5 5 5 5 5 5 5 6 5 5 5 6 6 5 5 5 5 5 5 5 5 5 5 5 5 5 5 5 5 5 5 5 6 5 5 5 5 5 5 5 6 5 5 6 5 5 6 5 5 6 5 6 5 5 6 5 5 5 6 5 6 5 6 6 5 5 5 6 6 5 5 6 5 5 6 5 5 5 5 5 5 5 5 5 5 5 5 6 5 5 5 5 6 5 5 5 5 6 5 5 5 5 5 5 5 5 5 6 5 6 5 5 5 5 6 5 5 5 6 5 5 5 5 5 5 6 5 5 6 5 5 5 6 5 5 5 5 5 5 5 6 5 5 5 5 5 6 5 5 5 5 5 5 5 5 5 5 5 5 5 5 5 6 5 5 5 5 5 6 5 5 6 5 6 5 5 5 5 6 6 5 5 6 5 5 5 5 5 5 5 5 5 5 5 6 5 6 5 5 5 5 5 6 5 5 5 6 5 5 5 6 5 5 5 5 5 5 5 5 5 5 5 5 5 6 5 5 5 5 5 5 5 6 5 6 5 5 5 5 5 5 5 6 6 5 5 5 5 5 5 5 5 5 6 5 5 5 5 5 5 6 6 6 5 6 5 5 5 5 5 5 6 5 6 5 6 5 6 5 5 5 5 5 5 6 5 5 6 5 5 5 5 6 5 5 5 5 5 5 5 5 5 5 5 5 5 5 5 5 5 5 5 5 5 6 5 6 5 5 5 5 5 5 5 5 5 5 5 5 5 5 5 5 5 5 5 5 5 5 5 5 5 5 5 5 5 5 5 5 5 5 5 5 5 5 5 5 5 5 5 5 5 5 5 5 5 5 5 5 5 5 5 5 5 5 6 5 5 5 5 5 5 5 5 5 5 5 5 5 5 5 5 5 5 5 5 5 5 5 6 5 5 5 6 5 6 5 5 5 5 5 5 5 5 5 5 5 5 5 5 5 5 5 5 5 5 5 5 5 5 5 5 5 5 5 5 5 5 5 5 5 5 5 5 5 6 5 6 5 5 5 5 5 5 5 5 5 5 5 5 5 5 5 5 5 5 5 5 5 5 5 5 5 6 5 5 5 5 5 5 5 5 5 5 5 5 5 5 5 5 5 5 5 5 5 5 5 5 5 5 5 5 5 5 5 5 5 5 5 5 5 5 5 5 5 5 5 5 5 5 5 5 5 5 5 5 5 5 5 5 5 5 5 5 5 5 5 5 5 5 5 5 5 6 5 5 5 5 5 5 5 6 5 5 6 5 5 5 5 5 5 5 5 5 5 5 5 5 5 5 5 5 5 5 5 6 5 5 5 5 5 5 5 5 5 5 5 5 5 5 5 5 5 5 5 5 5 5 5 5 5 5 5 5 5 5 5 5 6 5 5 5 5 6 5 6 5 5 5 5 5 5 6 5 5 6 5 5 6 6 5 6 5 5 5 6 5 5 5 5 5 5 5 5 5 5 5 5 5 5 5 6 5 5 5 5 5 5 5 5 6 5 5 5 5 5 5 5 5 5 5 5 5 5 5 5 5 5 5 5 5 5 5 5 5 5 5 5 5 5 5 5 5 5 5 5 5 6 5 5 5 5 5 5 5 6 5 5 6 5 6 5 5 5 5 5 5 5 5 5 5 5 6 6 5 5 6 5 5 6 6 5 5 5 5 6 5 6 5 5 6 5 6 6 5 6 5 6 5 5 5 5 5 5 5 6 5 6 5 5 5 5 5 6 5 5 5 6 5 5 6 5 6 5 6 6 5 5 6 5 5 5 5 5 5 6 5 5 5 5 5 5 5 5 6 6 5 5 5 6 5 5 5 5 6 6 5 6 5 5 5 6 5 5 5 5 5 5 5 5 5 5 5 5 5 5 5 5 6 5 5 5 5 5 5 6 5 6 5 5 5 6 6 5 5 6 5 6 5 5 5 5 5 5 5 5 5 5 5 5 6 6 5 5 5 5 5 6 5 5 5 5 5 5 5 6 5 5 5 6 5 6 5 5 6 5 5 5 5 5 5 5 5 5 6 5 5 6 5 5 5 5 5 5 5 5 5 5 5 6 5 5 5 5 5 5 5 5 5 5 5 5 5 5 5 5 5 5 5 5 5 5 6 5 5 5 5 5 5 5 5 5 5 5 6 5 5 5 5 6 5 5 5 5 5 5 5 5 5 5 5 6 5 5 5 5 5 6 5 6 5 5 5 5 5 5 5 5 5 6 5 5 6 5 5 6 5 5 5 5 6 5 5 5 5 5 5 5 5 5 5 5 5 5 5 5 5 5 5 5 5 5 6 5 5 6 5 6 5 5 5 5 5 5 5 5 5 6 5 5 6 6 6 5 5 5 6 5 5 5 5 5 5 6 6 5 6 5 5 6 5 5 6 5 5 5 5 6 5 5 5 5 6 5 5 5 5 5 5 5 5 5 5 5 6 5 5 6 5 6 6 5 5 6 6 6 5 5 5 5 5 5 5 5 5 5 6 5 5 5 5 5 5 5 5 5 6 5 5 5 5 5 6 5 5 5 5 5 5 5 5 5 5 6 5 5 5 5 5 5 5 5 5 5 5 5 5 5 5 5 5 5 5 5 5 5 5 5 6 6 5 5 5 5 5 5 5 5 6 5 5 5 5 5 5 5 5 5 5 5 5 5 5 5 5 6 5 5 5 5 6 5 5 5 6 6 5 5 5 5 5 5 6 5 6 5 5 5 6 5 5 5 5 5 5 5 5 6 5 6 6 5 5 5 5 5 5 5 5 5 5 5 5 6 5 5 6 5 6 5 5 5 5 5 5 5 5 5 5 5 5 5 5 5 5 5 5 5 5 5 5 5 6 5 5 5 5 5 6 5 5 5 5 5 5 5 5 5 5 6 5 5 5 6 5 5 5 5 5 5 5 5 5 5 5 6 6 5 5 5 5 5 6 5 5 5 6 5 5 5 5 5 5 5 5 5 5 6 5 5 5 5 5 5 5 6 6 5 6 5 5 5 5 6 5 5 5 5 5 6 5 5 5 5 5 5 5 5 5 5 6 5 5 5 5 5 5 5 5 5 5 6 5 5 5 5 5 5 5 6 5 5 5 5 5 5 5 5 5 5 5 5 5 5 5 5 5 5 5 5 6 5 5 5 6 5 5 5 5 5 5 5 5 5 5 5 5 5 6 5 6 6 5 6 6 5 5 5 5 5 6 5 5 5 5 5 5 5 6 5 5 6 5 5 6 5 5 6 5 5 6 6 6 6 5 5 6 6 5 5 6 5 5 6 5 5 5 5 6 6 6 6 5 5 5 6 5 6 5 6 5 6 6 5 5 5 5 5 5 5 6 5 5 6 5 6 5 5 6 6 5 5 5 5 5 5 5 5 5 5 5 5 5 5 5 5 5 6 5 5 5 5 5 5 5 5 5 5 5 5 5 5 5 5 5 6 5 5 5 5 5 5 5 5 5 5 5 5 5 5 6 6 5 5 5 5 6 5 6 5 5 5 6 6 5 6 5 5 5 5 5 5 5 5 5 5 5 5 5 5 5 5 5 5 5 6 5 6 5 5 5 5 6 5 5 5 5 5 5 5 5 5 5 5 5 5 5 5 5 5 5 5 5 6 5 5 5 5 5 5 5 5 5 5 5 5 5 5 6 5 5 5 5 5 5 5 5 5 5 5 5 5 5 5 5 5 5 5 5 5 5 5 5 5 5 5 5 5 5 5 5 5 5 5 5 5 5 5 5 5 5 5 5 5 5 5 5 5 5 5 5 5 5 5 5 5 5 5 5 5 5 6 5 5 5 6 5 5 6 5 5 5 5 5 5 5 5 5 5 5 6 5 5 5 5 6 5 5 5 5 5 5 5 5 5 5 5 5 5 5 5 5 5 5 5 5 5 5 5 5 5 5 5 5 5 6 5 5 5 5 6 5 5 5 5 5 5 5 5 5 5 6 5 5 6 5 5 5 5 5 5 5 5 5 5 5 5 6 5 5 5 5 5 5 5 5 6 5 5 5 5 5 5 5 5 5 5 6 5 6 5 5 5 6 5 5 5 6 5 6 5 6 6 5 5 5 5 5 6 5 5 5 5 5 5 5 5 5 5 5 5 5 5 5 5 5 5 5 5 5 5 5 6 5 5 6 5 5 5 6 5 6 5 5 5 5 5 5 5 5 5 5 5 5 6 5 5 5 5 5 5 5 5 5 5 5 5 5 5 5 5 5 5 5 6 5 5 5 5 5 5 5 5 5 5 5 5 5 5 5 5 5 5 5 5 5 5 5 5 5 5 5 6 5 5 5 5 5 5 5 5 5 5 5 5 5 5 5 5 5 5 6 5 5 5 6 5 5 5 6 6 5 5 5 5 5 6 5 5 5 5 5 5 5 6 6 5 5 5 6 5 6 5 5 5 5 5 5 6 6 5 5 6 6 5 5 5 5 5 5 5 5 5 5 6 5 5 5 5 5 5 6 5 5 5 5 5 5 5 5 5 5 5 5 5 5 5 5 5 6 5 5 5 5 6 5 5 6 5 5 5 5 5 5 5 5 5 5 5 6 5 6 5 6 5 5 5 5 5 5 5 5 5 5 5 5 5 5 5 5 5 5 5 6 5 5 6 5 5 5 6 5 5 6 5 5 5 5 6 5 5 5 5 5 5 5 6 5 5 5 5 5 5 5 5 5 5 5 5 5 5 5 5 5 5 5 5 5 5 5 5 5 5 5 5 5 6 5 5 5 5 5 5 5 5 5 5 5 5 5 5 5 5 5 5 5 5 5 5 5 5 5 5 5 5 5 5 5 5 5 5 5 5 5 6 6 6 5 5 6 5 5 5 6 5 6 5 5 5 5 5 6 5 5 5 5 5 5 5 6 5 5 5 5 5 5 5 5 5 5 5 5 5 5 6 5 5 5 6 5 6 5 5 5 5 5 5 5 5 6 5 5 5 5 5 5 5 6 5 6 5 6 5 5 5 5 5 5 5 5 6 5 5 6 6 6 5 6 5 6 5 5 5 5 5 5 5 5 5 5 5 5 5 5 5 5 5 5 5 5 5 6 5 5 6 6 5 5 5 6 5 5 5 5 5 5 5 6 5 6 5 5 5 5 6 5 5 6 5 5 5 5 5 5 5 6 5 5 6 5 5 5 6 5 5 5 5 5 5 5 5 5 6 5 5 5 5 5 5 6 5 5 6 5 5 5 5 6 5 5 5 5 5 5 6 6 6 5 5 5 6 5 6 5 6 5 5 5 5 5 5 6 5 5 5 6 5 5 5 6 5 5 5 5 5 5 5 5 5 5 5 5 6 5 5 5 6 5 5 5 5 5 6 6 5 5 6 5 6 6 6 5 5 5 6 5 5 5 5 5 6 5 5 5 5 5 5 5 5 5 5 5 5 6 5 5 5 5 5 5 6 5 5 6 5 5 6 5 5 5 5 5 6 5 5 6 5 6 5 6 5 5 5 5 5 5 6 5 5 5 5 6 5 5 5 5 5 5 5 5 5 5 6 5 5 5 5 5 6 5 5 5 5 5 5 5 5 5 5 5 5 5 5 5 6 5 5 5 5 5 6 5 6 5 5 5 5 5 6 5 5 5 5 5 6 5 5 5 5 5 6 5 5 5 5 5 5 5 5 5 5 6 5 6 5 6 5 5 6 5 5 5 5 5 5 5 5 6 5 6 5 5 5 5 5 5 5 5 5 5 6 5 5 5 5 5 5 5 5 5 5 6 5 5 5 6 5 6 6 5 5 5 6 5 5 5 6 6 5 5 5 5 5 5 5 5 5 5 6 6 5 5 5 5 5 6 5 5 5 5 5 5 5 5 5 5 6 5 6 6 6 5 5 5 5 5 5 5 5 6 5 5 5 5 5 5 5 5 5 5 5 5 5 5 5 5 5 5 5 5 5 5 5 5 5 5 5 5 5 6 5 5 5 5 6 5 5 5 5 5 5 5 5 6 5 5 5 5 5 5 5 5 6 5 5 5 5 5 5 5 5 5 5 5 5 5 5 5 5 5 5 5 5 5 5 5 5 5 5 6 5 5 5 5 5 5 6 5 6 5 5 6 5 5 5 6 5 6 5 5 5 6 5 5 5 6 5 5 5 5 5 5 6 5 5 5 5 5 5 5 5 5 5 5 5 5 5 5 5 5 5 5 5 5 5 5 5 5 5 5 6 5 6 5 5 5 5 6 5 5 5 5 5 5 5 5 5 5 5 5 5 6 5 5 6 5 5 6 5 5 5 5 5 6 5 5 5 5 5 5 5 5 6 5 6 5 5 5 5 5 6 6 5 5 6 5 5 5 6 5 5 5 5 5 5 5 6 5 5 5 5 5 5 5 5 5 5 5 5 5 5 5 5 6 5 5 5 5 5 6 5 6 5 5 5 5 5 5 5 5 5 5 5 5 6 5 6 5 5 5 5 5 5 6 6 5 5 5 5 5 5 5 5 5 5 5 5 5 5 5 5 5 5 5 5 5 6 5 5 6 5 5 5 5 5 6 5 5 5 5 5 5 6 5 5 5 5 5 5 5 5 5 5 5 5 5 5 5 5 6 5 5 6 5 5 5 5 6 5 5 5 5 5 5 5 5 5 5 5 6 5 5 5 5 5 5 5 5 5 5 5 5 5 5 5 5 5 5 5 6 5 5 5 5 5 5 5 5 5 5 5 5 6 5 5 5 5 5 5 5 5 5 5 5 5 5 6 6 5 5 5 5 5 5 6 5 5 5 5 5 5 5 5 5 5 5 5 5 5 5 5 5 5 5 5 5 5 5 5 5 5 5 5 5 5 5 5 5 5 5 6 5 5 5 5 5 5 5 5 6 5 5 5 5 5 5 5 5 5 5 5 5 6 5 5 5 5 6 5 6 5 5 5 5 5 5 5 5 6 5 5 5 5 5 5 5 5 5 5 6 5 5 5 6 5 5 6 5 5 5 5 6 5 5 6 5 5 5 5 5 5 5 5 6 5 5 5 6 5 5 5 5 5 5 5 6 5 6 5 6 5 6 6 5 5 5 6 6 6 5 5 6 5 5 5 6 5 5 5 5 6 5 5 5 5 5 5 5 5 5 5 5 5 5 5 5 5 5 5 5 5 5 5 5 5 5 5 5 5 5 5 5 5 5 5 5 5 5 5 6 5 5 5 5 5 5 5 5 6 5 5 5 5 6 5 5 6 5 5 6 5 5 5 5 6 5 5 5 5 5 6 5 5 5 5 5 5 5 5 5 5 5 5 5 6 6 5 5 5 6 5 5 5 5 5 5 5 5 5 5 5 5 5 5 6 5 5 5 5 5 5 6 5 5 6 5 5 5 5 5 5 5 5 5 5 6 5 5 5 5 5 6 5 5 5 5 5 5 5 5 5 5 6 5 5 5 5 5 5 5 5 5 5 5 5 5 5 5 6 5 5 5 5 5 5 5 5 5 5 5 5 5 5 5 5 5 5 5 5 5 5 5 6 5 6 5 5 5 6 5 5 5 5 5 5 5 5 5 6 5 5 5 6 5 5 5 5 5 5 5 5 5 5 5 5 5 5 5 5 6 5 5 5 5 5 6 5 5 5 6 5 6 5 5 5 5 5 5 6 5 5 5 5 5 5 5 5 5 5 5 5 5 5 5 5 5 5 5 5 5 5 5 5 5 5 5 6 5 5 6 5 5 5 5 5 5 5 6 5 5 5 5 6 5 5 6 5 5 5 5 5 5 6 5 5 5 6 5 5 5 6 5 5 5 5 5 6 5 5 5 5 5 6 5 5 5 5 5 5 5 5 6 5 5 6 5 5 5 5 6 5 5 5 5 6 5 5 5 5 6 5 5 5 6 5 6 5 5 5 5 5 5 5 5 5 5 6 5 5 5 5 5 5 5 6 6 5 5 5 5 5 6 5 5 5 5 5 6 5 5 5 6 5 5 6 5 5 6 5 5 5 6 5 5 5 5 5 5 6 5 5 5 5 5 6 5 5 5 5 5 6 5 5 5 5 5 5 6 5 5 5 5 6 5 5 5 5 5 6 5 5 5 5 5 5 5 5 5 5 6 5 5 5 5 5 5 5 6 5 5 5 5 6 6 5 5 6 5 5 5 5 5 5 5 6 5 5 5 5 5 5 5 6 5 6 5 5 6 5 5 5 5 6 5 6 5 5 5 5 5 5 5 5 5 5 6 5 5 5 5 5 6 5 5 5 6 5 5 5 5 6 5 5 6 5 5 5 5 5 6 5 6 5 6 6 5 5 5 5 6 6 5 5 5 5 5 5 5 5 5 5 5 5 5 6 5 5 5 5 5 5 6 6 5 5 5 5 5 5 5 5 5 5 5 5 5 6 5 5 5 5 5 5 5 5 5 5 5 5 5 5 5 5 5 5 5 5 5 5 5 5 5 5 5 5 5 5 5 5 5 6 5 5 6 5 5 5 5 5 5 5 6 5 5 5 6 5 5 6 5 5 5 6 6 5 5 5 5 6 6 5 5 5 5 5 5 5 5 5 5 5 5 5 5 6 5 5 6 5 5 5 6 5 5 5 5 6 5 5 6 5 5 5 5 5 5 5 5 5 5 5 6 5 5 5 5 5 5 5 6 5 5 5 5 5 5 5 5 5 5 5 5 5 5 5 5 5 5 6 5 5 5 5 5 5 6 5 6 5 5 5 5 5 6 5 5 6 5 5 5 6 5 5 5 6 5 5 5 5 5 5 5 5 5 5 5 5 5 5 6 5 5 5 5 6 6 5 5 5 5 5 5 5 5 5 5 5 5 5 5 5 5 5 5 5 6 5 5 5 5 5 5 5 5 6 5 6 5 5 5 5 5 5 5 6 5 6 5 5 5 5 5 6 5 5 5 5 5 5 6 5 5 5 5 5 6 6 5 5 5 6 6 6 5 5 5 5 5 6 5 5 5 5 5 6 5 5 5 5 6 5 6 6 5 6 6 5 5 5 6 5 5 5 6 5 5 5 6 5 5 5 6 5 5 5 5 5 5 5 5 6 5 5 5 6 5 5 5 5 5 5 6 5 5 5 5 5 5 6 5 5 5 5 5 5 5 5 5 5 5 5 5 5 6 5 6 5 5 5 6 5 5 6 5 6 5 6 5 5 6 5 5 5 5 5 5 6 5 5 5 5 6 5 5 5 5 5 5 6 5 5 5 5 5 5 5 5 5 5 6 5 5 5 5 5 5 5 5 5 5 5 5 5 5 5 5 5 5 5 6 6 5 5 5 6 5 5 6 5 5 6 5 5 6 5 5 6 6 5 5 5 5 6 5 5 5 5 5 5 5 5 5 5 5 6 6 5 5 5 6 5 6 5 6 5 5 5 5 5 6 5 5 6 5 6 5 5 6 6 6 5 5 5 5 6 5 5 6 5 6 5 5 6 5 5 5 5 5 5 5 5 6 5 6 6 5 5 5 5 5 6 6 5 5 5 6 6 5 5 5 5 5 5 5 5 6 5 6 5 5 5 5 5 5 5 5 5 5 5 5 5 5 5 5 5 5 5 5 5 5 5 5 5 5 5 5 5 6 5 5 5 5 5 5 5 5 5 5 5 5 5 5 5 6 5 5 6 5 5 5 5 5 6 5 5 5 5 5 5 5 5 5 5 5 5 5 6 5 5 5 5 5 5 5 5 5 6 5 5 6 5 5 5 5 6 6 6 5 5 5 5 5 6 5 5 5 
</DataArray>
<DataArray type="Float64" Name="stress" NumberOfComponents="9" format="ascii">
-888300590.77157593 1477999602.9923363 0 1477999602.9923363 748317.31696873251 0 0 0 0 -1423435.5510597229 315738907.21266747 0 315738907.21266747 -522418477.50799561 0 0 0 0 -682476.30603642762 1995247.2213638797 0 1995247.2213638797 -823298.42260868102 0 0 0 0 736198377.64982224 1000913877.3667183 0 1000913877.3667183 -443406099.46987915 0 0 0 0 -186950273.24892044 1506620647.7114468 0 1506620647.7114468 -315959.54306030273 0 0 0 0 -191038897.95031738 1140330515.8015747 0 1140330515.8015747 -346251447.33634186 0 0 0 0 -554585607.47705078 823128595.46618652 0 823128595.46618652 -460402911.66055107 0 0 0 0 -765962.32623408735 1955612.0083319098 0 1955612.0083319098 -784581.79695733637 0 0 0 0 -1338654919.8889503 1195687900.5903988 0 1195687900.5903988 -107672849.30911255 0 0 0 0 -472543454.59890747 1312228288.7108917 0 1312228288.7108917 -136561608.93029976 0 0 0 0 -475500288.4681139 962901329.53821766 0 962901329.53821766 -239084549.31359863 0 0 0 0 -159365598.88199615 1005375846.6925278 0 1005375846.6925278 -340563248.47460747 0 0 0 0 -137292843.39390564 1138573923.2065048 0 1138573923.2065048 -458723036.91282272 0 0 0 0 -138112687.99597931 1158044520.6304741 0 1158044520.6304741 -767635000.13368225 0 0 0 0 -3084332.4251556396 1377806905.2049732 0 1377806905.2049732 -441647814.78449821 0 0 0 0 128679488.10390472 1018193119.3223534 0 1018193119.3223534 -735346338.06181717 0 0 0 0 -192836197.44940186 918572536.85417557 0 918572536.85417557 -461398502.17634821 0 0 0 0 162324326.49043274 822831755.66747665 0 822831755.66747665 -475222696.5734849 0 0 0 0 225791365.76397896 479247481.2178812 0 479247481.2178812 -107007727.53513336 0 0 0 0 807076012.82258606 805145964.78915977 0 805145964.78915977 -673210414.89385223 0 0 0 0 -339260.51476383582 934296.33652383275 0 934296.33652383275 -851482.74801050872 0 0 0 0 -682906145.95671844 785358899.93632889 0 785358899.93632889 129693487.0314846 0 0 0 0 -300275798.65205765 1217632436.2285156 0 1217632436.2285156 -174012491.88677216 0 0 0 0 -487098410.0166626 1153524987.9670219 0 1153524987.9670219 -181828138.91562605 0 0 0 0 -771123167.18070984 1420122037.3923416 0 1420122037.3923416 -36572.611213684082 0 0 0 0 -616340.54586136807 1328836.4621517211 0 1328836.4621517211 -712573.52818089351 0 0 0 0 585340815.28266048 463978421.90320396 0 463978421.90320396 -260917821.02715302 0 0 0 0 -1560478981.6873436 1018220718.4588394 0 1018220718.4588394 224255226.96186829 0 0 0 0 -78661866.327728271 575332576.21611595 0 575332576.21611595 346328.47151565552 0 0 0 0 -830901030.36828995 304272769.94337845 0 304272769.94337845 176984740.58711243 0 0 0 0 -831237316.05002511 610532466.74819565 0 610532466.74819565 -188616120.2596817 0 0 0 0 19404741.067214966 132943190.61724281 0 132943190.61724281 -39202769.377365112 0 0 0 0 -948170784.35166359 506291896.2816906 0 506291896.2816906 -233200894.53025055 0 0 0 0 -535866.06605644897 225591.88474371657 0 225591.88474371657 -56498.710939772427 0 0 0 0 -960796527.43136215 473354359.80542755 0 473354359.80542755 -132883384.62880325 0 0 0 0 -965438420.44050598 559116812.32001877 0 559116812.32001877 -120316.92182681739 0 0 0 0 -840727773.21720886 510345990.95447922 0 510345990.95447922 -345419658.75466156 0 0 0 0 -1116891857.7468147 1029942531.5450897 0 1029942531.5450897 -399619225.29723978 0 0 0 0 -516467089.36557007 106489722.42876816 0 106489722.42876816 143087133.93655586 0 0 0 0 -425375829.50528717 -22269935.298118591 0 -22269935.298118591 72916311.804870605 0 0 0 0 -519604299.23204041 20427783.015529633 0 20427783.015529633 92756802.926307678 0 0 0 0 -156567033.72844505 155967962.25977278 0 155967962.25977278 -33772467.549072266 0 0 0 0 -324225.69350903481 731086.12142867222 0 731086.12142867222 -1167717.9480892569 0 0 0 0 -53828288.816375732 -224565636.98326397 0 -224565636.98326397 112201356.32931519 0 0 0 0 58926435.386543274 6833540.4513320923 0 6833540.4513320923 28358368.640525818 0 0 0 0 -397241594.03617096 -29573526.58266449 0 -29573526.58266449 99958820.853027344 0 0 0 0 -3488710.3511047363 50516015.653110504 0 50516015.653110504 21376869.282905579 0 0 0 0 -407688749.61701202 -79637116.15971756 0 -79637116.15971756 -137030845.28901672 0 0 0 0 -870620101.59474945 231869437.94244194 0 231869437.94244194 42386462.804428101 0 0 0 0 -1207244467.9247398 979206878.6931572 0 979206878.6931572 -517311627.33226395 0 0 0 0 -1173817471.6886063 570412900.76738358 0 570412900.76738358 240174122.08434868 0 0 0 0 -1235730383.8423157 1153075608.9332657 0 1153075608.9332657 -771510292.91765225 0 0 0 0 -807972402.13400269 732403804.76475906 0 732403804.76475906 -770008434.35584259 0 0 0 0 243122570.23873138 -256642159.32273483 0 -256642159.32273483 131394000.93908691 0 0 0 0 211517.61626938358 1097559.5054812878 0 1097559.5054812878 -2347021.8653908744 0 0 0 0 -319158.88617831469 238842.52822193503 0 238842.52822193503 -266728.37762542441 0 0 0 0 -973935963.62070799 1045337867.0424948 0 1045337867.0424948 -791513936.89083862 0 0 0 0 -979583499.85064697 1118285756.3981514 0 1118285756.3981514 -1033687924.3070374 0 0 0 0 -366189360.61894989 523488719.99636078 0 523488719.99636078 -453487543.42280197 0 0 0 0 -280038989.18093872 508787376.68391037 0 508787376.68391037 -126542475.35695267 0 0 0 0 -243412101.94528198 674774559.39879608 0 674774559.39879608 -300708793.35971069 0 0 0 0 410919100.79964542 -41184693.279703617 0 -41184693.279703617 -268740005.67175293 0 0 0 0 -113317511.45025635 -71017778.857517242 0 -71017778.857517242 260418949.78834534 0 0 0 0 138157310.76161194 254507262.13836098 0 254507262.13836098 -76728933.868888855 0 0 0 0 -135772.71033328492 2872839.5193723608 0 2872839.5193723608 -3993852.5582380854 0 0 0 0 -79188405.658943176 202363107.90916443 0 202363107.90916443 173353405.66096497 0 0 0 0 237761564.95305634 58791335.252124786 0 58791335.252124786 89501653.413724899 0 0 0 0 315787200.98718262 288377492.0232029 0 288377492.0232029 -67114407.493659973 0 0 0 0 113593478.16190529 478203510.63393688 0 478203510.63393688 -209746575.18133545 0 0 0 0 -1016804919.2674026 66117502.699699402 0 66117502.699699402 -169811548.12939453 0 0 0 0 -661923738.61546326 222296538.39643097 0 222296538.39643097 -159370630.42702484 0 0 0 0 -388426189.76301575 -112396616.76047897 0 -112396616.76047897 -69332881.118896484 0 0 0 0 72996778.454185486 -37213445.773979187 0 -37213445.773979187 -175369643.36615753 0 0 0 0 -299902847.77442932 468466535.71603775 0 468466535.71603775 -234235998.98781204 0 0 0 0 -450169997.06480408 243960809.5202713 0 243960809.5202713 -272104076.32212257 0 0 0 0 -180140486.82505417 -111481269.79346275 0 -111481269.79346275 102082923.71806335 0 0 0 0 -478901538.56871796 138193901.94452667 0 138193901.94452667 -645993156.26069641 0 0 0 0 -1116183797.5284576 330626690.3712883 0 330626690.3712883 -280000681.21992493 0 0 0 0 -1045362569.6470032 182193268.29593468 0 182193268.29593468 -189667006.61654663 0 0 0 0 -718970517.91008759 533607641.71281815 0 533607641.71281815 -486224100.16790771 0 0 0 0 -494878813.41767502 241232566.96649551 0 241232566.96649551 -132405844.60714722 0 0 0 0 -637250705.37096405 250618173.62158585 0 250618173.62158585 -51462815.373954773 0 0 0 0 -623604605.64848328 442961985.07202911 0 442961985.07202911 83711297.787361145 0 0 0 0 -601579517.95201111 517923612.01983643 0 517923612.01983643 -144143038.51200688 0 0 0 0 -601107288.29568863 156121919.24576676 0 156121919.24576676 24896222.060028076 0 0 0 0 644319403.46547699 231572447.54958725 0 231572447.54958725 -14454116.109508514 0 0 0 0 68296228.655799866 244724634.9462719 0 244724634.9462719 -259102657.43955994 0 0 0 0 -155424.95791629981 2832646.7792833559 0 2832646.7792833559 -3303570.6300792992 0 0 0 0 872408202.6855545 153266074.56058884 0 153266074.56058884 128156762.5581646 0 0 0 0 408937622.04066467 246665793.46266937 0 246665793.46266937 195155866.14583683 0 0 0 0 359834925.54255581 382572186.71047306 0 382572186.71047306 162575455.3753891 0 0 0 0 430350993.52597809 144327961.09754181 0 144327961.09754181 173898367.84298706 0 0 0 0 125752801.75240135 397325042.31630802 0 397325042.31630802 45421336.356613159 0 0 0 0 233243206.38184738 249866991.5596199 0 249866991.5596199 23594597.365470886 0 0 0 0 198434600.73291016 290933972.08804131 0 290933972.08804131 -316437500.00285339 0 0 0 0 89345250.749832153 190466239.03351212 0 190466239.03351212 178222007.87129593 0 0 0 0 56316018.874862671 257805090.18412018 0 257805090.18412018 144465042.74945831 0 0 0 0 115493105.22434998 226709281.15621567 0 226709281.15621567 103154935.77546692 0 0 0 0 118473511.37109375 169593863.2073555 0 169593863.2073555 -2987746.0389633179 0 0 0 0 445262.82563558919 2230207.3985830974 0 2230207.3985830974 -4861172.9528330155 0 0 0 0 -1290419.2158851624 -89724663.854740143 0 -89724663.854740143 138807587.83150482 0 0 0 0 66573007.872879982 -20571859.820618153 0 -20571859.820618153 6070321.9146575928 0 0 0 0 276222125.99163818 179326123.26473999 0 179326123.26473999 87385650.864994049 0 0 0 0 127665.62582972413 578461.25883926265 0 578461.25883926265 -1889252.0129918307 0 0 0 0 230033978.16099548 -38283716.894367218 0 -38283716.894367218 45022899.659062386 0 0 0 0 -687854945.92661285 828337856.59616661 0 828337856.59616661 -1044815588.6709671 0 0 0 0 719882773.42699432 -115487211.13224983 0 -115487211.13224983 -726555368.20329285 0 0 0 0 152783062.06011963 259518850.77145386 0 259518850.77145386 -58319760.608627319 0 0 0 0 239686887.74654388 124098798.67840576 0 124098798.67840576 -603660855.44482422 0 0 0 0 321620319.01860428 410543089.78489876 0 410543089.78489876 -763327988.71365356 0 0 0 0 627204278.49320984 446112137.30051041 0 446112137.30051041 -1815580848.3069534 0 0 0 0 327283544.44451904 380097154.58967209 0 380097154.58967209 -635593255.73043823 0 0 0 0 -156693643.65330505 1310090832.825016 0 1310090832.825016 -1257568375.1552887 0 0 0 0 308022.13938140869 905869345.55128479 0 905869345.55128479 -2023500628.0592575 0 0 0 0 -360631325.31825638 1113843971.623456 0 1113843971.623456 -923313178.22776031 0 0 0 0 -218389601.27308655 981907778.40750504 0 981907778.40750504 -812859353.66384506 0 0 0 0 38918695.980297089 1031036558.1606865 0 1031036558.1606865 -793811389.01943588 0 0 0 0 168323553.8031311 893110797.70088482 0 893110797.70088482 -730130992.85507965 0 0 0 0 45440945.793609619 1142588947.9416275 0 1142588947.9416275 -1128767634.2761688 0 0 0 0 260298382.11992645 868131318.61798286 0 868131318.61798286 -680962292.99111176 0 0 0 0 260422709.57227325 710782307.17523575 0 710782307.17523575 -513461919.47303772 0 0 0 0 167525454.32671356 848978806.21035767 0 848978806.21035767 -684635987.56498146 0 0 0 0 -478815780.33852577 957893635.98718405 0 957893635.98718405 -448916449.02539825 0 0 0 0 20882309.588699341 798200041.33034134 0 798200041.33034134 -417423495.60902309 0 0 0 0 58825535.316436768 751438879.08374214 0 751438879.08374214 -361284438.24460602 0 0 0 0 101985996.52872467 527966975.11343765 0 527966975.11343765 -108792904.85481071 0 0 0 0 208131113.50988722 504731693.22814274 0 504731693.22814274 -324858657.79750824 0 0 0 0 195583350.26290226 615599302.21893001 0 615599302.21893001 -593955811.27835083 0 0 0 0 174934224.35498047 465161435.0549202 0 465161435.0549202 -286993848.07337093 0 0 0 0 250249266.57843781 828326719.86828232 0 828326719.86828232 -923397660.89363861 0 0 0 0 -2727900.8417053223 8641760.9386472702 0 8641760.9386472702 -3514787.440826416 0 0 0 0 548182.14672088623 14444668.778766632 0 14444668.778766632 -11783531.707122803 0 0 0 0 -18649230.382064819 32622259.245197296 0 32622259.245197296 -39628435.726455688 0 0 0 0 3080696.1443977356 3344185.7887878418 0 3344185.7887878418 -28798386.04932785 0 0 0 0 2811359.9433107376 2077791.6288218498 0 2077791.6288218498 -29710480.965713501 0 0 0 0 42284986.288906097 10418579.431556702 0 10418579.431556702 -23844407.709381104 0 0 0 0 12142149.839847565 -2881634.0996818542 0 -2881634.0996818542 -24610909.756027222 0 0 0 0 26686103.552928925 -611543.23335266113 0 -611543.23335266113 -48725136.722671509 0 0 0 0 105795660.3964119 58167026.867795944 0 58167026.867795944 349254.2674407959 0 0 0 0 25426984.926174164 106974287.25879288 0 106974287.25879288 17650430.298324585 0 0 0 0 -2057126.6228694916 10694944.072252274 0 10694944.072252274 32646682.519794464 0 0 0 0 -16422396.487529755 52186448.42691803 0 52186448.42691803 -82319209.086761475 0 0 0 0 -118027314.63454819 76087846.121440887 0 76087846.121440887 9556736.8561515808 0 0 0 0 -45248926.12184906 45860221.019320488 0 45860221.019320488 -159107.19125747681 0 0 0 0 -121225402.77656251 169984323.24270827 0 169984323.24270827 -168199273.26737976 0 0 0 0 -66702611.842889786 70408312.298464298 0 70408312.298464298 -51525107.395542145 0 0 0 0 -24088279.116744995 -16893701.839305878 0 -16893701.839305878 -43073972.823190689 0 0 0 0 -19729411.396633148 -11849744.790988922 0 -11849744.790988922 -8026491.3394393921 0 0 0 0 30045423.255485535 26883388.546413422 0 26883388.546413422 -44546716.638022423 0 0 0 0 391899.49841858819 401214.25374807138 0 401214.25374807138 438575.63039338216 0 0 0 0 135317661.34079742 40934179.513729095 0 40934179.513729095 -146656946.1688118 0 0 0 0 -934236.06821797928 315768.58525907621 0 315768.58525907621 -1114768.841644574 0 0 0 0 -145612747.35823059 340118650.3976078 0 340118650.3976078 -399534507.07625198 0 0 0 0 -140513084.14660645 22096768.214952469 0 22096768.214952469 -81292003.311717987 0 0 0 0 -370691086.68650818 124919113.45699501 0 124919113.45699501 -74100.091156005859 0 0 0 0 -429028457.17525864 246322151.60689068 0 246322151.60689068 -49947823.401870728 0 0 0 0 -682460286.39060974 158586322.02788544 0 158586322.02788544 152302.78175639806 0 0 0 0 -807869909.79802704 323300670.89429855 0 323300670.89429855 -46161330.905296326 0 0 0 0 -762631721.76530457 101638489.02653122 0 101638489.02653122 -46709312.658203125 0 0 0 0 -719168634.37310028 166861209.47340775 0 166861209.47340775 21669629.366920471 0 0 0 0 -656135790.62349319 130894124.07953644 0 130894124.07953644 29277467.052581787 0 0 0 0 -636201123.09681702 152583703.96910095 0 152583703.96910095 -20983924.710418701 0 0 0 0 -733024358.25537109 168236567.77575684 0 168236567.77575684 -336974.91779808252 0 0 0 0 -447377179.91320038 94903152.995426178 0 94903152.995426178 -19098104.195083618 0 0 0 0 -508301513.91194916 108562654.49446106 0 108562654.49446106 -16645691.282684326 0 0 0 0 -667561055.95430374 57747065.373558998 0 57747065.373558998 37539734.988220215 0 0 0 0 -686590298.84967041 314777121.46720886 0 314777121.46720886 -143699521.0758934 0 0 0 0 -711991327.57750702 106745895.42423248 0 106745895.42423248 43339049.19134903 0 0 0 0 -699403857.97691345 249060837.37543488 0 249060837.37543488 -332321602.42101288 0 0 0 0 -965588680.79273605 577188500.67698288 0 577188500.67698288 -266257311.09862661 0 0 0 0 -1242676908.8591995 453590151.36865807 0 453590151.36865807 -70292983.494895935 0 0 0 0 -797347337.91896057 328119580.23721695 0 328119580.23721695 -37921720.894332886 0 0 0 0 -892358178.62407112 324305677.10991669 0 324305677.10991669 20345449.418228149 0 0 0 0 -981619465.30631208 333993851.68576169 0 333993851.68576169 -710706462.68634033 0 0 0 0 -1431700947.5638504 224719452.55007935 0 224719452.55007935 -32409197.044208527 0 0 0 0 -909614437.78787041 820325377.3979435 0 820325377.3979435 -480821580.75492096 0 0 0 0 -445498997.52687073 92791535.101428986 0 92791535.101428986 77674002.202545166 0 0 0 0 188715167.28638458 106498466.92643356 0 106498466.92643356 -345212960.9857626 0 0 0 0 -6981324.2280820496 3374912.9893518034 0 3374912.9893518034 1214323.7238592631 0 0 0 0 -204006708.88095856 -5267887.7045459747 0 -5267887.7045459747 153799699.58113098 0 0 0 0 -2369697231.6336441 376277400.10820007 0 376277400.10820007 -55011527.234039307 0 0 0 0 -702654.48893021792 -43228.839412149042 0 -43228.839412149042 256409.60739261191 0 0 0 0 -2320225442.6947556 511956743.51671219 0 511956743.51671219 -307399383.67433167 0 0 0 0 -1262102.0649860092 1573864.7799597988 0 1573864.7799597988 -205421.04330177233 0 0 0 0 -1120961083.2154212 117869117.11791509 0 117869117.11791509 -691062727.52423096 0 0 0 0 -1501670453.0830688 590183806.86669922 0 590183806.86669922 -539617491.86065292 0 0 0 0 -872492108.91423035 -635303526.95658493 0 -635303526.95658493 -432783249.54139709 0 0 0 0 -2197009705.3167725 -283107001.52423859 0 -283107001.52423859 27579057.166473389 0 0 0 0 -1561842893.962204 -1012751120.7242355 0 -1012751120.7242355 -312668061.71106148 0 0 0 0 -1067617743.9453812 -140836151.34729385 0 -140836151.34729385 13488036.944267273 0 0 0 0 -1266419077.9888992 -46480082.940898895 0 -46480082.940898895 -23740301.291473389 0 0 0 0 -944847957.25615692 379917836.89199066 0 379917836.89199066 -106486976.06708717 0 0 0 0 -651892572.93857574 20330410.866241455 0 20330410.866241455 63910490.934505463 0 0 0 0 -814532544.69980621 135012911.72549057 0 135012911.72549057 211823597.83542633 0 0 0 0 -844150794.37197876 -317683657.78252888 0 -317683657.78252888 10839696.41343689 0 0 0 0 -763555376.25159836 -278651797.03110504 0 -278651797.03110504 -133198703.46891022 0 0 0 0 -26222493.436840057 4648780.205663681 0 4648780.205663681 7705830.1864624023 0 0 0 0 -16560588.048797607 3209110.1720314026 0 3209110.1720314026 4033822.3080024719 0 0 0 0 -3877892.6702937242 904379.03695958108 0 904379.03695958108 5376978.7214489914 0 0 0 0 -6859119.6467056274 9752392.7534370422 0 9752392.7534370422 1057183.6375656128 0 0 0 0 -6432906.2421810403 4208463.6387601346 0 4208463.6387601346 5122958.2946077622 0 0 0 0 -19366592.379863739 13080787.303881645 0 13080787.303881645 4459004.2702331543 0 0 0 0 -16456280.754806519 -14524941.214847565 0 -14524941.214847565 -11845813.095281601 0 0 0 0 -35124934.434043884 1213292.8897781372 0 1213292.8897781372 9115695.8850326538 0 0 0 0 -28955032.348232269 11686642.485086441 0 11686642.485086441 4920494.2892227173 0 0 0 0 -17443977.863136292 5044682.6544647217 0 5044682.6544647217 8913894.3174571991 0 0 0 0 -23508915.303970337 3138875.1528186798 0 3138875.1528186798 16012702.985507965 0 0 0 0 -17717810.277933121 18866930.993339539 0 18866930.993339539 25297530.424072266 0 0 0 0 -11635260.957118828 7747979.3700311184 0 7747979.3700311184 1878804.818381214 0 0 0 0 -97931807.584926605 202722281.3422966 0 202722281.3422966 -273115705.62590027 0 0 0 0 -3760119.3352978267 3677589.099979151 0 3677589.099979151 -1976878.6882735938 0 0 0 0 33543203.767888069 49105786.065721035 0 49105786.065721035 13067127.830505371 0 0 0 0 -13367191.119220734 14787635.068138123 0 14787635.068138123 28425037.951290131 0 0 0 0 -81266686.870407104 50252076.007164001 0 50252076.007164001 55225324.802154541 0 0 0 0 -84923334.611079931 -35448868.099512458 0 -35448868.099512458 2611576.9789810181 0 0 0 0 -29574212.668010712 12009807.006462097 0 12009807.006462097 22863297.076286316 0 0 0 0 -3806786.6391029358 33953028.973285675 0 33953028.973285675 25439990.72932291 0 0 0 0 -2544008.3749841768 1814343.8744442882 0 1814343.8744442882 5554308.9398688301 0 0 0 0 1246063.9407196045 11092966.753238678 0 11092966.753238678 5127931.469121933 0 0 0 0 -24196012.365413666 -2354874.0615272522 0 -2354874.0615272522 30242971.32194519 0 0 0 0 -14408906.605096135 10690340.687393107 0 10690340.687393107 2822702.3636404965 0 0 0 0 -22724140.1902771 15343519.166957855 0 15343519.166957855 9947425.6231169701 0 0 0 0 -18299658.848920822 14541067.919145107 0 14541067.919145107 6447413.9592819214 0 0 0 0 -36852931.035923004 19512461.239877701 0 19512461.239877701 6175772.5979690552 0 0 0 0 -24419058.017745972 25659877.6801548 0 25659877.6801548 -1424835.9245089293 0 0 0 0 -22858194.330062866 24660410.426054001 0 24660410.426054001 -2651301.7845954895 0 0 0 0 -17719054.250091553 21506486.035835266 0 21506486.035835266 -1581792.7898216248 0 0 0 0 -3681360.8407615721 13719616.753674701 0 13719616.753674701 820603.20360687003 0 0 0 0 10176300.770873524 15517303.435990144 0 15517303.435990144 -2124184.7141021006 0 0 0 0 23787337.020316124 7694128.4648933411 0 7694128.4648933411 -12492635.579906464 0 0 0 0 533154312.0861063 -128061742.00704384 0 -128061742.00704384 -90263558.050380707 0 0 0 0 4443846.4814987965 1198354.4303718992 0 1198354.4303718992 -736777.11858186871 0 0 0 0 107804767.84675598 217181970.7492485 0 217181970.7492485 189511188.56201553 0 0 0 0 3245657.2209097268 8138491.9580815434 0 8138491.9580815434 262961.48018728569 0 0 0 0 406829922.1643343 -297368305.04450035 0 -297368305.04450035 -129871838.6806488 0 0 0 0 -76652.163421871141 2501752.8432800174 0 2501752.8432800174 695540.3540638322 0 0 0 0 -242006.08725728653 9070985.0913469121 0 9070985.0913469121 1771960.3480907502 0 0 0 0 -4319890.6403198242 13248894.173641205 0 13248894.173641205 15652114.542063713 0 0 0 0 2103925.0391159058 7049085.2473697662 0 7049085.2473697662 459470.6357383728 0 0 0 0 -6544737.6772613525 3611533.3866043091 0 3611533.3866043091 4028389.9196624756 0 0 0 0 1862557.7013894208 7306546.3490960766 0 7306546.3490960766 5307939.8825318217 0 0 0 0 29287.994047164917 6695046.7005519867 0 6695046.7005519867 -5654279.4383544922 0 0 0 0 461131726.87208366 31694342.902469635 0 31694342.902469635 6711756.58618927 0 0 0 0 72810055.744456291 155675466.94176388 0 155675466.94176388 -14154517.778465271 0 0 0 0 23867750.097784042 129248073.10926437 0 129248073.10926437 5073704.5864219666 0 0 0 0 20612449.904881477 121710495.6488781 0 121710495.6488781 -702191.4222946167 0 0 0 0 16726931.447474897 93546257.996826053 0 93546257.996826053 -28364773.948234558 0 0 0 0 103606737.06098557 127365831.79928207 0 127365831.79928207 -69575796.01482296 0 0 0 0 65821829.131595612 135714367.28956223 0 135714367.28956223 -64727844.176212311 0 0 0 0 106288856.9602375 149195591.74768734 0 149195591.74768734 -141586483.91665268 0 0 0 0 317520054.94371891 108467763.0760231 0 108467763.0760231 -140653073.14876556 0 0 0 0 157498660.11145544 -27831747.153115273 0 -27831747.153115273 -29491253.269134521 0 0 0 0 -10577186.485865593 65724475.017381668 0 65724475.017381668 -45252690.310779572 0 0 0 0 52627557.832520366 55384705.903565884 0 55384705.903565884 -51225953.435329437 0 0 0 0 12238723.741351554 15989546.513737222 0 15989546.513737222 -117268.81114048138 0 0 0 0 -43990759.277900696 32936738.313606262 0 32936738.313606262 -5411655.9650344849 0 0 0 0 -43766881.326892853 32955066.214136124 0 32955066.214136124 -5433334.3105392456 0 0 0 0 -36241394.993679047 22173196.259038925 0 22173196.259038925 1026033.4225540161 0 0 0 0 -68174323.053268433 29438448.497459412 0 29438448.497459412 -600015.83638000488 0 0 0 0 -86052054.604316711 43733603.439712524 0 43733603.439712524 -7040292.3464202881 0 0 0 0 -47028667.66198349 35983048.792814255 0 35983048.792814255 -5508037.3234405518 0 0 0 0 -91978952.375988007 37609129.738206863 0 37609129.738206863 -11520941.629264832 0 0 0 0 12437182.874481624 17001180.92011226 0 17001180.92011226 1706808.2807885446 0 0 0 0 -100829231.29957581 49722175.872894287 0 49722175.872894287 -26420995.829769135 0 0 0 0 -57358593.548458099 73762784.448591232 0 73762784.448591232 -20721387.512084961 0 0 0 0 -71713088.874787927 107230623.11629581 0 107230623.11629581 -38523237.566204071 0 0 0 0 -54515023.79178524 76745422.705411911 0 76745422.705411911 -6037988.6266899109 0 0 0 0 -54604942.872289658 74901409.532596588 0 74901409.532596588 21876625.004009247 0 0 0 0 -129560305.70647907 91019150.928786278 0 91019150.928786278 3720929.3176460266 0 0 0 0 -92880962.628264427 55031423.748687744 0 55031423.748687744 -15701630.880792618 0 0 0 0 10621039.094257539 18520416.299891375 0 18520416.299891375 3351702.6849958505 0 0 0 0 285039084.25288391 256459906.53790283 0 256459906.53790283 -170666906.66636658 0 0 0 0 -129779439.44426727 144921599.20510483 0 144921599.20510483 72965839.305194855 0 0 0 0 -187427806.51374817 25854611.085780144 0 25854611.085780144 1155222.0632781982 0 0 0 0 -156091887.02836609 57985666.694839478 0 57985666.694839478 -25790167.75787735 0 0 0 0 -459899.76625801064 490467.07524826564 0 490467.07524826564 469326.72013343498 0 0 0 0 333469518.01922607 134957878.56477737 0 134957878.56477737 80263369.385007381 0 0 0 0 -118717977.45404053 -144538844.75750351 0 -144538844.75750351 91122500.52892518 0 0 0 0 200446490.62386322 -98589552.389761925 0 -98589552.389761925 -5250731.1464691162 0 0 0 0 -98253046.193054199 -127321816.79336929 0 -127321816.79336929 46872059.163833618 0 0 0 0 -99634237.687854767 -68393623.025102615 0 -68393623.025102615 171084701.21102905 0 0 0 0 541881361.17604446 440529434.94264603 0 440529434.94264603 -423041079.24007416 0 0 0 0 -1001728.5207074434 870154.45792546496 0 870154.45792546496 1242380.8109543063 0 0 0 0 44103990.906845093 314858390.05339432 0 314858390.05339432 70463229.946456909 0 0 0 0 -142258497.1075058 4531135.6791877747 0 4531135.6791877747 -239851.08957672119 0 0 0 0 -83476069.976463318 1148502.5633544922 0 1148502.5633544922 -733504.26833152771 0 0 0 0 -1472875.4875969775 1060556.0647496544 0 1060556.0647496544 1534558.2805986814 0 0 0 0 -73856143.415435791 7187135.9623470306 0 7187135.9623470306 886935.9596786499 0 0 0 0 -37170002.236968994 4835507.865146637 0 4835507.865146637 4690583.4726409912 0 0 0 0 -61121432.312817574 1560639.3060674667 0 1560639.3060674667 2981931.3332366943 0 0 0 0 -39265431.499767303 2350574.1100387573 0 2350574.1100387573 2109937.6093521118 0 0 0 0 -50061158.785919189 13176428.64950943 0 13176428.64950943 5071195.1208379269 0 0 0 0 14293706.24439621 27914457.563949585 0 27914457.563949585 -2020530.9608917236 0 0 0 0 -72451078.223342896 40805249.091772079 0 40805249.091772079 54210019.35855484 0 0 0 0 -3072331.1473097447 1665240.6395894978 0 1665240.6395894978 2982748.7378460765 0 0 0 0 -89137779.660469055 -12182283.962715149 0 -12182283.962715149 36874767.86876297 0 0 0 0 37651260.093161583 -18950810.219048023 0 -18950810.219048023 -88598804.172592163 0 0 0 0 -739641573.89574432 475805741.78198051 0 475805741.78198051 228470644.19851685 0 0 0 0 354424322.07614136 94036402.218132019 0 94036402.218132019 -641561997.2497673 0 0 0 0 -603597962.99381256 -6085437.3967323303 0 -6085437.3967323303 167829073.23896599 0 0 0 0 -537018597.17241669 145795555.72292614 0 145795555.72292614 513008890.44113922 0 0 0 0 -2466562.8011212945 1316758.764622543 0 1316758.764622543 3475218.637339592 0 0 0 0 -234721772.35219574 110925427.8614502 0 110925427.8614502 209856965.01450038 0 0 0 0 -654621936.54685211 -153474159.48915672 0 -153474159.48915672 809414869.58789825 0 0 0 0 -744796268.69902039 399089645.18620491 0 399089645.18620491 1008176415.6796513 0 0 0 0 -540571967.99402618 -249575697.14262772 0 -249575697.14262772 2191802064.0520744 0 0 0 0 -1160267608.35252 596840370.29836941 0 596840370.29836941 -190304759.58256531 0 0 0 0 12704553.01455307 712257807.53718185 0 712257807.53718185 -2304203735.2043724 0 0 0 0 -2217801.3703870215 761301.50394515507 0 761301.50394515507 -95611.096859209298 0 0 0 0 -348063542.86650085 -165803536.63263702 0 -165803536.63263702 -340488891.11699677 0 0 0 0 -86502801.742641449 313061704.80848885 0 313061704.80848885 -363364345.50151825 0 0 0 0 -389300689.56089783 138193698.93929482 0 138193698.93929482 18103049.844696045 0 0 0 0 -94865568.63633728 -29837418.549537659 0 -29837418.549537659 5395517.9073252678 0 0 0 0 36731218.640686035 153319072.99683762 0 153319072.99683762 -258369224.79227066 0 0 0 0 127798809.96393967 50456446.106505394 0 50456446.106505394 -143875509.51734161 0 0 0 0 -393961592.86652756 255740231.16412067 0 255740231.16412067 -257928298.91418457 0 0 0 0 -701492.70051843487 500425.93183082528 0 500425.93183082528 826993.74722787365 0 0 0 0 -21846166.409896851 -29385113.933444977 0 -29385113.933444977 78144149.23916626 0 0 0 0 -154146600.6987915 -2618890.5457000732 0 -2618890.5457000732 20390249.008382797 0 0 0 0 -147306234.78927612 23264963.453865051 0 23264963.453865051 13306250.046051025 0 0 0 0 -42096132.026672363 -2621144.5053329468 0 -2621144.5053329468 4225241.544128418 0 0 0 0 -100749565.42094421 -24179799.540290833 0 -24179799.540290833 24123674.887481689 0 0 0 0 -48894815.269714355 -53683610.871963501 0 -53683610.871963501 27939178.238780975 0 0 0 0 -62643827.24281311 -74690645.758943558 0 -74690645.758943558 17363742.538085938 0 0 0 0 -78834702.531234741 -34337611.63829422 0 -34337611.63829422 48995409.478637695 0 0 0 0 -21747024.620243073 -28524720.966648102 0 -28524720.966648102 36097581.984222412 0 0 0 0 -39447947.825408936 -27381532.744544983 0 -27381532.744544983 42500296.761112213 0 0 0 0 -57055197.134384155 -12401009.189712524 0 -12401009.189712524 81949854.762153625 0 0 0 0 -20956146.482528687 8758793.8917236328 0 8758793.8917236328 63212017.195171356 0 0 0 0 16950440.995132446 21538772.988956451 0 21538772.988956451 11267036.545730591 0 0 0 0 -30362507.639266968 -5892610.5116691589 0 -5892610.5116691589 42401245.219070435 0 0 0 0 -7877474.342918396 -9464554.2538833618 0 -9464554.2538833618 32410875.257591248 0 0 0 0 -26092353.736129761 -13621016.086959839 0 -13621016.086959839 54823603.879470825 0 0 0 0 -32429146.309692383 -33510712.460166931 0 -33510712.460166931 17141328.302047729 0 0 0 0 -14336231.967386246 2732186.0393133163 0 2732186.0393133163 14601496.121917725 0 0 0 0 -6235786.4056625366 15527702.903274536 0 15527702.903274536 23872874.593437195 0 0 0 0 -10652463.399978638 19494456.339427948 0 19494456.339427948 57078835.134708405 0 0 0 0 -3399240.8857364655 9302698.1753435135 0 9302698.1753435135 -7719120.1976966858 0 0 0 0 -3168636.923842459 3207242.1051790379 0 3207242.1051790379 3613275.9207570441 0 0 0 0 -359109.26583243534 791719.46991067007 0 791719.46991067007 -1080956.123689469 0 0 0 0 -94032022.360832214 -90321576.684318542 0 -90321576.684318542 218296605.52777863 0 0 0 0 24686239.688690186 44639329.606292725 0 44639329.606292725 43214571.937000275 0 0 0 0 20376182.514911652 -40748660.180809975 0 -40748660.180809975 75310878.518058777 0 0 0 0 -33104858.957199097 19034963.762424469 0 19034963.762424469 113359640.62976837 0 0 0 0 50354115.93885231 60348472.855786324 0 60348472.855786324 35236353.675445557 0 0 0 0 -4986904.7731767893 5466937.9609451657 0 5466937.9609451657 -522785.83780635148 0 0 0 0 -552687.82749938965 -1839729.2280483246 0 -1839729.2280483246 -8868258.5665740967 0 0 0 0 -11461456.069667816 5993043.2069005966 0 5993043.2069005966 3146081.2371902466 0 0 0 0 -21058026.223876953 -4143656.0703992844 0 -4143656.0703992844 8414469.4515724182 0 0 0 0 -8490477.0506134033 -7013636.9426670074 0 -7013636.9426670074 5548179.2350997925 0 0 0 0 3016297.8807983398 6613551.8071517944 0 6613551.8071517944 2063145.1156997681 0 0 0 0 -28224641.798126221 12356756.649960518 0 12356756.649960518 30022551.582107544 0 0 0 0 -751252.31826782227 12542064.534439087 0 12542064.534439087 2621137.5622787476 0 0 0 0 -4097279.3762822803 2974653.1069241427 0 2974653.1069241427 4446687.1513467301 0 0 0 0 -1784811.4833526611 7829149.5842666626 0 7829149.5842666626 1555888.8109664917 0 0 0 0 -4328231.242400147 6774939.9845411228 0 6774939.9845411228 340973.37273551896 0 0 0 0 8468726.3742218018 13651884.629798889 0 13651884.629798889 4395437.1102600098 0 0 0 0 -7959067.2342987061 10518278.594779968 0 10518278.594779968 9330608.6769046783 0 0 0 0 -9033143.9899368286 14334849.099609375 0 14334849.099609375 11178418.248649597 0 0 0 0 -12469131.182185665 3677369.7066785898 0 3677369.7066785898 5859763.9244800992 0 0 0 0 -14284449.787612915 9343103.1377677917 0 9343103.1377677917 11391252.769554138 0 0 0 0 -9594582.3798522949 10139933.77409935 0 10139933.77409935 10856908.473057747 0 0 0 0 -19472943.964019775 -4070841.0666542053 0 -4070841.0666542053 -639790.33982133865 0 0 0 0 -4310505.3892827928 -1376205.7922422364 0 -1376205.7922422364 3671622.9978804523 0 0 0 0 -15546015.375236511 14460414.923933029 0 14460414.923933029 46924653.61693573 0 0 0 0 -334584.07679823413 508980.73148126528 0 508980.73148126528 -408170.48069333658 0 0 0 0 -13474795.917068481 20227520.821098328 0 20227520.821098328 49019619.908559799 0 0 0 0 -2236492.0502166748 -501537.43706130981 0 -501537.43706130981 59306601.655128479 0 0 0 0 68886595.513069153 -30884409.885210037 0 -30884409.885210037 -72789384.455989838 0 0 0 0 -46566853.86730957 -51334395.780948639 0 -51334395.780948639 3045361.9593811035 0 0 0 0 -53839880.460357666 2401126.3851623535 0 2401126.3851623535 72292194.447695434 0 0 0 0 -50504352.878653526 -25854005.29331255 0 -25854005.29331255 72816464.887664795 0 0 0 0 -63610425.40897584 24326434.390960693 0 24326434.390960693 6987971.7007293701 0 0 0 0 -11907309.893616902 19198120.423418496 0 19198120.423418496 3798197.9459835868 0 0 0 0 -60546711.430791378 9031283.4492177963 0 9031283.4492177963 7828232.0255661011 0 0 0 0 -19229495.31427002 24951292.250091553 0 24951292.250091553 35283677.801139832 0 0 0 0 -75693133.402990341 31582990.32591629 0 31582990.32591629 2715122.4643554688 0 0 0 0 -72268825.378954291 26297460.324922562 0 26297460.324922562 10206059.722717285 0 0 0 0 -83589696.957627773 39266381.590169907 0 39266381.590169907 10255727.755744934 0 0 0 0 -81917141.155499578 40940298.539279938 0 40940298.539279938 8007931.378993988 0 0 0 0 -20159909.556715012 54994476.873319864 0 54994476.873319864 -37578045.660903931 0 0 0 0 4347551.140844278 20005847.572514072 0 20005847.572514072 5777991.6902593412 0 0 0 0 -81188237.270561695 36272140.373443604 0 36272140.373443604 13989050.901573181 0 0 0 0 -81927906.744165406 40028331.602811679 0 40028331.602811679 10570151.649375916 0 0 0 0 -78051788.64688921 38373526.848342896 0 38373526.848342896 3256993.3805289268 0 0 0 0 199374.23832537234 763202.55846720934 0 763202.55846720934 938088.71777569503 0 0 0 0 -24480271.907867432 5841580.1750106812 0 5841580.1750106812 9636588.6330032349 0 0 0 0 -11968334.117752075 11560488.93711853 0 11560488.93711853 -7518646.6719589233 0 0 0 0 -14041430.895545959 16246935.380897522 0 16246935.380897522 6701223.0892105103 0 0 0 0 -3811381.5725708008 -5540241.6641769409 0 -5540241.6641769409 -2475245.9289131165 0 0 0 0 -8602635.8419189453 8739954.1156959534 0 8739954.1156959534 -30796039.162277222 0 0 0 0 51091397.153411865 -27949489.496482849 0 -27949489.496482849 -20505407.641778946 0 0 0 0 10655387.613204956 -52152675.055198669 0 -52152675.055198669 23782376.984352112 0 0 0 0 11995444.379364014 -48194222.51158905 0 -48194222.51158905 -24485970.484329224 0 0 0 0 44474124.540100098 -118174440.35881042 0 -118174440.35881042 16239046.913154602 0 0 0 0 60550857.881072998 -23574441.885482788 0 -23574441.885482788 55704436.977680206 0 0 0 0 105817970.18745422 -59470255.438302994 0 -59470255.438302994 -26582545.03943634 0 0 0 0 96965932.134002686 -53753556.589780807 0 -53753556.589780807 -69061016.481445312 0 0 0 0 38918920.522697449 38342540.656089783 0 38342540.656089783 -85685845.221160889 0 0 0 0 -88946070.587380409 79389829.753513336 0 79389829.753513336 -18387469.735045433 0 0 0 0 -77669070.237944126 44897086.111053467 0 44897086.111053467 -7461483.4562578201 0 0 0 0 -79591661.147831917 46039754.06121254 0 46039754.06121254 18985934.61418438 0 0 0 0 -96025037.051013231 62417922.784377098 0 62417922.784377098 30863945.301025391 0 0 0 0 -74331918.201457024 31771843.253093719 0 31771843.253093719 54320323.369754791 0 0 0 0 -75527429.6037817 62214053.548089027 0 62214053.548089027 71387362.216835022 0 0 0 0 -87389750.506048203 22222211.285367966 0 22222211.285367966 33132266.828910828 0 0 0 0 -87533959.393213272 28881602.929759979 0 28881602.929759979 42010724.850856781 0 0 0 0 -91193683.615597963 55349100.679488182 0 55349100.679488182 25589631.911174774 0 0 0 0 -88988907.61865139 34286674.033519745 0 34286674.033519745 25649582.406508923 0 0 0 0 -79408189.001963139 20684680.387504578 0 20684680.387504578 18576764.394004822 0 0 0 0 -80381911.903684616 19875254.633003235 0 19875254.633003235 24183132.116211176 0 0 0 0 -84201551.658493996 19625351.471262932 0 19625351.471262932 35094404.339614868 0 0 0 0 -79926298.533593178 -4504536.0283927917 0 -4504536.0283927917 25642648.773960114 0 0 0 0 -82913790.143497944 3807010.5294981003 0 3807010.5294981003 38341243.914356232 0 0 0 0 -75213187.308794022 12249143.138309479 0 12249143.138309479 16897929.620333672 0 0 0 0 -78286411.306690693 6255009.7424736023 0 6255009.7424736023 19862128.164375305 0 0 0 0 -78037788.878128052 -3089547.1772193909 0 -3089547.1772193909 19434422.818242788 0 0 0 0 -83654153.700922012 -32300764.876371384 0 -32300764.876371384 729579.79590129852 0 0 0 0 -16472261.699617177 17267611.80308963 0 17267611.80308963 4816602.9079191666 0 0 0 0 -70132633.48483181 -19346400.307481766 0 -19346400.307481766 -12346314.105872154 0 0 0 0 -67093724.019631863 517908.76191711426 0 517908.76191711426 -2925124.5711975098 0 0 0 0 -80114785.994111061 -17625210.673431396 0 -17625210.673431396 16861066.131880522 0 0 0 0 -76078105.322526932 -13876987.470597267 0 -13876987.470597267 15064900.263244629 0 0 0 0 -76063382.375983715 -956057.80945587158 0 -956057.80945587158 15761371.204925537 0 0 0 0 -66892443.502174377 -31323380.021368027 0 -31323380.021368027 24650450.541211367 0 0 0 0 -66906326.572862625 -29626726.538066864 0 -29626726.538066864 8234557.0381402969 0 0 0 0 -71160553.374751091 -22978368.680732727 0 -22978368.680732727 28981756.490058899 0 0 0 0 -68078633.334684372 -25999717.05173111 0 -25999717.05173111 36324675.468292236 0 0 0 0 -67840059.427030563 -20722576.632385254 0 -20722576.632385254 23212477.62688303 0 0 0 0 -80525002.548326492 -11794913.835504532 0 -11794913.835504532 59852622.82056427 0 0 0 0 -80243586.112597466 -4366713.7517566681 0 -4366713.7517566681 33414065.657896042 0 0 0 0 -87421642.944039091 21173712.164070129 0 21173712.164070129 74731254.198818207 0 0 0 0 -84615808.51830864 1601299.7622909546 0 1601299.7622909546 51506398.135360718 0 0 0 0 -78778396.90137291 -32122782.21620369 0 -32122782.21620369 74366263.92414856 0 0 0 0 -86727397.678972244 -945868.5223274231 0 -945868.5223274231 120151572.95698547 0 0 0 0 -68451048.934485912 -25590366.234148026 0 -25590366.234148026 50782663.322013855 0 0 0 0 -34901651.491165161 -61202941.915122986 0 -61202941.915122986 26971509.114736557 0 0 0 0 -70050533.33026886 -99225349.501548767 0 -99225349.501548767 168362569.25471878 0 0 0 0 -62208467.70575428 -119443253.82838917 0 -119443253.82838917 52699015.185329914 0 0 0 0 -80325906.516254425 -45065725.681912422 0 -45065725.681912422 205673158.09139824 0 0 0 0 -73500960.455030918 -13815907.020768642 0 -13815907.020768642 117919592.3443985 0 0 0 0 -43063661.814903259 99026445.876159668 0 99026445.876159668 197798584.14580917 0 0 0 0 -64771862.359653473 52809494.356639862 0 52809494.356639862 97807252.214664459 0 0 0 0 -69935892.589465141 53186813.948870659 0 53186813.948870659 125313998.77179909 0 0 0 0 -30689045.752733946 95478387.077875495 0 95478387.077875495 61473686.178489685 0 0 0 0 -32869711.542916298 78800850.279497147 0 78800850.279497147 19150573.535438538 0 0 0 0 -4537779.8050270081 128363817.94729042 0 128363817.94729042 96458815.039268494 0 0 0 0 985558.49617576599 121019273.14447117 0 121019273.14447117 60358707.362228394 0 0 0 0 28791131.111130714 150042315.62440157 0 150042315.62440157 68063747.632568359 0 0 0 0 110223219.5664978 57944906.316656113 0 57944906.316656113 -137629037.01159668 0 0 0 0 92294575.256063938 -85552736.523798227 0 -85552736.523798227 -73126049.131019592 0 0 0 0 -589532.6096278429 885926.94645128399 0 885926.94645128399 -1434567.7311936454 0 0 0 0 -26122509.627822876 88572964.014846802 0 88572964.014846802 23376133.036964417 0 0 0 0 -190579862.18102264 -66977416.244541168 0 -66977416.244541168 212241924.2596817 0 0 0 0 -86148920.796188354 -39624226.910606384 0 -39624226.910606384 -31691063.831758499 0 0 0 0 -44290104.865509033 -82323526.167419434 0 -82323526.167419434 -406855463.07971191 0 0 0 0 -111754039.62368011 72492489.724924088 0 72492489.724924088 -375331480.79759979 0 0 0 0 35438992.487670898 30501097.919755936 0 30501097.919755936 -676716024.35137177 0 0 0 0 86078862.381397247 41547225.104143143 0 41547225.104143143 -431662067.18264771 0 0 0 0 42513877.255886078 54895051.57012558 0 54895051.57012558 -183919967.56465912 0 0 0 0 18961389.666656494 81194115.690071106 0 81194115.690071106 -345762750.51209831 0 0 0 0 32554880.758796692 -79958319.524263382 0 -79958319.524263382 -276781165.85883331 0 0 0 0 63941699.496292114 140913126.6638546 0 140913126.6638546 -361454373.69618225 0 0 0 0 35058711.088813782 125152962.78371239 0 125152962.78371239 -168735368.11782813 0 0 0 0 35564108.88999939 44359935.609214783 0 44359935.609214783 -188509221.2178421 0 0 0 0 21670571.915725708 78251831.724197388 0 78251831.724197388 -164165149.7774148 0 0 0 0 52171695.78604126 97227624.118562698 0 97227624.118562698 -155368212.38507462 0 0 0 0 65986893.724121094 151113211.80966187 0 151113211.80966187 -131877549.65400887 0 0 0 0 86842.227645874023 48114332.781406403 0 48114332.781406403 95276433.597869873 0 0 0 0 82435388.754249573 -60303666.809854507 0 -60303666.809854507 -114970061.1141777 0 0 0 0 26408390.516113281 124929551.43971634 0 124929551.43971634 42930745.455062866 0 0 0 0 -53561226.119262695 4962645.0137786865 0 4962645.0137786865 149338131.79820251 0 0 0 0 -301900.22769581899 -224280.02886678465 0 -224280.02886678465 -375181.92199676152 0 0 0 0 -32035550.414505005 -29650385.754348755 0 -29650385.754348755 52890256.029206157 0 0 0 0 -33188862.285400391 21110399.567014694 0 21110399.567014694 -7534550.8518218994 0 0 0 0 14218857.853256226 12283958.416927338 0 12283958.416927338 -11401700.63722229 0 0 0 0 -10834014.839111328 44727312.194641113 0 44727312.194641113 -28012534.023151398 0 0 0 0 17094864.065963745 17297812.909809113 0 17297812.909809113 -57776777.521439314 0 0 0 0 -24733943.397575378 10097527.042984009 0 10097527.042984009 25364286.214431763 0 0 0 0 3618104.1731109619 616478.55963516235 0 616478.55963516235 -4760782.7146091461 0 0 0 0 -126798.96174287656 699277.76907493733 0 699277.76907493733 179756.95606563985 0 0 0 0 24933511.644821167 25516702.696128845 0 25516702.696128845 24599125.261795044 0 0 0 0 14217.704051971436 -3641956.8502502441 0 -3641956.8502502441 -8721883.1433792114 0 0 0 0 -44266685.727180481 33385242.574117661 0 33385242.574117661 35630581.576728821 0 0 0 0 -8288404.6039581299 -8545869.1031265259 0 -8545869.1031265259 34063938.169255018 0 0 0 0 10224236.508384705 -9295259.7091503143 0 -9295259.7091503143 23038918.067195892 0 0 0 0 -460388.44497043965 1965169.5566452201 0 1965169.5566452201 608985.91581860557 0 0 0 0 -5238945.3207321167 1552508.3815917969 0 1552508.3815917969 23054830.821731567 0 0 0 0 -2926475.4130353928 1637919.6882519722 0 1637919.6882519722 -1808234.9935760498 0 0 0 0 1442027.3769315332 697554.06044854224 0 697554.06044854224 -4288874.6970161423 0 0 0 0 84754485.787998199 145760106.83353043 0 145760106.83353043 112026257.21166611 0 0 0 0 -1622526.7112445943 3543364.5782043384 0 3543364.5782043384 -3544397.4587083254 0 0 0 0 70781187.858507156 166387365.84547997 0 166387365.84547997 207202012.74969482 0 0 0 0 42760766.441186905 185770854.36807251 0 185770854.36807251 349209974.28422546 0 0 0 0 43125350.455787659 191540708.6476326 0 191540708.6476326 282511380.9380722 0 0 0 0 58243182.314445496 139225623.83320618 0 139225623.83320618 269839690.29313374 0 0 0 0 -3110983.9184331894 4089963.7855405118 0 4089963.7855405118 -2450447.0950551871 0 0 0 0 -2654601.4194831848 24837376.268367529 0 24837376.268367529 4782872.9664916992 0 0 0 0 -28284559.935096741 -8737481.7001075745 0 -8737481.7001075745 -647768.75174713135 0 0 0 0 -5159519.2246311903 4130545.3145602746 0 4130545.3145602746 -743254.77869373187 0 0 0 0 140073388.39496422 202093791.67433739 0 202093791.67433739 334399120.94887924 0 0 0 0 10734915.932582855 8157339.5169429779 0 8157339.5169429779 -12600588.468036652 0 0 0 0 145588424.61228132 302009801.77387476 0 302009801.77387476 439884772.63306427 0 0 0 0 138252849.27481079 242665000.83568192 0 242665000.83568192 222613934.18078232 0 0 0 0 57551725.517059326 122388273.25306511 0 122388273.25306511 337768985.64933014 0 0 0 0 571479304.70491791 491678702.1690712 0 491678702.1690712 330712643.88354492 0 0 0 0 -113980.70569398161 1311303.9560869858 0 1311303.9560869858 -1138641.3070115112 0 0 0 0 1307384550.8039932 686594237.22606659 0 686594237.22606659 193937681.70651245 0 0 0 0 63631322.912353516 529672170.68983459 0 529672170.68983459 877988307.89218903 0 0 0 0 245425871.83820343 641937663.68281555 0 641937663.68281555 491264942.39219666 0 0 0 0 -185295669.19272614 684737497.08546829 0 684737497.08546829 789247769.58965683 0 0 0 0 211909397.91595078 151290019.51348495 0 151290019.51348495 331177753.27397537 0 0 0 0 198137214.38110352 274320572.49197578 0 274320572.49197578 579005943.64049911 0 0 0 0 338125864.66553497 443173307.43769836 0 443173307.43769836 670643872.56594849 0 0 0 0 -237773606.21044159 300842309.96943665 0 300842309.96943665 72751401.896431923 0 0 0 0 -475147112.58228683 246495709.35412788 0 246495709.35412788 734980898.72133636 0 0 0 0 -1401433138.3371983 350231894.93439579 0 350231894.93439579 410554582.53987122 0 0 0 0 -820325440.80550766 843061942.10566521 0 843061942.10566521 460620131.06826782 0 0 0 0 83287614.045272827 374884568.92842484 0 374884568.92842484 388327635.08013916 0 0 0 0 -579005406.84566498 179321256.95140839 0 179321256.95140839 2216327821.8002548 0 0 0 0 -73838906.743408203 -227118307.28399658 0 -227118307.28399658 1252204278.217308 0 0 0 0 282313117.93608856 195652536.29530334 0 195652536.29530334 727277458.47052312 0 0 0 0 -286549230.05138016 639856535.8947506 0 639856535.8947506 1616800315.1054878 0 0 0 0 -194089369.34332275 495337002.41789627 0 495337002.41789627 -670601926.59977722 0 0 0 0 -172190393.26477814 571787049.05847549 0 571787049.05847549 -825981028.95704651 0 0 0 0 -13411458.603790283 475272902.4477005 0 475272902.4477005 -1095355279.3423004 0 0 0 0 -5529897.25176147 3058451.2016874291 0 3058451.2016874291 -393122.00362561241 0 0 0 0 -127836281.67597961 540556244.74825287 0 540556244.74825287 -726620259.06348801 0 0 0 0 16842785.355888367 231094014.57009506 0 231094014.57009506 -680126197.72641754 0 0 0 0 -96330011.837005615 594401805.65095139 0 594401805.65095139 -806685069.4151001 0 0 0 0 -21713898.225265503 448185723.18261719 0 448185723.18261719 -792734969.36669064 0 0 0 0 -94514012.853637695 553804110.74802399 0 553804110.74802399 -725049515.74415588 0 0 0 0 -90924611.107805967 452865483.39566904 0 452865483.39566904 -692639603.44246674 0 0 0 0 -152988493.43112183 457043002.97864342 0 457043002.97864342 -660464460.03744507 0 0 0 0 -118407507.90907288 414688777.40734482 0 414688777.40734482 -650623658.24931812 0 0 0 0 43893766.966262817 -40954156.119269371 0 -40954156.119269371 -415673268.50535583 0 0 0 0 -93245285.216964722 -184488128.20582581 0 -184488128.20582581 -1192038.2922782898 0 0 0 0 -190045794.95265198 401418307.0083847 0 401418307.0083847 -367214720.27529907 0 0 0 0 -868323.45824475214 -811904.43201823346 0 -811904.43201823346 1353922.9194189049 0 0 0 0 -6457055.0346258804 5049885.444232421 0 5049885.444232421 -1341186.255691896 0 0 0 0 -319439292.75238037 347495045.60998917 0 347495045.60998917 -82269521.315933228 0 0 0 0 -215170943.57801819 63750497.616394043 0 63750497.616394043 -6161143.491656065 0 0 0 0 54888120.067481995 409961770.58312988 0 409961770.58312988 -648089975.87892151 0 0 0 0 -346232359.49548149 237962302.0407939 0 237962302.0407939 -481694465.70290375 0 0 0 0 -202959633.47996521 523003536.12136078 0 523003536.12136078 -632712799.87999153 0 0 0 0 -427701090.69598389 705281434.45312881 0 705281434.45312881 -780550373.67320251 0 0 0 0 -58489911.627563477 539234332.82968521 0 539234332.82968521 -994011374.90881729 0 0 0 0 -826582832.15737915 604420469.57254791 0 604420469.57254791 -749562298.92913055 0 0 0 0 -467081264.98732758 41422950.106620789 0 41422950.106620789 -883488485.23033142 0 0 0 0 -364641715.47323608 237050049.08413315 0 237050049.08413315 -529691907.8840847 0 0 0 0 -154101310.90129089 -68778850.28276062 0 -68778850.28276062 -729917094.00510406 0 0 0 0 -301821661.81068945 332147809.11849368 0 332147809.11849368 -701866449.1618576 0 0 0 0 -303531472.85878086 293178632.83449841 0 293178632.83449841 -1589155785.2762299 0 0 0 0 -924750625.75662231 957815779.14646149 0 957815779.14646149 -816136152.3633194 0 0 0 0 -1236317835.4690247 269974681.21416855 0 269974681.21416855 -885642137.26087189 0 0 0 0 -445306591.62120056 357552754.1025238 0 357552754.1025238 -1184891811.7476883 0 0 0 0 -959397105.2661438 1074919663.4571981 0 1074919663.4571981 -1972247979.3213501 0 0 0 0 -431472333.05905366 742252758.56974447 0 742252758.56974447 -1103651400.2243652 0 0 0 0 139568801.70565796 209475036.12016296 0 209475036.12016296 -1451273684.0425682 0 0 0 0 10901149.110473156 -595562420.96074569 0 -595562420.96074569 -530297426.1988678 0 0 0 0 -1108621440.6528702 -57346984.386863708 0 -57346984.386863708 247387081.38742828 0 0 0 0 -799577.92438282073 638142.74898331333 0 638142.74898331333 -80556.439236044884 0 0 0 0 -217481501.00692749 706380383.17048645 0 706380383.17048645 -2270457451.8198051 0 0 0 0 4028.1128266148735 552273.45153580233 0 552273.45153580233 -370084.49069993198 0 0 0 0 -461744.52052026987 2361057.5653472627 0 2361057.5653472627 -1925391.5987269469 0 0 0 0 -796216.16609048843 2385828.4590700269 0 2385828.4590700269 925250.98492431641 0 0 0 0 -100707365.35146737 129257424.02013683 0 129257424.02013683 -221533086.5381546 0 0 0 0 -1191912.2611183005 2658618.3209540173 0 2658618.3209540173 754331.99735159799 0 0 0 0 -530063913.35002899 99814426.561338425 0 99814426.561338425 110518256.27661896 0 0 0 0 -352945206.89444542 360548460.4161272 0 360548460.4161272 -234106803.15874481 0 0 0 0 -585314476.35162354 452700755.09214401 0 452700755.09214401 -177370284.24432373 0 0 0 0 35277145.799621582 252092227.45154953 0 252092227.45154953 -511234605.0754776 0 0 0 0 -225576168.73195648 137157677.58206558 0 137157677.58206558 -12999325.430438042 0 0 0 0 14233863.97555542 27596695.205219269 0 27596695.205219269 -80147825.275932312 0 0 0 0 -108733996.48864365 296593844.25498772 0 296593844.25498772 -432287466.48529053 0 0 0 0 154319272.14672852 85074050.78207016 0 85074050.78207016 -564658789.29549789 0 0 0 0 -30749065.571365356 198602158.02429199 0 198602158.02429199 -371484630.14530182 0 0 0 0 -44537438.09588623 440061853.00131607 0 440061853.00131607 -785461653.86136627 0 0 0 0 135199571.17419434 81801737.079711914 0 81801737.079711914 -477402365.86923313 0 0 0 0 20186750.220855713 174617581.51687622 0 174617581.51687622 -495686685.94242859 0 0 0 0 -170694959.17765808 166956325.81131363 0 166956325.81131363 -149743811.51905823 0 0 0 0 -2186042.062844675 2517765.4820593568 0 2517765.4820593568 -647136.58951582946 0 0 0 0 -647928.63076782227 2102306.1663990021 0 2102306.1663990021 -332859.7714214325 0 0 0 0 -604377.86791229248 1145209.4053726196 0 1145209.4053726196 -511021.11831092834 0 0 0 0 118113389.49408197 -116213015.86171651 0 -116213015.86171651 -18358685.124557495 0 0 0 0 -63791114.944854736 120897647.84299469 0 120897647.84299469 163451837.89033699 0 0 0 0 15727988.545265198 104785920.28406525 0 104785920.28406525 -15925388.93346405 0 0 0 0 -9138778.066078186 -78790354.852649689 0 -78790354.852649689 55534050.18005085 0 0 0 0 -3008678.8923873901 9146288.0028495789 0 9146288.0028495789 -9357782.3079442978 0 0 0 0 -2299425.7029483095 2312179.9885331802 0 2312179.9885331802 -1084067.3323097154 0 0 0 0 -1428937.0049895309 1988011.0510359742 0 1988011.0510359742 -446601.21598468348 0 0 0 0 -2776474.9505023956 15856014.93460989 0 15856014.93460989 -6190737.2408409119 0 0 0 0 13846783.666259766 -3521897.4683666229 0 -3521897.4683666229 1176910.8481501341 0 0 0 0 -7358136.9516191483 4386884.9530055523 0 4386884.9530055523 886530.74806594849 0 0 0 0 -8672082.7653427124 20204936.687282562 0 20204936.687282562 12196553.245830536 0 0 0 0 -139049982.0668335 170825725.55625916 0 170825725.55625916 -167870294.26616669 0 0 0 0 -267676987.3356781 241275480.99840736 0 241275480.99840736 -93330881.091842651 0 0 0 0 -20055226.411437988 54884979.228931427 0 54884979.228931427 -77064808.910299301 0 0 0 0 -543615.4771194458 2497564.9114360809 0 2497564.9114360809 -1881321.6138286591 0 0 0 0 -600551.74593755906 2984329.0127491914 0 2984329.0127491914 -664540.07530366629 0 0 0 0 -914733.9960823108 2276198.661548458 0 2276198.661548458 942892.3635061793 0 0 0 0 -1964588.8927612305 5222360.5762882233 0 5222360.5762882233 12096679.496225357 0 0 0 0 -24904255.785667419 7540023.4198951721 0 7540023.4198951721 4373199.383398056 0 0 0 0 -223976898.66899109 92985674.319363594 0 92985674.319363594 -47285097.115282059 0 0 0 0 677204.57607103884 785290.95174647309 0 785290.95174647309 -751734.91449026391 0 0 0 0 -119990886.98735809 238532260.00439072 0 238532260.00439072 -239748048.8553648 0 0 0 0 -162748641.73966217 241452529.68825531 0 241452529.68825531 -192876966.40023041 0 0 0 0 25973307.372627258 299059190.92335129 0 299059190.92335129 -270760508.62298393 0 0 0 0 -70777666.500968933 315015320.44631577 0 315015320.44631577 -296869194.96336746 0 0 0 0 2688802.075504303 307519799.85573483 0 307519799.85573483 -297260235.77919769 0 0 0 0 -281888013.73911285 343906025.60662079 0 343906025.60662079 -208947904.36863947 0 0 0 0 -77372636.703735352 330450802.1265049 0 330450802.1265049 -397512487.67076111 0 0 0 0 -150446294.48952484 419101273.36265564 0 419101273.36265564 -500817885.67264175 0 0 0 0 -99393936.718147278 374060727.47136116 0 374060727.47136116 -399706630.72352219 0 0 0 0 -156565989.25666046 483877324.99986458 0 483877324.99986458 -872759942.42404938 0 0 0 0 14791548.852279663 310128194.78548241 0 310128194.78548241 -412717832.31896973 0 0 0 0 40044244.903297424 258538528.44266033 0 258538528.44266033 -393451427.7283783 0 0 0 0 692614.92859649658 338447363.60549736 0 338447363.60549736 -539178102.67654419 0 0 0 0 38563137.373413086 223643484.76506805 0 223643484.76506805 -472952199.55887604 0 0 0 0 60498992.417573929 217463145.5621953 0 217463145.5621953 -501619209.333992 0 0 0 0 -53479192.293731689 177044863.7580719 0 177044863.7580719 -572935391.62944221 0 0 0 0 -51605139.420684814 266862239.88238525 0 266862239.88238525 -942694402.78288651 0 0 0 0 34578646.615893841 273295193.8577168 0 273295193.8577168 -759125899.94747925 0 0 0 0 145672.31189346313 199595790.60814476 0 199595790.60814476 -289522938.15612793 0 0 0 0 52760159.123908997 258865338.26221466 0 258865338.26221466 -414865759.52248764 0 0 0 0 84430790.401025772 148699052.41073847 0 148699052.41073847 -359104526.9287529 0 0 0 0 61898833.809066772 240485711.28437138 0 240485711.28437138 -379260429.12751007 0 0 0 0 46399697.013435364 211488384.441082 0 211488384.441082 -293047573.08839607 0 0 0 0 2781552.936416626 277486425.48631668 0 277486425.48631668 -229475734.62052536 0 0 0 0 9605.8874578343366 239872320.32973272 0 239872320.32973272 -299484192.42926025 0 0 0 0 2952886.5548095703 290425332.23006439 0 290425332.23006439 -305947864.32974052 0 0 0 0 20859679.930732727 284121291.99886131 0 284121291.99886131 -303916182.85150146 0 0 0 0 -22579083.553886414 324238540.52865887 0 324238540.52865887 -223984912.39657211 0 0 0 0 -58621297.192771912 296970850.32485771 0 296970850.32485771 -205174115.91532612 0 0 0 0 8741.8597259521484 241544862.30242443 0 241544862.30242443 -216546311.53964233 0 0 0 0 -47132738.644851685 259923537.39308167 0 259923537.39308167 -93313653.698608398 0 0 0 0 -104780290.49557495 244947927.06919289 0 244947927.06919289 -96980554.338440895 0 0 0 0 -114973671.71116877 117260187.28092414 0 117260187.28092414 74000805.814926147 0 0 0 0 -141033.60730743408 161092521.08298302 0 161092521.08298302 -29820772.356245041 0 0 0 0 -12328040.463371277 54318177.315255165 0 54318177.315255165 411328760.94992065 0 0 0 0 591001.78812530637 78250.379102464765 0 78250.379102464765 -511368.36847326718 0 0 0 0 -7247839.8543395996 444504970.86046982 0 444504970.86046982 -24890783.525728226 0 0 0 0 168555497.3842926 231611778.6107254 0 231611778.6107254 133220145.70383835 0 0 0 0 -841081.96457200125 226311.49557040911 0 226311.49557040911 800879.48994990811 0 0 0 0 63134009.462966919 12425690.446752548 0 12425690.446752548 58212840.609187365 0 0 0 0 160633599.91117096 230968254.54186821 0 230968254.54186821 317968803.10580826 0 0 0 0 67139863.912666321 113268403.22802353 0 113268403.22802353 191743671.68212509 0 0 0 0 112975071.23193169 136987399.78751969 0 136987399.78751969 114276305.36021042 0 0 0 0 -1314488.9173055105 386874.32599773258 0 386874.32599773258 1214825.4501455147 0 0 0 0 -65743095.444854736 73531950.017305374 0 73531950.017305374 167991470.93199921 0 0 0 0 52112142.875198364 97986374.395354271 0 97986374.395354271 191557406.19585419 0 0 0 0 75431131.642642975 12309012.630250931 0 12309012.630250931 56629812.434177399 0 0 0 0 -745905.57437832281 -728248.31902577728 0 -728248.31902577728 721877.40912644286 0 0 0 0 -18180682.39768219 89146886.565538406 0 89146886.565538406 109974506.35112572 0 0 0 0 5375963.4167175293 -3231676.8704280853 0 -3231676.8704280853 42366104.794799805 0 0 0 0 221873096.00679779 90741922.26837635 0 90741922.26837635 133853637.00333023 0 0 0 0 -333073.35025087371 -364004.26505457191 0 -364004.26505457191 347026.66101300064 0 0 0 0 31485662.961677551 62994813.459787369 0 62994813.459787369 -133168979.28684616 0 0 0 0 47512226.984111786 37255681.039121628 0 37255681.039121628 -93118239.785251617 0 0 0 0 -839279.15495985374 -888063.09428513655 0 -888063.09428513655 862574.82544549834 0 0 0 0 -19816815.024414062 33552165.018520355 0 33552165.018520355 162741650.48769474 0 0 0 0 -31294477.437461853 89987582.20573616 0 89987582.20573616 -88861346.511811256 0 0 0 0 -17519752.093902588 32169387.286827087 0 32169387.286827087 76219903.185285568 0 0 0 0 54093001.814094543 68612445.057393074 0 68612445.057393074 -3720774.8141479492 0 0 0 0 -8086146.1234588623 24854941.312936783 0 24854941.312936783 -4934467.3782808185 0 0 0 0 48239.2135887146 74642720.795715332 0 74642720.795715332 22231201.039205551 0 0 0 0 -2209481.7385559082 -9044556.8185844421 0 -9044556.8185844421 -48927460.713971138 0 0 0 0 -41498.98641204834 73327433.570253849 0 73327433.570253849 -170547296.81079483 0 0 0 0 29997702.196866989 23655367.784134865 0 23655367.784134865 -320946531.85093498 0 0 0 0 -32462267.948513031 65852501.237330437 0 65852501.237330437 -180151128.94779587 0 0 0 0 11554467.805969238 14467741.051475525 0 14467741.051475525 -154497830.84403992 0 0 0 0 8212919.2578873634 70997241.569161534 0 70997241.569161534 -97325498.899429321 0 0 0 0 12557707.912361145 78874563.590696812 0 78874563.590696812 -62677559.049880981 0 0 0 0 945477.06022644043 29789522.326963425 0 29789522.326963425 -97969534.203818321 0 0 0 0 2050019.3461608887 77375643.846708298 0 77375643.846708298 -157966079.93633461 0 0 0 0 5306633.5325183868 89354467.849377632 0 89354467.849377632 -104629318.94062805 0 0 0 0 -2154253.6268157959 66308233.431495667 0 66308233.431495667 -80573368.238952637 0 0 0 0 4193299.5700378418 53622032.097154617 0 53622032.097154617 -148618602.68285751 0 0 0 0 10015125.028443336 88442951.794510245 0 88442951.794510245 -112055510.36632156 0 0 0 0 -10314717.139936447 84324624.558712244 0 84324624.558712244 -82707913.019809723 0 0 0 0 -27065414.300018311 72591133.897229195 0 72591133.897229195 -219143607.01123047 0 0 0 0 -45070.754414632916 -747931.41567429714 0 -747931.41567429714 -422642.24937128043 0 0 0 0 18332806.703155518 62208010.43514061 0 62208010.43514061 -199416013.32372093 0 0 0 0 -33362317.114501953 63118350.774763107 0 63118350.774763107 -150980501.29958057 0 0 0 0 32384700.395084381 61179869.746641159 0 61179869.746641159 -298353063.24085426 0 0 0 0 -20429.290204696357 -1081212.3043134511 0 -1081212.3043134511 -579204.55584561231 0 0 0 0 -8393303.3574829102 4801240.9404220581 0 4801240.9404220581 -208689427.43201637 0 0 0 0 -207931530.71299744 -62041733.107427597 0 -62041733.107427597 -117712316.80575514 0 0 0 0 111651781.38222885 138517843.38378525 0 138517843.38378525 -446661002.14270782 0 0 0 0 14030299.553466797 -109050236.27049446 0 -109050236.27049446 -490077447.74339843 0 0 0 0 24167145.880340576 -7392015.0582942963 0 -7392015.0582942963 11017999.866612673 0 0 0 0 -758995.03767604381 330806.88872532826 0 330806.88872532826 378986.56065175869 0 0 0 0 -32695743.844894409 159778657.36530077 0 159778657.36530077 -166552935.27526665 0 0 0 0 -32127768.231895447 97829924.691898346 0 97829924.691898346 22834260.875087738 0 0 0 0 -11928045.005813599 55545656.658595562 0 55545656.658595562 -68450607.17798233 0 0 0 0 8089131.6681747437 40223562.730016708 0 40223562.730016708 -89229024.506690025 0 0 0 0 187844.42742919922 57555273.280818939 0 57555273.280818939 -142023835.06036711 0 0 0 0 52788679.698526382 27415701.677210569 0 27415701.677210569 -213042033.24900055 0 0 0 0 186849.21320120245 -1283848.4466516897 0 -1283848.4466516897 -673222.05151730159 0 0 0 0 19011.572555541992 21433592.7178545 0 21433592.7178545 -164832628.80088854 0 0 0 0 57613567.568656921 35831853.624976158 0 35831853.624976158 -317206838.82041264 0 0 0 0 32306895.972106934 9762489.6943216324 0 9762489.6943216324 -135810984.74558926 0 0 0 0 34861569.580680847 22416841.651759148 0 22416841.651759148 -92171589.324358284 0 0 0 0 26259359.180137634 27696981.421709538 0 27696981.421709538 -33057547.031703949 0 0 0 0 27412356.233901978 -8005567.6322860718 0 -8005567.6322860718 -92693628.887691498 0 0 0 0 34071365.429893494 13345734.004386902 0 13345734.004386902 -101142018.01970196 0 0 0 0 35560768.633613586 6309922.43334198 0 6309922.43334198 -69887896.930936813 0 0 0 0 15014307.036857605 -3164439.2941131592 0 -3164439.2941131592 -66494401.163208008 0 0 0 0 20191081.211776733 -12585124.013036728 0 -12585124.013036728 -110024138.36464691 0 0 0 0 -3477787.5209121704 10343622.964002609 0 10343622.964002609 -103825900.79625559 0 0 0 0 -14887210.201927185 -34681550.651766777 0 -34681550.651766777 -54491649.227687836 0 0 0 0 -36528538.626846313 -22651942.899671555 0 -22651942.899671555 -108858762.4304204 0 0 0 0 -3329134.0368118286 -5455168.6846694946 0 -5455168.6846694946 -105573876.04328299 0 0 0 0 -10791417.566925049 50578168.310261726 0 50578168.310261726 -286158129.94482803 0 0 0 0 -15874469.729715347 -59677032.78008008 0 -59677032.78008008 -223602379.54121017 0 0 0 0 788120.71035766602 11159611.574606895 0 11159611.574606895 -211302046.94645071 0 0 0 0 14206136.728118896 20694810.619085312 0 20694810.619085312 -207386016.16059875 0 0 0 0 35920.405707068741 -345939.7577734394 0 -345939.7577734394 -182579.5354121835 0 0 0 0 15057326.277589798 89898101.563868046 0 89898101.563868046 -306387506.24559402 0 0 0 0 1836713.65284729 75600643.067001343 0 75600643.067001343 -20624540.99501133 0 0 0 0 -8713074.7475585938 22368235.664299011 0 22368235.664299011 -136322269.93323517 0 0 0 0 34777297.397583008 96701974.069364548 0 96701974.069364548 -126198637.23958397 0 0 0 0 21154366.439086914 105450271.26650238 0 105450271.26650238 -93347480.296607971 0 0 0 0 67242185.892883301 197287035.22371864 0 197287035.22371864 40607184.649427414 0 0 0 0 41402893.285057068 105801533.78395271 0 105801533.78395271 -116663030.94225311 0 0 0 0 -7471728.3323669434 150443055.1584549 0 150443055.1584549 -60185690.707206011 0 0 0 0 -3982336.3800048828 93236379.54201889 0 93236379.54201889 -37888081.73343277 0 0 0 0 8236787.1896743774 89166134.815758705 0 89166134.815758705 -69415531.732069016 0 0 0 0 30789335.912097931 90516730.150954247 0 90516730.150954247 -114990283.7411499 0 0 0 0 3380378.9023017883 59955109.903066039 0 59955109.903066039 -94629763.692253113 0 0 0 0 27241159.25188446 74566343.753504753 0 74566343.753504753 -51985942.803920746 0 0 0 0 28253567.333101273 80718678.477723122 0 80718678.477723122 -29468564.07516098 0 0 0 0 16882133.226547241 104029339.64528942 0 104029339.64528942 -26253361.154210091 0 0 0 0 9172829.3534469604 110424831.70445967 0 110424831.70445967 -6352880.9901695251 0 0 0 0 3637511.0409507751 122680925.38485432 0 122680925.38485432 60786489.292598724 0 0 0 0 -11265257.371002197 112988243.55425358 0 112988243.55425358 151134628.66825867 0 0 0 0 -5475892.0238876343 106070006.22137451 0 106070006.22137451 63412357.188701868 0 0 0 0 -10449653.889499664 99129308.864267349 0 99129308.864267349 102031445.09939766 0 0 0 0 113390006.21722412 227233655.9380188 0 227233655.9380188 -33163785.496444702 0 0 0 0 -719977.35446345061 195314.76299608126 0 195314.76299608126 677348.99135546573 0 0 0 0 9323159.4086914062 9767443.9588356018 0 9767443.9588356018 50235679.447353363 0 0 0 0 -68330864.028213501 30466354.59510231 0 30466354.59510231 49190278.355129242 0 0 0 0 -51356078.649360657 65552110.13523674 0 65552110.13523674 83525705.592998505 0 0 0 0 -94104916.313396454 129495989.80676651 0 129495989.80676651 23924017.133060455 0 0 0 0 1052826.5620117188 97048234.513305664 0 97048234.513305664 31463918.977080345 0 0 0 0 -29282652.588851929 116472000.63822937 0 116472000.63822937 73148469.985473633 0 0 0 0 49331035.033920288 115519597.82158279 0 115519597.82158279 73016352.072666526 0 0 0 0 103189589.71305847 54568016.737028122 0 54568016.737028122 140265605.43962049 0 0 0 0 41054084.210510254 84315412.001178741 0 84315412.001178741 82847449.017755032 0 0 0 0 -4958395.5268821716 76645682.523378372 0 76645682.523378372 142011761.46322632 0 0 0 0 48968059.722541809 80467445.345387459 0 80467445.345387459 134192963.66598129 0 0 0 0 45890300.25894165 22211395.85634613 0 22211395.85634613 50480215.957613528 0 0 0 0 8120007.760887146 117050940.19952393 0 117050940.19952393 262461169.30106735 0 0 0 0 -32543892.467956543 98199490.072246552 0 98199490.072246552 284239124.5143857 0 0 0 0 7183212.9151229858 43002638.705821991 0 43002638.705821991 272615701.46840286 0 0 0 0 -276259.67119632324 742678.50957230851 0 742678.50957230851 373670.76566076465 0 0 0 0 66341462.390613317 139308607.3306784 0 139308607.3306784 177019130.81832123 0 0 0 0 -2726597.8128051758 -70788089.00282079 0 -70788089.00282079 123670573.92800903 0 0 0 0 57171529.932800293 16530285.931137085 0 16530285.931137085 2697179.6409158707 0 0 0 0 -31920229.073959351 -3974692.1283416748 0 -3974692.1283416748 243203423.38679886 0 0 0 0 -20401882.955265045 47826886.636322975 0 47826886.636322975 107470060.9147892 0 0 0 0 -29291666.262317657 40642818.202598095 0 40642818.202598095 109897971.10025787 0 0 0 0 48645518.412437439 150619720.74714231 0 150619720.74714231 172958483.81263733 0 0 0 0 -49098044.442474365 38855796.246873856 0 38855796.246873856 275640296.93400002 0 0 0 0 -573968.02374267578 -24767335.343314171 0 -24767335.343314171 92280715.500766754 0 0 0 0 17814262.557617188 -5127941.278377533 0 -5127941.278377533 6579331.7167167664 0 0 0 0 731408.21245574951 9520838.8116436005 0 9520838.8116436005 29116780.025352478 0 0 0 0 -1970322.1654891968 15048.897538661957 0 15048.897538661957 24675965.101837158 0 0 0 0 -9910251.1061096191 21458747.484710693 0 21458747.484710693 60761653.686063766 0 0 0 0 -385974.18622970581 16261933.79693985 0 16261933.79693985 6538108.467666626 0 0 0 0 -1436033.1339588165 32052236.286108971 0 32052236.286108971 37199716.372842789 0 0 0 0 5530512.0637512207 45630010.152641296 0 45630010.152641296 54598924.77031374 0 0 0 0 -49613774.44890976 -12453438.069195747 0 -12453438.069195747 6644505.4835357666 0 0 0 0 2074952.0889129639 30976760.675727844 0 30976760.675727844 37129335.892906189 0 0 0 0 -1748367.0347807202 844235.45179098099 0 844235.45179098099 2593705.8085525706 0 0 0 0 -5109187.5371704102 -16835214.381986618 0 -16835214.381986618 -4560250.9749984741 0 0 0 0 4439126.2087898254 18784737.361560822 0 18784737.361560822 7827186.5947418213 0 0 0 0 -6815189.0578918457 11390999.596993446 0 11390999.596993446 1781775.5374565125 0 0 0 0 -24880953.434539795 29102719.93639946 0 29102719.93639946 -3533036.1852684021 0 0 0 0 -19645029.804838181 29062226.538976669 0 29062226.538976669 -7991831.8112449646 0 0 0 0 -16827042.859390259 1275243.8888320923 0 1275243.8888320923 -5055686.5470485687 0 0 0 0 -15764863.101959229 89010945.631673813 0 89010945.631673813 -197997910.00678253 0 0 0 0 -1206845.1791591868 -303174.94920054963 0 -303174.94920054963 964435.44199231081 0 0 0 0 7754794.2174224854 28402034.355358124 0 28402034.355358124 -90293808.757797241 0 0 0 0 16941943.295913696 87533.319236755371 0 87533.319236755371 -46524930.896446228 0 0 0 0 -12602076.711914062 1506604.2540798187 0 1506604.2540798187 45423682.89597702 0 0 0 0 -21948922.405853271 69464474.469924927 0 69464474.469924927 -27641832.467157364 0 0 0 0 -29047757.49887085 59250576.08250618 0 59250576.08250618 -11961784.902118683 0 0 0 0 -99358476.881500244 124005908.42638588 0 124005908.42638588 45292842.625236511 0 0 0 0 -41392925.530792236 112332068.1034584 0 112332068.1034584 -108761203.56314564 0 0 0 0 -29868121.548431396 12167109.868690491 0 12167109.868690491 22822038.808983803 0 0 0 0 -77291316.742347717 42671267.688922405 0 42671267.688922405 61945497.99161911 0 0 0 0 -70559710.512359619 57901498.801467896 0 57901498.801467896 1901256.6744155884 0 0 0 0 -55133722.145065308 40739787.238292694 0 40739787.238292694 19335961.958637238 0 0 0 0 -44390981.70791626 8198729.7186660767 0 8198729.7186660767 -2432853.1451129913 0 0 0 0 -35193088.067276001 10133667.95217514 0 10133667.95217514 -4806190.4564094543 0 0 0 0 -56241130.259902954 33202390.699430466 0 33202390.699430466 -2861993.6545543671 0 0 0 0 -72294534.404087067 20817256.944483757 0 20817256.944483757 3658284.315290451 0 0 0 0 -97324946.411445618 -492030.2205953598 0 -492030.2205953598 6815599.8663434982 0 0 0 0 -57313265.292833328 30279307.18232584 0 30279307.18232584 14913364.117355347 0 0 0 0 -65369802.780517578 12970034.096456528 0 12970034.096456528 12347853.659652233 0 0 0 0 -43133900.725227356 12055545.16549015 0 12055545.16549015 7432300.9014930725 0 0 0 0 -59948724.91998291 30731386.875419617 0 30731386.875419617 -5234529.9525794983 0 0 0 0 -75670387.460372925 7099345.8459415436 0 7099345.8459415436 -5700179.2550825477 0 0 0 0 -266720.0618288815 209827.93345152587 0 209827.93345152587 518472.54370035231 0 0 0 0 -190242709.94623566 -16892009.287917137 0 -16892009.287917137 26933379.038205147 0 0 0 0 -90781141.07585144 -2042565.9825372696 0 -2042565.9825372696 -8843742.221370697 0 0 0 0 45430126.812103271 72935706.558143616 0 72935706.558143616 60888890.52662468 0 0 0 0 272272466.67261887 167212396.35258865 0 167212396.35258865 18745572.978687286 0 0 0 0 12985447.281682968 94659032.014866829 0 94659032.014866829 60990173.522533417 0 0 0 0 40708849.511558533 92814885.506439209 0 92814885.506439209 260850.88935852051 0 0 0 0 43934952.645965576 63901466.979784012 0 63901466.979784012 51576993.31672287 0 0 0 0 4526685.1510658264 95622653.088385582 0 95622653.088385582 61193224.325380325 0 0 0 0 88789497.58234787 102284751.39841461 0 102284751.39841461 55208519.382221222 0 0 0 0 -826159.2011434678 450437.03981014714 0 450437.03981014714 1508004.9935224783 0 0 0 0 9318102.9795732498 -18799125.183900833 0 -18799125.183900833 -48453727.435079575 0 0 0 0 -16620851.113929749 -14481286.151794434 0 -14481286.151794434 -34307256.579059601 0 0 0 0 -10718664.614152908 -32209957.157401085 0 -32209957.157401085 -55606095.179174721 0 0 0 0 -32900606.402751923 -69564711.297019958 0 -69564711.297019958 -56339183.370092392 0 0 0 0 -28563955.000164986 -26452977.417582512 0 -26452977.417582512 -33553133.532907486 0 0 0 0 -39009146.069924355 -15888352.446885586 0 -15888352.446885586 -20052102.108621597 0 0 0 0 -22682359.645399094 -23322504.28404808 0 -23322504.28404808 -34345975.137760639 0 0 0 0 -50415004.567437649 -31068497.444088221 0 -31068497.444088221 -25833495.405685425 0 0 0 0 -16197680.761714248 15654393.686147965 0 15654393.686147965 5063458.3533524312 0 0 0 0 80142727.655715942 45435775.3568964 0 45435775.3568964 17792512.971340179 0 0 0 0 -39049795.202957153 -32263012.41740036 0 -32263012.41740036 -22042925.082639694 0 0 0 0 -47413930.24037075 -22651731.765191078 0 -22651731.765191078 -31720928.117101669 0 0 0 0 -45840246.949124813 -37553977.067741394 0 -37553977.067741394 -19763919.71541214 0 0 0 0 -210324345.84130859 238244088.99435425 0 238244088.99435425 -184478994.8352356 0 0 0 0 -84239279.867050648 -14560649.596018791 0 -14560649.596018791 -4276973.3584003448 0 0 0 0 -96349114.907180786 -125336680.78445244 0 -125336680.78445244 218526602.2020998 0 0 0 0 -182462938.91018677 264151844.3494873 0 264151844.3494873 -154960865.31744576 0 0 0 0 -577506451.05982971 145142084.65984535 0 145142084.65984535 345752295.4090271 0 0 0 0 -113561629.50506592 76572118.961942673 0 76572118.961942673 30269656.858965874 0 0 0 0 -29329702.207305908 16876587.629597664 0 16876587.629597664 29452382.508815765 0 0 0 0 85645933.78943634 -41523156.3869524 0 -41523156.3869524 37236941.313362122 0 0 0 0 13080740.955581665 20792983.454906464 0 20792983.454906464 -1947429.3156356812 0 0 0 0 -21324010.527759552 28982913.982745647 0 28982913.982745647 2068676.6374282837 0 0 0 0 -22310669.696495056 31627784.520857811 0 31627784.520857811 -3950292.519569397 0 0 0 0 6113925.6006393433 28296723.304356575 0 28296723.304356575 -16619672.107784271 0 0 0 0 -17103334.210800171 24761004.384721756 0 24761004.384721756 -10736011.485853195 0 0 0 0 -42784122.519645691 25239724.546728134 0 25239724.546728134 -4720074.8695983887 0 0 0 0 -16075412.64834404 21096657.110143185 0 21096657.110143185 -26279.331825256348 0 0 0 0 10600293.587388603 15360177.886979088 0 15360177.886979088 3178846.5910943942 0 0 0 0 6132059.8469924927 27741753.626504898 0 27741753.626504898 123022.9845263958 0 0 0 0 15893466.18819809 37958003.093853474 0 37958003.093853474 -2049361.0717639923 0 0 0 0 5725700.0180969238 31036818.841565132 0 31036818.841565132 18680652.457569063 0 0 0 0 -20944086.638326406 -6712230.726059556 0 -6712230.726059556 -34392266.185775757 0 0 0 0 -20420495.636247635 -3384277.5538630486 0 -3384277.5538630486 -21859744.191316724 0 0 0 0 -11387968.513328016 14026904.400315881 0 14026904.400315881 4018722.9944330435 0 0 0 0 -416896632.23647499 -235278494.08208942 0 -235278494.08208942 197931316.68874598 0 0 0 0 -36593373.436990738 4267606.0308332443 0 4267606.0308332443 -82564704.148963928 0 0 0 0 -1147702834.693943 103559421.3069191 0 103559421.3069191 125205165.43863678 0 0 0 0 386817.1814769851 142069.09134034021 0 142069.09134034021 -106076.14589599706 0 0 0 0 589876281.45716858 227777891.71524048 0 227777891.71524048 -175447176.85176563 0 0 0 0 25208084.32081604 123159055.69013119 0 123159055.69013119 96830667.267337799 0 0 0 0 -67798089.34576416 47349137.704410553 0 47349137.704410553 171487574.55540371 0 0 0 0 -41955974.210599899 34798046.305441856 0 34798046.305441856 18198712.70835495 0 0 0 0 6816214.9414730072 304660861.79325294 0 304660861.79325294 -127491023.45560169 0 0 0 0 -149854790.29704714 3563871.6620686054 0 3563871.6620686054 32788246.116725922 0 0 0 0 -7777210.1061089849 -143743.59046631958 0 -143743.59046631958 1856843.0786384773 0 0 0 0 -892692.30687713623 50983287.946838379 0 50983287.946838379 62114192.296915054 0 0 0 0 -8999792.0709667206 23977408.128835201 0 23977408.128835201 89945637.948335648 0 0 0 0 24871482.552005768 27173039.371892929 0 27173039.371892929 18823444.23314476 0 0 0 0 24158489.576042652 43956070.067065954 0 43956070.067065954 4251595.0795249939 0 0 0 0 -33655155.828125 45245727.788476467 0 45245727.788476467 24887665.380571365 0 0 0 0 79308830.339882851 74311887.385272026 0 74311887.385272026 -6972776.999874115 0 0 0 0 23678879.015607357 45385611.824943542 0 45385611.824943542 4012363.8974685669 0 0 0 0 39378919.45425415 51688926.414450645 0 51688926.414450645 -3155659.0675621033 0 0 0 0 56894529.414496422 44906243.767550945 0 44906243.767550945 -23566338.161392212 0 0 0 0 18400354.000083923 15448999.672039032 0 15448999.672039032 -4902329.8972787857 0 0 0 0 -1205383.6069359723 1464493.613585677 0 1464493.613585677 699303.24266903289 0 0 0 0 51326719.804450989 38313685.977172852 0 38313685.977172852 -20952726.398807526 0 0 0 0 32670477.494432449 17038239.679977417 0 17038239.679977417 -40705934.450580597 0 0 0 0 5960377.5373048782 -6257276.3616657257 0 -6257276.3616657257 -29788619.00875473 0 0 0 0 -41711415.501354218 7462760.3059024811 0 7462760.3059024811 10297463.386516809 0 0 0 0 -25581309.260528564 9602723.1513957977 0 9602723.1513957977 10215271.284610748 0 0 0 0 24928092.206685662 26698102.197132289 0 26698102.197132289 3960341.0008468628 0 0 0 0 4919083.6117477417 5566435.7963562012 0 5566435.7963562012 29229495.453889847 0 0 0 0 20691399.262893677 -5256666.1509666443 0 -5256666.1509666443 27253293.662129879 0 0 0 0 11634565.928504944 12668513.843698502 0 12668513.843698502 15765492.511848211 0 0 0 0 1973303.0890288353 23481172.658777118 0 23481172.658777118 14547864.845588684 0 0 0 0 -34428474.402246475 30322734.405827522 0 30322734.405827522 17334786.531255722 0 0 0 0 -22711458.357032776 24715154.955247879 0 24715154.955247879 15328880.578009605 0 0 0 0 -5203030.9293015972 7749511.8320078151 0 7749511.8320078151 1727846.3404558979 0 0 0 0 -37075349.728151321 29130170.532989979 0 29130170.532989979 16799211.1939888 0 0 0 0 -6957854.3161724657 5337844.3030955531 0 5337844.3030955531 4537440.0418361854 0 0 0 0 -43105161.47202301 22277731.05475235 0 22277731.05475235 13952476.56609726 0 0 0 0 -24549922.413936615 29170769.849199295 0 29170769.849199295 16299502.910112381 0 0 0 0 -107077656.80161858 -32711819.618135452 0 -32711819.618135452 27887687.165623665 0 0 0 0 85640089.202629089 148368435.36405468 0 148368435.36405468 -60417155.477104187 0 0 0 0 -24069125.570823669 29997116.259056091 0 29997116.259056091 -11655274.130861759 0 0 0 0 -16811343.401611328 35678403.851810455 0 35678403.851810455 -9869520.6105995178 0 0 0 0 -19284550.517112732 29777238.27031517 0 29777238.27031517 -15151689.113929749 0 0 0 0 12122895.864269689 13446968.087709319 0 13446968.087709319 1141028.6045892863 0 0 0 0 -25754114.990310669 56019529.024857521 0 56019529.024857521 -19033714.31911087 0 0 0 0 -21710143.168724019 20104268.435726892 0 20104268.435726892 7732432.5234993929 0 0 0 0 -3474727.3397274017 25220065.733035803 0 25220065.733035803 -10487340.973772049 0 0 0 0 6354854.9407730103 7239173.4178444147 0 7239173.4178444147 -23520234.998853683 0 0 0 0 8964153.8956327438 10949826.61136651 0 10949826.61136651 -65231753.267656326 0 0 0 0 -15167839.724235535 38967793.175615311 0 38967793.175615311 -38653401.641870499 0 0 0 0 -2464070.5187072754 23870973.001516342 0 23870973.001516342 -28456048.420942307 0 0 0 0 -8774146.9723701477 24119512.5023489 0 24119512.5023489 1533661.9099769592 0 0 0 0 -22641986.470283508 31537017.65146637 0 31537017.65146637 7538405.483839035 0 0 0 0 -20653013.756690979 39451461.912511826 0 39451461.912511826 -15145796.286169052 0 0 0 0 -24727122.201097488 32561971.160014153 0 32561971.160014153 -9053176.3891830444 0 0 0 0 -41766376.418243408 41262127.485902786 0 41262127.485902786 5596107.0775299072 0 0 0 0 -21571063.187812805 21144873.297145844 0 21144873.297145844 19532979.726844788 0 0 0 0 -42515442.521793365 21054262.828186035 0 21054262.828186035 27030456.903713226 0 0 0 0 -23603649.345306396 2497321.4561004639 0 2497321.4561004639 39614205.917287827 0 0 0 0 -44189485.035648108 15749920.088103771 0 15749920.088103771 20486542.952472687 0 0 0 0 -32765006.775493622 84212550.713283539 0 84212550.713283539 -136328351.70092869 0 0 0 0 -77848967.293140411 40674969.253656387 0 40674969.253656387 7462533.1537723541 0 0 0 0 2407319.1474914551 27047625.103507996 0 27047625.103507996 -91855389.013721466 0 0 0 0 -75668781.23210144 58871742.464014053 0 58871742.464014053 -20621362.743843555 0 0 0 0 -51824944.748817444 37128698.331228256 0 37128698.331228256 -14807670.620071411 0 0 0 0 -15894708.326812744 36576320.91147995 0 36576320.91147995 -46184933.121951103 0 0 0 0 -49700184.050857544 57233050.936063766 0 57233050.936063766 -26969067.810832977 0 0 0 0 -41792802.008003235 75411845.090587616 0 75411845.090587616 -85605497.463212967 0 0 0 0 -86065028.704250336 66026284.140589714 0 66026284.140589714 -21764882.74048996 0 0 0 0 -228969857.63204193 205931476.05543709 0 205931476.05543709 -39098056.688589334 0 0 0 0 -205087125.93626404 -24044002.053634644 0 -24044002.053634644 101790492.13447189 0 0 0 0 -463827001.54788208 138212575.65882111 0 138212575.65882111 288135627.05670166 0 0 0 0 -17266662.322078705 -113036864.94849777 0 -113036864.94849777 80872161.523571014 0 0 0 0 -489686696.11314011 -24368327.54354763 0 -24368327.54354763 469787833.31539917 0 0 0 0 -182264530.07482243 -200933734.89607763 0 -200933734.89607763 304772347.85473633 0 0 0 0 -88905151.777748108 -38252215.867111206 0 -38252215.867111206 8482069.486038208 0 0 0 0 -44929184.716690063 -32229425.850618362 0 -32229425.850618362 7433092.6323256493 0 0 0 0 -62928212.70010376 9195672.8194408417 0 9195672.8194408417 26505422.385712624 0 0 0 0 -133759363.50370789 -61313775.510103226 0 -61313775.510103226 120698937.72864914 0 0 0 0 -164511753.65540314 49560866.670454025 0 49560866.670454025 12920466.117412567 0 0 0 0 -33336285.985984802 5053064.265039444 0 5053064.265039444 22895269.417480469 0 0 0 0 -77823173.319980621 -5334317.0555706024 0 -5334317.0555706024 20530320.350048065 0 0 0 0 -44914268.208057404 -5661640.1904938221 0 -5661640.1904938221 50694918.398605347 0 0 0 0 -20893217.229572296 19086039.682703018 0 19086039.682703018 63758597.522403717 0 0 0 0 -32183020.582756042 -20293137.405043602 0 -20293137.405043602 6637615.0791130066 0 0 0 0 -29864476.512714863 -17334908.408102632 0 -17334908.408102632 4119367.103553772 0 0 0 0 22540491.223093033 10696163.965397835 0 10696163.965397835 -37368711.691802979 0 0 0 0 5161061.5011825562 -39148298.243056297 0 -39148298.243056297 -58142872.80859375 0 0 0 0 -50411468.308071136 -29964038.115492821 0 -29964038.115492821 39350439.126472473 0 0 0 0 235541674.73533249 187256195.74717331 0 187256195.74717331 -201191343.63703537 0 0 0 0 215481652.16226482 -194331759.18204975 0 -194331759.18204975 -187255957.83734608 0 0 0 0 -2644466.7164782956 2180675.7919556443 0 2180675.7919556443 790730.65772542672 0 0 0 0 -44120.119456417859 -521468.46927382424 0 -521468.46927382424 201168.31131596863 0 0 0 0 -27767828.358808517 -74431917.550284386 0 -74431917.550284386 -20235500.24641037 0 0 0 0 -31291812.56552124 90467574.703638077 0 90467574.703638077 234560485.41350889 0 0 0 0 187966.52488301694 903551.15747604892 0 903551.15747604892 105102.83123236871 0 0 0 0 111864259.84429932 -39057541.234649658 0 -39057541.234649658 -344734708.33833313 0 0 0 0 61379949.548065186 140173235.80114269 0 140173235.80114269 88518662.746095657 0 0 0 0 80297010.19241333 62070300.18285656 0 62070300.18285656 -73592609.776973724 0 0 0 0 6632943.6138114929 86536208.513136387 0 86536208.513136387 -877378.6330871582 0 0 0 0 71250732.437637329 111644351.55527592 0 111644351.55527592 -196692881.81177902 0 0 0 0 -30279003.03899765 111124105.5147686 0 111124105.5147686 96323859.959541321 0 0 0 0 -31271356.984069824 -96640870.551107407 0 -96640870.551107407 -58635820.305902481 0 0 0 0 -128048705.26754761 47708014.497166634 0 47708014.497166634 41425009.015762329 0 0 0 0 -64197472.148223877 88993174.053440094 0 88993174.053440094 64805070.149414062 0 0 0 0 94056340.446243286 171694348.32069397 0 171694348.32069397 -48270757.595860481 0 0 0 0 -27137975.072685242 26759885.177193642 0 26759885.177193642 -11852377.333052635 0 0 0 0 -44512978.606693268 32151450.902349949 0 32151450.902349949 2754419.585609436 0 0 0 0 -80066611.506698608 45953845.049556732 0 45953845.049556732 -2426662.9925918579 0 0 0 0 -25889200.169837952 45626744.180882454 0 45626744.180882454 -20231539.770635605 0 0 0 0 37389828.710590363 70148353.54526329 0 70148353.54526329 -159787266.14156532 0 0 0 0 30814259.24987793 57952390.740997314 0 57952390.740997314 41719909.3867805 0 0 0 0 1145272.1379025653 6625909.7619941104 0 6625909.7619941104 -308163.18848254881 0 0 0 0 13472664.006025314 56177603.565567255 0 56177603.565567255 73146171.280456543 0 0 0 0 135967149.3560791 70927699.450984955 0 70927699.450984955 -177691347.42937851 0 0 0 0 70181866.862731934 -12385545.62027359 0 -12385545.62027359 -34446280.935340881 0 0 0 0 -6377630.525604248 41564176.381374359 0 41564176.381374359 79855225.20558548 0 0 0 0 5690903.5058578588 12720739.460328706 0 12720739.460328706 3800737.0106404903 0 0 0 0 -102829934.39839172 12257311.024377823 0 12257311.024377823 128907199.23287201 0 0 0 0 -45227536.8673172 64411508.187113762 0 64411508.187113762 -16750663.264477253 0 0 0 0 -4252107.3846421801 1485419.5967408456 0 1485419.5967408456 2384600.5414909301 0 0 0 0 -7868416.1808853149 25301174.626317739 0 25301174.626317739 100743.8120880127 0 0 0 0 -2103143.4231338501 27084581.45687294 0 27084581.45687294 -10732382.931432724 0 0 0 0 -5993328.6014556885 31626504.554931402 0 31626504.554931402 -3581360.0789070129 0 0 0 0 -8300065.7316436768 8372797.2067604065 0 8372797.2067604065 1909717.6358156204 0 0 0 0 -8553170.0485191345 12747854.985453606 0 12747854.985453606 -88731598.2514534 0 0 0 0 -45484995.448608398 85481271.618614197 0 85481271.618614197 -61393645.873639107 0 0 0 0 7888168.9618922621 9907789.0738685001 0 9907789.0738685001 606845.00486569479 0 0 0 0 22522912.985397339 156930134.08955193 0 156930134.08955193 -149356981.97388935 0 0 0 0 7244831.0864283368 8834222.0774963479 0 8834222.0774963479 -821524.68595165946 0 0 0 0 -5584792.4211730957 26029988.917036057 0 26029988.917036057 -100290116.74060059 0 0 0 0 30297818.596847534 -6344702.8680744171 0 -6344702.8680744171 -146872334.45975113 0 0 0 0 1981295.4722736478 3309420.5046669827 0 3309420.5046669827 -764801.75397074688 0 0 0 0 48751625.294631958 29223879.245215893 0 29223879.245215893 -134910801.66337395 0 0 0 0 7171329.3134078979 54282699.395629883 0 54282699.395629883 -27456911.589132309 0 0 0 0 19583262.415206909 24946300.945525169 0 24946300.945525169 -15953591.851928711 0 0 0 0 38462862.177822113 27115845.424567699 0 27115845.424567699 -16188290.292514801 0 0 0 0 10799501.548920631 19368805.001363695 0 19368805.001363695 106892158.36834717 0 0 0 0 8033855.8795623779 76398185.454591751 0 76398185.454591751 68060816.018484116 0 0 0 0 17477261.764030457 68020555.857094765 0 68020555.857094765 -39963513.003684998 0 0 0 0 20837284.860397339 -6384727.2123556137 0 -6384727.2123556137 -81761388.63441658 0 0 0 0 4219686.3319971561 31205544.461270377 0 31205544.461270377 2227844.3208446503 0 0 0 0 4618837.858266592 39995152.184965581 0 39995152.184965581 -54304281.718387604 0 0 0 0 3723680.3122416772 2354453.6984236338 0 2354453.6984236338 -1306017.3046905159 0 0 0 0 3850900.5004653931 14424397.950532436 0 14424397.950532436 -13398194.375528336 0 0 0 0 623332.43447875977 1705653.936258316 0 1705653.936258316 -2009965.2014353275 0 0 0 0 274134.67372131348 1883586.9881515503 0 1883586.9881515503 -1783706.4235916138 0 0 0 0 221863.29331970215 2270681.4684352875 0 2270681.4684352875 -7109074.9713516235 0 0 0 0 2561271.6836891174 6394681.339140892 0 6394681.339140892 -12951201.571414948 0 0 0 0 561717.42480843142 1496052.4064880889 0 1496052.4064880889 -2788852.9487456381 0 0 0 0 -124182.35886222124 2545936.3709681546 0 2545936.3709681546 562462.76052184147 0 0 0 0 -1416926.1940612793 5603592.5936465263 0 5603592.5936465263 2392024.6129544079 0 0 0 0 549456.75638580322 2886264.0554566383 0 2886264.0554566383 -2299367.6462688446 0 0 0 0 6067467.9619979858 -5722581.5486793518 0 -5722581.5486793518 -16934222.407787323 0 0 0 0 8336773.8898353577 6619591.2144508362 0 6619591.2144508362 -5139110.772693634 0 0 0 0 2065416.51645438 5923231.6779335178 0 5923231.6779335178 536404.64049852267 0 0 0 0 -5298877.1596069336 15939564.854854584 0 15939564.854854584 22988258.524406433 0 0 0 0 -1362220.4273014069 5278348.0463942289 0 5278348.0463942289 1637026.2839508057 0 0 0 0 987705.30020476878 7343781.4945222847 0 7343781.4945222847 2179689.1283008661 0 0 0 0 -1086522.479888916 6855833.447537899 0 6855833.447537899 9243489.7924890518 0 0 0 0 -5052947.2924366444 9505015.4835237619 0 9505015.4835237619 415092.3603907167 0 0 0 0 422673.40908813477 7111779.8272891045 0 7111779.8272891045 6563496.685125351 0 0 0 0 -8360682.8755569458 26231970.454177856 0 26231970.454177856 10968277.787317276 0 0 0 0 -108601.80442047119 8987748.263961792 0 8987748.263961792 6988764.5543930531 0 0 0 0 638531.69638061523 24940112.056600571 0 24940112.056600571 -486660.23666620255 0 0 0 0 -3707678.7330961227 -890994.08061236143 0 -890994.08061236143 -8250728.1546592712 0 0 0 0 -1383283.2957321256 4607232.2115546521 0 4607232.2115546521 1208864.572029334 0 0 0 0 -18369438.607315063 3075199.886425972 0 3075199.886425972 13262681.335827112 0 0 0 0 9884298.1383132935 20061824.014615059 0 20061824.014615059 -16728697.566393375 0 0 0 0 -58602.550810579211 1033296.110560114 0 1033296.110560114 190423.58306389043 0 0 0 0 -13502171.948806763 14749305.308744431 0 14749305.308744431 -9042429.160369277 0 0 0 0 -1148333.1173019409 8299719.5884637833 0 8299719.5884637833 12326267.486186981 0 0 0 0 521655.6369934082 9980006.7322535515 0 9980006.7322535515 2327800.6741709709 0 0 0 0 -15063743.235565186 6488446.2697930336 0 6488446.2697930336 4434854.1757440567 0 0 0 0 4651141.1178436279 -1534337.6131954193 0 -1534337.6131954193 8516572.6085090637 0 0 0 0 -8675702.6409645081 15527145.071072578 0 15527145.071072578 -11035106.198503494 0 0 0 0 -20692734.732528687 -3312107.0211968422 0 -3312107.0211968422 3174447.5192909241 0 0 0 0 -25661049.853263855 9885228.2961488962 0 9885228.2961488962 -3877115.5513401031 0 0 0 0 -13795158.510681152 13887852.456019402 0 13887852.456019402 -4565956.0105676651 0 0 0 0 -25638908.694810867 8697751.4749510288 0 8697751.4749510288 -20897401.174917221 0 0 0 0 -51300059.325691223 4458483.6687707901 0 4458483.6687707901 -1840675.4238033295 0 0 0 0 -35036227.250213623 25584807.575910091 0 25584807.575910091 -3528864.7311077118 0 0 0 0 528281.95760634542 515376.52788426913 0 515376.52788426913 -404465.95828723582 0 0 0 0 -24691588.686450958 21140672.141507387 0 21140672.141507387 -16897407.252384186 0 0 0 0 -24841605.286540985 23228974.678374052 0 23228974.678374052 -5882350.3495635986 0 0 0 0 -7887135.8206481934 20594036.948027134 0 20594036.948027134 -5731648.8241374493 0 0 0 0 -15422918.152667999 12424937.262512207 0 12424937.262512207 -2096920.3194160461 0 0 0 0 -2534827.8678894043 15277947.913476467 0 15277947.913476467 -3970378.451292038 0 0 0 0 -3901556.9931182861 12897132.522658587 0 12897132.522658587 9923229.7730836868 0 0 0 0 -7187120.1426467896 10728314.829270363 0 10728314.829270363 137995.39792490005 0 0 0 0 11877487.995903015 9072179.2172708511 0 9072179.2172708511 -1631393.4837582111 0 0 0 0 1372055.2454147339 924505.56614422798 0 924505.56614422798 8852845.886926651 0 0 0 0 3829279.6765975952 2419986.6901154518 0 2419986.6901154518 1320813.4114470482 0 0 0 0 3725978.2937908173 2391644.2556607127 0 2391644.2556607127 4822476.2201938629 0 0 0 0 2382364.4420471191 170771.1658115387 0 170771.1658115387 5166540.1782693863 0 0 0 0 3338103.6456756592 3395887.1117281914 0 3395887.1117281914 7632912.0197958946 0 0 0 0 -150235.5245513916 2132223.5270614624 0 2132223.5270614624 -1922159.3412780762 0 0 0 0 3388312.4588229656 2516272.7926300541 0 2516272.7926300541 4790140.1203966141 0 0 0 0 954562.54902161658 2989807.6950984308 0 2989807.6950984308 459034.69283711864 0 0 0 0 -7484379.9789657593 2512357.6836280823 0 2512357.6836280823 -8064127.0469284058 0 0 0 0 -46457.778352364898 114963.4654755462 0 114963.4654755462 -280251.66069937591 0 0 0 0 993211.99914550781 599223.45976638794 0 599223.45976638794 -10247311.633293152 0 0 0 0 1300797.9625605308 4175525.2359409714 0 4175525.2359409714 1487983.3964111498 0 0 0 0 837221.30552155152 -21258.962331157178 0 -21258.962331157178 -3620095.0609691273 0 0 0 0 -1636841.6648254395 8789282.7460708618 0 8789282.7460708618 -11754375.22160244 0 0 0 0 -219420.37300239131 4832193.226372703 0 4832193.226372703 1691922.7558990601 0 0 0 0 1401781.7309951782 3417796.0480825901 0 3417796.0480825901 10671208.290179253 0 0 0 0 7452436.8296508789 1873769.6538639069 0 1873769.6538639069 12476697.434971571 0 0 0 0 432793.645619791 778381.22180468962 0 778381.22180468962 568496.79966300516 0 0 0 0 6338692.7457351685 6952400.1211900711 0 6952400.1211900711 -21071729.993673801 0 0 0 0 -10399977.302782059 9760822.475387916 0 9760822.475387916 -2003427.6711825132 0 0 0 0 -10043508.556084633 8538974.8294807822 0 8538974.8294807822 -1443559.9797936678 0 0 0 0 -23834920.264475822 21934444.868289948 0 21934444.868289948 -12126804.24520874 0 0 0 0 -18654604.157612801 10442881.25799036 0 10442881.25799036 12387310.488239288 0 0 0 0 -10666545.759300232 7865652.8333571032 0 7865652.8333571032 968548.46093404293 0 0 0 0 -11449033.59295845 7073126.1697797757 0 7073126.1697797757 2208972.4542892342 0 0 0 0 -5406425.9270019531 -11341754.028110504 0 -11341754.028110504 37479130.367613792 0 0 0 0 -2567116.3829357773 1505136.5919702435 0 1505136.5919702435 -573184.9298016699 0 0 0 0 -12548171.337238312 -42653675.391447067 0 -42653675.391447067 77049835.607222319 0 0 0 0 -21385749.64434433 3347401.7733249664 0 3347401.7733249664 39347764.280612946 0 0 0 0 -14097021.040387256 7081493.4477104638 0 7081493.4477104638 4891538.6895185784 0 0 0 0 -9730898.6661529541 7648898.6402375102 0 7648898.6402375102 -1688441.5722602606 0 0 0 0 -10955907.927536011 9005786.8152637482 0 9005786.8152637482 -358459.18763124943 0 0 0 0 -35875057.8853302 20370532.538589001 0 20370532.538589001 -9742778.8548688889 0 0 0 0 -2385793.3787333556 5027864.1053486699 0 5027864.1053486699 -1362415.8638048081 0 0 0 0 -29460321.016662598 21660546.316158056 0 21660546.316158056 4245785.0733225346 0 0 0 0 -35522782.882873535 22075814.526234627 0 22075814.526234627 -7651450.0501213074 0 0 0 0 -563124.249556683 -864459.35128437681 0 -864459.35128437681 916076.34326957865 0 0 0 0 -29365145.839775085 25965858.240311146 0 25965858.240311146 -16411494.009896636 0 0 0 0 -15220290.577144623 -2515372.1824645996 0 -2515372.1824645996 43557635.485378265 0 0 0 0 -33360210.292930603 24142452.505196571 0 24142452.505196571 30367526.132675171 0 0 0 0 -10919619.749173641 14545931.859822273 0 14545931.859822273 34119678.469501495 0 0 0 0 -24367074.363769531 22204381.064023972 0 22204381.064023972 38937504.253387451 0 0 0 0 -8107851.32884169 5791238.3866544068 0 5791238.3866544068 2293334.2149924734 0 0 0 0 -6035645.8062067032 10485928.330443859 0 10485928.330443859 25394074.38719368 0 0 0 0 -4804854.8488264084 12157535.971608832 0 12157535.971608832 5145612.2735652924 0 0 0 0 -3410353.5380087718 5902065.8276540833 0 5902065.8276540833 647045.14249042119 0 0 0 0 9914675.8834228516 7410772.6728096008 0 7410772.6728096008 -18706000.756063461 0 0 0 0 -32428227.260360718 42538743.489393234 0 42538743.489393234 -8170055.8594965935 0 0 0 0 -27715636.896156311 12947282.189850807 0 12947282.189850807 15176355.025328398 0 0 0 0 44481056.061576843 8500368.4869673252 0 8500368.4869673252 -26403376.612573624 0 0 0 0 -57075325.846969604 36325942.342488289 0 36325942.342488289 4174184.6372566223 0 0 0 0 -205079.10838972405 -218584.18071444519 0 -218584.18071444519 237657.36539293081 0 0 0 0 21356252.023654938 13175617.082137346 0 13175617.082137346 -20327429.902798653 0 0 0 0 -752640.27437540144 4024766.256177621 0 4024766.256177621 663289.28851924278 0 0 0 0 -9019755.1825447083 12877787.562771559 0 12877787.562771559 -4875890.7160735726 0 0 0 0 -9627654.541519165 7149590.4871836901 0 7149590.4871836901 -3333137.47433649 0 0 0 0 -962644.11149265245 3951564.4837361593 0 3951564.4837361593 240822.43020607368 0 0 0 0 -10830788.153697968 10528766.629900828 0 10528766.629900828 -2414177.6569981575 0 0 0 0 -10334990.055294037 8506006.3202240467 0 8506006.3202240467 -6664918.977065444 0 0 0 0 -7655296.3207629323 3668895.2980681518 0 3668895.2980681518 3091815.786810209 0 0 0 0 -10504094.60531652 11169916.196332224 0 11169916.196332224 -7019309.9413075447 0 0 0 0 -5285117.206287384 -6615569.6595525742 0 -6615569.6595525742 25348347.502607346 0 0 0 0 200459143.82244873 19444862.865566254 0 19444862.865566254 -24888786.769581795 0 0 0 0 72440320.080657959 46205284.290678024 0 46205284.290678024 62885664.702190399 0 0 0 0 76214696.678260803 -18478405.250617027 0 -18478405.250617027 7009409.9494438171 0 0 0 0 90553830.709960938 -20193461.912261963 0 -20193461.912261963 -26909199.256814837 0 0 0 0 43643856.963577271 -64941194.165999889 0 -64941194.165999889 51058842.473186493 0 0 0 0 -1606421.3107566833 -11712068.646332264 0 -11712068.646332264 6504532.8783931732 0 0 0 0 -6171722.5608095638 3414882.1880988567 0 3414882.1880988567 4059611.1663132422 0 0 0 0 -10773143.913043976 14169136.673482418 0 14169136.673482418 -10760012.153401017 0 0 0 0 16026910.888805389 11310364.940695286 0 11310364.940695286 -3012096.9924125671 0 0 0 0 12414067.696001053 -3092093.2797963619 0 -3092093.2797963619 1117853.1612968445 0 0 0 0 14703694.833374023 5006208.2296152115 0 5006208.2296152115 29728969.761297226 0 0 0 0 24850954.151290894 -8663121.341960907 0 -8663121.341960907 26465740.963794708 0 0 0 0 -7262809.0450363159 3773266.7245206833 0 3773266.7245206833 11151806.535803795 0 0 0 0 -11464704.263036728 9267234.2680454105 0 9267234.2680454105 -9469251.8477692604 0 0 0 0 -7249496.9509506226 6826295.1520823836 0 6826295.1520823836 -6621961.6135377884 0 0 0 0 -13266774.382156372 13336364.329600215 0 13336364.329600215 -5490935.4761552811 0 0 0 0 -9280521.0680541992 16449773.270813942 0 16449773.270813942 -14488425.476133704 0 0 0 0 -5298261.0279679336 3689725.4802983189 0 3689725.4802983189 4768034.6409226926 0 0 0 0 -4945833.6656630039 -5178033.6843245625 0 -5178033.6843245625 23319853.367645264 0 0 0 0 -10357244.710346222 17468113.441776752 0 17468113.441776752 14411572.904602051 0 0 0 0 23008686.505210876 5453853.8929748535 0 5453853.8929748535 -34923402.208688259 0 0 0 0 6206443.5554275513 8732053.1068429947 0 8732053.1068429947 -2738946.8671302795 0 0 0 0 1040952.9934792332 259598.47966333944 0 259598.47966333944 1391241.9360045972 0 0 0 0 2887079.814956665 1386839.458612442 0 1386839.458612442 28513580.585830688 0 0 0 0 25900309.038955688 -4642352.3341999054 0 -4642352.3341999054 12894036.728137493 0 0 0 0 679045.32968497276 212146.57700166106 0 212146.57700166106 833805.31131801894 0 0 0 0 -7993316.8936004639 -9705814.3562555313 0 -9705814.3562555313 -20326381.544728279 0 0 0 0 17161331.558994293 -22994571.11257863 0 -22994571.11257863 -14574652.111606598 0 0 0 0 -21522429.686019897 -24528256.852339745 0 -24528256.852339745 5562115.2595863342 0 0 0 0 -10705814.730146408 55618201.556288958 0 55618201.556288958 -29020768.997270584 0 0 0 0 -29987682.156730652 -9147561.4800395966 0 -9147561.4800395966 -1560104.3065319061 0 0 0 0 500559.91780575924 575375.5477039963 0 575375.5477039963 -1298441.6560294358 0 0 0 0 -3351014.2297592163 60208774.950264931 0 60208774.950264931 -32791766.647437096 0 0 0 0 -10637249.769111633 64401751.881019592 0 64401751.881019592 -33957501.175388336 0 0 0 0 64872527.533737183 -102202805.98534393 0 -102202805.98534393 -24106159.426818848 0 0 0 0 39993658.997685432 84997458.675856352 0 84997458.675856352 -33431698.720275879 0 0 0 0 88255242.719848633 37078150.559984207 0 37078150.559984207 6787756.1975231171 0 0 0 0 8083.1056074053049 -5481.8111718171276 0 -5481.8111718171276 -12479.145021682139 0 0 0 0 -32007495.233047485 -8968330.2582855225 0 -8968330.2582855225 52600454.989358902 0 0 0 0 150472.63433868811 200747.00157537684 0 200747.00157537684 -4068.2499847663566 0 0 0 0 314237638.43829346 -60040391.942569733 0 -60040391.942569733 10362554.949361801 0 0 0 0 362070782.56648636 60508838.848642349 0 60508838.848642349 -41458509.551322937 0 0 0 0 -12275591.110984802 17096480.736211777 0 17096480.736211777 -1779775.0624666214 0 0 0 0 -9065122.0355606079 18168036.462877274 0 18168036.462877274 -7764219.82741642 0 0 0 0 -5719658.9851989746 26124283.756296158 0 26124283.756296158 6203373.3599815369 0 0 0 0 -49842002.765647888 2092174.4034080505 0 2092174.4034080505 19186112.973061085 0 0 0 0 797263.42403693311 -3505.0250857863575 0 -3505.0250857863575 -128187.84697655682 0 0 0 0 17425012.403648376 23676853.872323513 0 23676853.872323513 -5001964.1594612598 0 0 0 0 8741363.5968799591 -9139298.0175805092 0 -9139298.0175805092 6083448.2287158966 0 0 0 0 -16486350.608646393 8685342.227845192 0 8685342.227845192 -419044.58290863037 0 0 0 0 -1940077.1364517212 1809189.9488043785 0 1809189.9488043785 2828994.4650268555 0 0 0 0 -5599303.1279315948 14153265.026124775 0 14153265.026124775 -5729870.7683486938 0 0 0 0 -11209181.452571869 16925063.11901927 0 16925063.11901927 -4174478.2833652496 0 0 0 0 -24285222.060417175 13056054.378546715 0 13056054.378546715 -7358839.8743476868 0 0 0 0 -16318489.759788513 22190009.939849854 0 22190009.939849854 -7609355.4211132675 0 0 0 0 2003792.4933734611 4264407.4812935852 0 4264407.4812935852 -3800572.0980678895 0 0 0 0 -1676686.2795169577 2559397.3872472364 0 2559397.3872472364 2779074.5854518875 0 0 0 0 -5134298.4169276804 4474365.3443205897 0 4474365.3443205897 5626578.40824054 0 0 0 0 -11795256.905807495 11469213.892379172 0 11469213.892379172 -3412909.3997008204 0 0 0 0 -4566479.5434265137 9239163.8493859768 0 9239163.8493859768 -13149125.990731716 0 0 0 0 -9462797.6819534302 15829364.300859451 0 15829364.300859451 -14505879.680313289 0 0 0 0 -13492181.090675354 15221730.652164221 0 15221730.652164221 -2949048.6830463409 0 0 0 0 1647254.225461591 5117155.5678750286 0 5117155.5678750286 -5286658.8584012277 0 0 0 0 -4260510.0125961304 7172498.6616546884 0 7172498.6616546884 -10765482.761547714 0 0 0 0 -2493631.2696143091 2570447.6398868188 0 2570447.6398868188 5412628.1448669899 0 0 0 0 -10435509.926898956 11078701.760395817 0 11078701.760395817 -2341144.3543235362 0 0 0 0 -5573250.239402771 11156737.553947926 0 11156737.553947926 -9269232.2432689667 0 0 0 0 -21943518.780151367 -5567765.084608078 0 -5567765.084608078 24183096.111623764 0 0 0 0 -1816123.7879955769 7523594.1008906718 0 7523594.1008906718 -1542615.6444868967 0 0 0 0 -334029.89607539773 -189732.92407874763 0 -189732.92407874763 837242.36208239198 0 0 0 0 -3522858.4514927864 7175222.0957063437 0 7175222.0957063437 13263072.743532181 0 0 0 0 10402846.7215271 5622058.7340660095 0 5622058.7340660095 1115792.8776855469 0 0 0 0 571577.44735717773 4865245.8392753601 0 4865245.8392753601 14545026.359275818 0 0 0 0 1230116.7351549044 585764.73941763025 0 585764.73941763025 2932276.3146185232 0 0 0 0 -164191.45446777344 -1440961.5225563049 0 -1440961.5225563049 15016078.866567612 0 0 0 0 -1197205.5759353638 14610106.955184937 0 14610106.955184937 -10899738.362826824 0 0 0 0 -3273334.9767379761 3933845.5497398376 0 3933845.5497398376 -1061606.8980705738 0 0 0 0 -164904.29902433418 3803484.5672895871 0 3803484.5672895871 1457344.108449812 0 0 0 0 -3132600.4150238037 6959074.912630558 0 6959074.912630558 -10292828.356339455 0 0 0 0 -1686630.5987259112 1596519.464882622 0 1596519.464882622 5064654.8732757205 0 0 0 0 -1843065.084777832 3450232.6204090118 0 3450232.6204090118 -2788841.8818693161 0 0 0 0 -924172.27210121229 2558586.8262487417 0 2558586.8262487417 -216189.71936894674 0 0 0 0 -983530.01108242013 3575439.4287160505 0 3575439.4287160505 -416213.40975577105 0 0 0 0 -5746096.1561088562 7971967.5791220665 0 7971967.5791220665 2610604.1977615356 0 0 0 0 -173622.23188973963 481613.931904083 0 481613.931904083 919405.39773046994 0 0 0 0 627745.84861755371 9618126.0817718506 0 9618126.0817718506 -12665581.990372658 0 0 0 0 -5318649.3588180542 2970794.4761154652 0 2970794.4761154652 9495778.6894053221 0 0 0 0 11370150.901626587 11674734.497428894 0 11674734.497428894 -13505926.485767365 0 0 0 0 12664635.198803425 25816781.226548374 0 25816781.226548374 -47131612.19452095 0 0 0 0 188222.89332391322 4227247.9721725956 0 4227247.9721725956 1708247.3497943464 0 0 0 0 -14108572.228126526 42576514.62933588 0 42576514.62933588 -15376461.104149818 0 0 0 0 10238116.630401611 4905381.3709745407 0 4905381.3709745407 -11253431.080003738 0 0 0 0 12017451.601993561 28903619.613272667 0 28903619.613272667 -27908872.331760406 0 0 0 0 612858.41461879574 -100513.47219095938 0 -100513.47219095938 -354921.95491701178 0 0 0 0 -28570677.732563019 -9390050.5827884674 0 -9390050.5827884674 22045803.751605034 0 0 0 0 -892380.45565861836 6587526.1585613629 0 6587526.1585613629 2253871.8907617992 0 0 0 0 -11522022.821624756 12213058.679564476 0 12213058.679564476 2992286.4889526367 0 0 0 0 -1391343.6557043456 7898018.8699931242 0 7898018.8699931242 -486146.51857316308 0 0 0 0 -1957646.7253570557 18648826.10233283 0 18648826.10233283 989459.18757069111 0 0 0 0 -5841975.3084793091 33152891.041875243 0 33152891.041875243 -6210936.3875784874 0 0 0 0 -1958566.5524520874 19802218.671013713 0 19802218.671013713 20038666.347608328 0 0 0 0 8944017.6952667236 10160716.509001017 0 10160716.509001017 -70067.036383628845 0 0 0 0 12650173.486877441 24543180.668309689 0 24543180.668309689 -2704901.3242931366 0 0 0 0 16858893.610137939 4023356.5602388382 0 4023356.5602388382 -2159546.8414957821 0 0 0 0 20604822.749235153 2159615.5228641033 0 2159615.5228641033 -2696740.0256156921 0 0 0 0 332600.49142262386 -195416.26399709657 0 -195416.26399709657 -45137.487709769048 0 0 0 0 1771527.4702987671 -2620468.6475834846 0 -2620468.6475834846 7061508.2166671753 0 0 0 0 12038758.541442871 1807939.629357338 0 1807939.629357338 1857601.0971221924 0 0 0 0 17053063.868255615 -293152.77781581879 0 -293152.77781581879 154233.00717926025 0 0 0 0 12260519.933771133 1712335.2391372919 0 1712335.2391372919 364798.97547531128 0 0 0 0 -1655136.7158442549 4584600.0375275034 0 4584600.0375275034 -141168.66631033691 0 0 0 0 2220882.3242797852 9334982.8090028763 0 9334982.8090028763 -690450.43886184692 0 0 0 0 11518764.899501801 5815905.6294029951 0 5815905.6294029951 -341187.42363929749 0 0 0 0 -4791672.4632720947 -2225874.4416513443 0 -2225874.4416513443 14421309.829196692 0 0 0 0 13338704.729980469 3299121.1164288521 0 3299121.1164288521 -5486131.3324737549 0 0 0 0 1285161.0939292908 9584623.3730101585 0 9584623.3730101585 -4193934.869802475 0 0 0 0 2509033.4522094727 4492393.8066084385 0 4492393.8066084385 -66581.822596907616 0 0 0 0 -3051147.8057823181 2995956.6833839417 0 2995956.6833839417 10762.853002548218 0 0 0 0 -2194071.0080566406 2078460.1388092041 0 2078460.1388092041 -913165.73013305664 0 0 0 0 325909.17821556702 660930.91458654776 0 660930.91458654776 -324171.69258008455 0 0 0 0 9444396.7098388672 7216810.8427972794 0 7216810.8427972794 -581116.35345458984 0 0 0 0 931928.31478906749 39964.769561056048 0 39964.769561056048 -11115.977007377427 0 0 0 0 1493463.195972953 140214.0864270255 0 140214.0864270255 -591129.08957944857 0 0 0 0 14476806.224853516 4377907.6012964249 0 4377907.6012964249 -3677616.9119110107 0 0 0 0 11661004.714859009 3264472.178527832 0 3264472.178527832 -1375457.9598650932 0 0 0 0 -218139.77432250977 390004.12430524826 0 390004.12430524826 955030.12129640579 0 0 0 0 -1106178.0554601476 -36658.477424469311 0 -36658.477424469311 724384.66419280053 0 0 0 0 1459005.0118484497 6615512.5389125347 0 6615512.5389125347 9307205.7402791977 0 0 0 0 -96236.695983886719 653432.30702209473 0 653432.30702209473 1365527.3234381676 0 0 0 0 -181725.46812438965 781350.23741292953 0 781350.23741292953 1488682.4003801346 0 0 0 0 -8318550.777885437 5054100.4848227501 0 5054100.4848227501 1383362.6688169241 0 0 0 0 -1998704.9986658096 965037.90723924176 0 965037.90723924176 374663.56928585295 0 0 0 0 -5547.7503785081208 1297518.9420411233 0 1297518.9420411233 715806.24200961459 0 0 0 0 -57528.620727539062 820335.32054328918 0 820335.32054328918 1365221.9528808594 0 0 0 0 -11116863.666519165 1584106.116191864 0 1584106.116191864 -15691044.406056404 0 0 0 0 -148135.05465231091 3642051.47631987 0 3642051.47631987 394979.75258744601 0 0 0 0 -1170613.9530702494 925271.14362134412 0 925271.14362134412 -436982.19186992757 0 0 0 0 -7902597.5112228394 9352139.5104334354 0 9352139.5104334354 3047588.9532814026 0 0 0 0 -7463612.083896637 12812302.566933692 0 12812302.566933692 2370030.9822235107 0 0 0 0 -7826709.0371780396 1291148.7365702391 0 1291148.7365702391 24652234.562622547 0 0 0 0 -3015469.0281066895 1738008.8570392132 0 1738008.8570392132 -3875409.6733839512 0 0 0 0 -3536282.9383468628 -768109.54967331886 0 -768109.54967331886 2026703.4941167831 0 0 0 0 -48737.72438172251 305313.09145980887 0 305313.09145980887 -407667.08043954521 0 0 0 0 9774261.0802841187 19149007.0121243 0 19149007.0121243 -7023838.0726909637 0 0 0 0 7372234.8485832214 28281643.735736161 0 28281643.735736161 25566977.429524422 0 0 0 0 -8917242.9948806763 15165970.218042374 0 15165970.218042374 61120548.113906041 0 0 0 0 16848496.392780304 -5712988.2339216471 0 -5712988.2339216471 18927687.869143724 0 0 0 0 -11112511.110359192 -4666319.3590443134 0 -4666319.3590443134 57143258.134701252 0 0 0 0 -15453291.174530029 10330648.836428404 0 10330648.836428404 66278645.864607811 0 0 0 0 2102653.6093215942 21993989.08884263 0 21993989.08884263 42201463.941803455 0 0 0 0 -123318.3789730072 35468998.258322597 0 35468998.258322597 -45308146.365736246 0 0 0 0 437722.64800665528 -519461.73351472057 0 -519461.73351472057 -405013.93874029943 0 0 0 0 -2663109.1878356934 16218511.372556031 0 16218511.372556031 -29165216.931634188 0 0 0 0 802890.18483894691 -941585.72902741563 0 -941585.72902741563 -739337.80410425109 0 0 0 0 -21221018.130271912 10004101.971280336 0 10004101.971280336 -10145993.770661771 0 0 0 0 -659399.26554107666 17350846.976738811 0 17350846.976738811 139882.46963953972 0 0 0 0 -9071696.1170806885 513157.28469562531 0 513157.28469562531 15018578.903958559 0 0 0 0 3043010.5477294922 15021940.559493929 0 15021940.559493929 -31520543.848911762 0 0 0 0 -10431609.142707825 17544395.915967345 0 17544395.915967345 37707310.494744301 0 0 0 0 -9428471.9424819946 16480517.843625069 0 16480517.843625069 25071515.22779417 0 0 0 0 -12946021.610038757 14302305.562470913 0 14302305.562470913 34047179.357501507 0 0 0 0 -12347857.519523621 19909610.558378696 0 19909610.558378696 50966525.819275379 0 0 0 0 -5465158.4784622192 7319778.3578457236 0 7319778.3578457236 9184708.9065232184 0 0 0 0 388505.08963775635 -1770656.2701228932 0 -1770656.2701228932 -31078770.300091088 0 0 0 0 -7612573.5660018921 16064360.980190068 0 16064360.980190068 4621800.0171354469 0 0 0 0 1790590.0646514893 10147857.34342283 0 10147857.34342283 4301290.3601698875 0 0 0 0 8580031.3512268066 26786582.359887123 0 26786582.359887123 37301836.709572792 0 0 0 0 24800997.448356628 11982793.225757599 0 11982793.225757599 22754624.778957367 0 0 0 0 6798694.6589050293 -4282592.3109867573 0 -4282592.3109867573 10242408.165926099 0 0 0 0 -18154.87590974124 5885341.8700658996 0 5885341.8700658996 50856176.955331802 0 0 0 0 10696198.695480347 30347668.48555088 0 30347668.48555088 33091041.845719337 0 0 0 0 518566.85626103729 5710.4749361239374 0 5710.4749361239374 -536139.58880898287 0 0 0 0 7860128.518737793 12217469.560942173 0 12217469.560942173 -5257792.3937072754 0 0 0 0 -1036312.0696487427 21291539.117164373 0 21291539.117164373 82545346.596509933 0 0 0 0 -442840.11546325684 6898317.6837334633 0 6898317.6837334633 34293906.22814256 0 0 0 0 8038377.3488645554 -8359494.0125755668 0 -8359494.0125755668 26132716.974781036 0 0 0 0 9264339.1714172363 -29038576.919945717 0 -29038576.919945717 77634164.244308352 0 0 0 0 -6787487.9378175735 -3029686.7890814543 0 -3029686.7890814543 -1827397.6604204178 0 0 0 0 -7623983.5464277267 4645944.8547385931 0 4645944.8547385931 -16169.015399932861 0 0 0 0 -5906452.7635803223 -1545317.5116224289 0 -1545317.5116224289 1792388.867524147 0 0 0 0 8610177.2520217896 5672179.8828372955 0 5672179.8828372955 3295022.5353221893 0 0 0 0 3823842.9743347168 -1084174.5475049019 0 -1084174.5475049019 -2537947.5856881142 0 0 0 0 -1123204.6054382324 -1127549.009677887 0 -1127549.009677887 2924121.5039749742 0 0 0 0 20104.414653778076 2388839.8721470833 0 2388839.8721470833 9311327.2073125839 0 0 0 0 65865.709045410156 5970623.1467680931 0 5970623.1467680931 18448376.897567272 0 0 0 0 -1069929.6830368042 11927963.515412807 0 11927963.515412807 20814286.882080078 0 0 0 0 -1557254.4600524902 9140674.1502966881 0 9140674.1502966881 7194448.0958228111 0 0 0 0 -8122985.0530357361 11931448.132234693 0 11931448.132234693 31022537.986780167 0 0 0 0 -9551303.2887077332 9425527.3041410446 0 9425527.3041410446 37232129.913537979 0 0 0 0 -8314391.0001831055 9417480.3420362473 0 9417480.3420362473 34559198.388072014 0 0 0 0 -7447326.8263130188 15044166.0050174 0 15044166.0050174 53795480.137375832 0 0 0 0 -4304804.7768554688 -8884504.9888505936 0 -8884504.9888505936 46662149.518784285 0 0 0 0 -5439274.1583862305 -519820.70051670074 0 -519820.70051670074 26550842.909584045 0 0 0 0 -5305979.1995849609 -540723.21529865265 0 -540723.21529865265 25441446.40651989 0 0 0 0 -1356169.4568061829 4087567.8427231312 0 4087567.8427231312 22200398.325525284 0 0 0 0 -101066.37539672852 -2435956.1398525238 0 -2435956.1398525238 14239095.842695236 0 0 0 0 3646206.7271728516 -1752150.9913368225 0 -1752150.9913368225 -446311.08452987671 0 0 0 0 181239.61959265918 -152495.88891426753 0 -152495.88891426753 -403623.96394592733 0 0 0 0 116425.39517211914 2157256.3615341187 0 2157256.3615341187 13282432.048656702 0 0 0 0 1099400.2775847018 77712.960150109604 0 77712.960150109604 -1187412.2776643839 0 0 0 0 -7829870.0954589844 -1295014.3472099304 0 -1295014.3472099304 12573056.80701828 0 0 0 0 -3204747.8706817627 2984451.8414516449 0 2984451.8414516449 16235239.193200111 0 0 0 0 -1860901.9754943848 -7746170.9424657822 0 -7746170.9424657822 22065193.972432137 0 0 0 0 -1680964.2909698486 -578505.19435882568 0 -578505.19435882568 -4766454.7462587357 0 0 0 0 -5170509.5399932861 4673421.0170879364 0 4673421.0170879364 -5670942.1095848083 0 0 0 0 20893.557777952403 -30448.578856709413 0 -30448.578856709413 -65408.545950489701 0 0 0 0 -171962.79192369431 32730.768823521212 0 32730.768823521212 167210.67873081472 0 0 0 0 -1273645.9541015625 7605542.2712306976 0 7605542.2712306976 332234.87328529358 0 0 0 0 6639537.9190673828 5439596.9163589478 0 5439596.9163589478 -2951888.225440979 0 0 0 0 -2085044.3077697754 -831053.95297336578 0 -831053.95297336578 -387629.27583503723 0 0 0 0 -4883655.9262084961 -3399372.8602275848 0 -3399372.8602275848 -2385386.2677166462 0 0 0 0 628250.59499428049 112281.745336961 0 112281.745336961 -1251193.5110002132 0 0 0 0 217067.07760495692 -337450.40822407883 0 -337450.40822407883 -371252.43113319692 0 0 0 0 356094.63806152344 -505246.60678100586 0 -505246.60678100586 -426859.66977310181 0 0 0 0 91757.962174963206 -425685.5385821152 0 -425685.5385821152 600175.76529644383 0 0 0 0 67589.270660400391 -467377.14313268661 0 -467377.14313268661 3000193.5062160492 0 0 0 0 -398846.201171875 -137729.28558158875 0 -137729.28558158875 -216997.33655357361 0 0 0 0 -584561.90986452252 -62930.252935619093 0 -62930.252935619093 822642.1204911368 0 0 0 0 -2364834.5144805908 1192491.6213908195 0 1192491.6213908195 15319755.737863541 0 0 0 0 -749404.24192810059 3364951.8387181759 0 3364951.8387181759 14462260.635045052 0 0 0 0 949159.90001086146 201468.48105036654 0 201468.48105036654 -400353.03246170655 0 0 0 0 578001.43450164795 -152221.39003229141 0 -152221.39003229141 -1856271.2831237316 0 0 0 0 -3298751.5299377441 19796963.007534504 0 19796963.007534504 -36112846.066675186 0 0 0 0 3432772.9688720703 1608611.5255084038 0 1608611.5255084038 -1778091.7173261642 0 0 0 0 28383.999229431152 -649.578857421875 0 -649.578857421875 -603269.51049733162 0 0 0 0 1209290.5467456654 -234037.15531826392 0 -234037.15531826392 -1366837.4660030194 0 0 0 0 -791900.9412895143 -1216915.5535751074 0 -1216915.5535751074 808434.85587758268 0 0 0 0 12299024.233810425 -4198789.479839325 0 -4198789.479839325 -32001737.738939285 0 0 0 0 65277440.400413513 -24555172.300665855 0 -24555172.300665855 -18850923.452093005 0 0 0 0 7026472.031047821 -37288483.108344138 0 -37288483.108344138 -16947780.333003998 0 0 0 0 30649198.961929321 40167709.608345032 0 40167709.608345032 26237074.111195564 0 0 0 0 11046820.268188477 -5479594.0020685196 0 -5479594.0020685196 -12714731.366330147 0 0 0 0 28567304.797393799 21245188.470103264 0 21245188.470103264 -36466667.54816246 0 0 0 0 18942657.491485596 -3238229.7132072449 0 -3238229.7132072449 16986797.301410675 0 0 0 0 -33822149.300971985 19619518.890974045 0 19619518.890974045 16634767.342065811 0 0 0 0 -656897.23336976767 -1324204.8335812842 0 -1324204.8335812842 408318.90804489958 0 0 0 0 3533504.3562088013 2810694.3310127258 0 2810694.3310127258 3247930.6965494156 0 0 0 0 1912810.1222305298 -1377825.3960752487 0 -1377825.3960752487 -6584407.7750339508 0 0 0 0 -592860.55544232205 -1176878.4904160339 0 -1176878.4904160339 265340.40645534196 0 0 0 0 -10624.755462646484 -1662340.4092988968 0 -1662340.4092988968 679849.42683744431 0 0 0 0 -19969253.270702362 -27649153.464237213 0 -27649153.464237213 -19509885.424458504 0 0 0 0 1912810.1222381592 2386137.7177224159 0 2386137.7177224159 -874698.51939058304 0 0 0 0 -1245695.8536006212 377824.28669704683 0 377824.28669704683 1174055.2438561171 0 0 0 0 -12254.884803771973 3775101.9981045723 0 3775101.9981045723 2467914.0391378403 0 0 0 0 9606.7306442260742 3789819.3925695419 0 3789819.3925695419 2459679.6481981277 0 0 0 0 -1428217.5754171163 339142.90823257901 0 339142.90823257901 1415520.0008689687 0 0 0 0 -40434015.530311584 -24143918.885332584 0 -24143918.885332584 -43950069.445034027 0 0 0 0 -38348277.179219246 -10895600.905475676 0 -10895600.905475676 36443945.227339745 0 0 0 0 -768110.10275650024 50416366.897342205 0 50416366.897342205 -10398670.229624748 0 0 0 0 -11500485.199298859 24529868.332119942 0 24529868.332119942 -70398312.003835678 0 0 0 0 -60547.885943506299 21445088.006736856 0 21445088.006736856 -86117851.075286865 0 0 0 0 -18027396.5676651 29052975.820458412 0 29052975.820458412 -55963166.01551199 0 0 0 0 203811.65347866714 -399645.50519605679 0 -399645.50519605679 105166.87444070959 0 0 0 0 22494496.493835449 -19783011.683143616 0 -19783011.683143616 -7180466.2551224232 0 0 0 0 -6409435.3909187317 5450732.4246821404 0 5450732.4246821404 88797895.379574776 0 0 0 0 53488123.449756622 -154425.79788017273 0 -154425.79788017273 -28004373.774997711 0 0 0 0 -26371769.986083984 50049247.703372478 0 50049247.703372478 -47156503.544810295 0 0 0 0 44675224.257045746 428742.57309055328 0 428742.57309055328 -6650836.3535671234 0 0 0 0 941030.76728820801 -6207294.5228695869 0 -6207294.5228695869 -2947493.0761756897 0 0 0 0 -1387077.5379948877 1274718.1897916794 0 1274718.1897916794 686532.91187606193 0 0 0 0 17985086.414413452 31441793.557547331 0 31441793.557547331 27715660.71141243 0 0 0 0 9606962.3016967773 -5044803.6129455566 0 -5044803.6129455566 9628140.0560693741 0 0 0 0 -19877449.212234497 -7428268.0229034424 0 -7428268.0229034424 35692138.213712454 0 0 0 0 877483.60683822632 34850052.178557634 0 34850052.178557634 -6314794.8965034485 0 0 0 0 19978235.23664093 6481648.569425106 0 6481648.569425106 -27335643.593961716 0 0 0 0 557297.48107014596 -47712.947777034249 0 -47712.947777034249 426885.85343684175 0 0 0 0 3853442.7007751465 6265248.7748451233 0 6265248.7748451233 -26734196.131568909 0 0 0 0 -4284478.8437194824 12460463.345863342 0 12460463.345863342 -1234766.4063186646 0 0 0 0 2991929.0821691528 1722148.118769303 0 1722148.118769303 -774964.54247215355 0 0 0 0 -710273.97213418782 2742675.3344062585 0 2742675.3344062585 692486.7712102877 0 0 0 0 3789439.5911407471 14038949.998268127 0 14038949.998268127 12469781.911554337 0 0 0 0 6003855.6893005371 11978476.227333426 0 11978476.227333426 3944658.9596099854 0 0 0 0 -1188481.1738846712 1665134.6534453696 0 1665134.6534453696 1197574.1368810423 0 0 0 0 12306145.383792877 20349769.599370658 0 20349769.599370658 -1813418.6094646454 0 0 0 0 12321079.636367798 -1729218.6054458618 0 -1729218.6054458618 -35764136.029648781 0 0 0 0 178994.80662293732 311558.95840311609 0 311558.95840311609 -22574.70306111942 0 0 0 0 -8979097.9634552002 -4481592.5861616135 0 -4481592.5861616135 -17232043.02444458 0 0 0 0 915471.76013183594 4793681.19328022 0 4793681.19328022 -18558430.221570253 0 0 0 0 10766601.280075073 -11937995.70113945 0 -11937995.70113945 -65580689.297365189 0 0 0 0 14622139.998908997 907947.27857494354 0 907947.27857494354 -38097418.275840759 0 0 0 0 16149604.207214355 -1455711.6680755615 0 -1455711.6680755615 -37859249.024285793 0 0 0 0 18881539.297592163 -2507729.9235801697 0 -2507729.9235801697 -63932154.364807129 0 0 0 0 8979392.0909118652 -1744855.323102951 0 -1744855.323102951 -19672085.527515411 0 0 0 0 7798392.5168514252 3303651.0124130249 0 3303651.0124130249 -11884710.256576538 0 0 0 0 9531865.2932891846 11432108.76738739 0 11432108.76738739 -35065095.304460526 0 0 0 0 9647621.9588928223 6557046.1193084717 0 6557046.1193084717 -23341819.246053696 0 0 0 0 2149290.6123962402 3214340.9593982697 0 3214340.9593982697 -3930493.2749252319 0 0 0 0 11782178.801498413 5118997.6684341431 0 5118997.6684341431 -16357889.123142242 0 0 0 0 2893429.5818929784 2409995.4713983117 0 2409995.4713983117 -482062.45747425721 0 0 0 0 7832696.8571929932 6003799.900308609 0 6003799.900308609 -961074.12775421143 0 0 0 0 1521180.4079149091 1685317.958960345 0 1685317.958960345 -169909.69727733638 0 0 0 0 993838.76655578613 1532703.9290981293 0 1532703.9290981293 531951.7837523222 0 0 0 0 976524.51350402832 1514626.1581468582 0 1514626.1581468582 672020.82112884521 0 0 0 0 1489147.0591051467 1670002.9934208374 0 1670002.9934208374 1019893.4687928697 0 0 0 0 686218.59783935547 1486457.7974624634 0 1486457.7974624634 -1677724.4865493774 0 0 0 0 1085404.2210693359 2405631.2078323364 0 2405631.2078323364 937335.63563203812 0 0 0 0 473206.68887329102 1798726.1784172058 0 1798726.1784172058 1013741.7319545746 0 0 0 0 2525644.1980285645 -2870321.1694278717 0 -2870321.1694278717 -5284384.4168395996 0 0 0 0 8603701.5653991699 3765137.5939979553 0 3765137.5939979553 -11954474.635726452 0 0 0 0 5567857.8081665039 3501045.81199646 0 3501045.81199646 7859139.2555847168 0 0 0 0 32929.715056102723 450757.1552338507 0 450757.1552338507 435498.74807115179 0 0 0 0 1372618.2228393555 3436915.8291004896 0 3436915.8291004896 2405334.0614852905 0 0 0 0 1426018.6252810955 1475980.9884316325 0 1475980.9884316325 861825.33615684509 0 0 0 0 1488447.5052490234 2126419.253194809 0 2126419.253194809 1327038.6476246119 0 0 0 0 1724062.7711548135 2078703.3144992841 0 2078703.3144992841 1018377.1921103243 0 0 0 0 2350904.1811954379 3567535.6134384163 0 3567535.6134384163 -30070.964355052623 0 0 0 0 9238.9442442692816 23754.037975260988 0 23754.037975260988 20271.861063021235 0 0 0 0 1276282.9918212891 4825493.4032201767 0 4825493.4032201767 4546960.5048732758 0 0 0 0 2359351.44506073 4839588.5922703743 0 4839588.5922703743 -514106.81058883667 0 0 0 0 776670.69179534912 1184499.492972374 0 1184499.492972374 55495.840637207031 0 0 0 0 252184.63173415512 2381995.2637299746 0 2381995.2637299746 569355.1861640485 0 0 0 0 1060361.4415062852 1156242.5657891985 0 1156242.5657891985 -997896.766200596 0 0 0 0 -785722.16540145874 2267926.4725313187 0 2267926.4725313187 -2885099.1468267441 0 0 0 0 1905563.6922548749 2265457.9503936972 0 2265457.9503936972 909165.59580374602 0 0 0 0 1948544.9322705492 2347731.8277028445 0 2347731.8277028445 -333480.09261131613 0 0 0 0 3212711.7758331299 8679672.7264738083 0 8679672.7264738083 -2988577.155816555 0 0 0 0 1927509.6754150391 8813405.6413908005 0 8813405.6413908005 1673576.954744339 0 0 0 0 115719.32894054428 1423959.4744970817 0 1423959.4744970817 -1258819.9855756285 0 0 0 0 76533.177474975586 963737.71953582764 0 963737.71953582764 -821806.61813640594 0 0 0 0 82653.6416015625 1438319.4769134521 0 1438319.4769134521 -2857595.3067321777 0 0 0 0 923836.3270047754 2322551.0310959052 0 2322551.0310959052 1158788.8423084915 0 0 0 0 661849.10874938965 1657863.1538314819 0 1657863.1538314819 -1792200.2027816772 0 0 0 0 1070139.8378958441 2245340.5391177041 0 2245340.5391177041 523957.62589045847 0 0 0 0 620416.04925918579 1891252.6411802769 0 1891252.6411802769 -1150097.1000595093 0 0 0 0 93572.271487355232 1285001.0034853444 0 1285001.0034853444 -1213894.9983366937 0 0 0 0 519309.5940246582 1449792.6339836121 0 1449792.6339836121 -84063.517071723938 0 0 0 0 409628.95880126953 1052695.0067405701 0 1052695.0067405701 398619.52439498901 0 0 0 0 1452019.3090209961 1936545.9290504456 0 1936545.9290504456 792655.89041519165 0 0 0 0 2292741.195179306 1393349.8296973761 0 1393349.8296973761 184216.26796511002 0 0 0 0 2246161.6197346747 2285476.0521056615 0 2285476.0521056615 1156389.7279248936 0 0 0 0 407705.98783874512 1239529.0750637054 0 1239529.0750637054 495880.97554016113 0 0 0 0 572481.77947998047 824739.62005615234 0 824739.62005615234 437506.66545677185 0 0 0 0 2053743.8004683424 1713024.3906002957 0 1713024.3906002957 1025552.5516671631 0 0 0 0 1311366.2373027205 1731438.2764007607 0 1731438.2764007607 1248332.6992378505 0 0 0 0 207465.92458038777 1213801.3464067578 0 1213801.3464067578 -824951.04078253754 0 0 0 0 -398583.68768519908 1458081.4864399303 0 1458081.4864399303 -589010.08911535656 0 0 0 0 -634444.50912475586 1440011.3398094177 0 1440011.3398094177 284383.45238494873 0 0 0 0 -707805.27303314209 1315067.0915784836 0 1315067.0915784836 325636.65114593506 0 0 0 0 -541106.13247680664 1139299.5676002502 0 1139299.5676002502 -141545.2787733078 0 0 0 0 -709489.31467633694 1348222.8793965094 0 1348222.8793965094 -85007.210638268385 0 0 0 0 1979927.0898364638 1723983.4102646448 0 1723983.4102646448 355991.83952895552 0 0 0 0 148198.62423706055 1052091.7705917358 0 1052091.7705917358 -733906.21071434021 0 0 0 0 628906.40546417236 1592934.8778123856 0 1592934.8778123856 578919.29146575928 0 0 0 0 2820766.5751510076 2599910.4427960217 0 2599910.4427960217 715409.70634194277 0 0 0 0 1107966.1457290277 3604205.4591321265 0 3604205.4591321265 -1191562.8445345708 0 0 0 0 -295973.35086779669 1436196.0930989385 0 1436196.0930989385 -1191567.2794700088 0 0 0 0 3054218.8386535645 5259975.199991703 0 5259975.199991703 -82308.006474256516 0 0 0 0 2404279.339558633 594400.69804519601 0 594400.69804519601 -1163599.3919000942 0 0 0 0 1774710.817763973 830121.69239328243 0 830121.69239328243 623830.01663908036 0 0 0 0 14081195.354522705 6504371.1140823364 0 6504371.1140823364 730394.76066970825 0 0 0 0 1518484.3647212982 711477.23703145981 0 711477.23703145981 -10888.857311248779 0 0 0 0 1068510.9991014469 1319779.6196293011 0 1319779.6196293011 1387736.3127566576 0 0 0 0 5792241.7748031616 12312350.945990562 0 12312350.945990562 5395363.6977526471 0 0 0 0 -567671.21337227151 1234298.672102144 0 1234298.672102144 -440971.22379607521 0 0 0 0 1823535.8571681753 2081859.8902934603 0 2081859.8902934603 219635.01216018572 0 0 0 0 -1020424.8133049011 1297069.157327652 0 1297069.157327652 -437312.06890583038 0 0 0 0 -388722.57941924781 2588603.3713320661 0 2588603.3713320661 -257533.07859345526 0 0 0 0 -837336.67046356201 1650029.9004478455 0 1650029.9004478455 -453198.29454612732 0 0 0 0 -1499369.8565063477 2641317.9084892273 0 2641317.9084892273 -2219349.0327186584 0 0 0 0 -592453.07349223271 1096526.6110567376 0 1096526.6110567376 -546696.03685107362 0 0 0 0 -895810.35304260254 1429735.7793975472 0 1429735.7793975472 233120.52911472321 0 0 0 0 1932982.0674191937 940649.74892354757 0 940649.74892354757 -1198708.0383915924 0 0 0 0 -339903.77992188185 1075612.3862561872 0 1075612.3862561872 -477005.13321428327 0 0 0 0 -284725.52614212036 3030500.4591591358 0 3030500.4591591358 -9122624.850859642 0 0 0 0 1907022.8095092773 -4367834.8673696518 0 -4367834.8673696518 -13926720.471187592 0 0 0 0 5780612.8463897705 3590572.8816146851 0 3590572.8816146851 -9430313.8176937103 0 0 0 0 -88963.407440185547 1071426.2076482773 0 1071426.2076482773 -49239.563182830811 0 0 0 0 17340.870018173009 285822.33465533517 0 285822.33465533517 -595166.91142426711 0 0 0 0 1325986.3701884598 1287122.9285583925 0 1287122.9285583925 -729171.3544895947 0 0 0 0 1939520.151260376 1257459.213508606 0 1257459.213508606 -1032095.8841438293 0 0 0 0 641343.37303161621 3311432.9368801117 0 3311432.9368801117 1298246.5146121979 0 0 0 0 292998.58830871433 88208.573020417243 0 88208.573020417243 -35735.520100478083 0 0 0 0 11000036.228599548 2563814.4347624779 0 2563814.4347624779 -12246592.478183746 0 0 0 0 12457369.475601196 -10405608.370319366 0 -10405608.370319366 -3543117.5154037476 0 0 0 0 -23260144.722766876 51147051.428211093 0 51147051.428211093 -247147.52240562439 0 0 0 0 579750.55410638824 -86898.034355280921 0 -86898.034355280921 -615335.19935283484 0 0 0 0 2171188.7494812012 -9587774.2654876709 0 -9587774.2654876709 -1280225.9648432732 0 0 0 0 10428179.875762939 13615613.246359825 0 13615613.246359825 -3016773.1290092468 0 0 0 0 19384062.91217804 3832855.5403268337 0 3832855.5403268337 -6667799.0189781189 0 0 0 0 9948751.0415649414 8573556.6622238159 0 8573556.6622238159 -57076.798452377319 0 0 0 0 5757530.9351730347 3680900.59252882 0 3680900.59252882 -5189548.6463050842 0 0 0 0 10139063.173736572 5401428.8478717804 0 5401428.8478717804 -9994315.701833725 0 0 0 0 6282609.9903564453 1700752.4201374054 0 1700752.4201374054 -6962166.4284229279 0 0 0 0 11122962.055465698 118192825.25162983 0 118192825.25162983 -33914813.630815506 0 0 0 0 34334957.209747314 112360944.2579174 0 112360944.2579174 -32580453.2084198 0 0 0 0 49055917.731613159 97356263.883606195 0 97356263.883606195 -82279294.631690979 0 0 0 0 67939943.113609314 122602783.12588692 0 122602783.12588692 -69791579.465279579 0 0 0 0 36254520.804218292 83423970.693361282 0 83423970.693361282 -93123677.103475571 0 0 0 0 65186153.172809601 84341408.032664299 0 84341408.032664299 -122567475.68390656 0 0 0 0 55321488.495734215 84450760.719413996 0 84450760.719413996 -101593733.52832031 0 0 0 0 73973241.641719818 121914623.43031693 0 121914623.43031693 -70102444.552037716 0 0 0 0 93665903.387500763 134850634.90956497 0 134850634.90956497 -38035990.82218647 0 0 0 0 69793328.559713364 132429425.96204519 0 132429425.96204519 -36760059.199707031 0 0 0 0 82599821.987365723 171973107.11625767 0 171973107.11625767 -12880594.354662895 0 0 0 0 39051134.974328041 147371931.23507655 0 147371931.23507655 -12661202.870573044 0 0 0 0 36263510.138261795 138701622.00885153 0 138701622.00885153 -20336088.483524323 0 0 0 0 -5447372.5703582764 139008950.51081705 0 139008950.51081705 8189041.7848525047 0 0 0 0 -5107131.4822921753 140843128.72900867 0 140843128.72900867 18069075.278110504 0 0 0 0 -19355503.108776093 129762856.46817398 0 129762856.46817398 10045535.800623894 0 0 0 0 -32297907.409217834 119276365.3941946 0 119276365.3941946 25727134.322847366 0 0 0 0 -20260365.392219543 118106491.73877048 0 118106491.73877048 18412803.200119019 0 0 0 0 -21487539.079450607 120144330.89866602 0 120144330.89866602 20680052.197330475 0 0 0 0 -16856183.987060547 116724983.96377373 0 116724983.96377373 18875148.712672234 0 0 0 0 -20013792.468223572 96071459.715502739 0 96071459.715502739 8927472.1720247269 0 0 0 0 -20927158.234876633 100484744.54806471 0 100484744.54806471 32782675.56996727 0 0 0 0 713306.17460632324 93071587.151757717 0 93071587.151757717 -15607196.307312489 0 0 0 0 11043974.038916588 120471674.79032469 0 120471674.79032469 -19613459.76861763 0 0 0 0 -5973842.3795089722 123969744.6894846 0 123969744.6894846 12056879.071741104 0 0 0 0 11518867.015673637 86243006.450980902 0 86243006.450980902 -61770211.444057465 0 0 0 0 -2562551.6300315857 92770201.928192616 0 92770201.928192616 1921889.7608089447 0 0 0 0 -14926240.46320343 60971681.603610039 0 60971681.603610039 -22359595.323964596 0 0 0 0 -16509750.538218498 67216243.098354638 0 67216243.098354638 36315930.954416275 0 0 0 0 -12929175.179611206 19118170.586346626 0 19118170.586346626 -51096861.250373363 0 0 0 0 7016240.5998330116 38542281.265532255 0 38542281.265532255 -69536724.975702286 0 0 0 0 1762728.1828117371 49148477.925375938 0 49148477.925375938 -15842304.67932415 0 0 0 0 29277825.356006622 29980964.908636093 0 29980964.908636093 -121885744.04974747 0 0 0 0 12448504.300008774 39521623.3592453 0 39521623.3592453 -74304648.514344215 0 0 0 0 30612234.641014099 80179809.474738121 0 80179809.474738121 -60763863.432701826 0 0 0 0 21289741.343463898 63568198.957252979 0 63568198.957252979 -90340552.709867477 0 0 0 0 29742241.123521805 46205071.376199245 0 46205071.376199245 -129458074.4772625 0 0 0 0 24240848.222068787 33173716.110497475 0 33173716.110497475 -114222975.6661582 0 0 0 0 41704427.416099548 57733501.733697891 0 57733501.733697891 -121585494.80440903 0 0 0 0 46977163.005027771 45625925.130313873 0 45625925.130313873 -145183879.55625534 0 0 0 0 26768542.397011995 12885298.679422438 0 12885298.679422438 -163191185.23432732 0 0 0 0 1238401.150844574 -5564562.8892583847 0 -5564562.8892583847 -98480148.377549171 0 0 0 0 860395.25877761841 -33307258.212366104 0 -33307258.212366104 -165016807.4734273 0 0 0 0 4757325.1962375641 -29879591.042512894 0 -29879591.042512894 -176014289.41554308 0 0 0 0 -688559900.57340813 1068197035.8283615 0 1068197035.8283615 68152837.361225128 0 0 0 0 13218270.17521286 -17450833.726169586 0 -17450833.726169586 -197876045.14058495 0 0 0 0 20540893.56439209 5864231.9266214371 0 5864231.9266214371 -152571364.33462763 0 0 0 0 -1037704.109046936 -15908725.526081085 0 -15908725.526081085 -191402377.15919495 0 0 0 0 -30884754.843338013 -45425720.476999283 0 -45425720.476999283 -182793429.42067146 0 0 0 0 984291893.73458195 -296667285.52193928 0 -296667285.52193928 961262404.26220512 0 0 0 0 -3323526.4064788818 -45985573.811858177 0 -45985573.811858177 -298554275.5711956 0 0 0 0 -2907903.9621205311 1495861.9718018654 0 1495861.9718018654 -289354.35637683887 0 0 0 0 -9082770.5250873566 -87119336.955015659 0 -87119336.955015659 -296629362.38731003 0 0 0 0 -1166815.261805662 447262.0997054521 0 447262.0997054521 63951.143104120987 0 0 0 0 -53260613.400629044 -81965082.239164829 0 -81965082.239164829 -215496590.3380928 0 0 0 0 -13912659.173172951 -53914684.851673603 0 -53914684.851673603 -234051448.93127251 0 0 0 0 -5949348.5245132446 -29082990.493508339 0 -29082990.493508339 -218063775.05237103 0 0 0 0 14983894.980747223 -20431375.068798065 0 -20431375.068798065 -235014073.17140865 0 0 0 0 -14108116.123310089 -40594593.124094009 0 -40594593.124094009 -264268760.32179546 0 0 0 0 -6073636.4070664048 -56841275.265371025 0 -56841275.265371025 -282958613.96858597 0 0 0 0 6790572.514175415 37355859.466176033 0 37355859.466176033 -246440639.78991318 0 0 0 0 12392858.249240875 -12956106.702896655 0 -12956106.702896655 -287160560.58396912 0 0 0 0 8519802.0196316242 10687051.087393939 0 10687051.087393939 -201592911.82926369 0 0 0 0 39797589.583110809 40049362.948329926 0 40049362.948329926 -222089491.09730244 0 0 0 0 29929692.971141815 15323498.246442795 0 15323498.246442795 -184895912.10065317 0 0 0 0 49762826.392822266 60362865.126954079 0 60362865.126954079 -163212744.73793459 0 0 0 0 20295861.981322765 15745518.44870913 0 15745518.44870913 -179621794.10622406 0 0 0 0 -80388786.278060913 52150714.978339195 0 52150714.978339195 629813491.91413927 0 0 0 0 -4206089.4406280834 1816327.1070586029 0 1816327.1070586029 101692.78065826629 0 0 0 0 101992497.07307434 -12560187.175361633 0 -12560187.175361633 499894137.92536736 0 0 0 0 -138062774.43019104 404259912.9384594 0 404259912.9384594 1249654808.414793 0 0 0 0 -13489148.333518982 -34325639.109969139 0 -34325639.109969139 -289545506.67663002 0 0 0 0 -13319872.843681335 10168703.318369865 0 10168703.318369865 -238682406.85873604 0 0 0 0 -11222044.186626434 51192811.611863136 0 51192811.611863136 -368801598.42181659 0 0 0 0 -91955521.411706924 27970581.337574959 0 27970581.337574959 -262957300.60816383 0 0 0 0 -61032223.301998138 -87284852.647582054 0 -87284852.647582054 -344684798.95197105 0 0 0 0 -75764196.973855972 151080401.31231356 0 151080401.31231356 -576240372.97446918 0 0 0 0 -5143395.2068223953 -78652983.353476524 0 -78652983.353476524 -674146865.32318306 0 0 0 0 -263839530.1519146 206002897.81465864 0 206002897.81465864 -288819631.68316269 0 0 0 0 -1298543.5849975552 269363.03344798367 0 269363.03344798367 109962.66596455639 0 0 0 0 -159082867.90640831 -5890325.3815302849 0 -5890325.3815302849 -85544626.17864418 0 0 0 0 -100721445.12002182 106538662.73639393 0 106538662.73639393 -243476824.12557983 0 0 0 0 -64291674.961279392 24868750.401019454 0 24868750.401019454 -93155600.824144363 0 0 0 0 -42681055.788833141 85287862.343705893 0 85287862.343705893 -150958932.99812889 0 0 0 0 8243128.0234031677 38190564.415967941 0 38190564.415967941 -245872030.84467173 0 0 0 0 -71325225.672521591 64696072.035227299 0 64696072.035227299 -66503890.591515064 0 0 0 0 -47294201.92117691 15191827.809958458 0 15191827.809958458 20819618.913237572 0 0 0 0 -90346722.183763504 28401670.477323532 0 28401670.477323532 -68608505.221180439 0 0 0 0 -94272014.096653938 -14928384.582801938 0 -14928384.582801938 10653990.573009491 0 0 0 0 57051754.50668335 94092835.679286003 0 94092835.679286003 -114298075.57590961 0 0 0 0 56923503.382715225 53458888.762778044 0 53458888.762778044 -157599901.92803001 0 0 0 0 71759373.055915833 89798358.285037994 0 89798358.285037994 -126085087.12006187 0 0 0 0 42407959.59079361 53474911.828678608 0 53474911.828678608 -141538523.90698624 0 0 0 0 25168006.163515091 43210639.119236469 0 43210639.119236469 -149434230.85953903 0 0 0 0 16378801.103862762 14416012.136799812 0 14416012.136799812 -215892562.17668343 0 0 0 0 16896849.14465332 70915721.026597023 0 70915721.026597023 -166444829.67731094 0 0 0 0 31597421.90032196 45561104.896184921 0 45561104.896184921 -144183696.88239002 0 0 0 0 18855332.64806366 83307645.449579716 0 83307645.449579716 -98168776.150411606 0 0 0 0 -3818006.0102577209 29959125.58280468 0 29959125.58280468 -82344599.892028809 0 0 0 0 5358725.8953170776 62778482.914001465 0 62778482.914001465 -66181624.722126007 0 0 0 0 12673184.453104019 39160423.698270798 0 39160423.698270798 -7164103.1407623291 0 0 0 0 86534673.595859528 55987332.986846924 0 55987332.986846924 -87262810.724827766 0 0 0 0 60702361.385707855 95002915.694936752 0 95002915.694936752 -46075142.399668694 0 0 0 0 84309646.135402679 68464779.839571476 0 68464779.839571476 -95729367.982300758 0 0 0 0 104667761.71798706 125138154.84849072 0 125138154.84849072 -80167185.419311523 0 0 0 0 103250367.71728134 107443478.73951912 0 107443478.73951912 15986007.500299454 0 0 0 0 161491648.66720009 81135840.060561657 0 81135840.060561657 -45271043.465791702 0 0 0 0 172845065.49491501 91336704.335438728 0 91336704.335438728 19546554.389872551 0 0 0 0 74502914.779860497 40905803.471226454 0 40905803.471226454 -7946502.113111496 0 0 0 0 62157815.468959808 49628123.49244833 0 49628123.49244833 44179191.035749435 0 0 0 0 49517191.377187729 48094732.420964241 0 48094732.420964241 182405899.4099226 0 0 0 0 220956733.2108078 74234889.024365902 0 74234889.024365902 104876518.39149952 0 0 0 0 58740380.348058701 38244271.635174751 0 38244271.635174751 71470658.997959137 0 0 0 0 190069637.22691917 124301596.51613665 0 124301596.51613665 506087007.69028568 0 0 0 0 368101039.65179253 65555686.442354202 0 65555686.442354202 90250626.204073906 0 0 0 0 217303906.56719232 137493412.45838392 0 137493412.45838392 56160093.215787888 0 0 0 0 198997803.60078812 4047070.0182533264 0 4047070.0182533264 59166560.703376293 0 0 0 0 -56970252.816207409 -4317333.0783246756 0 -4317333.0783246756 80619702.602790833 0 0 0 0 -39244712.648469925 13995941.416159153 0 13995941.416159153 23171974.413627625 0 0 0 0 -14279603.555510521 7080314.0227589607 0 7080314.0227589607 87352855.994947433 0 0 0 0 -27111322.667415619 38888334.819842815 0 38888334.819842815 20731269.30673258 0 0 0 0 -28366078.730854988 9420455.8936059475 0 9420455.8936059475 88926954.787362099 0 0 0 0 -34585562.650074005 16194827.969909191 0 16194827.969909191 82228240.865444988 0 0 0 0 -16918540.11149025 470651.8937664032 0 470651.8937664032 17899010.226172447 0 0 0 0 -17214162.183320045 -4102393.9581129551 0 -4102393.9581129551 57861313.561999321 0 0 0 0 -4330370.4022932053 34665966.359808922 0 34665966.359808922 82037755.621153355 0 0 0 0 -280351.03424228728 174695.849053788 0 174695.849053788 334866.818340661 0 0 0 0 102696756.59430313 45367268.158129692 0 45367268.158129692 83851783.846366405 0 0 0 0 252421050.16193008 188036647.76330471 0 188036647.76330471 83026538.959680259 0 0 0 0 -9902047.0630340576 -17586221.170781136 0 -17586221.170781136 23298000.573856711 0 0 0 0 -553464.01916832663 507735.81400658516 0 507735.81400658516 559384.11348058935 0 0 0 0 323142650.60520172 149357217.402354 0 149357217.402354 44866869.630389214 0 0 0 0 123960.76913757983 244096.50937652681 0 244096.50937652681 533770.53920828039 0 0 0 0 562773645.25897789 319139664.20015192 0 319139664.20015192 158620400.37500191 0 0 0 0 182055102.09396935 210767746.63211823 0 210767746.63211823 230999861.50446343 0 0 0 0 138481966.83454323 110013585.65825891 0 110013585.65825891 71921042.22454071 0 0 0 0 171100996.05141187 121271987.12738368 0 121271987.12738368 82005487.390686512 0 0 0 0 168608335.25987816 111744708.46685791 0 111744708.46685791 72528741.396824598 0 0 0 0 332232.47539738956 662467.3780721603 0 662467.3780721603 1460827.3782624295 0 0 0 0 52632796.058157921 -65490626.762112617 0 -65490626.762112617 -163289905.78529549 0 0 0 0 513422.7667748034 487999.77011388098 0 487999.77011388098 892391.57354674116 0 0 0 0 918889.94305419922 2473674.8264355659 0 2473674.8264355659 2275627.8776555061 0 0 0 0 31350223.522521973 37856030.423985004 0 37856030.423985004 -60228316.954906464 0 0 0 0 -1641806.9160585403 22255996.147547245 0 22255996.147547245 -38842242.733075142 0 0 0 0 -16013493.69524765 18092113.084599018 0 18092113.084599018 132357493.2013073 0 0 0 0 38170420.575222015 28663140.963290691 0 28663140.963290691 9446242.3757100105 0 0 0 0 -26206261.695698261 -76434878.737115681 0 -76434878.737115681 202499821.92775631 0 0 0 0 -13840317.722455978 161885263.62105036 0 161885263.62105036 334998178.20429015 0 0 0 0 243477409.4405241 256946751.28841639 0 256946751.28841639 129378804.13255405 0 0 0 0 17362174.632076263 111055348.12119865 0 111055348.12119865 72008648.070106983 0 0 0 0 -28541325.321508408 109879725.57814455 0 109879725.57814455 110542071.39430809 0 0 0 0 53997608.617172241 159142046.55087185 0 159142046.55087185 36533744.527056694 0 0 0 0 28102175.207733154 172105406.36150885 0 172105406.36150885 64736400.732603073 0 0 0 0 29209303.972114503 161494185.39325437 0 161494185.39325437 20792343.143904686 0 0 0 0 29078298.494663656 157543488.53821689 0 157543488.53821689 37712036.743373871 0 0 0 0 72701485.566001892 201015161.01650429 0 201015161.01650429 111788480.22516537 0 0 0 0 136343858.15237808 169338722.85787296 0 169338722.85787296 -11361876.4152565 0 0 0 0 192251945.49363327 157907613.08609104 0 157907613.08609104 -9071040.4663085938 0 0 0 0 -43386058.923488617 135134581.5114733 0 135134581.5114733 31273327.312196732 0 0 0 0 -48144509.043020725 112440841.26798707 0 112440841.26798707 22977901.409089088 0 0 0 0 -20021823.674577713 145600261.198277 0 145600261.198277 32670828.391298294 0 0 0 0 -16818996.476898193 139707233.86565685 0 139707233.86565685 42448180.685663223 0 0 0 0 -39309400.408256531 101952479.3715663 0 101952479.3715663 36372367.298457593 0 0 0 0 -27097913.465340614 120998412.24163342 0 120998412.24163342 52741612.756055832 0 0 0 0 -54388646.60658741 127399063.37357187 0 127399063.37357187 4283720.8019151688 0 0 0 0 -221409057.25605583 131882572.84707928 0 131882572.84707928 13476120.085772991 0 0 0 0 261690.28176079504 166842.74340173556 0 166842.74340173556 182579.23555182945 0 0 0 0 34548237.650483131 105367450.21556902 0 105367450.21556902 -163408337.6098299 0 0 0 0 51535687.876182556 59096472.281129837 0 59096472.281129837 -38190144.791719437 0 0 0 0 -14069441.227712631 59347512.129587173 0 59347512.129587173 -108905298.89186001 0 0 0 0 -611246856.65519524 50423266.356315136 0 50423266.356315136 -19705265.170085609 0 0 0 0 -271694333.1466732 300631869.93314743 0 300631869.93314743 -308230513.8185482 0 0 0 0 -162918199.37749529 14195060.140248775 0 14195060.140248775 -17474631.794906616 0 0 0 0 802985.62550464645 1196970.2335450724 0 1196970.2335450724 -8376859.7572290068 0 0 0 0 -200332032.51377678 4242440.6222317219 0 4242440.6222317219 4123840.9488697052 0 0 0 0 493012.86043458059 3133.2981111481786 0 3133.2981111481786 -3055235.3137466405 0 0 0 0 -377200863.14899826 -423793752.93378925 0 -423793752.93378925 -213807929.72194004 0 0 0 0 58996853.498054504 153969374.08500767 0 153969374.08500767 125906407.62043333 0 0 0 0 216727190.97257423 -50172042.812184334 0 -50172042.812184334 -71340811.996717453 0 0 0 0 -4330860.0749926418 6907569.39954447 0 6907569.39954447 -7754694.5156998727 0 0 0 0 202416195.61887717 167054637.22795582 0 167054637.22795582 13275880.860585213 0 0 0 0 -39735856.180942535 -27013590.335657597 0 -27013590.335657597 -16731135.746293068 0 0 0 0 382197.80546689592 3722853.1823737789 0 3722853.1823737789 -12822668.236116942 0 0 0 0 20199081.587532043 -32724727.381903648 0 -32724727.381903648 -23937984.42820406 0 0 0 0 51998413.578681946 81665837.397771835 0 81665837.397771835 -33068228.018743515 0 0 0 0 91864058.78578949 44080644.493826866 0 44080644.493826866 -36764470.543403625 0 0 0 0 -2611742.130317688 27435691.253404617 0 27435691.253404617 -34464693.214332581 0 0 0 0 -77397628.246711731 5668105.9596834183 0 5668105.9596834183 -6040030.367436409 0 0 0 0 -55289658.609482765 37683178.707322359 0 37683178.707322359 3387358.5524635315 0 0 0 0 -54619490.736461639 107452681.73745632 0 107452681.73745632 36964847.899880052 0 0 0 0 -94899061.352573395 59077886.147633076 0 59077886.147633076 12899331.450726509 0 0 0 0 -143692585.68140221 89373867.959967136 0 89373867.959967136 35008535.64387989 0 0 0 0 -104572354.2166996 15307494.798170567 0 15307494.798170567 -6053269.4489529133 0 0 0 0 98683470.589729309 130371368.13673592 0 130371368.13673592 67653882.069425583 0 0 0 0 24896856.139251709 53941667.671991348 0 53941667.671991348 23358085.0002985 0 0 0 0 -142093651.62158203 128219437.76611519 0 128219437.76611519 -5512626.3929100037 0 0 0 0 55620.531341552734 121600402.06204605 0 121600402.06204605 -113824881.53493118 0 0 0 0 -61800553.618881226 157229572.02626228 0 157229572.02626228 -40517208.22838974 0 0 0 0 -44382965.52009201 115972021.99403715 0 115972021.99403715 -18624023.247112274 0 0 0 0 75489126.813293457 165513740.75748825 0 165513740.75748825 -31690429.29359436 0 0 0 0 -11070372.995803833 136288994.58180046 0 136288994.58180046 -33243336.748313904 0 0 0 0 -89143571.496894836 111590812.41114998 0 111590812.41114998 -8516270.1468089819 0 0 0 0 -134514227.85822678 173312522.36066055 0 173312522.36066055 -7710213.8553924561 0 0 0 0 -78750335.603996277 110493639.27115631 0 110493639.27115631 -8608538.6315002441 0 0 0 0 -134033921.55705261 85819012.710594177 0 85819012.710594177 30289693.706169844 0 0 0 0 -201459864.23681641 93746697.458694458 0 93746697.458694458 29632468.314931989 0 0 0 0 -261997517.76969147 133172409.73562622 0 133172409.73562622 11398151.213289261 0 0 0 0 -187832941.22616959 205671804.72907591 0 205671804.72907591 -114494983.55148697 0 0 0 0 -343564199.53996277 71675890.883743286 0 71675890.883743286 -19524224.51577282 0 0 0 0 -264747368.25983977 -86276907.68484275 0 -86276907.68484275 -8687547.8656024933 0 0 0 0 -485679199.06716919 -36289399.368058205 0 -36289399.368058205 -18532018.213530302 0 0 0 0 -63277126.9179039 -13420094.139464378 0 -13420094.139464378 -2221162.8894777298 0 0 0 0 -60840957.499279022 7417150.2801380157 0 7417150.2801380157 3619475.4941959381 0 0 0 0 77913775.640609741 81087741.510210037 0 81087741.510210037 -35792016.666416168 0 0 0 0 97315345.077217102 97550084.826525211 0 97550084.826525211 -46058285.939687729 0 0 0 0 66809342.179262161 106031265.83371687 0 106031265.83371687 -42224887.755710602 0 0 0 0 22692159.04718399 70654523.892165184 0 70654523.892165184 29272821.286434174 0 0 0 0 -55396100.542175293 122018331.41611481 0 122018331.41611481 -4402976.1167955399 0 0 0 0 -69393734.032081604 -22449986.427383423 0 -22449986.427383423 74282405.929357529 0 0 0 0 -53948873.534203768 157320634.04289743 0 157320634.04289743 375265318.98564529 0 0 0 0 -3452656.5222184104 3064272.0070727542 0 3064272.0070727542 3101157.0993920807 0 0 0 0 544241210.35951233 849167863.72463226 0 849167863.72463226 576073237.07617378 0 0 0 0 -976184.43011851609 2300018.0223218706 0 2300018.0223218706 -3225853.3844006122 0 0 0 0 195356556.10971355 -114503341.84856832 0 -114503341.84856832 -576924651.1646862 0 0 0 0 1094824861.506424 868501180.98277092 0 868501180.98277092 -574062614.89971924 0 0 0 0 -1781817612.2941589 264821360.83594513 0 264821360.83594513 1088522683.2594337 0 0 0 0 -489959753.64541626 224108918.55482769 0 224108918.55482769 -176958744.5710144 0 0 0 0 -261321401.70765686 143449016.62003136 0 143449016.62003136 -832631535.79717255 0 0 0 0 -261304343.49914077 147872561.26490706 0 147872561.26490706 -176090731.24769592 0 0 0 0 -98294767.367599487 86065486.481594086 0 86065486.481594086 -176782597.63020706 0 0 0 0 -211988982.42020416 -335409445.71009111 0 -335409445.71009111 -566343559.44510651 0 0 0 0 -872319047.10536194 -959941987.74161339 0 -959941987.74161339 -1090847620.242763 0 0 0 0 -427171023.37413025 -152606592.22545052 0 -152606592.22545052 369932897.25669479 0 0 0 0 -2596545.7550635263 4530653.8309978787 0 4530653.8309978787 -650554.64674286591 0 0 0 0 -49481969.376266479 -75287275.762512207 0 -75287275.762512207 310892162.49958992 0 0 0 0 -249833688.22431946 -155633339.88011551 0 -155633339.88011551 348774263.77896261 0 0 0 0 30308136.003494263 39151101.784528732 0 39151101.784528732 188744668.76232529 0 0 0 0 61525295.914604187 -105696979.19894218 0 -105696979.19894218 -41956926.229763031 0 0 0 0 128320829.40446854 -55776811.132277012 0 -55776811.132277012 -53622322.049983978 0 0 0 0 -151280866.18488312 -142628911.23589611 0 -142628911.23589611 45208232.185239792 0 0 0 0 -93672274.163547516 107626137.42542481 0 107626137.42542481 -84078373.534942627 0 0 0 0 95913382.004104614 -54812368.215545654 0 -54812368.215545654 -285618200.51371956 0 0 0 0 156425595.90449905 -67626757.616660118 0 -67626757.616660118 -58266219.414787292 0 0 0 0 90721877.079925537 -58516198.17509079 0 -58516198.17509079 -34695478.307449341 0 0 0 0 -9853658.038860321 8781233.8069862723 0 8781233.8069862723 -1986059.7787294388 0 0 0 0 -9773655.5596961975 8147125.5142322183 0 8147125.5142322183 -3672593.6446810961 0 0 0 0 -42945291.94859314 -11449734.851073265 0 -11449734.851073265 25163065.831396103 0 0 0 0 -30054478.16792202 44504506.772355556 0 44504506.772355556 -3277045.9008369446 0 0 0 0 -12883489.357524872 36332986.728901386 0 36332986.728901386 -44039055.406288147 0 0 0 0 -11829443.970836639 18878933.761750698 0 18878933.761750698 -12024668.640422821 0 0 0 0 -22693757.127593994 12245484.601342201 0 12245484.601342201 -2992745.0765609816 0 0 0 0 -10882998.72297024 5411671.2689325679 0 5411671.2689325679 2297543.8564472552 0 0 0 0 -8272236.5808410645 9799678.1546490192 0 9799678.1546490192 -3295326.0409196615 0 0 0 0 10179496.077533722 61323032.140670776 0 61323032.140670776 -49412455.164553761 0 0 0 0 111416168.58328247 -28807223.803442001 0 -28807223.803442001 -35081250.867671967 0 0 0 0 -1075237.0176443812 942591.19658047799 0 942591.19658047799 77361.976753853261 0 0 0 0 -4321433.3146332027 13312540.95264723 0 13312540.95264723 -12643641.680844486 0 0 0 0 4850851.5056648254 44558136.96865654 0 44558136.96865654 -16090210.548809052 0 0 0 0 -17349700.430106785 10572475.127924845 0 10572475.127924845 3575535.4101380878 0 0 0 0 -49092768.699648857 11782191.764243364 0 11782191.764243364 25030178.354190826 0 0 0 0 -29446768.0965271 9426374.1851911545 0 9426374.1851911545 444733.38993835449 0 0 0 0 -2920624.7441673279 5832019.1282701492 0 5832019.1282701492 -41702948.626159668 0 0 0 0 -36465350.001289368 52089838.163128853 0 52089838.163128853 -37939720.670226336 0 0 0 0 -21875905.888031006 28500704.937912941 0 28500704.937912941 -396036.24034881592 0 0 0 0 -54319438.8256073 66689602.510222435 0 66689602.510222435 14235425.528871536 0 0 0 0 -56415155.975801706 23512843.401404738 0 23512843.401404738 44505656.501913071 0 0 0 0 -55321987.643967628 17182338.310492456 0 17182338.310492456 -4034949.5325393677 0 0 0 0 -1147066.8386683492 332285.94651175244 0 332285.94651175244 964533.2833369635 0 0 0 0 -85527585.619752884 -61346469.479568005 0 -61346469.479568005 135844655.12282658 0 0 0 0 -75752226.373207092 -53137149.628204346 0 -53137149.628204346 56386719.470733643 0 0 0 0 -128981254.63695526 -33482205.933462143 0 -33482205.933462143 122750369.96925715 0 0 0 0 -146082237.34703255 -47814195.644682884 0 -47814195.644682884 183687145.05918598 0 0 0 0 61771.84001654014 150743.88059374038 0 150743.88059374038 96964.051854337566 0 0 0 0 -42235794.963881493 187484066.19313121 0 187484066.19313121 290804521.99167061 0 0 0 0 -116101711.32360458 8646520.1830358505 0 8646520.1830358505 233906070.98632622 0 0 0 0 152347150.11472321 228385872.2589798 0 228385872.2589798 161054093.51519585 0 0 0 0 -6119824.3429002762 43693510.55175972 0 43693510.55175972 1391433.206943512 0 0 0 0 -59134724.77507019 67892908.598752975 0 67892908.598752975 123694701.0047317 0 0 0 0 40721627.342479706 -32190776.962526321 0 -32190776.962526321 -19080702.5459795 0 0 0 0 -18460549.784843445 15473098.723626137 0 15473098.723626137 -5013315.6239414215 0 0 0 0 3521487.6935240608 532491.35347310454 0 532491.35347310454 -2835030.1404555291 0 0 0 0 -53388032.244011968 13884436.890842058 0 13884436.890842058 7121909.6380252838 0 0 0 0 -7939046.1928520203 8335319.6593322158 0 8335319.6593322158 -2026369.3523693085 0 0 0 0 -13777466.473998964 11068550.490167189 0 11068550.490167189 -3302494.8922123872 0 0 0 0 -5196177.9467697144 8888951.6026223302 0 8888951.6026223302 -3101766.7054855227 0 0 0 0 -7547199.4696324505 6748040.7371628359 0 6748040.7371628359 -2921962.2735608355 0 0 0 0 -48504248.45702219 3011852.6657009125 0 3011852.6657009125 265355999.72200966 0 0 0 0 26866805.171653748 33249668.535402298 0 33249668.535402298 16299247.87745285 0 0 0 0 -2472168.6630897373 1621577.4236517167 0 1621577.4236517167 970268.72065965272 0 0 0 0 64411968.091115952 84916347.745253563 0 84916347.745253563 157703622.60020447 0 0 0 0 -9231307.3992004395 8249686.6471893787 0 8249686.6471893787 -1955080.2019698322 0 0 0 0 -12046063.581370018 5404470.9461093973 0 5404470.9461093973 1642924.3750916894 0 0 0 0 -474969.34663863108 849769.34537986759 0 849769.34537986759 207845.57572129741 0 0 0 0 -9031160.2057800293 9077580.6588358283 0 9077580.6588358283 -1830918.3014872074 0 0 0 0 42442737.499477386 114724399.41466999 0 114724399.41466999 21494093.826861858 0 0 0 0 59094717.585986614 61994097.761000276 0 61994097.761000276 -5211359.2030410767 0 0 0 0 132885683.48849869 -15566523.259635925 0 -15566523.259635925 53841313.541752815 0 0 0 0 18259253.284759521 119686567.68378067 0 119686567.68378067 20564482.052547932 0 0 0 0 -3652882.9614143372 130954494.97504807 0 130954494.97504807 93011625.965970993 0 0 0 0 -21414822.493545532 99540374.141403198 0 99540374.141403198 37559091.368666887 0 0 0 0 -1199825.3895874023 118048837.54075623 0 118048837.54075623 29843664.357031345 0 0 0 0 -830339.7825255096 88032812.252836704 0 88032812.252836704 7820898.0584697723 0 0 0 0 -16907643.299064636 79718959.26867485 0 79718959.26867485 12523769.036610097 0 0 0 0 -23656520.040576935 106637856.78929424 0 106637856.78929424 25052650.527052879 0 0 0 0 -44650917.928350449 106132591.85722494 0 106132591.85722494 25814791.216367722 0 0 0 0 -5641004.0986709595 85528589.308008671 0 85528589.308008671 10433814.299907684 0 0 0 0 -9577070.6065216064 22834011.681264877 0 22834011.681264877 -2232413.542532444 0 0 0 0 -14559924.652097702 31746604.40660435 0 31746604.40660435 -17611377.392490387 0 0 0 0 -1512681.9572958769 8671661.3435727693 0 8671661.3435727693 -15222068.744668024 0 0 0 0 -24057865.242852211 8630198.8336341381 0 8630198.8336341381 -9485614.8479261398 0 0 0 0 -11832162.292255025 11308357.339606285 0 11308357.339606285 1252571.6359324981 0 0 0 0 -5941605.7312660217 14480170.140527725 0 14480170.140527725 -23878339.155589104 0 0 0 0 3843450.1181983948 23790616.373462677 0 23790616.373462677 -32419738.354043961 0 0 0 0 -20972139.626784325 -9607569.0439429283 0 -9607569.0439429283 24026499.661688805 0 0 0 0 -5290997.8068461772 2565100.78414628 0 2565100.78414628 4150161.61111518 0 0 0 0 -32362294.21424675 15960758.54627037 0 15960758.54627037 -908165.76196098328 0 0 0 0 -1328932.3611271083 2040058.890472861 0 2040058.890472861 -1169943.4730067712 0 0 0 0 -2565323.6854438782 56082284.430851936 0 56082284.430851936 57962333.596500397 0 0 0 0 87971697.709526062 64761534.441440582 0 64761534.441440582 -7676682.0762891769 0 0 0 0 17154229.272545815 17928304.734261513 0 17928304.734261513 -22853435.105855942 0 0 0 0 88588926.574832916 42847805.541881561 0 42847805.541881561 41138232.842129707 0 0 0 0 75476720.960571289 24070762.720431328 0 24070762.720431328 27295122.487013817 0 0 0 0 133149962.25625992 124621394.4140377 0 124621394.4140377 116492888.59167194 0 0 0 0 -59012511.324864388 -16986122.719417095 0 -16986122.719417095 75108990.51563549 0 0 0 0 56332822.844098091 120626112.15701079 0 120626112.15701079 105067356.08517456 0 0 0 0 57146495.19215107 128636905.77479768 0 128636905.77479768 133400586.70814037 0 0 0 0 123977951.26696396 134104536.22319341 0 134104536.22319341 139358525.65196991 0 0 0 0 107638916.54829788 119780562.20585823 0 119780562.20585823 93231964.641274452 0 0 0 0 110342850.67494965 8879187.744143486 0 8879187.744143486 -29422522.820123672 0 0 0 0 28731.774517785758 184244.05000049248 0 184244.05000049248 -99699.126263060374 0 0 0 0 144263983.77586365 149086737.33596039 0 149086737.33596039 139789124.02449989 0 0 0 0 -137558.81060878956 568786.57673559431 0 568786.57673559431 271954.38925602566 0 0 0 0 -37931739.38422513 -16386153.139169127 0 -16386153.139169127 68599790.643205643 0 0 0 0 61211663.358865738 187246321.55289268 0 187246321.55289268 110672436.69734001 0 0 0 0 -37015011.326770782 78937151.086053848 0 78937151.086053848 215758348.08277607 0 0 0 0 92747352.334953308 95624605.899573743 0 95624605.899573743 186105633.55578041 0 0 0 0 -19877750.33291626 55609377.409385204 0 55609377.409385204 15388607.894561768 0 0 0 0 -42648053.035274506 51165094.543848038 0 51165094.543848038 81454663.13268292 0 0 0 0 -16817130.642782211 30631970.411417484 0 30631970.411417484 12514421.480845094 0 0 0 0 5774014.9788951874 22901040.617852926 0 22901040.617852926 -36236656.437369823 0 0 0 0 -459701.8835669551 1129360.3404671266 0 1129360.3404671266 98010.069658870809 0 0 0 0 -253962.39124679565 581264.78997325897 0 581264.78997325897 -500387.0203704834 0 0 0 0 325622.94048309326 1271783.4962329865 0 1271783.4962329865 -1881341.5666446686 0 0 0 0 268616.591290446 1325532.1148859356 0 1325532.1148859356 -1025011.5293034352 0 0 0 0 -152250.60335731506 1322885.9004793167 0 1322885.9004793167 510882.86757183075 0 0 0 0 -9675570.0354118347 6688456.8800263405 0 6688456.8800263405 5238728.4213638306 0 0 0 0 640359.1017665863 1149424.7416372299 0 1149424.7416372299 -667805.43185919523 0 0 0 0 -17236.508470278583 1425983.2395922299 0 1425983.2395922299 -576419.01187366806 0 0 0 0 228935.51503840607 1187980.7470851392 0 1187980.7470851392 -1165175.9283338124 0 0 0 0 -9071451.0718975663 5959988.0412800908 0 5959988.0412800908 27324326.50019455 0 0 0 0 -144618.34528923035 1367285.2043294907 0 1367285.2043294907 -651186.28353309631 0 0 0 0 38656588.262821198 50710071.552186966 0 50710071.552186966 37746015.963338852 0 0 0 0 47946429.441738129 28812061.368663788 0 28812061.368663788 55170344.789802551 0 0 0 0 54279641.91015625 -2411849.5805678368 0 -2411849.5805678368 -586042.31763267517 0 0 0 0 51761150.153238297 4816087.6536388397 0 4816087.6536388397 -13143848.239632607 0 0 0 0 40846262.685439885 90131828.02354233 0 90131828.02354233 181803165.78038216 0 0 0 0 22474436.938158035 -28495261.687904835 0 -28495261.687904835 134644407.27028275 0 0 0 0 59731632.70798111 15025288.66724205 0 15025288.66724205 11738308.644445419 0 0 0 0 51467545.566633224 -11323744.636046886 0 -11323744.636046886 -48520060.440490723 0 0 0 0 45207374.319681168 -12081893.328569412 0 -12081893.328569412 -11842928.546199799 0 0 0 0 63440689.902137756 16536332.748591423 0 16536332.748591423 -37960404.589220047 0 0 0 0 51297346.691220284 5458659.0750985146 0 5458659.0750985146 -39901291.235717773 0 0 0 0 62183098.054042816 17573198.009552002 0 17573198.009552002 -19225577.352375031 0 0 0 0 42220544.646312714 31379085.607011795 0 31379085.607011795 -67514928.364974976 0 0 0 0 -3961043.5955619812 27643423.047306061 0 27643423.047306061 -21943669.614463806 0 0 0 0 14704724.476791382 -13546614.701838493 0 -13546614.701838493 -329415.26092481613 0 0 0 0 47050961.129787445 10281444.535293579 0 10281444.535293579 -10383081.241073608 0 0 0 0 28878284.853347778 7191743.7302398682 0 7191743.7302398682 -8301075.6514084265 0 0 0 0 45146200.325260162 12668023.425967693 0 12668023.425967693 -8274339.6545333862 0 0 0 0 -9437365.4152984619 14034283.054359436 0 14034283.054359436 13456496.594871521 0 0 0 0 -251862.60334919393 634932.70906322729 0 634932.70906322729 -240968.05240188818 0 0 0 0 19509525.959335327 3191333.2564582825 0 3191333.2564582825 -4342994.7078399658 0 0 0 0 56525612.555511475 74315012.16711235 0 74315012.16711235 39506081.040287018 0 0 0 0 35998734.755054474 38906927.460421562 0 38906927.460421562 13300872.455463409 0 0 0 0 27057665.723930359 47459599.710588932 0 47459599.710588932 80333885.58001709 0 0 0 0 60658243.034030914 28832212.824730873 0 28832212.824730873 -30875686.24016571 0 0 0 0 16514.532815009821 38620.314594125375 0 38620.314594125375 -30609.945491670631 0 0 0 0 26572026.107658386 -5630212.0727243423 0 -5630212.0727243423 -54440691.735320091 0 0 0 0 99898.393306547776 10444.795941236895 0 10444.795941236895 -136231.61720835697 0 0 0 0 51500325.353910446 15877416.313569069 0 15877416.313569069 -42702048.122125626 0 0 0 0 82602517.984191895 46459070.01947403 0 46459070.01947403 -31062274.899323463 0 0 0 0 81001954.9021492 64331873.983738899 0 64331873.983738899 6221890.0260639191 0 0 0 0 -58421188.854536057 39050655.706362724 0 39050655.706362724 12234237.728830338 0 0 0 0 266787.86557032727 305830.77524503227 0 305830.77524503227 -170807.49313575216 0 0 0 0 73417726.953302383 16791916.231143951 0 16791916.231143951 -52798197.182025671 0 0 0 0 49223669.458008766 41658257.244411707 0 41658257.244411707 -42581295.358640671 0 0 0 0 385275.61152938753 459252.4436246017 0 459252.4436246017 -625965.70049925335 0 0 0 0 296009.24189758301 300018.04399299622 0 300018.04399299622 -149860.84077453613 0 0 0 0 -36297683.087917328 55599182.603911877 0 55599182.603911877 -27717855.503705978 0 0 0 0 17412588.248371124 -40583774.01150322 0 -40583774.01150322 -35713765.508901596 0 0 0 0 9484065.241765976 -32706445.215342522 0 -32706445.215342522 -34900250.345830917 0 0 0 0 -56311238.457010269 -14596251.85003376 0 -14596251.85003376 -545459.45304107666 0 0 0 0 291163.90524080489 517112.72249824833 0 517112.72249824833 -994823.03345791623 0 0 0 0 721918.71953582764 494839.01279735565 0 494839.01279735565 -325649.00329208374 0 0 0 0 -169026297.21705627 110816455.40666056 0 110816455.40666056 209659465.07354259 0 0 0 0 -39276934.095188141 -98253657.924222708 0 -98253657.924222708 -239315768.48773193 0 0 0 0 93514176.794467926 302381795.15070534 0 302381795.15070534 132525887.45619774 0 0 0 0 -3305056.9423520789 -1819406.2300221524 0 -1819406.2300221524 3841315.2741715563 0 0 0 0 56089772.666526794 148414626.70476484 0 148414626.70476484 92538344.322494507 0 0 0 0 48106756.332523346 97846463.931524277 0 97846463.931524277 454521173.66547346 0 0 0 0 11869339.691898346 175429804.11050034 0 175429804.11050034 78971622.170412064 0 0 0 0 9577915.5129394531 187350429.45482445 0 187350429.45482445 273756464.19702351 0 0 0 0 162630170.72938728 175683610.1315403 0 175683610.1315403 19846671.147781372 0 0 0 0 18191089.450343788 11168912.561432838 0 11168912.561432838 -69983241.12178421 0 0 0 0 -47087532.395189285 206391951.67980814 0 206391951.67980814 -291144774.48082733 0 0 0 0 -742409.26225514151 475977.93706296384 0 475977.93706296384 177136.31522507442 0 0 0 0 -66673966.480232239 10640850.107818604 0 10640850.107818604 126325524.09477735 0 0 0 0 138653507.3187542 9219072.7460021973 0 9219072.7460021973 -564833919.08313751 0 0 0 0 -65657234.015851974 -163591308.52997661 0 -163591308.52997661 -206178771.09067154 0 0 0 0 258944.81852588058 412571.22339158691 0 412571.22339158691 10.299252250231802 0 0 0 0 -219316481.23186302 65772192.406580925 0 65772192.406580925 1835411.7203769684 0 0 0 0 -16691143.800311089 -43994207.067511082 0 -43994207.067511082 33553867.601980209 0 0 0 0 -128043787.3366437 -83353183.58621192 0 -83353183.58621192 127233891.05059052 0 0 0 0 33546269.159309387 165074311.7339716 0 165074311.7339716 -19883524.072474957 0 0 0 0 92564722.813287735 -31632732.766479492 0 -31632732.766479492 -2288559.5981407166 0 0 0 0 -184661969.81513023 150965895.71798611 0 150965895.71798611 30372573.82256794 0 0 0 0 -68260633.773284912 -18080503.530472279 0 -18080503.530472279 -51186352.365919113 0 0 0 0 101913.89123535156 45213676.872096062 0 45213676.872096062 -10500054.244205713 0 0 0 0 -2090205.2856330872 52420119.046401978 0 52420119.046401978 -113507770.01016045 0 0 0 0 -67685851.461406708 100397091.17316151 0 100397091.17316151 -32746883.746391296 0 0 0 0 -35210725.33750248 106273043.5265317 0 106273043.5265317 -9413019.8586540222 0 0 0 0 430267.48210939579 541007.29890007433 0 541007.29890007433 -235105.77982342523 0 0 0 0 -57625362.043241501 53274695.824160576 0 53274695.824160576 -44074758.595480919 0 0 0 0 -126072151.30623245 54203579.6964674 0 54203579.6964674 -27107492.05410099 0 0 0 0 -56034659.371145248 61193628.221603394 0 61193628.221603394 -15578527.987602234 0 0 0 0 -105757394.19579887 155639084.92437077 0 155639084.92437077 -10289274.749178886 0 0 0 0 -146002793.93565416 86844373.201289892 0 86844373.201289892 58936324.8931427 0 0 0 0 -20332747.015583038 15532371.289054871 0 15532371.289054871 41724227.686439514 0 0 0 0 -23791899.729124069 960802.86674165726 0 960802.86674165726 61495545.713933945 0 0 0 0 -70524971.666679382 30673807.184725761 0 30673807.184725761 12120204.532013893 0 0 0 0 173878.19872171618 -156782.04449125286 0 -156782.04449125286 -251303.38556365483 0 0 0 0 10277407.0865345 449984.18486166 0 449984.18486166 54886308.957928658 0 0 0 0 -998212.94579124451 61361694.733629227 0 61361694.733629227 33261526.654340744 0 0 0 0 -69829272.279981613 -33948154.251822233 0 -33948154.251822233 -83147824.468456268 0 0 0 0 -60888947.195135117 67402110.07938385 0 67402110.07938385 78884092.101396561 0 0 0 0 -42746233.768159866 28270269.860592365 0 28270269.860592365 -2654551.5393943787 0 0 0 0 39297789.100625992 -35209109.998273849 0 -35209109.998273849 -127788810.0649662 0 0 0 0 348349.49339175597 -286815.95579517353 0 -286815.95579517353 -495369.04509547632 0 0 0 0 -32987069.108686447 12553776.596609116 0 12553776.596609116 -1009306.4447629452 0 0 0 0 -58642481.601103306 -54841362.025488555 0 -54841362.025488555 -806447.5809135437 0 0 0 0 -80243480.560081482 73333837.84163332 0 73333837.84163332 -56992194.85022831 0 0 0 0 -45001377.93215847 61220052.193293095 0 61220052.193293095 -55200606.888004303 0 0 0 0 1190276.1672382355 10585469.225733757 0 10585469.225733757 -102320356.06165838 0 0 0 0 60986718.716036797 18573087.951618433 0 18573087.951618433 -114429901.5743618 0 0 0 0 466820.03378782235 -218639.24823325872 0 -218639.24823325872 -500858.42912306543 0 0 0 0 83375777.077764273 58563041.23182416 0 58563041.23182416 -77085359.196704865 0 0 0 0 63736973.120660782 252163281.29571629 0 252163281.29571629 236056537.74282455 0 0 0 0 182032810.57292938 221505490.5852499 0 221505490.5852499 34780496.416242599 0 0 0 0 147358445.79011154 113151514.66716671 0 113151514.66716671 -99621859.797235489 0 0 0 0 221583254.47730064 206879220.99982738 0 206879220.99982738 -288665496.96615553 0 0 0 0 134091611.91692352 92097332.700238228 0 92097332.700238228 157496173.32998657 0 0 0 0 106994752.42168236 -31453131.386586189 0 -31453131.386586189 -127654475.8879137 0 0 0 0 -50334509.729111671 -139370287.96746731 0 -139370287.96746731 -186499403.16793728 0 0 0 0 -73170506.672830582 -223374250.90504456 0 -223374250.90504456 -123163221.62029934 0 0 0 0 7348075.1309013367 4605485.3465006351 0 4605485.3465006351 -270786213.44218826 0 0 0 0 -211239136.66364861 49556199.683554649 0 49556199.683554649 -101223577.97650981 0 0 0 0 -992556.91632866114 -211600.16339288931 0 -211600.16339288931 -819635.36231590528 0 0 0 0 -129901484.82311249 135750867.54164982 0 135750867.54164982 -37308370.915348053 0 0 0 0 -100445423.62966537 188647207.77391243 0 188647207.77391243 -110331001.50948906 0 0 0 0 -385409133.46846008 93122033.466049194 0 93122033.466049194 -10307407.230476379 0 0 0 0 43273.878507311689 95094.428257598542 0 95094.428257598542 -71033.93880091235 0 0 0 0 268534115.54243469 307587016.77573216 0 307587016.77573216 520859174.6742363 0 0 0 0 275509699.41001701 -7926878.5100221634 0 -7926878.5100221634 -188709261.80763245 0 0 0 0 187470550.79603386 59354234.044897556 0 59354234.044897556 -55250365.294149399 0 0 0 0 266870.7413747292 636925.68100003432 0 636925.68100003432 -96015.519028020091 0 0 0 0 1148910.8180397749 468416.53396093845 0 468416.53396093845 -375226.20693206787 0 0 0 0 256735.77370289748 260026.85463107657 0 260026.85463107657 -177764.47962276265 0 0 0 0 -186318248.81232774 -10741689.67944774 0 -10741689.67944774 196842796.72843552 0 0 0 0 46443679.126596451 63749697.486857414 0 63749697.486857414 -53456989.559158325 0 0 0 0 -69406408.565864563 39787772.142686844 0 39787772.142686844 -23666143.481472969 0 0 0 0 -129845875.90991974 94749599.73063755 0 94749599.73063755 -60969069.02463913 0 0 0 0 -53675958.11489296 107921084.41392517 0 107921084.41392517 -57019823.541917801 0 0 0 0 -148449906.73060799 104383512.71485591 0 104383512.71485591 -36731805.509622574 0 0 0 0 293465.89367290027 -88264.263865864836 0 -88264.263865864836 -261366.80163521133 0 0 0 0 6116671.4937591553 62692716.577799797 0 62692716.577799797 -130036105.17119169 0 0 0 0 32465879.654390335 29897698.051538944 0 29897698.051538944 -115187755.75761604 0 0 0 0 19778181.823745728 93742224.476662636 0 93742224.476662636 -87238407.062443733 0 0 0 0 -22466154.685330868 138592491.90792751 0 138592491.90792751 62448640.421215057 0 0 0 0 -3271536.4872493744 82804391.546432495 0 82804391.546432495 -5515319.986489296 0 0 0 0 27522150.630939484 143162524.13095665 0 143162524.13095665 -66951983.527957916 0 0 0 0 33334035.274423599 164474643.89830303 0 164474643.89830303 87658808.519886017 0 0 0 0 21003427.154163361 135233861.07882023 0 135233861.07882023 109758093.07184029 0 0 0 0 -29250934.054115295 125590394.75235558 0 125590394.75235558 203384956.85461807 0 0 0 0 -28527076.354345322 172017989.04993534 0 172017989.04993534 216665804.06795692 0 0 0 0 -67660041.679748535 90222153.996965408 0 90222153.996965408 120630258.69739342 0 0 0 0 113052886.91884232 297272033.22014809 0 297272033.22014809 208000745.38798904 0 0 0 0 -105431677.33903575 291758836.17643213 0 291758836.17643213 252432226.59032059 0 0 0 0 -321759399.74302387 145301492.6672613 0 145301492.6672613 -63638859.47700119 0 0 0 0 -100588061.95824051 28738559.180258751 0 28738559.180258751 -91356219.735357285 0 0 0 0 250714.63487686403 447270.57298121601 0 447270.57298121601 154333.22882212326 0 0 0 0 -351295872.1456337 170430009.97392941 0 170430009.97392941 195411048.47949028 0 0 0 0 374171371.68313789 331942995.6698494 0 331942995.6698494 186437876.63480949 0 0 0 0 455638415.59768009 228233443.61236525 0 228233443.61236525 79800462.166454315 0 0 0 0 141555582.04421616 105641228.68967628 0 105641228.68967628 153560935.44652367 0 0 0 0 -54345584.219158173 -21041021.733922958 0 -21041021.733922958 2482381.3615036011 0 0 0 0 -165241.92751888925 1149346.6322148489 0 1149346.6322148489 2754252.7958249617 0 0 0 0 151979692.53460878 111565368.90036806 0 111565368.90036806 110870464.00577164 0 0 0 0 16471051.643302917 6250700.3531961441 0 6250700.3531961441 -20684053.533620834 0 0 0 0 20695682.80424118 10081844.045298576 0 10081844.045298576 -26950132.279081821 0 0 0 0 9265483.5780944824 -3221210.2617607117 0 -3221210.2617607117 -20970058.051847458 0 0 0 0 17325347.439956665 1804554.5237808228 0 1804554.5237808228 -31708683.287158966 0 0 0 0 -51713723.372558594 149644654.70529938 0 149644654.70529938 51538718.792982817 0 0 0 0 603890.73504543304 -2369220.8030843735 0 -2369220.8030843735 -5863101.5735855103 0 0 0 0 793404492.39755249 349901929.49635506 0 349901929.49635506 -10681377.785097122 0 0 0 0 10228.907248375996 228772.99987065792 0 228772.99987065792 957300.92143446021 0 0 0 0 18913414.469360352 13849176.045934677 0 13849176.045934677 -19598534.166207552 0 0 0 0 -36365998.826803207 -4760261.2544374466 0 -4760261.2544374466 39134342.795250893 0 0 0 0 -79398925.602199078 134584920.95542169 0 134584920.95542169 -60276077.81051445 0 0 0 0 -58796320.169086456 47224140.093219757 0 47224140.093219757 25417647.739797592 0 0 0 0 -130121400.20183372 -19354081.330317497 0 -19354081.330317497 -30223120.274741173 0 0 0 0 9332957.5683879852 29517044.473042488 0 29517044.473042488 5326717.19053936 0 0 0 0 -46936616.374027252 -12652495.288445473 0 -12652495.288445473 -25989969.0802145 0 0 0 0 -32066172.682907104 37139498.698409081 0 37139498.698409081 -43460684.813020229 0 0 0 0 -70347038.601583481 136667882.086936 0 136667882.086936 -76847476.909978867 0 0 0 0 -27264358.102692604 16738813.717371941 0 16738813.717371941 -134066000.15592384 0 0 0 0 -41033335.073226929 141877976.99089766 0 141877976.99089766 -119541505.60831356 0 0 0 0 -63890968.363443971 -2894993.2547077537 0 -2894993.2547077537 1148674.6239700317 0 0 0 0 -80817947.493616104 120103226.07896614 0 120103226.07896614 -101501724.08835793 0 0 0 0 -27757608.388816833 92878025.762813568 0 92878025.762813568 -149771685.77377427 0 0 0 0 -13982713.497184753 -30918657.179246902 0 -30918657.179246902 7378302.2300319672 0 0 0 0 84302479.502025604 86748989.427942276 0 86748989.427942276 103289647.56888533 0 0 0 0 -444037.50690110959 423103.43805754371 0 423103.43805754371 188809.00437137461 0 0 0 0 -45941369.792589188 132684093.12433815 0 132684093.12433815 -132248920.80461311 0 0 0 0 164204732.78045273 136285093.91259098 0 136285093.91259098 50998368.340684891 0 0 0 0 -27560448.833230972 195563838.99104404 0 195563838.99104404 300189998.21286201 0 0 0 0 131128458.25333023 62733521.550024033 0 62733521.550024033 21882343.372119904 0 0 0 0 -246575.22506899014 417583.76021640562 0 417583.76021640562 571176.56383017823 0 0 0 0 2961426.0020618439 -44768743.820547104 0 -44768743.820547104 353683551.03169632 0 0 0 0 38557262.079975128 274502360.63362122 0 274502360.63362122 422416361.19913864 0 0 0 0 567238775.75222588 138808741.41177273 0 138808741.41177273 -782226.53296852112 0 0 0 0 1490018.2323532104 125658450.73812819 0 125658450.73812819 8272589.7067127228 0 0 0 0 14156237.326509476 285717552.18006706 0 285717552.18006706 209083881.75676918 0 0 0 0 102971724.13796806 116771891.72667503 0 116771891.72667503 11562024.162312031 0 0 0 0 180665648.62551689 195057360.28781033 0 195057360.28781033 88929171.407331467 0 0 0 0 95128621.767670631 58072732.310936928 0 58072732.310936928 11021068.608055115 0 0 0 0 64454920.252355576 57702988.317974091 0 57702988.317974091 85213093.337625504 0 0 0 0 -17706136.738485336 -13128470.960821152 0 -13128470.960821152 9135545.9525657892 0 0 0 0 54518369.771631241 22338277.543499947 0 22338277.543499947 51558130.939036846 0 0 0 0 121950205.08387375 86712074.433590889 0 86712074.433590889 40975842.287055969 0 0 0 0 103310263.53448486 119302057.78751302 0 119302057.78751302 128177986.94258499 0 0 0 0 201334190.19222641 22514363.523282051 0 22514363.523282051 208471705.21719027 0 0 0 0 154581356.76145482 196576063.90651667 0 196576063.90651667 251440298.24971008 0 0 0 0 51809876.746034622 71393835.757593155 0 71393835.757593155 121709421.37462473 0 0 0 0 133076573.76811981 126860136.1200757 0 126860136.1200757 98192823.682432175 0 0 0 0 178909795.26185894 110052084.01513386 0 110052084.01513386 31828240.677295685 0 0 0 0 136856191.56352043 60076108.525006294 0 60076108.525006294 75997099.89299202 0 0 0 0 83417020.271150589 96335463.931780815 0 96335463.931780815 57563415.500272751 0 0 0 0 98774930.408714294 129225475.06091881 0 129225475.06091881 62510797.442598343 0 0 0 0 28086645.191069603 39075460.201816559 0 39075460.201816559 35728083.873126984 0 0 0 0 -3426094.3524856567 80514942.846744537 0 80514942.846744537 -8097605.3684940338 0 0 0 0 176088619.78726578 94423115.748636246 0 94423115.748636246 29764043.586764097 0 0 0 0 138352832.0476284 68524753.507899284 0 68524753.507899284 49071256.160953522 0 0 0 0 271273181.64093685 25876875.535525322 0 25876875.535525322 62238135.721088409 0 0 0 0 -1740942.0528389513 3018389.6273461487 0 3018389.6273461487 -1567742.0340656345 0 0 0 0 32424298.126190186 76244451.485832214 0 76244451.485832214 151379302.34266663 0 0 0 0 4921738.7980422974 3171095.7349562645 0 3171095.7349562645 -89142187.070694923 0 0 0 0 191541192.15324783 136182440.60922718 0 136182440.60922718 59183090.875366211 0 0 0 0 -44464.068166468292 61277.311283515766 0 61277.311283515766 -157940.81845263112 0 0 0 0 3280367.1131467819 20549611.667938232 0 20549611.667938232 -56543065.147079468 0 0 0 0 -558372.50030595437 1412476.0881890524 0 1412476.0881890524 -576175.48794003669 0 0 0 0 -3557461.6424102783 10864631.11539793 0 10864631.11539793 -69507786.753858641 0 0 0 0 -212657.98373413086 1416041.0489416122 0 1416041.0489416122 -810635.81277799606 0 0 0 0 58118671.18475914 49471370.187953949 0 49471370.187953949 -12919657.597761154 0 0 0 0 44458289.837257385 -16748148.3565979 0 -16748148.3565979 -36585725.687915802 0 0 0 0 -629348.90956414305 1484094.5826173536 0 1484094.5826173536 -288208.59540023794 0 0 0 0 13363878.489746094 231582144.14305878 0 231582144.14305878 -418391799.8207283 0 0 0 0 -218698.41069041565 1010701.7533832779 0 1010701.7533832779 347589.18119065603 0 0 0 0 42587454.44875288 128340865.50277615 0 128340865.50277615 -206061987.6681633 0 0 0 0 21607821.72986412 140557675.5688448 0 140557675.5688448 -18885897.259483337 0 0 0 0 -157771329.82461166 40744524.149543762 0 40744524.149543762 436654960.42767763 0 0 0 0 -80270300.929950714 88524348.749546051 0 88524348.749546051 -98826304.491382867 0 0 0 0 29538244.825688362 15909670.121513367 0 15909670.121513367 -96625988.607063293 0 0 0 0 -651846.16424624156 -70536.801525486168 0 -70536.801525486168 457746.57560740225 0 0 0 0 -66396127.298187256 105984506.61811829 0 105984506.61811829 -79439499.913173676 0 0 0 0 19329853.854730606 193271465.18553925 0 193271465.18553925 -119825721.98113251 0 0 0 0 -54884827.057056904 33957514.692719936 0 33957514.692719936 -186442927.95547104 0 0 0 0 94443335.467472076 270322764.12003326 0 270322764.12003326 -632772072.32603168 0 0 0 0 14415120.465103149 147831947.43667221 0 147831947.43667221 -519569273.94348526 0 0 0 0 -120358287.03304291 430909861.54942513 0 430909861.54942513 -356686614.44786644 0 0 0 0 -79505917.28260994 170267853.05544662 0 170267853.05544662 -48192853.082675934 0 0 0 0 -109840921.70019531 193399853.05864143 0 193399853.05864143 -42633416.776800156 0 0 0 0 -28647090.492650986 73570493.61561203 0 73570493.61561203 470704401.10136509 0 0 0 0 -2860349.7969150702 2670734.7429514653 0 2670734.7429514653 -1110331.2777601639 0 0 0 0 -147447818.48037577 312097813.46099925 0 312097813.46099925 38938298.849571228 0 0 0 0 146543316.83768463 56249093.550929546 0 56249093.550929546 64663640.313102722 0 0 0 0 -80519246.426088333 46828931.005157471 0 46828931.005157471 191064671.70289135 0 0 0 0 -56733335.329982758 119090759.26476097 0 119090759.26476097 95897557.303600073 0 0 0 0 -130450728.60363007 114712338.89493275 0 114712338.89493275 95651620.932361603 0 0 0 0 -6113772.8405542374 127571766.34123564 0 127571766.34123564 49890230.520608902 0 0 0 0 -15936608.397453308 46787714.850200653 0 46787714.850200653 85045277.421074867 0 0 0 0 26754904.539903641 65650336.154332161 0 65650336.154332161 79229992.835783958 0 0 0 0 37749438.010678768 93659013.886181593 0 93659013.886181593 125958398.54018211 0 0 0 0 -29347102.893638611 11025636.20153141 0 11025636.20153141 181061174.07571507 0 0 0 0 -49769230.312785149 96028368.913658142 0 96028368.913658142 53885900.616041183 0 0 0 0 -31581939.084661484 19989009.506698608 0 19989009.506698608 86621090.0853405 0 0 0 0 -64859773.410841942 49129634.069635391 0 49129634.069635391 93928222.512273788 0 0 0 0 -143485619.72140503 243170480.80428457 0 243170480.80428457 -66769666.101324081 0 0 0 0 -46174870.171844482 49472418.05445385 0 49472418.05445385 -23609895.510274887 0 0 0 0 -85317725.27590847 163708468.86262321 0 163708468.86262321 -82097190.775426865 0 0 0 0 -59898257.563052416 137793691.88854313 0 137793691.88854313 -76111563.562103271 0 0 0 0 -16253131.8230896 46899118.821519852 0 46899118.821519852 -208795756.36620903 0 0 0 0 19086474.240897179 202998559.37929153 0 202998559.37929153 -61981267.953590393 0 0 0 0 -5082343.6730995178 58007373.458449364 0 58007373.458449364 10318076.691781998 0 0 0 0 -7493752.7623558044 91803977.412753105 0 91803977.412753105 27580334.026405334 0 0 0 0 50307963.481182098 33109342.650206566 0 33109342.650206566 85957688.609218597 0 0 0 0 852405.21805667877 1141490.7765321732 0 1141490.7765321732 637835.6776881218 0 0 0 0 -7975889.0024724007 64561157.273691654 0 64561157.273691654 111401845.85429192 0 0 0 0 912496.37966193259 1155190.6445686601 0 1155190.6445686601 -835161.88799787359 0 0 0 0 -507002.67725791305 320026.14470490685 0 320026.14470490685 -133938.15150371194 0 0 0 0 8250177.8891296387 50888547.419812202 0 50888547.419812202 93640047.798866451 0 0 0 0 747218.58733844757 756332.49111890793 0 756332.49111890793 -247416.10577583313 0 0 0 0 24269529.006537676 -7951992.2389647961 0 -7951992.2389647961 -22672533.709234238 0 0 0 0 -687724.63233184814 715524.6247959137 0 715524.6247959137 251396.49162769318 0 0 0 0 -30869.438564300537 434016.83012771606 0 434016.83012771606 362914.26422786713 0 0 0 0 -246666.97194956196 234739.17976052547 0 234739.17976052547 -270707.24193192646 0 0 0 0 5586301.9978070259 -34289452.307621121 0 -34289452.307621121 102320913.87369537 0 0 0 0 -31449194.113073349 24786844.232549667 0 24786844.232549667 93761060.967346191 0 0 0 0 -15751240.030549049 18078834.602126122 0 18078834.602126122 96560208.565366745 0 0 0 0 166393.8483586479 1480934.9799435649 0 1480934.9799435649 -537325.174700676 0 0 0 0 -15832.99787902832 1931607.9365234375 0 1931607.9365234375 1414488.9705581665 0 0 0 0 1226720.8923444748 -3327010.5810313225 0 -3327010.5810313225 73684373.769682884 0 0 0 0 1785.3750057220459 2399240.7932844162 0 2399240.7932844162 851882.47227096558 0 0 0 0 -1277905.9587552752 1169963.4908690983 0 1169963.4908690983 547981.01468725968 0 0 0 0 -31272615.42727375 -13179948.458838463 0 -13179948.458838463 -8012151.9751787186 0 0 0 0 -384270.91595745087 1534764.5046696663 0 1534764.5046696663 76133380.328083992 0 0 0 0 -625808.39296507463 1139525.2995189456 0 1139525.2995189456 1274497.6830836264 0 0 0 0 -2502007.2043800354 17720760.364191055 0 17720760.364191055 -144470922.02641296 0 0 0 0 112505.24106288608 520670.69339528726 0 520670.69339528726 -338193.57733837748 0 0 0 0 -6913995.6068496704 -16141433.499649048 0 -16141433.499649048 -51623088.395019531 0 0 0 0 -20721882.438030243 56823556.771282196 0 56823556.771282196 -88311967.134456635 0 0 0 0 2083712.2384185791 20006425.434598923 0 20006425.434598923 -99818017.459674835 0 0 0 0 178609.30295753479 1573575.2957668304 0 1573575.2957668304 -3200683.8960227966 0 0 0 0 -455173.02272846643 1619084.5960826548 0 1619084.5960826548 477041.63992773532 0 0 0 0 8033738.176908493 5424195.4935445786 0 5424195.4935445786 -64198477.016658783 0 0 0 0 -10383711.707164764 5140615.6583976746 0 5140615.6583976746 -1992348.125837326 0 0 0 0 9583064.8767104149 -20293399.036156416 0 -20293399.036156416 -26351979.08364296 0 0 0 0 -5926101.3228731155 -4659848.9246783257 0 -4659848.9246783257 80922496.658004761 0 0 0 0 -455314.83730698097 2969685.3177664373 0 2969685.3177664373 652923.47341071977 0 0 0 0 -930305.82930327952 404463.07261068095 0 404463.07261068095 583979.1082002027 0 0 0 0 2369808.7939052582 25214940.081551552 0 25214940.081551552 -26616070.74109745 0 0 0 0 -21509900.177480698 32814773.539228916 0 32814773.539228916 -10307894.886295319 0 0 0 0 -12454095.165662766 38865809.129270554 0 38865809.129270554 -33441229.357297897 0 0 0 0 -34137902.104650497 44426428.773134232 0 44426428.773134232 -21756979.447639465 0 0 0 0 -21903076.98946476 52375811.628565311 0 52375811.628565311 -39961531.551654816 0 0 0 0 -73737956.62544632 77220057.46038866 0 77220057.46038866 18531774.363558769 0 0 0 0 -17687601.705562592 42078595.126237869 0 42078595.126237869 -32796681.930093765 0 0 0 0 -47951899.508865356 72348923.589410782 0 72348923.589410782 -43695750.636330605 0 0 0 0 -47303976.895269394 54059957.95116806 0 54059957.95116806 -24206996.506855965 0 0 0 0 -24871208.853408813 72006991.126935959 0 72006991.126935959 -43965826.702478409 0 0 0 0 94141.11713886261 1047502.6025447845 0 1047502.6025447845 -365760.81246566772 0 0 0 0 -807745.70253944397 2639893.6435146332 0 2639893.6435146332 -4677630.5997486115 0 0 0 0 -1027873.9153972166 1295436.9464333924 0 1295436.9464333924 602191.9636362046 0 0 0 0 -2416412.1105270386 2163200.947013855 0 2163200.947013855 -13228.200550079346 0 0 0 0 -359531.05575180054 714782.78133583069 0 714782.78133583069 -3278515.9086751938 0 0 0 0 -7933483.3329701424 1486534.4955809116 0 1486534.4955809116 2429068.6419029236 0 0 0 0 -1191392.1150093079 -382403.62319946289 0 -382403.62319946289 -849980.56895208359 0 0 0 0 -499280.9167024293 147867.12593283411 0 147867.12593283411 388115.20245862566 0 0 0 0 -18405137.243354797 38171864.637076378 0 38171864.637076378 -26372568.177806854 0 0 0 0 -35765757.818906784 26607495.58981514 0 26607495.58981514 5980526.4626085758 0 0 0 0 -4237683.3942451477 -3219954.8259143829 0 -3219954.8259143829 -10297762.020654678 0 0 0 0 50743562.306209326 68157146.739195347 0 68157146.739195347 8516546.1399593353 0 0 0 0 -14326972.230622292 3975950.6403446198 0 3975950.6403446198 13639714.00235939 0 0 0 0 44587.295155115193 -579925.76533740293 0 -579925.76533740293 -240092.61446069647 0 0 0 0 36555082.223601341 7245196.834192276 0 7245196.834192276 25375693.847589493 0 0 0 0 148570332.53048563 44613959.814912319 0 44613959.814912319 -61706149.156661987 0 0 0 0 157877.73891640198 -426761.49819073942 0 -426761.49819073942 -237785.22096110694 0 0 0 0 -49575658.334888935 49546194.333927155 0 49546194.333927155 -32912828.427270889 0 0 0 0 -79285692.401421547 15894136.016672611 0 15894136.016672611 -11075339.821289062 0 0 0 0 -10571942.421325684 37494651.443932056 0 37494651.443932056 -38045464.229310989 0 0 0 0 43739665.360723495 57560541.484484673 0 57560541.484484673 -32572153.55201149 0 0 0 0 5075941.5033512115 22793810.635373116 0 22793810.635373116 -48281535.705384016 0 0 0 0 -8463314.8691511154 14893663.313776016 0 14893663.313776016 14531660.584145069 0 0 0 0 -4606128.5487864017 18448162.270153165 0 18448162.270153165 -13630602.285404205 0 0 0 0 -5603876.9817352295 23542916.304895878 0 23542916.304895878 -12141340.627252579 0 0 0 0 3296783.6267108917 32105202.407334805 0 32105202.407334805 -16970424.911169052 0 0 0 0 5756583.2054309845 19929209.347675025 0 19929209.347675025 -19612760.760127068 0 0 0 0 -1705559.4010362625 54349251.269252896 0 54349251.269252896 18815293.713849545 0 0 0 0 -15201921.453059673 37369848.308625638 0 37369848.308625638 79221921.653786182 0 0 0 0 -8628355.288725853 40262727.352508307 0 40262727.352508307 31332292.40430975 0 0 0 0 5186920.1023030281 -72889138.754925549 0 -72889138.754925549 94937921.406484604 0 0 0 0 -62216649.183309555 -49967937.107546329 0 -49967937.107546329 132561191.07798862 0 0 0 0 -10130914.87251091 -24408780.799568892 0 -24408780.799568892 8470451.1607894897 0 0 0 0 -991997.65242717532 3650377.2144662091 0 3650377.2144662091 2320114.5155197224 0 0 0 0 35012995.859588623 28949114.675471783 0 28949114.675471783 -5350393.4334936142 0 0 0 0 -59613276.581604958 -62662539.521659851 0 -62662539.521659851 61369390.795880318 0 0 0 0 -505665.41221401887 -394424.35458387854 0 -394424.35458387854 675274.21037888899 0 0 0 0 -65622750.714654922 -34377853.427327871 0 -34377853.427327871 93068838.237247467 0 0 0 0 5797545.7503147125 30097526.55425024 0 30097526.55425024 -15426779.302919149 0 0 0 0 -30536175.39982605 9584023.9593367577 0 9584023.9593367577 -441488.81148719788 0 0 0 0 -816125.02306425944 -608939.20717709977 0 -608939.20717709977 1101246.0248800833 0 0 0 0 -75152125.199090958 62739787.502980232 0 62739787.502980232 -3822399.8269481659 0 0 0 0 -22960704.470422745 -19376374.040685654 0 -19376374.040685654 56874394.562213898 0 0 0 0 61945164.123287201 19244278.030686378 0 19244278.030686378 -87783065.96777916 0 0 0 0 -49706939.473637581 32850631.389175892 0 32850631.389175892 -21012821.071520805 0 0 0 0 -31706298.375114441 44437255.978366852 0 44437255.978366852 -40265417.72335434 0 0 0 0 -30096323.619714737 27787032.174272537 0 27787032.174272537 -24776793.239161491 0 0 0 0 -30789219.618279934 45555132.359839678 0 45555132.359839678 -22694621.772550583 0 0 0 0 -28159655.646072388 36726568.61828804 0 36726568.61828804 -25250161.227278709 0 0 0 0 -58371666.369260788 34126438.363057137 0 34126438.363057137 -25229393.602412224 0 0 0 0 -75113868.457914352 47535513.046238899 0 47535513.046238899 -84361.987037658691 0 0 0 0 -31606722.867648125 49760633.181737423 0 49760633.181737423 2721146.772064209 0 0 0 0 -476172.52201625984 -365589.8468085872 0 -365589.8468085872 591011.42352452315 0 0 0 0 -30944022.212004662 45516448.201281309 0 45516448.201281309 23640235.92634201 0 0 0 0 -26424348.577481747 13295113.937353194 0 13295113.937353194 28684525.083837509 0 0 0 0 2824013.3690948486 20529110.396432877 0 20529110.396432877 25549242.878911018 0 0 0 0 -30283613.543195724 40529323.10140419 0 40529323.10140419 12418610.078277588 0 0 0 0 -11396372.088995457 14454283.975642443 0 14454283.975642443 5055442.4138889313 0 0 0 0 -6628547.3154020309 -4962953.1117452383 0 -4962953.1117452383 51224973.537027359 0 0 0 0 27340214.384910583 -13894006.818973064 0 -13894006.818973064 15672131.552306175 0 0 0 0 -8148199.7961578369 -14339867.985573769 0 -14339867.985573769 14758008.90957284 0 0 0 0 -47997083.216603756 -10188591.848910093 0 -10188591.848910093 -6786640.6929855347 0 0 0 0 -17824810.990859985 27846066.701793671 0 27846066.701793671 -29891012.374475479 0 0 0 0 -18058648.331310272 21318753.300621986 0 21318753.300621986 23326074.855367661 0 0 0 0 54807541.377840042 -54092248.746489525 0 -54092248.746489525 -19297422.509861946 0 0 0 0 66217568.702971458 45377621.370078087 0 45377621.370078087 16277677.334478378 0 0 0 0 1502473.6128921509 11265367.730356216 0 11265367.730356216 97032119.28085041 0 0 0 0 51061666.031152725 375236.16073131561 0 375236.16073131561 -20283053.87040329 0 0 0 0 42939535.328550339 -41995156.900922775 0 -41995156.900922775 56901557.315720081 0 0 0 0 -48487.452446571086 934047.35848814435 0 934047.35848814435 -543999.3678496182 0 0 0 0 -14760112.238277197 3830859.5294505656 0 3830859.5294505656 15845186.543125153 0 0 0 0 -73125136.383285522 14409902.391141891 0 14409902.391141891 38861075.403751373 0 0 0 0 -554210.84912853676 4530987.1250621006 0 4530987.1250621006 4228818.3198258216 0 0 0 0 -11199208.588546753 83154869.075535774 0 83154869.075535774 92954706.964604855 0 0 0 0 -1343894.3825244911 7575336.9211104764 0 7575336.9211104764 5690634.4745724145 0 0 0 0 -5274733.5896949768 7405956.4558706284 0 7405956.4558706284 370990.66661643982 0 0 0 0 10268745.317428589 37789881.068815708 0 37789881.068815708 -32914751.19865036 0 0 0 0 -2386714.8356042206 4669776.2409942532 0 4669776.2409942532 7650207.5141973756 0 0 0 0 7046182.7333927155 10844881.845726967 0 10844881.845726967 -29170858.201730728 0 0 0 0 1097438.7559514157 4258060.9025829602 0 4258060.9025829602 -3104707.0443181745 0 0 0 0 -8549401.1493244171 9692550.9444024563 0 9692550.9444024563 2783983.0816574097 0 0 0 0 -1105151.3754985314 5153036.2776239719 0 5153036.2776239719 6419052.0392728299 0 0 0 0 -359406.62370109558 5981983.7517356873 0 5981983.7517356873 3921144.6245689392 0 0 0 0 -2491852.0054211617 8785447.0330777168 0 8785447.0330777168 1159230.451839447 0 0 0 0 -20997366.620452881 19297375.491611123 0 19297375.491611123 11889608.765319824 0 0 0 0 -3637876.5200841427 4999914.7543430328 0 4999914.7543430328 3742206.5034332275 0 0 0 0 -6824774.4441642761 -8630458.3481192589 0 -8630458.3481192589 32117959.197032928 0 0 0 0 2146482.5975704193 -11994255.161114693 0 -11994255.161114693 3781840.7623329163 0 0 0 0 -18399820.208875656 11255564.445648193 0 11255564.445648193 4660715.3566036224 0 0 0 0 7186164.4451751709 -6575355.3066806793 0 -6575355.3066806793 14560117.662061691 0 0 0 0 18922146.363330841 -14306913.533401489 0 -14306913.533401489 15740679.167665482 0 0 0 0 9208903.7032928467 -13108536.161379814 0 -13108536.161379814 18274377.989043236 0 0 0 0 11616649.904811859 -6420741.0417022705 0 -6420741.0417022705 23604030.835299492 0 0 0 0 2574897.957485199 -15111703.506160736 0 -15111703.506160736 15448282.93175447 0 0 0 0 4352840.5554504395 -3684596.2677764893 0 -3684596.2677764893 22606580.712170124 0 0 0 0 865950.10951507837 3976388.4797790223 0 3976388.4797790223 1798373.4486874593 0 0 0 0 31971.122325897217 2502947.6622428894 0 2502947.6622428894 -1199298.0857219696 0 0 0 0 -530978.1037693047 6459708.7979291528 0 6459708.7979291528 -950343.05516482331 0 0 0 0 -407926.69304792024 2947614.0899162274 0 2947614.0899162274 8812794.8901317995 0 0 0 0 1354447.7816543579 34950282.5265131 0 34950282.5265131 23521325.245047092 0 0 0 0 -10724295.824369431 17137585.501475334 0 17137585.501475334 71585305.097156763 0 0 0 0 508283.94991417415 5660170.668989908 0 5660170.668989908 1265295.7783885198 0 0 0 0 -552255.91625778563 358988.8458660359 0 358988.8458660359 3785906.5027003083 0 0 0 0 7767230.7064361572 2657655.8826818466 0 2657655.8826818466 32740955.323550463 0 0 0 0 2502610.9102325439 9987491.068572998 0 9987491.068572998 7225503.8147220612 0 0 0 0 -162562.65441628918 2599.5972095420584 0 2599.5972095420584 608073.05818291474 0 0 0 0 -2761012.3853118587 3035830.9095540526 0 3035830.9095540526 9566040.2989978716 0 0 0 0 -4751156.2049674988 3148567.566652298 0 3148567.566652298 4408079.1020145416 0 0 0 0 -6377855.6886634827 15981775.695558548 0 15981775.695558548 12126756.491622925 0 0 0 0 -967290.41202735901 93871.679830551147 0 93871.679830551147 4913750.0540714264 0 0 0 0 167277.87970037572 4803737.4804815054 0 4803737.4804815054 9429556.1359101944 0 0 0 0 -6566087.9705581665 1714798.6497497559 0 1714798.6497497559 8311807.741481781 0 0 0 0 -2930819.3646471361 5637197.7078413367 0 5637197.7078413367 4916977.4887663294 0 0 0 0 -1848012.0832176208 1064158.9683990479 0 1064158.9683990479 4055774.1925697327 0 0 0 0 858019.79159784317 6092960.8163423538 0 6092960.8163423538 12928747.90341568 0 0 0 0 -2219563.1945909513 7912559.8460640507 0 7912559.8460640507 -528770.22245446965 0 0 0 0 -9230197.5802893639 11565367.850358963 0 11565367.850358963 36594853.379043579 0 0 0 0 -1273765.7053084373 5413135.4670724869 0 5413135.4670724869 23324446.786979675 0 0 0 0 -6135586.3935847282 6237833.4961929321 0 6237833.4961929321 5188564.5361671448 0 0 0 0 -7005737.8754024506 7790891.1153144836 0 7790891.1153144836 2599117.0412077904 0 0 0 0 -5826273.1612514881 5592395.0858916789 0 5592395.0858916789 20163015.269073818 0 0 0 0 -3795103.3039636081 7469749.6650270373 0 7469749.6650270373 7292941.5734547749 0 0 0 0 -4283614.5518741608 6960296.2067289352 0 6960296.2067289352 9867209.9260845184 0 0 0 0 -2361429.4992679092 5736353.2042708732 0 5736353.2042708732 6769065.0276301466 0 0 0 0 -36481551.897651672 925588.39394378662 0 925588.39394378662 16196617.263519287 0 0 0 0 -583674.48807907104 5047354.459564209 0 5047354.459564209 3720781.7987890244 0 0 0 0 -1144819.368630833 3763980.7400995567 0 3763980.7400995567 6431335.3936873991 0 0 0 0 -950106.6653071933 -289363.32020691969 0 -289363.32020691969 -2386.4535143896937 0 0 0 0 -287231.34175109863 8486467.7573661804 0 8486467.7573661804 5863547.5463752747 0 0 0 0 1030273.3047523499 7550266.2174377441 0 7550266.2174377441 12609586.401807785 0 0 0 0 -1226558.09750662 4166138.904686803 0 4166138.904686803 5926501.2255390044 0 0 0 0 539421.15257573128 6324954.7028102875 0 6324954.7028102875 13364428.41626358 0 0 0 0 -21096837.892941475 2280277.2001991272 0 2280277.2001991272 30377305.13999176 0 0 0 0 -19867597.172463417 68183838.058162689 0 68183838.058162689 -10898620.834487915 0 0 0 0 -1039473.5251717344 6694811.9269209513 0 6694811.9269209513 400930.37734382227 0 0 0 0 1605342.127117157 7753982.9606590271 0 7753982.9606590271 13130056.360839844 0 0 0 0 131755.78681755066 39275060.748435974 0 39275060.748435974 30087024.328578949 0 0 0 0 1120820.6388435364 5077887.7828063965 0 5077887.7828063965 932037.01831054688 0 0 0 0 -3131193.7924279897 6005688.5780661013 0 6005688.5780661013 3502907.4330306686 0 0 0 0 -2474176.7907067984 5977745.4469704367 0 5977745.4469704367 1675738.6240064241 0 0 0 0 -832490.39532882534 6267566.1572994562 0 6267566.1572994562 551240.57903195918 0 0 0 0 -33026795.158797327 3572349.1197988018 0 3572349.1197988018 -3870666.7728271484 0 0 0 0 1002313.8925895691 5057387.7443008423 0 5057387.7443008423 1225937.4335327148 0 0 0 0 -2721096.2610727604 4079497.8197916811 0 4079497.8197916811 8283163.9943293668 0 0 0 0 44920525.538650513 31054773.611555099 0 31054773.611555099 -26569302.653839111 0 0 0 0 8135.2506611760873 6081560.488067558 0 6081560.488067558 -4749392.6330566145 0 0 0 0 -716348.22088268353 2604944.1375719993 0 2604944.1375719993 63678.716053709388 0 0 0 0 63868846.146817744 21871850.086264133 0 21871850.086264133 -32720636.662948608 0 0 0 0 17648690.046768188 -7700473.7511100769 0 -7700473.7511100769 17289071.795215607 0 0 0 0 30187188.116056442 26236011.717262268 0 26236011.717262268 -21885723.307983398 0 0 0 0 30862308.169586182 13332463.215011597 0 13332463.215011597 -42173729.574460983 0 0 0 0 32999872.538281441 45909736.62946701 0 45909736.62946701 -11359545.185752869 0 0 0 0 -21117094.112587214 65279594.65743494 0 65279594.65743494 -1528724.2922592163 0 0 0 0 -25926613.818008065 25100987.789627552 0 25100987.789627552 1768302.4223709106 0 0 0 0 33719593.728431702 7636049.0784797668 0 7636049.0784797668 14206088.438587189 0 0 0 0 42683010.260202408 34577094.716850281 0 34577094.716850281 -16987681.389938354 0 0 0 0 -10126584.065729141 26108402.504024506 0 26108402.504024506 -11795822.280353546 0 0 0 0 -39173016.194503784 9893645.8803367615 0 9893645.8803367615 -6429348.5921325684 0 0 0 0 -1340447.1308249268 4901906.0814273302 0 4901906.0814273302 2578634.9033620954 0 0 0 0 2288353.2165544084 4195556.3969255537 0 4195556.3969255537 -3936071.9792975746 0 0 0 0 -14479479.383932114 6026657.359375 0 6026657.359375 -20387666.716369629 0 0 0 0 695505.86328784027 11595541.677286932 0 11595541.677286932 -1740143.7499099672 0 0 0 0 -1435544.4779663086 7512287.5028953552 0 7512287.5028953552 1634933.6486206055 0 0 0 0 483379.27734824037 9174628.1475121751 0 9174628.1475121751 1906216.971102424 0 0 0 0 8018673.2562265396 -4010709.0750484467 0 -4010709.0750484467 16441703.93901825 0 0 0 0 -2409909.1916767396 4353976.5298841009 0 4353976.5298841009 13500376.538698696 0 0 0 0 -39657073.797197342 48003686.988754272 0 48003686.988754272 -15650747.865901947 0 0 0 0 -12539755.457881927 27964276.888641357 0 27964276.888641357 -30180270.912698746 0 0 0 0 -7301572.3309268951 -310414.59067153931 0 -310414.59067153931 19213574.708610535 0 0 0 0 -300330.52050120197 -43239.126221748069 0 -43239.126221748069 3593702.4015494026 0 0 0 0 -124203734.19806385 17689268.766597748 0 17689268.766597748 20506644.960831642 0 0 0 0 -22187302.442718506 22538236.284469604 0 22538236.284469604 20655901.250244141 0 0 0 0 4138950.2426710129 21180093.502019882 0 21180093.502019882 -7836854.7870330811 0 0 0 0 1564824.1774101257 -1705032.9387207031 0 -1705032.9387207031 914292.73496055603 0 0 0 0 26517267.046459198 71783685.748138428 0 71783685.748138428 34768637.060428619 0 0 0 0 489837.55168339936 1099675.4828699604 0 1099675.4828699604 -960690.15231621265 0 0 0 0 54916999.379296303 50070110.530021667 0 50070110.530021667 14119324.56855011 0 0 0 0 -34859051.534183502 -10829824.916435242 0 -10829824.916435242 -453019.65586090088 0 0 0 0 11402271.223876953 -3807474.1136932373 0 -3807474.1136932373 -19928772.348976135 0 0 0 0 5737417.7106990814 -216053.81740570068 0 -216053.81740570068 -16887491.21056366 0 0 0 0 7845831.680606842 -5981581.3356170654 0 -5981581.3356170654 -31164469.1967659 0 0 0 0 1820197.2536878586 9536894.8598012924 0 9536894.8598012924 5734543.4975662231 0 0 0 0 -20433133.311443329 2829858.056022644 0 2829858.056022644 -16206832.286071777 0 0 0 0 55635105.553577423 34344550.817581177 0 34344550.817581177 5458571.8667622805 0 0 0 0 -42883652.463033676 1213555.2057571411 0 1213555.2057571411 4903867.5334249139 0 0 0 0 24921504.24605751 68788429.970127106 0 68788429.970127106 24193291.491199493 0 0 0 0 17716593.623497009 60735320.611804962 0 60735320.611804962 18989632.425872803 0 0 0 0 117642070.06562424 60330941.878250122 0 60330941.878250122 15888027.536560059 0 0 0 0 70179636.941692352 21171967.313041687 0 21171967.313041687 51014486.30606842 0 0 0 0 86419975.872074127 58686098.929763794 0 58686098.929763794 25942312.987533569 0 0 0 0 146640366.09217453 -25615601.076034546 0 -25615601.076034546 93452020.839187622 0 0 0 0 156995934.114151 4719448.3320007324 0 4719448.3320007324 -91282841.210502625 0 0 0 0 218699759.15519714 77157642.933677673 0 77157642.933677673 -26022789.431396484 0 0 0 0 194440528.70390701 177319752.86252594 0 177319752.86252594 -358598814.27065277 0 0 0 0 123693490.82228661 220252682.91504669 0 220252682.91504669 -93126351.339111328 0 0 0 0 76517559.361690521 187976367.6838913 0 187976367.6838913 72753880.396362305 0 0 0 0 75816861.356975555 146387895.32191467 0 146387895.32191467 8119220.6572494507 0 0 0 0 113403605.8889389 122701630.04503632 0 122701630.04503632 -45520983.420669556 0 0 0 0 125110724.33233774 245117518.6131227 0 245117518.6131227 63097165.575714111 0 0 0 0 -63553197.225927353 -23831280.695960999 0 -23831280.695960999 -23109826.804840088 0 0 0 0 239435.61229476519 -595483.20263900701 0 -595483.20263900701 596641.4570610337 0 0 0 0 -62020713.094264984 13356617.036453247 0 13356617.036453247 24535065.972068787 0 0 0 0 -45452459.218154907 17299879.719764709 0 17299879.719764709 14914385.789260864 0 0 0 0 -66879497.402751923 12704999.623878479 0 12704999.623878479 24865668.545516968 0 0 0 0 -92679706.278713226 -21123200.240974426 0 -21123200.240974426 23227916.76222229 0 0 0 0 -60273350.574771881 -14707618.064926147 0 -14707618.064926147 3556085.2751630247 0 0 0 0 -100742462.04315901 10185340.999315262 0 10185340.999315262 45758546.391967773 0 0 0 0 -74888115.924125671 29066913.287757874 0 29066913.287757874 55083350.3253479 0 0 0 0 -112416518.35369682 -185219610.72950554 0 -185219610.72950554 -330890205.13049316 0 0 0 0 -97539596.723125458 18649812.248130798 0 18649812.248130798 57331116.909469604 0 0 0 0 -168404348.59586334 20534792.952178955 0 20534792.952178955 106980216.24810791 0 0 0 0 39990657.224422455 216863561.93367767 0 216863561.93367767 248203207.41047668 0 0 0 0 -37985760.159263611 106167981.20645142 0 106167981.20645142 347761367.88770294 0 0 0 0 61760271.280591011 113785339.26211548 0 113785339.26211548 57074281.883102417 0 0 0 0 11341195.836219788 66058527.431869507 0 66058527.431869507 29578685.782871246 0 0 0 0 7835507.9875011444 116471097.56450653 0 116471097.56450653 178120569.89470673 0 0 0 0 49080838.655750275 175334219.92307281 0 175334219.92307281 67405465.92980957 0 0 0 0 -3355267.2370376587 85454939.170116425 0 85454939.170116425 130565996.81539917 0 0 0 0 25517590.16317749 9975756.5646781921 0 9975756.5646781921 56537225.15665555 0 0 0 0 1331275.8857481489 15320836.889253579 0 15320836.889253579 -2599289.0550911161 0 0 0 0 33968383.358001709 -38304418.873760223 0 -38304418.873760223 -53409105.205070496 0 0 0 0 -45188457.960599899 -68469225.095252991 0 -68469225.095252991 154990472.16741085 0 0 0 0 -4254450.9229955673 31092835.383800745 0 31092835.383800745 72457649.037943602 0 0 0 0 67816820.551581621 60808421.887875557 0 60808421.887875557 -40108022.619327545 0 0 0 0 -57287513.385951996 -24818362.957687378 0 -24818362.957687378 258493762.61847687 0 0 0 0 -17404424.983538628 24582538.480542898 0 24582538.480542898 69264782.068871975 0 0 0 0 -6934885.5299528837 32221264.844409823 0 32221264.844409823 73820111.512077808 0 0 0 0 -10066488.447573304 15589815.19777517 0 15589815.19777517 84094133.440443039 0 0 0 0 16671106.680177689 45979217.399948716 0 45979217.399948716 51906687.615678072 0 0 0 0 -36043249.251779556 23576389.277476549 0 23576389.277476549 122034421.93678701 0 0 0 0 -83303259.307220459 14724370.80659008 0 14724370.80659008 19242724.871152878 0 0 0 0 -3586701.2828229438 110009.20440186933 0 110009.20440186933 15220124.840776309 0 0 0 0 -23271511.071720123 34218736.215073586 0 34218736.215073586 50754786.608893156 0 0 0 0 -40116524.104661942 -9186622.6759963036 0 -9186622.6759963036 28040733.225889206 0 0 0 0 -33516260.185907364 26693871.368815184 0 26693871.368815184 51346530.633023739 0 0 0 0 -19652263.493700027 24872887.432554603 0 24872887.432554603 44637355.252104521 0 0 0 0 -6751304.7994070053 26267154.601505876 0 26267154.601505876 43442386.932210922 0 0 0 0 -863720.30463476293 14640104.564551758 0 14640104.564551758 940835.15638228157 0 0 0 0 43387213.170143127 188678373.60750961 0 188678373.60750961 167863558.60074234 0 0 0 0 92336821.928348541 150686587.24842072 0 150686587.24842072 46876534.756174088 0 0 0 0 249996761.40805721 128421314.23079491 0 128421314.23079491 -3221477.5165863037 0 0 0 0 115378086.10637379 195757760.94773769 0 195757760.94773769 134888004.41161728 0 0 0 0 108680788.23058701 195556157.61882401 0 195556157.61882401 134882478.57715446 0 0 0 0 309827804.52000237 438976538.91181564 0 438976538.91181564 428977211.96234512 0 0 0 0 -37540586.456874847 104676386.11616898 0 104676386.11616898 157355517.88328886 0 0 0 0 29730744.375207901 231835491.98039627 0 231835491.98039627 392149412.99693298 0 0 0 0 -74908245.64138031 -71896945.001915932 0 -71896945.001915932 363160240.10806656 0 0 0 0 -54110313.65854454 -40547520.779463768 0 -40547520.779463768 136592893.14869499 0 0 0 0 70342061.168590546 72990201.142443657 0 72990201.142443657 224582356.73995066 0 0 0 0 -267971403.5238142 -90034861.572758198 0 -90034861.572758198 285227967.9828167 0 0 0 0 218500971.78144836 -195241721.65034771 0 -195241721.65034771 708606449.31279373 0 0 0 0 30271360.103637695 209716158.62370014 0 209716158.62370014 1013945418.5519352 0 0 0 0 1550860.1350275744 -214375.05555881653 0 -214375.05555881653 -559780.11102264514 0 0 0 0 486596277.23756027 408029772.80792117 0 408029772.80792117 148804798.80627441 0 0 0 0 39671670.253212452 152781696.29056311 0 152781696.29056311 333620144.84041023 0 0 0 0 -16298333.979047775 50103033.804337502 0 50103033.804337502 32831076.382774353 0 0 0 0 173472712.41108322 -89091955.016639709 0 -89091955.016639709 -64289727.881941319 0 0 0 0 474329889.07431698 138495237.75619602 0 138495237.75619602 -4738350.8278312683 0 0 0 0 124047296.17036438 1436441.056476593 0 1436441.056476593 -17143821.321921349 0 0 0 0 24413429.246910095 -20442558.087924957 0 -20442558.087924957 31441233.845157623 0 0 0 0 108152080.58851814 16591398.108344078 0 16591398.108344078 1989055.2586669922 0 0 0 0 -2628847.9139251709 16227968.670614243 0 16227968.670614243 -2506390.5473423004 0 0 0 0 -9466219.6957015991 14132217.500091553 0 14132217.500091553 19605646.657289505 0 0 0 0 4026271.9770278931 -6617513.661277771 0 -6617513.661277771 24821422.936207771 0 0 0 0 -5179055.5757980347 10087749.105356216 0 10087749.105356216 8205960.9765262604 0 0 0 0 -3980570.7641563416 7219157.3442802429 0 7219157.3442802429 4237876.7891960144 0 0 0 0 23683878.8776474 5273866.8383293152 0 5273866.8383293152 -9038108.326751709 0 0 0 0 239653.25156095065 3010245.9466055073 0 3010245.9466055073 -2061573.3868042864 0 0 0 0 -5804489.517844677 17495010.987662256 0 17495010.987662256 -3016181.1708488464 0 0 0 0 6068074.3425561655 2385521.8140315823 0 2385521.8140315823 -3553569.8848746736 0 0 0 0 -8578899.1640005112 21076424.867525578 0 21076424.867525578 -3826544.2891159058 0 0 0 0 9995331.5850067139 12102990.560340881 0 12102990.560340881 -24494887.133091927 0 0 0 0 14782501.549747467 40005123.692987442 0 40005123.692987442 -79396554.50820303 0 0 0 0 -13530210.60902977 11878218.097136497 0 11878218.097136497 -3673625.9130973816 0 0 0 0 4147655.9595539812 396369.24466228858 0 396369.24466228858 -1778503.5508282846 0 0 0 0 -33276489.006252289 88844476.434333801 0 88844476.434333801 490231101.09650946 0 0 0 0 -498275.34111881256 176793162.03551793 0 176793162.03551793 256558534.65516663 0 0 0 0 11874302.642995834 125721497.295681 0 125721497.295681 313207516.34122276 0 0 0 0 -31012000.790172577 144906305.83099556 0 144906305.83099556 309238379.97566223 0 0 0 0 -9142582.8212814331 146045777.27006531 0 146045777.27006531 246628078.51049805 0 0 0 0 -20103317.952308655 153750476.30928993 0 153750476.30928993 253635958.70355606 0 0 0 0 37485776.170719147 74012941.819274902 0 74012941.819274902 118167181.98924923 0 0 0 0 -9676171.5699520111 51497156.06204319 0 51497156.06204319 275846766.70972252 0 0 0 0 23586301.779151917 129004035.48214531 0 129004035.48214531 237738534.57775116 0 0 0 0 33386465.447610855 76720282.226506233 0 76720282.226506233 116860752.48191833 0 0 0 0 -31434889.109680176 -12496402.793842316 0 -12496402.793842316 68774087.803752899 0 0 0 0 451294.09761810303 7728613.7458338737 0 7728613.7458338737 -11515278.060714722 0 0 0 0 2490250.8314842214 6425803.7552924734 0 6425803.7552924734 -5946263.5143251028 0 0 0 0 128281324.86928558 182344650.36521339 0 182344650.36521339 245956729.74414253 0 0 0 0 382868.84182788804 -44866.566792458296 0 -44866.566792458296 -713541.48131601326 0 0 0 0 142192856.33098602 75617583.296030045 0 75617583.296030045 -61465687.18359375 0 0 0 0 68272893.95293808 166312068.14880753 0 166312068.14880753 223679106.01779938 0 0 0 0 193345864.84670067 256941799.48634815 0 256941799.48634815 166574853.58292007 0 0 0 0 138593576.86505127 175738535.90138245 0 175738535.90138245 216840287.9021759 0 0 0 0 -583951.36667136289 1120665.1945741735 0 1120665.1945741735 925890.77108599059 0 0 0 0 114218272.07254601 243809118.85848713 0 243809118.85848713 165868964.36103821 0 0 0 0 -27591771.814247131 222708098.74172497 0 222708098.74172497 220842157.2433548 0 0 0 0 105669301.82708168 11876663.770256996 0 11876663.770256996 -50342177.096288681 0 0 0 0 84389964.799571991 139819694.28058434 0 139819694.28058434 126068331.66369057 0 0 0 0 218460759.98896599 116520721.87296486 0 116520721.87296486 70825190.317214966 0 0 0 0 9603760.816116333 17901694.352563858 0 17901694.352563858 -6497472.5925712585 0 0 0 0 -1909.8010787963867 15110927.30008316 0 15110927.30008316 1040155.5234107971 0 0 0 0 -469296.93632894009 5115226.0271650283 0 5115226.0271650283 4591620.6511456519 0 0 0 0 -52578240.880334854 10693574.705456257 0 10693574.705456257 4364533.0792236328 0 0 0 0 1921384.0396995544 15903342.528968811 0 15903342.528968811 -1093484.6010360718 0 0 0 0 -3697419.1243476868 15009810.676174164 0 15009810.676174164 1101600.8080673218 0 0 0 0 -16789807.962738037 15932860.767326355 0 15932860.767326355 8098443.8354187012 0 0 0 0 -3623523.851272583 21604188.356697083 0 21604188.356697083 3716625.205329895 0 0 0 0 4084810.8804550171 25172048.094909668 0 25172048.094909668 4381035.7917480469 0 0 0 0 4301686.8686218262 18145662.365356445 0 18145662.365356445 -2059121.4948577881 0 0 0 0 -82747.594017641619 319911.83333645388 0 319911.83333645388 -586136.09974094108 0 0 0 0 1712830.6085205078 15741651.995407104 0 15741651.995407104 19174443.123802185 0 0 0 0 2787544.1211185455 11231991.160921097 0 11231991.160921097 4460856.579864502 0 0 0 0 2078407.9880580902 14890382.443183899 0 14890382.443183899 -12441442.479919434 0 0 0 0 -1082361.9513169294 9410995.3681104053 0 9410995.3681104053 -3742842.4838634543 0 0 0 0 -2050033.3740539551 21292342.34412384 0 21292342.34412384 10962152.643692017 0 0 0 0 620418.68679843843 -68777.83932513278 0 -68777.83932513278 -670793.54447566159 0 0 0 0 11318354.954441071 23748725.947532654 0 23748725.947532654 -673802.44027709961 0 0 0 0 11256609.967887878 23300485.309677124 0 23300485.309677124 4559887.5828781128 0 0 0 0 11898405.858886719 18125975.453056335 0 18125975.453056335 -11643136.884719849 0 0 0 0 11638675.631523132 24839972.88482666 0 24839972.88482666 1817154.2317810059 0 0 0 0 12612128.76007843 31561073.232128143 0 31561073.232128143 -8029857.5456848145 0 0 0 0 4980042.9206047058 23214789.269916534 0 23214789.269916534 737239.95016479492 0 0 0 0 10620965.877960205 27631138.462898254 0 27631138.462898254 4013767.7828598022 0 0 0 0 10329495.662755966 31090388.265628815 0 31090388.265628815 13101042.52684021 0 0 0 0 32850644.763868332 32294200.336413622 0 32294200.336413622 6955764.2580718994 0 0 0 0 -4188980.078899018 6363824.9217716856 0 6363824.9217716856 -795022.57844182104 0 0 0 0 1670607.4156303406 25644622.324977875 0 25644622.324977875 10125239.015281677 0 0 0 0 14626166.854225159 28550158.585151672 0 28550158.585151672 6284151.1003417969 0 0 0 0 16340385.322433472 23787510.48903656 0 23787510.48903656 8311082.3697929382 0 0 0 0 33438571.557891846 24037927.004623413 0 24037927.004623413 2169449.9303283691 0 0 0 0 21240092.172142029 15035897.20967865 0 15035897.20967865 5723607.5460968018 0 0 0 0 21338223.130065918 30185755.238620758 0 30185755.238620758 11099193.771392822 0 0 0 0 26783421.917338371 34805485.05459404 0 34805485.05459404 10155291.581573486 0 0 0 0 23909805.783691406 29019125.827060699 0 29019125.827060699 11327662.472259521 0 0 0 0 26971151.826480865 33585149.578201294 0 33585149.578201294 17988226.891326904 0 0 0 0 -5228922.1306381226 30550228.397319794 0 30550228.397319794 29422021.919692319 0 0 0 0 9974611.4015140533 26532534.785514832 0 26532534.785514832 14221558.636276245 0 0 0 0 13234184.659549713 33592949.467281342 0 33592949.467281342 23165867.422271729 0 0 0 0 -16135169.200843811 18697156.959659576 0 18697156.959659576 16057950.477527618 0 0 0 0 -5396102.1286007166 26358727.698234916 0 26358727.698234916 19322069.799713135 0 0 0 0 -14326110.649940491 16179761.138214111 0 16179761.138214111 2691350.9341964722 0 0 0 0 891579.17944717407 22610374.985897064 0 22610374.985897064 6214189.5988922119 0 0 0 0 -2518612.5308151245 25503697.996025085 0 25503697.996025085 10134258.327217102 0 0 0 0 -14508415.586158752 13855521.051361084 0 13855521.051361084 25863999.216415405 0 0 0 0 -38193533.629142761 3746033.1117477417 0 3746033.1117477417 36007191.358516693 0 0 0 0 -30724425.593929291 -1702745.2222633362 0 -1702745.2222633362 13501057.59172821 0 0 0 0 -30018058.265950903 -1112025.3805243578 0 -1112025.3805243578 8118349.4666748047 0 0 0 0 -36589486.169548035 -1074300.8146514893 0 -1074300.8146514893 25307517.032173157 0 0 0 0 -25480636.092849731 8980063.9476852417 0 8980063.9476852417 18525970.045223236 0 0 0 0 -37904409.445203781 2571850.153799057 0 2571850.153799057 18863422.543640137 0 0 0 0 -28009434.364345551 13264606.85354805 0 13264606.85354805 32929514.319442749 0 0 0 0 -8864812.8760681152 15553952.460655212 0 15553952.460655212 18270515.621393204 0 0 0 0 -9713315.8682250977 19160728.402839661 0 19160728.402839661 29426680.852914795 0 0 0 0 900337.91383361816 25561939.898464203 0 25561939.898464203 30870728.300064087 0 0 0 0 913034.6057472229 24565999.029167175 0 24565999.029167175 66325849.712478638 0 0 0 0 29293024.490966797 40484420.839033127 0 40484420.839033127 4154395.3056182861 0 0 0 0 23625889.132461548 45869561.698860168 0 45869561.698860168 30220504.857505798 0 0 0 0 29100942.741676331 41180334.256698608 0 41180334.256698608 11828820.715110779 0 0 0 0 16152066.302341461 15680155.839336395 0 15680155.839336395 23161113.410598755 0 0 0 0 23120545.785629272 810117.2082824707 0 810117.2082824707 36856008.302490234 0 0 0 0 -14800785.437606812 12724585.687553406 0 12724585.687553406 44553931.583366394 0 0 0 0 -5966990.422794342 38647728.139017105 0 38647728.139017105 40276620.513339996 0 0 0 0 -9583506.4138069153 22082716.748794556 0 22082716.748794556 28578938.725715637 0 0 0 0 49461577.200809479 30871092.479642868 0 30871092.479642868 9324399.1823959351 0 0 0 0 -57347359.806991577 -2895055.799987793 0 -2895055.799987793 28200718.792396545 0 0 0 0 -147887633.30135727 -99823760.965454102 0 -99823760.965454102 -16369720.961000443 0 0 0 0 -42920362.120090485 -30059742.460098267 0 -30059742.460098267 -6621195.0514526367 0 0 0 0 -37971469.508224487 -10960229.425861359 0 -10960229.425861359 20639139.100006104 0 0 0 0 -28246567.671569824 -10117202.752376556 0 -10117202.752376556 -18024418.052093506 0 0 0 0 80223.889667985961 1488108.3418004615 0 1488108.3418004615 1095707.4088089988 0 0 0 0 7100199.6954437029 3483257.0295883417 0 3483257.0295883417 8946708.2426986694 0 0 0 0 -30753582.729728699 -31321667.280517578 0 -31321667.280517578 -21652131.637756348 0 0 0 0 830910.3116952125 713212.18443109654 0 713212.18443109654 866639.5765974056 0 0 0 0 27816783.357042313 -28301593.456424713 0 -28301593.456424713 60679904.29699707 0 0 0 0 233040.46918106079 17850254.630783081 0 17850254.630783081 10415705.051814556 0 0 0 0 38610791.973062471 -30515975.558001854 0 -30515975.558001854 39011751.369003296 0 0 0 0 29336073.53411293 -52658269.583282471 0 -52658269.583282471 54234605.716064453 0 0 0 0 41735589.013126373 -37383605.769443512 0 -37383605.769443512 9124874.8289337158 0 0 0 0 37376579.920734406 -85252108.402187347 0 -85252108.402187347 -14182574.604475021 0 0 0 0 -14863327.696483612 -158916348.39277649 0 -158916348.39277649 -309789369.56691742 0 0 0 0 -14998363.876613617 -63986736.479053497 0 -63986736.479053497 65896095.148317337 0 0 0 0 59227908.341873169 -27203599.347549438 0 -27203599.347549438 42833651.210546494 0 0 0 0 -262796885.54669189 -41907716.690376282 0 -41907716.690376282 -48539386.23840332 0 0 0 0 -233808.83376332559 286295.65445639007 0 286295.65445639007 582042.80884616822 0 0 0 0 19673192.829944611 29212460.58934021 0 29212460.58934021 -75545246.976402283 0 0 0 0 -66816892.351553917 143848220.15917969 0 143848220.15917969 655663.09492492676 0 0 0 0 326202459.79173279 237642745.15729904 0 237642745.15729904 8081796.2880172729 0 0 0 0 -647421.35857391357 -51463732.548553467 0 -51463732.548553467 -142263796.25998306 0 0 0 0 -104814624.93899918 -222525035.33612442 0 -222525035.33612442 -40694999.159949541 0 0 0 0 -1414149.5426046136 1061086.9820256066 0 1061086.9820256066 2094426.0007556975 0 0 0 0 65122270.832721949 207560275.20451832 0 207560275.20451832 273847895.92554474 0 0 0 0 -378313785.21433067 -204233943.39424896 0 -204233943.39424896 505387102.80241394 0 0 0 0 -253898.82696851436 -100908.06037524715 0 -100908.06037524715 695736.19682262093 0 0 0 0 -151040589.59606838 99734584.478313446 0 99734584.478313446 381684616.04708099 0 0 0 0 -305661856.70782471 -199618642.44194794 0 -199618642.44194794 290900958.01030159 0 0 0 0 122005133.0443778 462255850.03492737 0 462255850.03492737 684367.65942382812 0 0 0 0 -517461677.02456665 245691841.24218369 0 245691841.24218369 43231083.232191086 0 0 0 0 71708930.951169491 220784261.13018131 0 220784261.13018131 431164888.56074524 0 0 0 0 306539000.63505173 36424964.141437531 0 36424964.141437531 80843580.796337128 0 0 0 0 -2903672.7381361015 4327352.8767933501 0 4327352.8767933501 -3807552.0137424767 0 0 0 0 7209767.5302276611 -42853187.393310547 0 -42853187.393310547 141216885.33595467 0 0 0 0 31100842.239180088 40850758.834230185 0 40850758.834230185 7456511.817325592 0 0 0 0 12280178.777460575 125727319.40084171 0 125727319.40084171 134631657.49460602 0 0 0 0 143924766.11108017 -3918690.4272193909 0 -3918690.4272193909 51795933.576904297 0 0 0 0 625192.05624442268 3044.165334217716 0 3044.165334217716 -361793.38692752272 0 0 0 0 26769160.754692078 -4687507.7010726929 0 -4687507.7010726929 -22954811.852737427 0 0 0 0 22501248.370688438 25826148.603678703 0 25826148.603678703 4390966.6890945435 0 0 0 0 -4390954.9387960127 6015425.9728489388 0 6015425.9728489388 -1626794.5949546024 0 0 0 0 -3095620.8076782227 -8263857.590555191 0 -8263857.590555191 9803326.8487129211 0 0 0 0 -2088163.3237375505 1993204.7326678927 0 1993204.7326678927 427864.12342412025 0 0 0 0 19110999.295000076 -7915361.4799442291 0 -7915361.4799442291 -22857521.826953888 0 0 0 0 -5379748.7450609207 6158247.0661997795 0 6158247.0661997795 12178206.591011047 0 0 0 0 32179758.619534492 14972941.321933806 0 14972941.321933806 9702424.5604667664 0 0 0 0 19184507.263717651 16869545.415279388 0 16869545.415279388 2706849.7825393677 0 0 0 0 43527908.840084076 9427045.217376709 0 9427045.217376709 3992165.8241291046 0 0 0 0 32908702.887489319 -2536724.9180736542 0 -2536724.9180736542 9348020.4058952332 0 0 0 0 85158010.212467194 36694201.233753204 0 36694201.233753204 -11285123.74861908 0 0 0 0 -4020585.3329811096 53021024.724283218 0 53021024.724283218 18838816.897808075 0 0 0 0 21398643.815483093 46305982.064661026 0 46305982.064661026 -8281402.8448257446 0 0 0 0 19636491.541824102 -44965495.833167791 0 -44965495.833167791 -29269075.757873535 0 0 0 0 10861002.881908417 6680309.2595825195 0 6680309.2595825195 -1069250.0383586884 0 0 0 0 -2260308.9958264399 1143142.6524901623 0 1143142.6524901623 1166931.1048934888 0 0 0 0 -32573771.120311737 33988660.209732056 0 33988660.209732056 41286670.555128098 0 0 0 0 -2558835.5417315112 3121607.0185426776 0 3121607.0185426776 -2487827.9266461097 0 0 0 0 92033016.247737885 121537310.53965759 0 121537310.53965759 -29670998.114442825 0 0 0 0 -385675914.38963318 141586528.95394135 0 141586528.95394135 72826289.549873352 0 0 0 0 71076536.583854198 -1670204.026617527 0 -1670204.026617527 -157706101.1701088 0 0 0 0 -248722631.60114288 90850398.37018013 0 90850398.37018013 13866329.073429108 0 0 0 0 -1218489.8522804379 391325.08993654372 0 391325.08993654372 828822.04777697474 0 0 0 0 -50766233.759925604 -91993575.403173208 0 -91993575.403173208 -97033214.420825958 0 0 0 0 8540337.0761985779 199683996.82292366 0 199683996.82292366 -78771930.560081482 0 0 0 0 -391787332.83680725 185349190.58156204 0 185349190.58156204 -103414518.51992226 0 0 0 0 -29477394.325176239 257240361.68697739 0 257240361.68697739 -152756022.05701065 0 0 0 0 187980870.0253334 271719585.59532738 0 271719585.59532738 -180306124.31963158 0 0 0 0 72168076.279258728 205181352.42663765 0 205181352.42663765 -83491334.921305656 0 0 0 0 87287980.819961548 163921341.14292145 0 163921341.14292145 -71609324.685114026 0 0 0 0 106709613.56443882 167813731.15966129 0 167813731.15966129 -71872944.385009766 0 0 0 0 87770542.60943985 117907919.35147476 0 117907919.35147476 -9057369.8582658768 0 0 0 0 -68029747.083474159 155469871.10928822 0 155469871.10928822 -17927932.664913177 0 0 0 0 108129656.22270203 85956123.35912323 0 85956123.35912323 -15359616.939342499 0 0 0 0 39577177.328742027 95832950.752459526 0 95832950.752459526 -6727815.2278518677 0 0 0 0 75165102.816446304 160452216.32669258 0 160452216.32669258 47719928.056545973 0 0 0 0 132580683.44553971 159810684.54488897 0 159810684.54488897 -16002616.944854736 0 0 0 0 77033358.734205246 166328709.11279106 0 166328709.11279106 -10480704.212654114 0 0 0 0 53277856.079660416 152190018.99958038 0 152190018.99958038 -16055803.641147614 0 0 0 0 474272876.29680061 -193074814.16636658 0 -193074814.16636658 -47303142.054729462 0 0 0 0 285819892.54426956 -177567673.16941071 0 -177567673.16941071 39926446.33108139 0 0 0 0 76579552.358306885 14653037.211109161 0 14653037.211109161 -101649948.49294662 0 0 0 0 342328536.38134766 72188116.837791443 0 72188116.837791443 -113384023.36013794 0 0 0 0 127791811.61561632 116114050.73593998 0 116114050.73593998 -15544702.64894104 0 0 0 0 2596897.4102480728 698755.23848089576 0 698755.23848089576 -1207102.3864825182 0 0 0 0 38961244.124076843 211144193.00263691 0 211144193.00263691 -260900985.93880463 0 0 0 0 578149513.87052345 -98852247.680123329 0 -98852247.680123329 -239382448.76126099 0 0 0 0 -1786512.7817878723 -151476641.9665947 0 -151476641.9665947 76387535.834260941 0 0 0 0 197264280.93279648 -104335791.91243935 0 -104335791.91243935 269954336.87607193 0 0 0 0 1208231.9449120276 -220323.54673463292 0 -220323.54673463292 -680989.9814609699 0 0 0 0 190253878.74267387 104307560.91663361 0 104307560.91663361 -57699931.002708435 0 0 0 0 544726994.55759156 106489966.12643427 0 106489966.12643427 -190558949.01768112 0 0 0 0 121400164.46368313 325022368.62460518 0 325022368.62460518 -276195809.47046661 0 0 0 0 -255698252.10132217 480563260.52069473 0 480563260.52069473 -326427211.70532608 0 0 0 0 268423260.41426849 -71282700.775989532 0 -71282700.775989532 -579957360.47047424 0 0 0 0 -160096135.98431396 453705003.35624886 0 453705003.35624886 -168112132.24922943 0 0 0 0 -515145794.69665337 -338228681.64501381 0 -338228681.64501381 476191365.63581467 0 0 0 0 -1128953.993239142 1225006.1210650913 0 1225006.1210650913 -939818.98150058836 0 0 0 0 -659526285.11139297 266654262.12780762 0 266654262.12780762 30326300.450302124 0 0 0 0 154873254.87746429 84255687.59563446 0 84255687.59563446 96743632.277042389 0 0 0 0 314532844.90712547 -27853520.224937439 0 -27853520.224937439 -686529189.03337479 0 0 0 0 208604493.60192394 29862781.290468216 0 29862781.290468216 -81343228.049728394 0 0 0 0 208767416.72145081 162426657.29956818 0 162426657.29956818 -741888150.40806675 0 0 0 0 3798735.6885837037 2669288.5180885717 0 2669288.5180885717 -1730652.4399609808 0 0 0 0 -53035055.605354309 89817620.482196808 0 89817620.482196808 339558275.76939011 0 0 0 0 -108983419.92634583 149204697.34852409 0 149204697.34852409 -20739038.815734863 0 0 0 0 131559158.74245834 126627296.35559845 0 126627296.35559845 -35211493.454936981 0 0 0 0 402937.56473155692 3282438.0549552822 0 3282438.0549552822 -2214118.3752473965 0 0 0 0 -119102589.47828436 117481896.15158415 0 117481896.15158415 -69759585.749465942 0 0 0 0 -250905865.13644028 83504803.939033508 0 83504803.939033508 -2592824.2157211304 0 0 0 0 137224927.70809364 324556617.05848312 0 324556617.05848312 44846233.591331482 0 0 0 0 2375996.5233450867 2143726.5052827932 0 2143726.5052827932 -1337926.0720768217 0 0 0 0 -67174337.283052444 -5595115.7467498779 0 -5595115.7467498779 336514057.44521141 0 0 0 0 -57372880.477329254 17325158.627826691 0 17325158.627826691 816345980.67734528 0 0 0 0 862303.85601019673 537459.82124635391 0 537459.82124635391 -461160.59790981375 0 0 0 0 -93951764.291021824 127704567.16858578 0 127704567.16858578 -110393713.08145142 0 0 0 0 -68023741.790885925 37055560.565288544 0 37055560.565288544 -31141268.013834 0 0 0 0 108715359.06669331 158629295.02954102 0 158629295.02954102 -87081143.303199768 0 0 0 0 608074.76981317904 3194857.0479956456 0 3194857.0479956456 -3198110.8370136134 0 0 0 0 -95184528.521795273 82590105.331733704 0 82590105.331733704 -66579053.433956146 0 0 0 0 138470070.44746208 -204449817.84070969 0 -204449817.84070969 -658228042.93362427 0 0 0 0 80186.631943579763 1103621.4742926401 0 1103621.4742926401 -1207187.2752694264 0 0 0 0 75018495.206439972 393082455.18395996 0 393082455.18395996 -863936010.45922089 0 0 0 0 -338290006.33831167 -413576052.25836468 0 -413576052.25836468 -226793091.82929993 0 0 0 0 28070747.782333374 29853129.828388214 0 29853129.828388214 -981055736.57123947 0 0 0 0 -660283985.04601765 432353128.1882391 0 432353128.1882391 -260801809.9564209 0 0 0 0 -256903104.76176453 256096029.98705769 0 256096029.98705769 -123069981.42440796 0 0 0 0 -148008143.10489273 85769447.915433884 0 85769447.915433884 -39559420.282569885 0 0 0 0 -58563817.459159851 270489516.82329178 0 270489516.82329178 -296759828.84965587 0 0 0 0 61565138.396528244 4142026.5783462524 0 4142026.5783462524 -276273926.13318515 0 0 0 0 13002274.545851707 44382519.166273117 0 44382519.166273117 -282771928.14292145 0 0 0 0 50019195.851989746 42856457.133729935 0 42856457.133729935 -109330139.72849274 0 0 0 0 130825594.25549698 -11745208.259963989 0 -11745208.259963989 -115918521.6453476 0 0 0 0 -12069453.579839706 150258069.06403255 0 150258069.06403255 -38261808.142623901 0 0 0 0 -169602077.9680748 245589703.91391373 0 245589703.91391373 -95206928.180379868 0 0 0 0 -105324345.87453318 284544574.60639 0 284544574.60639 -73417526.527549744 0 0 0 0 -16716436.826477051 166957741.91396332 0 166957741.91396332 -90677001.576049805 0 0 0 0 66506763.4103477 328577291.65432787 0 328577291.65432787 -71557887.16758728 0 0 0 0 31187206.695983887 151110407.06152725 0 151110407.06152725 -158081292.57596588 0 0 0 0 -747062529.55099297 190694209.08849335 0 190694209.08849335 378382645.1962204 0 0 0 0 -60696554.83268261 -73375620.856381416 0 -73375620.856381416 -58119516.32850647 0 0 0 0 148636627.53265858 405020479.47625828 0 405020479.47625828 115688456.98228455 0 0 0 0 72767316.312667847 144180071.3672905 0 144180071.3672905 -130869463.88696671 0 0 0 0 -254452128.72604132 157928073.26012421 0 157928073.26012421 -87814701.033752441 0 0 0 0 -951528690.73860168 -18711922.9643116 0 -18711922.9643116 62641366.029388428 0 0 0 0 -926571143.57947731 4089048.4464378357 0 4089048.4464378357 -55516363.448760986 0 0 0 0 -257172204.45683002 173362193.33276892 0 173362193.33276892 -174741471.89126587 0 0 0 0 -874768092.40893745 437348149.42848587 0 437348149.42848587 -418276.20464324951 0 0 0 0 -1365414273.927722 232379019.90761566 0 232379019.90761566 166049024.97715759 0 0 0 0 -176212717.27671576 519274907.0984745 0 519274907.0984745 541600.75535583496 0 0 0 0 -354612473.67142391 114582903.5971508 0 114582903.5971508 -183083179.48251343 0 0 0 0 24341965.271137238 287146341.70689011 0 287146341.70689011 -211965011.83425426 0 0 0 0 249370089.79882717 -151978798.16880417 0 -151978798.16880417 63975615.932998657 0 0 0 0 -380227.48578054085 970499.03510904871 0 970499.03510904871 436618.26661447436 0 0 0 0 441610490.05325317 124439693.67333984 0 124439693.67333984 -246693680.94254017 0 0 0 0 -1574182.9037742615 2703111.0693588257 0 2703111.0693588257 -2313.4957422325119 0 0 0 0 -318101.3338508606 1580219.5163898468 0 1580219.5163898468 -546039.83706665039 0 0 0 0 64281271.230447769 13849937.569618225 0 13849937.569618225 -84577509.155044556 0 0 0 0 33011843.203065872 73984280.136386871 0 73984280.136386871 -51408820.212184906 0 0 0 0 16023211.457054138 66994910.457075119 0 66994910.457075119 17757335.827835083 0 0 0 0 123839789.04013062 175330758.91137695 0 175330758.91137695 -166019897.86650085 0 0 0 0 110159104.93925476 288356744.70900726 0 288356744.70900726 -98359390.256816864 0 0 0 0 51492257.301231861 110833192.8692379 0 110833192.8692379 22945975.111763 0 0 0 0 -143324895.52696037 301442793.99136162 0 301442793.99136162 139880154.44301224 0 0 0 0 -314317352.49197197 47976988.912601471 0 47976988.912601471 19214054.718765259 0 0 0 0 304637.86731904931 303976.77964276075 0 303976.77964276075 -454047.37251361832 0 0 0 0 466356915.60676193 163443535.5268364 0 163443535.5268364 103722044.28822327 0 0 0 0 -145740818.2977066 121862358.84216309 0 121862358.84216309 -88372323.843933105 0 0 0 0 -157241149.8374424 165357494.94146729 0 165357494.94146729 68710546.319610596 0 0 0 0 36271572.252098083 95699683.058555603 0 95699683.058555603 -22253987.45993042 0 0 0 0 215477265.75051117 45785013.93536377 0 45785013.93536377 169199469.53570557 0 0 0 0 117107190.73134995 260413314.14747429 0 260413314.14747429 197597329.5506134 0 0 0 0 -336983002.93030167 -165646252.2049942 0 -165646252.2049942 -157456873.41872978 0 0 0 0 -297995856.53543472 120465999.64134216 0 120465999.64134216 261303224.59353638 0 0 0 0 -832750012.98311234 183530040.65509033 0 183530040.65509033 528512105.39910126 0 0 0 0 -256135346.76486206 -31605413.572669983 0 -31605413.572669983 112466944.09088135 0 0 0 0 -132746099.28717804 236109099.19361496 0 236109099.19361496 413452141.09413147 0 0 0 0 163567112.74518967 -109831805.91917419 0 -109831805.91917419 224598414.76190567 0 0 0 0 -242992716.74877167 472862105.04880142 0 472862105.04880142 69003717.262023926 0 0 0 0 548199407.30337334 263745669.48782539 0 263745669.48782539 78983929.686782837 0 0 0 0 -921389809.16963196 -261080027.18423462 0 -261080027.18423462 323382855.25387573 0 0 0 0 716062.96010028012 1106668.2400892056 0 1106668.2400892056 -1113105.0669558868 0 0 0 0 61950.932523502037 993927.63073933497 0 993927.63073933497 -721139.92872258648 0 0 0 0 419449862.18983459 290144091.38283539 0 290144091.38283539 92474257.819656372 0 0 0 0 -21266319.573122025 19347268.986501694 0 19347268.986501694 -7822463.4069290161 0 0 0 0 44755900.189351559 -14818870.709257126 0 -14818870.709257126 4437700.7862319946 0 0 0 0 350388.19298700988 1835203.7208353616 0 1835203.7208353616 721582.03975040838 0 0 0 0 2712752.7729330063 3273514.9033002853 0 3273514.9033002853 -736331.63758850098 0 0 0 0 1878135.3980522156 2296618.7573547363 0 2296618.7573547363 -688886.10776519775 0 0 0 0 1529451.1707401276 3035239.6807308197 0 3035239.6807308197 1190.6436767578125 0 0 0 0 -178296676.39214802 -385908266.83580828 0 -385908266.83580828 447472448.62441254 0 0 0 0 1981245.0283158962 482635.28122621309 0 482635.28122621309 -499045.38738702983 0 0 0 0 -154469537.98366737 -228359773.00919342 0 -228359773.00919342 145841203.33679199 0 0 0 0 -310372927.17919922 388862896.35502243 0 388862896.35502243 -241031465.72241974 0 0 0 0 858301.9187916331 1357883.4047508799 0 1357883.4047508799 548908.32571179233 0 0 0 0 -388109996.97414017 -363787340.35897064 0 -363787340.35897064 54802609.824838281 0 0 0 0 -378041741.40910339 248536555.73600864 0 248536555.73600864 796129913.50372314 0 0 0 0 1849371720.2289581 87724013.178520203 0 87724013.178520203 -717886918.2782135 0 0 0 0 -94451299.459739685 125303051.49020004 0 125303051.49020004 157481373.22332764 0 0 0 0 838197093.53881645 263612427.12299728 0 263612427.12299728 20467196.63911438 0 0 0 0 401065424.22202682 125997173.83846664 0 125997173.83846664 -697693.59838635894 0 0 0 0 348775063.58547211 271643424.55654907 0 271643424.55654907 146133165.34883881 0 0 0 0 1102020.1643867493 38638939.323299408 0 38638939.323299408 96265811.661540985 0 0 0 0 63539760.680690765 64466321.501983643 0 64466321.501983643 51253687.569778442 0 0 0 0 152884320.68117905 304758443.33686829 0 304758443.33686829 248805534.30584717 0 0 0 0 -7758019.1974182129 -18585737.564418793 0 -18585737.564418793 -34991609.044250488 0 0 0 0 21219138.4945755 30417067.30103302 0 30417067.30103302 -90869673.304748535 0 0 0 0 1822476917.5388794 -282607738.46964264 0 -282607738.46964264 -289830072.91404724 0 0 0 0 763022.34982552659 1417151.3398364149 0 1417151.3398364149 1343881.057759501 0 0 0 0 673397.36004691944 459912.2076822333 0 459912.2076822333 73550.24139360711 0 0 0 0 155725295.86561203 -46920041.26647377 0 -46920041.26647377 630854381.84922791 0 0 0 0 1629699481.2855835 317621619.97031403 0 317621619.97031403 -638188396.46795654 0 0 0 0 554802906.77653503 420149387.05129242 0 420149387.05129242 502973175.15244675 0 0 0 0 926552349.52909851 -123459982.85440063 0 -123459982.85440063 631990578.47637939 0 0 0 0 812674160.90332794 -678290368.21761322 0 -678290368.21761322 386285868.45454407 0 0 0 0 1326467056.8366833 -2431145.0698871613 0 -2431145.0698871613 17858252.962463379 0 0 0 0 413872405.39535141 -17002958.031074524 0 -17002958.031074524 27842299.023714066 0 0 0 0 506806762.77406693 51811470.137184143 0 51811470.137184143 -21064504.527053833 0 0 0 0 653918866.25201416 -260440159.467556 0 -260440159.467556 1815907.1566619873 0 0 0 0 -18339068.782436371 54661129.109462738 0 54661129.109462738 -57125233.43270874 0 0 0 0 524653504.38221741 -245998622.80770493 0 -245998622.80770493 114700311.89472961 0 0 0 0 1581526.3702715281 4139909.1507986374 0 4139909.1507986374 3746947.5479086116 0 0 0 0 -305280980.05006599 -219338807.78484488 0 -219338807.78484488 -69333551.157806396 0 0 0 0 -265605333.37231827 -183763289.36538696 0 -183763289.36538696 -113523290.64118958 0 0 0 0 190503.54159962106 -1208606.2743549645 0 -1208606.2743549645 2333383.3771648593 0 0 0 0 61483515.054906517 49552428.581580788 0 49552428.581580788 33910056.724121094 0 0 0 0 61494111.865070343 50609185.10779953 0 50609185.10779953 23095587.53843689 0 0 0 0 -260357658.09983063 -160578063.45565796 0 -160578063.45565796 -185005819.25704956 0 0 0 0 64956225.616085052 82935749.163726807 0 82935749.163726807 60281927.613327026 0 0 0 0 24474092.870735168 64926952.789840698 0 64926952.789840698 48762647.281005859 0 0 0 0 47966516.039840698 67406052.671989441 0 67406052.671989441 48030706.147384644 0 0 0 0 28128968.68806839 95942883.179620743 0 95942883.179620743 76826395.096664429 0 0 0 0 -4064119.6193771362 76745497.375404358 0 76745497.375404358 67216731.854522705 0 0 0 0 -1164056.8625764847 98584744.561995983 0 98584744.561995983 73055969.259933472 0 0 0 0 -47148347.857913971 77937488.160404205 0 77937488.160404205 64648877.167938232 0 0 0 0 25083392.830777168 66470226.470096588 0 66470226.470096588 51383137.29675293 0 0 0 0 -7644503.2607192993 61983601.773269653 0 61983601.773269653 52681559.009365082 0 0 0 0 -10074718.576747894 10445891.507232666 0 10445891.507232666 3161856.1792907715 0 0 0 0 -45678367.235132217 36476435.187122345 0 36476435.187122345 36486228.425926208 0 0 0 0 -78533456.189888 3826711.1137275696 0 3826711.1137275696 34056520.356018066 0 0 0 0 -39145329.579099059 74212234.690389156 0 74212234.690389156 65959747.440917969 0 0 0 0 -96777231.523639679 40980920.7188797 0 40980920.7188797 51446575.993728638 0 0 0 0 -94394914.095726013 -43310453.178163528 0 -43310453.178163528 67694529.651565552 0 0 0 0 -181469693.5001545 -9378591.881072998 0 -9378591.881072998 148427282.78325272 0 0 0 0 -86799.460263460875 -1788437.6604640083 0 -1788437.6604640083 4348885.0784670413 0 0 0 0 30425762.342486382 24862491.727546692 0 24862491.727546692 7182620.7787780762 0 0 0 0 -319939644.98347473 -90619108.399406433 0 -90619108.399406433 -120485089.71646118 0 0 0 0 -79253427.580734253 -75508180.034072876 0 -75508180.034072876 -198394717.73135757 0 0 0 0 49411.755676440895 19351.028655469418 0 19351.028655469418 -25088.351035688072 0 0 0 0 -163014456.43194199 56078831.149497986 0 56078831.149497986 16558260.917358398 0 0 0 0 151216309.06968689 151652440.78015137 0 151652440.78015137 228732510.883255 0 0 0 0 -36646184.372837067 57042725.062606812 0 57042725.062606812 186981099.63050461 0 0 0 0 28500036.741405487 -11345234.582603455 0 -11345234.582603455 101218065.70956421 0 0 0 0 -20090778.335893631 80915950.418884277 0 80915950.418884277 205052586.59148216 0 0 0 0 -408485.19710814301 1225148.2425677273 0 1225148.2425677273 -189047.18990038149 0 0 0 0 28667513.327949524 24232297.192726135 0 24232297.192726135 61351865.292289734 0 0 0 0 -8318646.6191215515 22308000.682823181 0 22308000.682823181 171815142.06494141 0 0 0 0 4997580.0274753571 17580780.321340561 0 17580780.321340561 102050058.78486633 0 0 0 0 9346867.719581604 37316801.607147217 0 37316801.607147217 116146663.21406174 0 0 0 0 2863825.3271636963 18615766.944000244 0 18615766.944000244 123108280.8454628 0 0 0 0 10690193.878166199 23303007.230545044 0 23303007.230545044 56195840.877059937 0 0 0 0 18769427.03336525 41070068.178188324 0 41070068.178188324 52949725.109191895 0 0 0 0 9432028.4944992065 33716972.594696045 0 33716972.594696045 96233151.651004791 0 0 0 0 6845306.6109008789 102682455.71065903 0 102682455.71065903 158302000.73120117 0 0 0 0 8732797.5322818756 6747985.4872589111 0 6747985.4872589111 177097677.56794739 0 0 0 0 -39922362.539186954 21245039.511764526 0 21245039.511764526 91950036.845695496 0 0 0 0 -5556017.1965103149 62781212.539550781 0 62781212.539550781 104635254.25554657 0 0 0 0 27859701.155086517 27964886.249267578 0 27964886.249267578 276680.70515823364 0 0 0 0 11200992.738872528 77419420.444267273 0 77419420.444267273 33050900.838294983 0 0 0 0 50901695.8405056 91503390.272922516 0 91503390.272922516 88570718.367805481 0 0 0 0 46663811.772055686 6580966.8213732243 0 6580966.8213732243 93154342.821029663 0 0 0 0 -3890662.6625289917 -3619169.0840492249 0 -3619169.0840492249 4083630.5630569458 0 0 0 0 586922.52845001221 9482610.5466442108 0 9482610.5466442108 -2516567.9095916748 0 0 0 0 -5765273.4380302429 -1681104.1809196472 0 -1681104.1809196472 9228292.4632415771 0 0 0 0 -4087265.0171012878 -898554.19875335693 0 -898554.19875335693 5546831.217010498 0 0 0 0 238771.43610782921 -1443252.3762911158 0 -1443252.3762911158 871006.99568807334 0 0 0 0 -188072710.39923096 -356332987.2282486 0 -356332987.2282486 51558147.383880615 0 0 0 0 -487049876.81732178 37309263.513504028 0 37309263.513504028 -175790349.22310638 0 0 0 0 98173.00612105336 -399129.14016861515 0 -399129.14016861515 654794.81588960811 0 0 0 0 -2909676.9490242004 -2706708.8286819458 0 -2706708.8286819458 -2488889.7264022827 0 0 0 0 -18282948.456638336 -4089626.5652542114 0 -4089626.5652542114 -2338733.1500544548 0 0 0 0 -10776222.730552673 8882016.4250946045 0 8882016.4250946045 -2068820.0438423157 0 0 0 0 -19653885.258922577 11574671.322418213 0 11574671.322418213 -2482394.9020385742 0 0 0 0 -16436943.435401917 7938194.5770683289 0 7938194.5770683289 -334846.41822814941 0 0 0 0 -21279926.702406883 14230071.658888817 0 14230071.658888817 1383976.4214019775 0 0 0 0 -26105740.103919983 13968034.149040222 0 13968034.149040222 5745647.3047637939 0 0 0 0 -31996865.152606964 4960741.7098007202 0 4960741.7098007202 4459862.4354095459 0 0 0 0 -27878823.195966721 6528130.8451099396 0 6528130.8451099396 457175.14656066895 0 0 0 0 -36272135.764511108 -4670786.7917480469 0 -4670786.7917480469 3543202.2570547014 0 0 0 0 -26272495.62386322 -1407266.0390758514 0 -1407266.0390758514 2148607.9356384277 0 0 0 0 -52970697.839374542 2552863.0698699951 0 2552863.0698699951 10082821.458450317 0 0 0 0 -31961184.918598175 6357531.4147491455 0 6357531.4147491455 10629982.497802734 0 0 0 0 -38530245.695064545 12758085.730987549 0 12758085.730987549 5683670.4159393311 0 0 0 0 -46749918.028504372 16030325.837524414 0 16030325.837524414 13982590.071792603 0 0 0 0 -31935373.924911499 18896093.411125183 0 18896093.411125183 9935531.8584442139 0 0 0 0 -26077971.851575851 -830525.74709320068 0 -830525.74709320068 1337861.5558929443 0 0 0 0 222641501.56567502 218146021.80655527 0 218146021.80655527 224241019.79725647 0 0 0 0 -406313909.09019089 -200313144.03463745 0 -200313144.03463745 460450992.30865479 0 0 0 0 496865.45644026669 -1460676.825039322 0 -1460676.825039322 1080595.5743848048 0 0 0 0 224275832.64000702 -390777943.91457367 0 -390777943.91457367 -461604665.79659081 0 0 0 0 132168799.45403671 -240870624.98940277 0 -240870624.98940277 357246887.48524475 0 0 0 0 75665642.150852203 117880195.44411469 0 117880195.44411469 477629779.72012329 0 0 0 0 73404804.149784088 59793932.62638855 0 59793932.62638855 181497017.10002899 0 0 0 0 63161729.938987732 32858502.730136871 0 32858502.730136871 131367014.76308441 0 0 0 0 45511012.393104553 69209851.521347046 0 69209851.521347046 82866937.815345764 0 0 0 0 33605251.723553777 74873178.892241001 0 74873178.892241001 174881951.85498047 0 0 0 0 91386722.840776443 91348227.405883789 0 91348227.405883789 137452115.24832916 0 0 0 0 109706160.37766266 148324832.09693146 0 148324832.09693146 260949199.42193604 0 0 0 0 89317419.980494499 63583913.11114502 0 63583913.11114502 168184035.40246582 0 0 0 0 231220809.40979886 133736315.93477058 0 133736315.93477058 72996627.687774658 0 0 0 0 154208302.89277649 127497217.7144165 0 127497217.7144165 99924209.487701416 0 0 0 0 59239363.391601562 95572910.620635986 0 95572910.620635986 148174758.7142868 0 0 0 0 70134364.371356964 77826455.539859772 0 77826455.539859772 62774330.83770752 0 0 0 0 77080855.414726257 90305021.411323547 0 90305021.411323547 85137689.8175354 0 0 0 0 186931539.89203644 76606058.893630981 0 76606058.893630981 37957774.069274902 0 0 0 0 88738078.196079254 40864324.018127441 0 40864324.018127441 29474642.840393066 0 0 0 0 167008622.71240997 60349536.990844727 0 60349536.990844727 25728947.756568909 0 0 0 0 -20684381.086763382 96300532.833499908 0 96300532.833499908 87102873.017242432 0 0 0 0 14841422.223162651 114976933.84996128 0 114976933.84996128 84612635.481025696 0 0 0 0 25541754.242008209 80235044.580795288 0 80235044.580795288 80423594.695569038 0 0 0 0 38487019.246667862 99460534.711561203 0 99460534.711561203 108975468.29090881 0 0 0 0 57299795.660866737 84030472.351390839 0 84030472.351390839 98610109.257263184 0 0 0 0 30347172.254066467 73620233.767151833 0 73620233.767151833 90636498.441818237 0 0 0 0 -23341594.729719162 17492128.859069824 0 17492128.859069824 87744381.389251709 0 0 0 0 24959814.090847015 68877716.377906799 0 68877716.377906799 136721919.32710266 0 0 0 0 33146040.029879689 61944790.697164893 0 61944790.697164893 124878882.28889465 0 0 0 0 18448503.179181099 56551574.257759094 0 56551574.257759094 127873808.89942169 0 0 0 0 42023638.405903816 45750743.002351761 0 45750743.002351761 51863618.596862793 0 0 0 0 733751.60067367554 84501468.502296448 0 84501468.502296448 21662271.746688843 0 0 0 0 -1610589.3064556122 90455526.403934479 0 90455526.403934479 116648364.91755295 0 0 0 0 -88541884.610084534 64742245.281309128 0 64742245.281309128 17236372.023708344 0 0 0 0 -247333.21061071451 1234910.117177269 0 1234910.117177269 599540.86324575543 0 0 0 0 8880442.2013111115 70222430.799064636 0 70222430.799064636 36572498.407505035 0 0 0 0 -76382376.464874268 87788188.462984085 0 87788188.462984085 70446421.5417099 0 0 0 0 -32494019.028794765 49611611.133232117 0 49611611.133232117 26719962.666992188 0 0 0 0 -51521709.995037079 130381574.63632202 0 130381574.63632202 81643546.5389328 0 0 0 0 -19856196.88344568 113053214.48208177 0 113053214.48208177 76944514.943878174 0 0 0 0 108612608.95707798 19203820.014982224 0 19203820.014982224 -17100119.664665222 0 0 0 0 17484.95814228067 4441143.3105832264 0 4441143.3105832264 -3719079.2347472757 0 0 0 0 52491197.953230858 46406952.487630844 0 46406952.487630844 8965810.0604858398 0 0 0 0 11642624.722072601 81901446.220149994 0 81901446.220149994 -5133753.0882530212 0 0 0 0 13335587.303827286 22122365.430786133 0 22122365.430786133 12046921.875080109 0 0 0 0 111278152.99176598 27458165.918476105 0 27458165.918476105 9786079.1645926237 0 0 0 0 122011660.98931122 63412749.633806229 0 63412749.633806229 26774422.41122818 0 0 0 0 -67690.430931771873 3974280.8655688027 0 3974280.8655688027 -2284180.294790864 0 0 0 0 176900290.48280728 60881199.92225299 0 60881199.92225299 8008275.3165740967 0 0 0 0 33590299.180100441 95360622.275758743 0 95360622.275758743 40572236.083740234 0 0 0 0 133992335.06999135 94419682.606251717 0 94419682.606251717 39107530.425674438 0 0 0 0 345021243.36841393 96139445.370578766 0 96139445.370578766 -8498862.20520401 0 0 0 0 -179249.42659377816 3205438.2652276652 0 3205438.2652276652 -867636.54409163818 0 0 0 0 -60774511.275165558 115928887.65419388 0 115928887.65419388 92032073.841644287 0 0 0 0 -37274750.079433441 115865461.41907883 0 115865461.41907883 83815307.07624054 0 0 0 0 -37505910.853434086 116101866.50326109 0 116101866.50326109 91522609.410919189 0 0 0 0 -24798075.195295334 118233564.95046616 0 118233564.95046616 88378158.737823486 0 0 0 0 -20355122.756784439 112320030.56355667 0 112320030.56355667 84370333.318218231 0 0 0 0 18279505.896156311 158227818.41065216 0 158227818.41065216 80632584.99206543 0 0 0 0 2323826.7627038956 130764379.79372787 0 130764379.79372787 86568087.670067787 0 0 0 0 -111417990.15625 110116533.22225189 0 110116533.22225189 94464437.652275085 0 0 0 0 -36486690.626585007 121997379.52659225 0 121997379.52659225 88063678.88608551 0 0 0 0 -77140726.423710346 89095149.516353607 0 89095149.516353607 89270819.392723083 0 0 0 0 -199488402.13940048 42915564.820560455 0 42915564.820560455 88315516.556129456 0 0 0 0 -12953392.536497116 153166491.23828888 0 153166491.23828888 78314047.666290283 0 0 0 0 -133863047.20659447 158533954.18525982 0 158533954.18525982 116901268.20530701 0 0 0 0 -219425024.16919136 91133736.673313141 0 91133736.673313141 103098269.79076004 0 0 0 0 -2947108.6310844421 224181552.02255821 0 224181552.02255821 -12020593.806976318 0 0 0 0 -486978214.31622696 77444309.525001526 0 77444309.525001526 56278558.320436478 0 0 0 0 -260902135.18980908 -45221619.731108665 0 -45221619.731108665 42129627.767333984 0 0 0 0 -471743298.94641209 -244112018.97764802 0 -244112018.97764802 -102770657.76104736 0 0 0 0 -196997871.64365768 90884400.263305664 0 90884400.263305664 41128459.493560791 0 0 0 0 252971092.50432587 78339040.566215515 0 78339040.566215515 69245040.537567139 0 0 0 0 218312704.39285183 213664773.11752701 0 213664773.11752701 5668077.2322120667 0 0 0 0 13453997.169314384 169106100.34178162 0 169106100.34178162 145878648.40368652 0 0 0 0 -210443.49695377887 1953421.0470539308 0 1953421.0470539308 -197838.30697229505 0 0 0 0 689946182.23440552 160375511.04519653 0 160375511.04519653 -67287291.568889618 0 0 0 0 400904156.7874403 152130151.1866188 0 152130151.1866188 146763870.51843643 0 0 0 0 395968948.06630778 265983313.49608493 0 265983313.49608493 -85819289.517204285 0 0 0 0 18212452.300971985 293358743.70101547 0 293358743.70101547 87404592.517967224 0 0 0 0 202707330.94298077 51781278.763158798 0 51781278.763158798 -55244888.338172913 0 0 0 0 1183660443.9982376 129743532.690382 0 129743532.690382 -193866788.14025879 0 0 0 0 529029869.32398605 372917418.82173824 0 372917418.82173824 378816.12937164307 0 0 0 0 -204129.9818768056 746663.80570809636 0 746663.80570809636 -45435.240547206253 0 0 0 0 -542198592.26854324 -43555614.199798584 0 -43555614.199798584 39866657.684383392 0 0 0 0 -738586928.82643795 -160480047.50992775 0 -160480047.50992775 -22381120.508049011 0 0 0 0 -1242272.128303075 1900180.642789755 0 1900180.642789755 345748.057023298 0 0 0 0 22884450.216965675 26832793.609855652 0 26832793.609855652 9701211.9543914795 0 0 0 0 -536059265.15056884 25806791.384450436 0 25806791.384450436 4274282.2670288086 0 0 0 0 -89371.172257097438 154883.76087897085 0 154883.76087897085 253753.70956545509 0 0 0 0 -312452464.65468216 32917371.22195816 0 32917371.22195816 -96838153.104560852 0 0 0 0 -371784593.29809761 223827346.31043625 0 223827346.31043625 112603542.69836426 0 0 0 0 -57458357.517396927 141039644.34853745 0 141039644.34853745 -1159497.6324806213 0 0 0 0 -239972718.66915417 337966463.61227608 0 337966463.61227608 -500621.90456390381 0 0 0 0 -952069183.73766899 133760339.33086777 0 133760339.33086777 81091050.618970156 0 0 0 0 -490960124.05639887 308022842.15430832 0 308022842.15430832 73958957.715126038 0 0 0 0 -339231.69182551838 611905.1646688031 0 611905.1646688031 87149.203216120601 0 0 0 0 36754330.926261187 28126208.301534653 0 28126208.301534653 23537.576919555664 0 0 0 0 -1205148069.2152114 -252071547.32860565 0 -252071547.32860565 82539694.170928955 0 0 0 0 12112717.990150452 20119427.228240967 0 20119427.228240967 12727536.657020569 0 0 0 0 10532754.911188602 13531036.889865875 0 13531036.889865875 7353316.9636459351 0 0 0 0 -12107377.687563896 35471036.114284515 0 35471036.114284515 -50069.747911526269 0 0 0 0 -50684336.327327728 6146126.6589450836 0 6146126.6589450836 15565249.958633423 0 0 0 0 -2678677.950129509 19630101.312213898 0 19630101.312213898 15405968.005859375 0 0 0 0 -6109488.3905854225 22982950.120967865 0 22982950.120967865 22794383.151660919 0 0 0 0 19207062.655456543 20841209.884174347 0 20841209.884174347 6482937.6066656113 0 0 0 0 -31094015.771713257 19188062.392547607 0 19188062.392547607 14223337.745973587 0 0 0 0 -3547159.8821807182 5510079.5743568912 0 5510079.5743568912 -2376387.1676118877 0 0 0 0 -182641241.0317955 -57675430.301544189 0 -57675430.301544189 3015313.0267486572 0 0 0 0 -1497934.607302417 -1588195.1737812581 0 -1588195.1737812581 6889216.0063598342 0 0 0 0 -13590944.364796638 -17373905.702785969 0 -17373905.702785969 -1708713.2440872192 0 0 0 0 4363711.2191283703 11394346.51338768 0 11394346.51338768 -13710061.861785889 0 0 0 0 3536604.1379663944 13994849.999813557 0 13994849.999813557 16086508.37046814 0 0 0 0 -8991466.7095565796 4713017.3497619629 0 4713017.3497619629 57971042.349235535 0 0 0 0 -107599163.79760265 6263218.4760284424 0 6263218.4760284424 17508335.004562378 0 0 0 0 -72416770.455595016 37980643.541183472 0 37980643.541183472 42811882.07749176 0 0 0 0 -7157181.9525909424 7581628.612323761 0 7581628.612323761 7020434.107170105 0 0 0 0 -33263197.109963417 9341129.4264659882 0 9341129.4264659882 20849024.182601929 0 0 0 0 -726967.59842554294 1060206.1197174303 0 1060206.1197174303 356476.74641633406 0 0 0 0 23096979.565235138 2158074.4284439087 0 2158074.4284439087 33900108.538139343 0 0 0 0 22026435.724903107 6951914.0917434692 0 6951914.0917434692 1955534.4776153564 0 0 0 0 -3438807.4110357515 5922996.8360786699 0 5922996.8360786699 -2643278.0902302228 0 0 0 0 17399185.099384308 26160300.45368576 0 26160300.45368576 10133810.952423096 0 0 0 0 31027455.682449341 13288453.87512207 0 13288453.87512207 16094558.219268799 0 0 0 0 -13872162.162320852 7466214.7102737427 0 7466214.7102737427 20995663.725149155 0 0 0 0 -2610840.2174777226 966832.68386694975 0 966832.68386694975 5013347.794136323 0 0 0 0 -3088034.0214732289 2748744.1837434769 0 2748744.1837434769 1512953.51197052 0 0 0 0 -722967.49902701378 1209795.0363407135 0 1209795.0363407135 2503854.7495384216 0 0 0 0 -1865757.8399232626 2487389.2458744049 0 2487389.2458744049 4379481.093662262 0 0 0 0 -1277240.9301445608 -22794.813700077124 0 -22794.813700077124 3095022.7882683054 0 0 0 0 -19784955.369839907 -4242598.1742210388 0 -4242598.1742210388 8991834.3951835632 0 0 0 0 -14501827.229693413 -4047124.0140914917 0 -4047124.0140914917 6409622.4793395996 0 0 0 0 -35295493.455984473 -22628391.245963097 0 -22628391.245963097 -11790428.142288208 0 0 0 0 -686549.10390360327 1004478.0644154176 0 1004478.0644154176 385130.5592170842 0 0 0 0 560950.16675407719 1420984.2723577712 0 1420984.2723577712 464010.68211982027 0 0 0 0 367375.74872398376 1802457.0968170166 0 1802457.0968170166 1643.2826461791992 0 0 0 0 -1499497.2965128422 1292178.6100273132 0 1292178.6100273132 6467682.3473510742 0 0 0 0 -277014.48389671894 2183572.1310020424 0 2183572.1310020424 249637.49616928119 0 0 0 0 146851.54178572446 2444478.7897138596 0 2444478.7897138596 2823607.9289627075 0 0 0 0 2253056.4146811962 6040118.6829147339 0 6040118.6829147339 3675.9966316223145 0 0 0 0 -1658329.1577166552 2459507.9539290145 0 2459507.9539290145 -83190.830852020532 0 0 0 0 -8412640.1106885672 -454009.87102890015 0 -454009.87102890015 6075093.8348007202 0 0 0 0 2437868.223279953 2216703.7039031982 0 2216703.7039031982 966.07713923855488 0 0 0 0 860033.14746935968 1006608.8964269236 0 1006608.8964269236 -867452.99308256246 0 0 0 0 -10154106.597150803 -856466.98007965088 0 -856466.98007965088 7695006.448059082 0 0 0 0 -2053678.7168118954 -846005.10837745667 0 -846005.10837745667 1741273.6340560913 0 0 0 0 -3989927.3986058235 2599856.3224220276 0 2599856.3224220276 12230577.035150528 0 0 0 0 305629.61946499348 2513220.0763339996 0 2513220.0763339996 3142374.0145263672 0 0 0 0 -1905612.3542459011 2870109.8842506409 0 2870109.8842506409 3114443.5304012299 0 0 0 0 -5806951.4956989288 3729327.6469726562 0 3729327.6469726562 1670.0939712524414 0 0 0 0 -8911136.9243311882 4892517.0016555786 0 4892517.0016555786 1459471.1963005066 0 0 0 0 1624660.1960067749 4027755.8557281494 0 4027755.8557281494 -3522805.1569061279 0 0 0 0 9717224.1720843315 4862694.8018455505 0 4862694.8018455505 -6922655.6158943176 0 0 0 0 462914.12501598103 548000.72158620134 0 548000.72158620134 -471915.18036942929 0 0 0 0 -5698970.2693910599 2820053.8912658691 0 2820053.8912658691 2041730.3518075943 0 0 0 0 -119654.99789333344 450959.7356262207 0 450959.7356262207 1644914.7987670898 0 0 0 0 -526408.72395539284 3894890.1142749786 0 3894890.1142749786 -1328426.0589752197 0 0 0 0 -3038714.0788083421 2760211.0803247094 0 2760211.0803247094 7985.2055535530671 0 0 0 0 -7663518.0599908829 9697642.7878646851 0 9697642.7878646851 10624357.0552845 0 0 0 0 -3298662.8465729356 6815014.9174547195 0 6815014.9174547195 1688777.5757217407 0 0 0 0 -13006241.658617973 3367917.5391769409 0 3367917.5391769409 933778.65046310425 0 0 0 0 -4479846.2923304876 2964112.1166093908 0 2964112.1166093908 657464.06634256244 0 0 0 0 -1311610.536736846 2886733.6718263626 0 2886733.6718263626 -1214182.7606124878 0 0 0 0 424787.32552814484 3147421.8770980835 0 3147421.8770980835 -2043684.8135986328 0 0 0 0 2060473.4790558815 4261181.5096855164 0 4261181.5096855164 -1903917.5365333557 0 0 0 0 -261264.02610008442 314582.03962294012 0 314582.03962294012 143224.80050117522 0 0 0 0 -3250532.3026874065 5091078.44688797 0 5091078.44688797 -1133039.088394165 0 0 0 0 -954107.34073417191 1254606.218366628 0 1254606.218366628 581768.59407004341 0 0 0 0 -6140162.5055831671 1719575.5862817764 0 1719575.5862817764 2730220.6096496582 0 0 0 0 -13950711.854623318 -2318132.3965702057 0 -2318132.3965702057 6039783.8929710388 0 0 0 0 -3578621.6491742292 1974679.4062211104 0 1974679.4062211104 3065964.7827587798 0 0 0 0 -13856003.141064376 3296396.0697571039 0 3296396.0697571039 815482.79732513428 0 0 0 0 -1844477.1834392548 1877053.6947002411 0 1877053.6947002411 762237.14407348633 0 0 0 0 -4072799.099445343 6756628.9294204712 0 6756628.9294204712 -3617461.859287262 0 0 0 0 -15500446.603132725 2823104.078701973 0 2823104.078701973 2002224.6132049561 0 0 0 0 -5063960.4285225868 2679819.9931774139 0 2679819.9931774139 2965197.2737426758 0 0 0 0 -4465673.4465513229 2389478.9578552246 0 2389478.9578552246 1699178.5090770721 0 0 0 0 -1997850.2819252014 4355533.9697284698 0 4355533.9697284698 -594519.40957641602 0 0 0 0 -1765789.1707618237 3583787.5965270996 0 3583787.5965270996 1859986.2590103149 0 0 0 0 -3287733.7926872037 3037815.6981273144 0 3037815.6981273144 479611.86366704851 0 0 0 0 25487944.575050354 17864990.425292969 0 17864990.425292969 8491234.5738105774 0 0 0 0 -13503328.675195217 29975993.075744629 0 29975993.075744629 94633789.860824585 0 0 0 0 -53024.22292219568 1212975.3085078299 0 1212975.3085078299 -545393.33600144461 0 0 0 0 -8088665.3510494232 14056024.195684433 0 14056024.195684433 2566921.2349243164 0 0 0 0 44797746.713307381 58707295.657279968 0 58707295.657279968 78874962.719419479 0 0 0 0 -9186094.5115594864 55684791.48282814 0 55684791.48282814 187702359.67337036 0 0 0 0 -28523376.971158028 51078682.048248291 0 51078682.048248291 171831338.49747467 0 0 0 0 -17733979.448637962 68705999.347530365 0 68705999.347530365 118977658.50157642 0 0 0 0 6093366.7413768768 46284068.475837708 0 46284068.475837708 54647091.548904419 0 0 0 0 38832049.661939144 5257997.7431969643 0 5257997.7431969643 99880721.995628357 0 0 0 0 -18804741.125938416 35953262.649841309 0 35953262.649841309 122657427.18917084 0 0 0 0 -21488678.945178986 14195224.607299805 0 14195224.607299805 94233728.065437317 0 0 0 0 -2820399.4026823044 1043692.7715301514 0 1043692.7715301514 40104972.140808105 0 0 0 0 -10419532.694623947 17554822.191677094 0 17554822.191677094 24194414.820953369 0 0 0 0 -3855729.7635424137 3759494.2565155029 0 3759494.2565155029 3541454.1164226532 0 0 0 0 8808878.2236702442 -10128776.08223629 0 -10128776.08223629 37174643.402053833 0 0 0 0 -2475298.305588203 2840112.7202547025 0 2840112.7202547025 82267.564187753946 0 0 0 0 2789805.1479434967 10581041.142181396 0 10581041.142181396 9696220.802444458 0 0 0 0 -194926.47190788668 77068.889771003276 0 77068.889771003276 -1913.4944643564522 0 0 0 0 -2772833.29728055 1226905.3793144226 0 1226905.3793144226 2479137.2874755859 0 0 0 0 -1401754.132270813 601087.6946182251 0 601087.6946182251 847664.86933898926 0 0 0 0 -534209.02117788792 1214315.8550386429 0 1214315.8550386429 1966421.1329650879 0 0 0 0 -2114649.3776866114 1144515.6745679863 0 1144515.6745679863 832647.72311042994 0 0 0 0 -2031910.461430426 -231133.29069017572 0 -231133.29069017572 2534812.7666440271 0 0 0 0 9568475.35704422 -6639846.7206192017 0 -6639846.7206192017 23980798.055656433 0 0 0 0 -2077144.7634000897 782558.527742818 0 782558.527742818 1305986.4375903048 0 0 0 0 -22025817.124019623 -1397309.4470176697 0 -1397309.4470176697 6709199.1866798401 0 0 0 0 -21245687.212719321 3988174.0837879181 0 3988174.0837879181 -1584503.9930877686 0 0 0 0 -18702113.321923256 7165142.4138069153 0 7165142.4138069153 -97848.230360031128 0 0 0 0 -28673432.273283482 11484954.489827156 0 11484954.489827156 -1848477.958770752 0 0 0 0 -257970.20188336959 -188600.51316631772 0 -188600.51316631772 463664.33971216343 0 0 0 0 -23434120.893203259 2161152.8148641586 0 2161152.8148641586 -2559658.7364196777 0 0 0 0 -629747.76523251168 -107730.51636831812 0 -107730.51636831812 495189.91545127705 0 0 0 0 83263275.020000696 105780435.51783943 0 105780435.51783943 43802905.355621338 0 0 0 0 21563023.165258408 12674655.35282135 0 12674655.35282135 31743194.783081055 0 0 0 0 66398738.62503624 55628453.1146698 0 55628453.1146698 71508387.419418335 0 0 0 0 16313927.368045807 37755996.931015015 0 37755996.931015015 81749694.670928955 0 0 0 0 -22159496.41146946 84200917.90895462 0 84200917.90895462 75307146.214942932 0 0 0 0 219455343.59331822 104734955.52806282 0 104734955.52806282 -18847664.704864502 0 0 0 0 14187181.874177933 139323787.36804581 0 139323787.36804581 52487512.418746948 0 0 0 0 77227028.500983238 -68587570.116111755 0 -68587570.116111755 -57613490.820058823 0 0 0 0 -23043193.771276474 101639080.92270088 0 101639080.92270088 27703550.185134888 0 0 0 0 -52545.041671581916 -276650.92695514765 0 -276650.92695514765 -21840.060737669468 0 0 0 0 -70219189.904304028 1537560.1384048462 0 1537560.1384048462 9727876.2156257629 0 0 0 0 -36015761.445753381 13806359.770241216 0 13806359.770241216 -3447975.1279754639 0 0 0 0 -35946094.993114471 1995333.610004425 0 1995333.610004425 -397466.38229370117 0 0 0 0 21465245.930362225 67827316.120983124 0 67827316.120983124 37862281.597419739 0 0 0 0 -52732102.398049593 22463429.465723038 0 22463429.465723038 12292080.148834229 0 0 0 0 -11637018.406351089 26969411.396347046 0 26969411.396347046 52770933.567771912 0 0 0 0 25334499.45236969 44159201.442691803 0 44159201.442691803 91587776.139347076 0 0 0 0 30621353.994743347 38294590.329853058 0 38294590.329853058 34191774.306182861 0 0 0 0 -18621424.189085007 34587910.962112427 0 34587910.962112427 41320279.896492004 0 0 0 0 -14944338.725542307 57149635.240487099 0 57149635.240487099 16160342.67326355 0 0 0 0 -15532010.119403839 46192523.572536469 0 46192523.572536469 1677126.6520690918 0 0 0 0 -18356704.47249794 57800625.706581116 0 57800625.706581116 -726453.37252807617 0 0 0 0 -20584379.675159454 39016001.027954102 0 39016001.027954102 10937090.290245056 0 0 0 0 -17677544.774929047 45857325.303520203 0 45857325.303520203 19554434.317810059 0 0 0 0 -21879999.4889431 45371896.63671875 0 45371896.63671875 8375055.2512130737 0 0 0 0 -29727759.899906158 34554091.73526001 0 34554091.73526001 18833974.021697998 0 0 0 0 -29060170.991985321 32471525.936691284 0 32471525.936691284 13941381.988510132 0 0 0 0 -34817858.909603119 26222680.708223343 0 26222680.708223343 8734568.2731323242 0 0 0 0 -19457466.665817261 29737321.068374634 0 29737321.068374634 3893087.3059616089 0 0 0 0 -19709870.260422707 24162467.984284878 0 24162467.984284878 -843655.14015197754 0 0 0 0 -6386861.857925415 35378587.284698486 0 35378587.284698486 -4867447.450958252 0 0 0 0 -19265652.47918579 35765733.71072495 0 35765733.71072495 -4404850.6797027588 0 0 0 0 -6544035.9409561157 44714606.124343872 0 44714606.124343872 -40243451.776382446 0 0 0 0 -12225123.25009346 27124813.073368073 0 27124813.073368073 -9062991.5419082642 0 0 0 0 -8893564.1999499798 17777849.170713902 0 17777849.170713902 -12990720.045204163 0 0 0 0 -5696378.5722351074 9029022.1804618835 0 9029022.1804618835 -1890605.3127555847 0 0 0 0 -830397.98222208023 12526166.332166672 0 12526166.332166672 -31914229.500320435 0 0 0 0 21120269.607696533 23822917.36989212 0 23822917.36989212 -128094622.52999115 0 0 0 0 81434.019550119527 573851.6702241078 0 573851.6702241078 -327078.04367229715 0 0 0 0 699843.42111968994 100771179.31377602 0 100771179.31377602 -66963478.653785706 0 0 0 0 4216478.0522305965 5098922.4421386719 0 5098922.4421386719 -2272259.1214256287 0 0 0 0 18234381.235936642 15901292.645294189 0 15901292.645294189 743855.44345855713 0 0 0 0 17050962.217313468 18253951.140516281 0 18253951.140516281 -3496385.1286767721 0 0 0 0 25636378.972043395 22914500.387405396 0 22914500.387405396 -3227585.1100113392 0 0 0 0 -2316103.9379872978 14634438.494001865 0 14634438.494001865 43511364.893791199 0 0 0 0 -368281.92040712084 -947877.73564855335 0 -947877.73564855335 560703.6386545971 0 0 0 0 -49831928.445194006 22636180.83118248 0 22636180.83118248 2853866.8883857727 0 0 0 0 -2095573.7710405588 12401472.899398804 0 12401472.899398804 -9461955.491312027 0 0 0 0 -7575479.4092493057 10978417.702232361 0 10978417.702232361 -305797.7848739624 0 0 0 0 -33079237.660283327 14165906.722373962 0 14165906.722373962 9778924.1066093445 0 0 0 0 -25430531.862405613 8453910.2531139851 0 8453910.2531139851 -5095074.105796814 0 0 0 0 -24837466.747686863 16309830.576820374 0 16309830.576820374 -4454453.2856369019 0 0 0 0 -364250.37109139352 -948469.71305857319 0 -948469.71305857319 513624.35416053236 0 0 0 0 -14441602.964047898 25539317.239441872 0 25539317.239441872 8538075.9324264526 0 0 0 0 -32200516.204487801 7148670.3945007324 0 7148670.3945007324 -5008994.6432964802 0 0 0 0 -46506335.755210161 12943676.432422638 0 12943676.432422638 -97533.004409790039 0 0 0 0 -31794218.762190342 10378435.853507996 0 10378435.853507996 -824017.51447296143 0 0 0 0 -30663183.750566483 5739184.0291290283 0 5739184.0291290283 -7319023.9332408905 0 0 0 0 -30819726.184583664 7054625.7542247772 0 7054625.7542247772 5403054.8286209106 0 0 0 0 -192809.84043962095 -517117.06437215628 0 -517117.06437215628 250130.48043135554 0 0 0 0 -58326119.808998108 11821168.684968948 0 11821168.684968948 10969132.012096405 0 0 0 0 47082739.125774026 26843398.810546875 0 26843398.810546875 -6430469.3896961212 0 0 0 0 9891594.7835035622 28194984.370746613 0 28194984.370746613 -3376981.7993707657 0 0 0 0 -1533482.932872491 83110.51014226675 0 83110.51014226675 568620.26498078182 0 0 0 0 16224617.332032561 15699092.491016865 0 15699092.491016865 2517722.6206245422 0 0 0 0 -28231774.896195114 1460651.0316438675 0 1460651.0316438675 -1133937.4649581909 0 0 0 0 4875573.377376318 4088708.450799942 0 4088708.450799942 -29208993.912794113 0 0 0 0 1722401.1230000539 102513.19195454568 0 102513.19195454568 -1362992.8023593836 0 0 0 0 -1222159.0372934341 47934687.35993433 0 47934687.35993433 2967247.8843040466 0 0 0 0 -1466497.6536030769 -7664885.0523166656 0 -7664885.0523166656 -10054213.016311169 0 0 0 0 -5817571.1999170016 7256068.6385830268 0 7256068.6385830268 -1387959.0329472609 0 0 0 0 -28514706.092524856 5385644.013425827 0 5385644.013425827 12846714.538986206 0 0 0 0 -3206008.3279795647 22707089.337566376 0 22707089.337566376 -17202469.454113007 0 0 0 0 -25163696.621074677 6615994.6913795471 0 6615994.6913795471 8652572.1688308716 0 0 0 0 -23132499.311144829 21372043.613506317 0 21372043.613506317 11303299.957118988 0 0 0 0 13502822.222110569 18759899.112176895 0 18759899.112176895 1517183.2366046906 0 0 0 0 -8827338.4193579126 9096548.6500913501 0 9096548.6500913501 -1204454.1954727173 0 0 0 0 -3931247.4642909449 3849121.8890777845 0 3849121.8890777845 2424964.6375955492 0 0 0 0 -8955324.6530365944 12141180.398736954 0 12141180.398736954 7487428.6883230209 0 0 0 0 -6310098.3868303299 4656598.7650184631 0 4656598.7650184631 -901765.29557418823 0 0 0 0 -4226144.5295410156 6676904.4344940186 0 6676904.4344940186 -7228066.084651947 0 0 0 0 -5839362.6094208248 6829856.6328267753 0 6829856.6328267753 -571341.75527325552 0 0 0 0 -1528966.1027890355 954949.23411103338 0 954949.23411103338 -466593.28361265361 0 0 0 0 -6552764.4228687286 8941564.7113227844 0 8941564.7113227844 4286967.7930831909 0 0 0 0 -4437875.0857143402 8924513.3453483582 0 8924513.3453483582 -5665897.7276573181 0 0 0 0 -6416791.9443435669 4023757.257183075 0 4023757.257183075 1056878.8887252808 0 0 0 0 -6481280.5527801514 5092958.2384033203 0 5092958.2384033203 7135.2855844652695 0 0 0 0 -7665305.0734767914 5559536.4293651581 0 5559536.4293651581 -16651.037475585938 0 0 0 0 -5136625.4330358505 8313368.3524894714 0 8313368.3524894714 -244590.58688354492 0 0 0 0 -4907870.9673156738 8362004.5203170776 0 8362004.5203170776 -847159.29259681702 0 0 0 0 -5374419.229186058 7264788.613571167 0 7264788.613571167 -3188125.1511688232 0 0 0 0 -6575881.261054039 10510921.333471298 0 10510921.333471298 -2851.025577545166 0 0 0 0 -5064040.0114116669 9844811.4733467102 0 9844811.4733467102 -175693.04014968872 0 0 0 0 -4420624.8949032649 10501988.563590348 0 10501988.563590348 -1620870.6387329102 0 0 0 0 -4818457.7514410019 9852319.4723262787 0 9852319.4723262787 -544543.61721801758 0 0 0 0 -4618473.843650341 9500449.0577430725 0 9500449.0577430725 7169.2592239379883 0 0 0 0 -4203765.4906082153 9895677.7574729919 0 9895677.7574729919 369252.76684379578 0 0 0 0 -5123737.3652601242 8482463.3172693253 0 8482463.3172693253 1208862.600692749 0 0 0 0 -6271568.9960193634 7229511.1214561462 0 7229511.1214561462 -55847.772361755371 0 0 0 0 15787536.390321732 11213650.648134232 0 11213650.648134232 -11904402.231426239 0 0 0 0 -307020.2716589123 1669063.2950268313 0 1669063.2950268313 -1894612.5719921626 0 0 0 0 -8441589.8687496185 10963854.526584625 0 10963854.526584625 3109794.3379821777 0 0 0 0 -1699994.7241358757 14993354.43462944 0 14993354.43462944 4503069.0999526978 0 0 0 0 -3166381.5146808624 5275595.4527664185 0 5275595.4527664185 -1929196.352684021 0 0 0 0 7114830.5973987579 12415954.327495575 0 12415954.327495575 -8841.9644165039062 0 0 0 0 -15626547.307498932 6590264.0771713257 0 6590264.0771713257 -538776.74113464355 0 0 0 0 -14455074.430467606 10783725.560358047 0 10783725.560358047 5478.3816184997559 0 0 0 0 -15582151.005782001 17283149.165626541 0 17283149.165626541 -6611078.2062301636 0 0 0 0 192480.53004476056 314378.38748168945 0 314378.38748168945 25578.635830834508 0 0 0 0 -4791312.4429206848 -2014787.28931427 0 -2014787.28931427 578685.45796203613 0 0 0 0 -12521645.808885574 22237866.45999527 0 22237866.45999527 -3560267.1321105957 0 0 0 0 -18400108.584999084 16909598.214466095 0 16909598.214466095 2281834.8337402344 0 0 0 0 -13955186.84935379 3313155.9581985474 0 3313155.9581985474 5706012.0724182129 0 0 0 0 1317328.8882713318 22325824.874614716 0 22325824.874614716 -10709751.667118073 0 0 0 0 778161.85349546745 8266898.0368588977 0 8266898.0368588977 -4318922.9947688449 0 0 0 0 817598.27984905243 8439015.2114238739 0 8439015.2114238739 -11880271.477111816 0 0 0 0 -360716.6187286377 9732883.4463653564 0 9732883.4463653564 -7447473.1889266968 0 0 0 0 -3908488.6276092529 18931811.502326965 0 18931811.502326965 -3087927.4506034851 0 0 0 0 4939831.451789856 13863604.643783569 0 13863604.643783569 -4935112.6430053711 0 0 0 0 -2697580.1145706177 6022122.5895690918 0 6022122.5895690918 1295266.4083065987 0 0 0 0 -9433.1338707525283 103078.25130827911 0 103078.25130827911 197775.11069064355 0 0 0 0 -10936553.342285156 12191104.507385254 0 12191104.507385254 5249374.2798919678 0 0 0 0 -318797.91627883911 8382401.9182128906 0 8382401.9182128906 2205099.7152061462 0 0 0 0 -993733.40990586765 3109549.8907047994 0 3109549.8907047994 -4800286.6038737893 0 0 0 0 -19368978.507188797 11517672.528944016 0 11517672.528944016 52834838.907676697 0 0 0 0 9753374.5445766449 -10546288.561031342 0 -10546288.561031342 49869088.285003662 0 0 0 0 4848422.9921188354 25541915.804890633 0 25541915.804890633 15709822.582984924 0 0 0 0 13600598.348564148 4477541.6326980591 0 4477541.6326980591 -18758635.595682144 0 0 0 0 707552.99076055456 776519.10372986924 0 776519.10372986924 -2307066.236615885 0 0 0 0 5357781.1826171875 -12492993.730484009 0 -12492993.730484009 43114232.659431458 0 0 0 0 -1756986.4526023865 3002022.4936275482 0 3002022.4936275482 10287865.031578064 0 0 0 0 -3773924.6418952942 17733522.18780899 0 17733522.18780899 5521488.0765402317 0 0 0 0 -1838336.4566993713 1642650.6708450317 0 1642650.6708450317 6858869.6987094879 0 0 0 0 5154943.8948552608 1297781.5733146667 0 1297781.5733146667 -5444904.1750907898 0 0 0 0 -10475882.524717331 7438370.2348632812 0 7438370.2348632812 5377769.6247406006 0 0 0 0 -2161388.9759965036 4789682.5383288227 0 4789682.5383288227 -63108.359213106334 0 0 0 0 1959747.2178797722 8006867.6322879791 0 8006867.6322879791 -12324610.273555756 0 0 0 0 -5650493.2730039675 8014946.5123425517 0 8014946.5123425517 -1607414.3152288534 0 0 0 0 -2709943.6734207869 19399257.90756321 0 19399257.90756321 -1834868.0464897156 0 0 0 0 -885942.59854291042 6412702.7104918491 0 6412702.7104918491 -2198819.0005781353 0 0 0 0 865174.31565733347 8853196.0861019697 0 8853196.0861019697 -4298658.1036431529 0 0 0 0 2810388.7289295197 13538587.597757339 0 13538587.597757339 -10077595.51909256 0 0 0 0 6471.9021614845842 722616.3033806067 0 722616.3033806067 -71818.117560988525 0 0 0 0 35030068.22297287 28914833.102180481 0 28914833.102180481 16118443.104919434 0 0 0 0 -6410642.4019470215 -1101074.7002983093 0 -1101074.7002983093 5046353.9904928207 0 0 0 0 54382358.003043726 5186770.3601187617 0 5186770.3601187617 3027464.37084198 0 0 0 0 -1520527.7189227734 387809.22592279874 0 387809.22592279874 1196524.8016061746 0 0 0 0 6748295.0205783844 -9826873.620382309 0 -9826873.620382309 -1594865.3872909546 0 0 0 0 -5072773.3771018982 15352519.16500473 0 15352519.16500473 -852.96038407330889 0 0 0 0 -1732678.6552734375 -2765315.757232666 0 -2765315.757232666 -5175869.7672119141 0 0 0 0 -1777698.9108161926 -2679828.4756240845 0 -2679828.4756240845 -4328439.8140563965 0 0 0 0 -1792678.2892131805 -2921128.9604244232 0 -2921128.9604244232 -5106437.0107650757 0 0 0 0 -1249302.0444596987 463059.47546451818 0 463059.47546451818 768424.70351910591 0 0 0 0 813615.21671676636 -1509426.3457527161 0 -1509426.3457527161 -1964436.0486602783 0 0 0 0 1481486.35405159 6014811.1642074585 0 6014811.1642074585 -6068258.4666786194 0 0 0 0 -6012281.6497001648 5654217.6380195618 0 5654217.6380195618 -12761.100395202637 0 0 0 0 -1571427.2338602152 367450.08945912682 0 367450.08945912682 1036219.1914592944 0 0 0 0 -8601810.9936084747 9304471.879825592 0 9304471.879825592 -4915615.5918197632 0 0 0 0 -8384752.0298995972 9981317.1505584717 0 9981317.1505584717 -2858940.9404602051 0 0 0 0 -1395985.9150924683 3704977.2731285095 0 3704977.2731285095 -5108264.5385681391 0 0 0 0 -3685052.5377998352 10206743.471450806 0 10206743.471450806 -19184395.690517426 0 0 0 0 -1287291.0802431628 459095.73822318483 0 459095.73822318483 609066.62206125259 0 0 0 0 1051622.688741345 1685767.0178519934 0 1685767.0178519934 -1661575.9855219647 0 0 0 0 -1347946.9883756787 1990463.8796273442 0 1990463.8796273442 -447906.81008768082 0 0 0 0 -1512605.0372581482 -2358190.6537857056 0 -2358190.6537857056 -6766141.486076355 0 0 0 0 898390.47675132751 974569.91894721985 0 974569.91894721985 -14421541.828369141 0 0 0 0 -1577589.275226593 723303.16472625732 0 723303.16472625732 -9335770.795841217 0 0 0 0 138937.47348594666 1616156.4953308105 0 1616156.4953308105 -1904922.7107162476 0 0 0 0 -78111.363669045269 1238226.0327491499 0 1238226.0327491499 -1793306.3812520127 0 0 0 0 95627.291794599965 6562992.0999633111 0 6562992.0999633111 -1990315.6789710727 0 0 0 0 1106905.2612457275 855759.86423110962 0 855759.86423110962 -23010428.414993286 0 0 0 0 709700.22834517248 6794423.9924503062 0 6794423.9924503062 -2567260.4612568785 0 0 0 0 -1975562.3477897644 20981424.301935196 0 20981424.301935196 43416044.756404877 0 0 0 0 -551206.9888458252 1987654.9441680908 0 1987654.9441680908 -19312035.176826477 0 0 0 0 -563586.50971221924 994195.92796325684 0 994195.92796325684 -20809309.230209351 0 0 0 0 1166054.5987930298 -1269551.0674057007 0 -1269551.0674057007 -14844138.712463379 0 0 0 0 -1551997.357791245 3821344.1440993547 0 3821344.1440993547 -19313316.383651733 0 0 0 0 1387340.1520462036 -1460906.7343597412 0 -1460906.7343597412 -14914523.670303345 0 0 0 0 -253670.38092659228 4752.5418165270239 0 4752.5418165270239 320541.54275222123 0 0 0 0 697113.78099822998 -3587743.7729492188 0 -3587743.7729492188 6160006.2824707031 0 0 0 0 -267885.21595596708 2745361.3819620758 0 2745361.3819620758 -1842859.5728773915 0 0 0 0 -599889.35229492188 5555583.2303466797 0 5555583.2303466797 1897426.6365966797 0 0 0 0 679514.3346786499 -2373096.1700744629 0 -2373096.1700744629 -16349461.995315552 0 0 0 0 753291.33868991956 1087225.248811271 0 1087225.248811271 -1411443.6231500767 0 0 0 0 731978.13844299316 532824.89440917969 0 532824.89440917969 -3353443.6087341309 0 0 0 0 -979270.72965621948 327049.56285858154 0 327049.56285858154 -20012705.607971191 0 0 0 0 -1758428.4866409302 1315817.3588294983 0 1315817.3588294983 -20190170.744750977 0 0 0 0 84517.280280748382 1303555.7994723488 0 1303555.7994723488 -399447.62358435686 0 0 0 0 -1617999.1257743835 670790.18467712402 0 670790.18467712402 -20766743.999475479 0 0 0 0 -1927412.391711235 1167190.7048578262 0 1167190.7048578262 -20256720.531425476 0 0 0 0 1245739.936501421 6750426.4489729851 0 6750426.4489729851 -2745170.4132478321 0 0 0 0 -2285183.0051803589 -1665327.3931884766 0 -1665327.3931884766 -27653587.055683136 0 0 0 0 833164.85540008545 -12888.840817451477 0 -12888.840817451477 -1139146.3977622986 0 0 0 0 -385882.81894111633 13477874.527435303 0 13477874.527435303 17392099.922363281 0 0 0 0 1911211.9874572754 10282457.549890518 0 10282457.549890518 6423709.1102142334 0 0 0 0 -2616705.1848239899 17069568.880281448 0 17069568.880281448 14711940.722053528 0 0 0 0 1501201.2619094849 22971260.785769463 0 22971260.785769463 22821824.317623138 0 0 0 0 8336930.6829462051 19697316.165346146 0 19697316.165346146 5096082.3307189941 0 0 0 0 2817574.9526481628 11629697.229412079 0 11629697.229412079 8359186.6696395874 0 0 0 0 8499281.7515659332 9990505.1179008484 0 9990505.1179008484 3032269.7155303955 0 0 0 0 5649455.276222229 1578991.4239807129 0 1578991.4239807129 -11443579.970379829 0 0 0 0 -594939.96101856232 34593552.156359673 0 34593552.156359673 -4085395.7275390625 0 0 0 0 -28095815.923566818 -1852943.4818267822 0 -1852943.4818267822 42699638.202003479 0 0 0 0 724230.86809664778 422806.95264319144 0 422806.95264319144 -513772.98651665077 0 0 0 0 -39607338.13479805 9545948.5732469559 0 9545948.5732469559 3418214.2010498047 0 0 0 0 -26885116.017546654 -12341853.026643753 0 -12341853.026643753 -6881596.9445343018 0 0 0 0 -8448833.6309051514 8019028.2543087006 0 8019028.2543087006 3490411.3146972656 0 0 0 0 -21054372.284946442 -1138535.7910194397 0 -1138535.7910194397 13523720.880599976 0 0 0 0 -2744345.120621223 3028344.1850295067 0 3028344.1850295067 1736425.4389336351 0 0 0 0 -704423.18180274963 3167268.0106277466 0 3167268.0106277466 2414535.9474163055 0 0 0 0 -1681218.0452194214 993015.33646011353 0 993015.33646011353 1532481.8307723999 0 0 0 0 -12166082.896747589 3439871.6228275299 0 3439871.6228275299 23684366.910240173 0 0 0 0 1859837.8173065186 1545459.7832756042 0 1545459.7832756042 13775578.725799561 0 0 0 0 -3825507.8215722796 2200465.8371891771 0 2200465.8371891771 2207662.0463085324 0 0 0 0 -5442956.5333609581 418407.97567844391 0 418407.97567844391 2425331.1157531738 0 0 0 0 -9925818.6393890381 -6221598.6784172058 0 -6221598.6784172058 21422955.678001404 0 0 0 0 -3139349.6057243347 1805826.3361282349 0 1805826.3361282349 1783721.8540153503 0 0 0 0 3896886.2727050781 -3757626.2528381348 0 -3757626.2528381348 15668219.572166443 0 0 0 0 -6638069.4469718933 730850.13856887817 0 730850.13856887817 14316935.020093918 0 0 0 0 -3062824.5043754578 -195812.78062820435 0 -195812.78062820435 -2941905.6741943359 0 0 0 0 -244870.8566570282 7358270.7733535767 0 7358270.7733535767 8499425.1067352295 0 0 0 0 261736.93014907837 -4990734.4753017426 0 -4990734.4753017426 5697094.9533233643 0 0 0 0 1884249.1802635193 4287695.4428062439 0 4287695.4428062439 1361993.4441747665 0 0 0 0 548717.45028366148 885764.26112834364 0 885764.26112834364 274958.62435857765 0 0 0 0 -930433.41728806496 5391758.2586344201 0 5391758.2586344201 1575422.7780016288 0 0 0 0 -3522152.5924999923 1548376.3596712714 0 1548376.3596712714 2750805.6105773412 0 0 0 0 -1988186.5330615044 6687731.5158996582 0 6687731.5158996582 3459445.9368209839 0 0 0 0 -1983192.9147491455 940658.50019073486 0 940658.50019073486 16955757.212768555 0 0 0 0 4848747.817237854 2831894.8005828857 0 2831894.8005828857 -6668992.7330627441 0 0 0 0 -147261.58133038227 265218.47034561262 0 265218.47034561262 67929.699717745185 0 0 0 0 92900.647441541776 174721.21750369854 0 174721.21750369854 -303204.62743786536 0 0 0 0 -332258.28072357178 2768646.810754776 0 2768646.810754776 5308507.9306850433 0 0 0 0 408306.90118408203 1045746.1429548264 0 1045746.1429548264 -4142622.8169670105 0 0 0 0 83402.004076931626 1320878.4068130255 0 1320878.4068130255 1408788.4952769782 0 0 0 0 -4816085.2825775146 6946246.6367225647 0 6946246.6367225647 11197139.327285767 0 0 0 0 -1033392.3823161777 3617268.5118663553 0 3617268.5118663553 653771.734511788 0 0 0 0 646266.59794807434 7502681.6545295715 0 7502681.6545295715 6722159.3804168701 0 0 0 0 1483206.4963188171 -12132980.545688629 0 -12132980.545688629 10565343.558125019 0 0 0 0 -10327095.393028259 -2536575.7296943665 0 -2536575.7296943665 7566980.9085235596 0 0 0 0 -17746677.240493774 -1205312.0651512146 0 -1205312.0651512146 11905957.894791126 0 0 0 0 -5155038.6566836834 1447144.5319080353 0 1447144.5319080353 6958849.569234848 0 0 0 0 7824599.4976730347 -5677704.8731536865 0 -5677704.8731536865 5612453.5559921265 0 0 0 0 -1991051.1047363281 1589734.9526481628 0 1589734.9526481628 1825425.8275585175 0 0 0 0 -1843491.8369604219 2744651.2569382377 0 2744651.2569382377 -733259.7405308038 0 0 0 0 10792391.158737183 -11219418.145378113 0 -11219418.145378113 11124044.491184235 0 0 0 0 2503466.4876422882 -7859391.2931623459 0 -7859391.2931623459 17291372.353858948 0 0 0 0 404773.31521606445 10561237.58934021 0 10561237.58934021 6938348.2702045441 0 0 0 0 31947173.845600128 9224556.5973815918 0 9224556.5973815918 6713121.125087738 0 0 0 0 9460888.9881079197 7926271.738907814 0 7926271.738907814 1693848.7281341553 0 0 0 0 -10128712.416908264 6546962.1965827942 0 6546962.1965827942 47919163.245671272 0 0 0 0 -9928574.4660053253 -12173763.652284622 0 -12173763.652284622 -2230649.67162323 0 0 0 0 7046879.5740699768 18073917.130397797 0 18073917.130397797 -37640068.45463562 0 0 0 0 -19248194.898433685 31225211.015987396 0 31225211.015987396 -17784219.187644958 0 0 0 0 7589212.2957805395 7820674.5364383459 0 7820674.5364383459 -4469805.2112884521 0 0 0 0 3607209.8470420837 4735273.8362693787 0 4735273.8362693787 3628095.9567489624 0 0 0 0 -3922374.8983955383 11069868.448188782 0 11069868.448188782 1973771.9536151886 0 0 0 0 4488337.8568153381 16839682.707824707 0 16839682.707824707 -19984638.386474609 0 0 0 0 6056935.7456321716 23204156.686187744 0 23204156.686187744 -20670845.712976456 0 0 0 0 -61632.710876464844 30330038.888040543 0 30330038.888040543 -26844831.506614685 0 0 0 0 -28787785.862766266 22790953.981193542 0 22790953.981193542 -3466262.343503952 0 0 0 0 9765.5703338328749 -24905.768127702177 0 -24905.768127702177 -285747.06606239453 0 0 0 0 12304118.786389351 6005107.3294057846 0 6005107.3294057846 -6930290.0096740723 0 0 0 0 10184620.105340242 16674898.61573267 0 16674898.61573267 -26921218.351753235 0 0 0 0 19373940.397262573 -78866392.315879822 0 -78866392.315879822 53346607.286048889 0 0 0 0 -3406672.7946052551 15841365.490531921 0 15841365.490531921 -4774453.0355682373 0 0 0 0 2870128.8955535889 14329097.052886963 0 14329097.052886963 -5832083.239151001 0 0 0 0 2521770.7479248047 21789660.120567322 0 21789660.120567322 -19761910.789550781 0 0 0 0 -547777.06359481812 7145331.591003418 0 7145331.591003418 16070834.722702026 0 0 0 0 -13924985.409355164 8675503.6806106567 0 8675503.6806106567 13066193.139915466 0 0 0 0 648608.14931488037 7262057.9488372803 0 7262057.9488372803 13100049.754761815 0 0 0 0 -1207780.4781350838 -238185.39757259935 0 -238185.39757259935 329085.0171835646 0 0 0 0 -2439162.2828598022 15992898.513660431 0 15992898.513660431 16612168.622679949 0 0 0 0 -343438.93354225159 -7154391.8130817413 0 -7154391.8130817413 4683808.5654907227 0 0 0 0 -4570272.9078723202 5499402.2366920337 0 5499402.2366920337 1646438.0306590218 0 0 0 0 -719734.2145652771 3242285.9111099243 0 3242285.9111099243 5083672.1203689575 0 0 0 0 -1084926.7113467231 1846157.3020635229 0 1846157.3020635229 174030.89353925735 0 0 0 0 1163174.834487915 3434856.8629989624 0 3434856.8629989624 3756100.9766540527 0 0 0 0 -2833025.8989050677 -157728.44693398289 0 -157728.44693398289 328506.84522617236 0 0 0 0 3913250.695649147 9937195.7917633057 0 9937195.7917633057 1792044.5862426758 0 0 0 0 2112308.1919264793 8005865.1154670715 0 8005865.1154670715 -9772890.9073562622 0 0 0 0 -2969724.9209405538 2778042.4680537991 0 2778042.4680537991 -1207798.3171032332 0 0 0 0 -14584752.633148193 18650547.501186371 0 18650547.501186371 -14440327.780593872 0 0 0 0 5640410.2868719101 8174500.1035480499 0 8174500.1035480499 -3273379.2704925537 0 0 0 0 5546373.6769981384 3439830.1370697021 0 3439830.1370697021 4913322.0803413391 0 0 0 0 562263.69665246364 409166.10005076416 0 409166.10005076416 -386101.4675928615 0 0 0 0 1303310.4342730148 5525024.3871134296 0 5525024.3871134296 78975.511349967681 0 0 0 0 -3611100.7048625946 9712919.283405304 0 9712919.283405304 1310222.289390564 0 0 0 0 982634.56542634964 12637809.569419861 0 12637809.569419861 -5593215.0904254913 0 0 0 0 -855336.38230124209 2830726.357451465 0 2830726.357451465 748429.77634030394 0 0 0 0 -1147141.2267203331 6342070.7725124359 0 6342070.7725124359 4490570.694480896 0 0 0 0 -1615709.6140193939 7875178.8306179047 0 7875178.8306179047 4935310.4764633179 0 0 0 0 -32422299.36315155 58681092.019210815 0 58681092.019210815 -66847120.228942871 0 0 0 0 -2395048.2233339092 2683317.8989810031 0 2683317.8989810031 -1239033.184763968 0 0 0 0 166704.68428945541 12125304.626880646 0 12125304.626880646 11049709.999269485 0 0 0 0 24245350.76559639 10778933.061004639 0 10778933.061004639 -18987121.525039673 0 0 0 0 519879.85596108437 4987391.9733695984 0 4987391.9733695984 -4955923.869972229 0 0 0 0 -3256213.2785204649 12946333.624362946 0 12946333.624362946 87770306.475933075 0 0 0 0 -267197.66252527083 919754.76397356577 0 919754.76397356577 262941.62967429124 0 0 0 0 5967668.0766820908 19535269.70070219 0 19535269.70070219 52732340.641113281 0 0 0 0 8301270.9581539631 24440959.459932327 0 24440959.459932327 42148330.544532776 0 0 0 0 -2318734.1670255661 20026312.307010651 0 20026312.307010651 52431412.781364441 0 0 0 0 1818493.549536705 24707082.812294006 0 24707082.812294006 37156362.523022652 0 0 0 0 -3635706.8459849358 15018634.528813362 0 15018634.528813362 35405611.91368103 0 0 0 0 -2914711.1612167358 2852431.1958618164 0 2852431.1958618164 45339477.477104187 0 0 0 0 -223352.70564222336 7928235.629858017 0 7928235.629858017 28447751.624279022 0 0 0 0 -4040586.6005926132 7992778.5289459229 0 7992778.5289459229 32664191.301612854 0 0 0 0 -4608465.717851162 4842500.7729005814 0 4842500.7729005814 19148758.764190674 0 0 0 0 -2815667.1854801178 15619064.689865112 0 15619064.689865112 33749538.326347351 0 0 0 0 793616.90282964706 4879678.4980649948 0 4879678.4980649948 4293969.0673522949 0 0 0 0 -1842829.3018340804 1594013.8284772001 0 1594013.8284772001 521158.51376777329 0 0 0 0 -573339.20444624592 -193311.57324946113 0 -193311.57324946113 109276.35361557826 0 0 0 0 365294.74898433685 3309094.0264282227 0 3309094.0264282227 8134656.1997528076 0 0 0 0 2806527.8434619904 11319634.459564209 0 11319634.459564209 16904146.345878601 0 0 0 0 -4750242.4064674377 9300057.3780517578 0 9300057.3780517578 28299763.041671753 0 0 0 0 -2535882.6458435059 13676503.32976532 0 13676503.32976532 29192737.457971573 0 0 0 0 -2328263.484992981 13781634.80317688 0 13781634.80317688 25733688.112548828 0 0 0 0 -3223837.7745437622 14665502.227989197 0 14665502.227989197 24938104.664505005 0 0 0 0 2615634.0620179772 15663918.93097496 0 15663918.93097496 24449824.911972046 0 0 0 0 -3435288.8627471924 16687435.702896118 0 16687435.702896118 27456858.112628937 0 0 0 0 -2031025.8525834084 14320347.021118164 0 14320347.021118164 23692635.389633179 0 0 0 0 -2538687.4820823669 17375289.438362122 0 17375289.438362122 30616828.477844238 0 0 0 0 -2833534.7707090378 16395334.649799347 0 16395334.649799347 27580371.191207886 0 0 0 0 -1629305.9425172806 19686077.742870331 0 19686077.742870331 27943754.066558838 0 0 0 0 -2119074.117685318 19538731.091506958 0 19538731.091506958 28925014.005535126 0 0 0 0 -3320861.3426780701 17208890.200775146 0 17208890.200775146 32954682.310344696 0 0 0 0 -3723358.4937934875 13929399.964271545 0 13929399.964271545 29346830.287414551 0 0 0 0 -4100775.7196922302 14884120.115318298 0 14884120.115318298 33627951.264221191 0 0 0 0 -2561998.8344898224 21318934.749809265 0 21318934.749809265 33727387.145852089 0 0 0 0 -3980433.0789175034 16921022.79258728 0 16921022.79258728 33105415.550216675 0 0 0 0 -3717020.3874330521 17690717.243385315 0 17690717.243385315 39136042.477546692 0 0 0 0 -1066127.5239543915 22309766.180557251 0 22309766.180557251 30505400.503479004 0 0 0 0 -1011606.1843700409 23038134.086815596 0 23038134.086815596 36277782.648498535 0 0 0 0 -1503851.1348972321 22124269.114902496 0 22124269.114902496 30455488.829086304 0 0 0 0 -2295593.7885508537 21420570.575944901 0 21420570.575944901 27122584.338989258 0 0 0 0 -2979564.301346302 19903902.020490646 0 19903902.020490646 28932379.703140259 0 0 0 0 -2298416.9345207214 21156572.11510849 0 21156572.11510849 29895906.978931427 0 0 0 0 -1513657.8057432175 22266442.074432373 0 22266442.074432373 28516847.287948608 0 0 0 0 1346891.9572191238 22269216.777233124 0 22269216.777233124 21420952.246994019 0 0 0 0 -2817355.6870107651 20189978.101890564 0 20189978.101890564 26849076.437358856 0 0 0 0 2915887.5001804829 25709283.546560287 0 25709283.546560287 25551435.725822449 0 0 0 0 2906497.3092947006 25594586.825241089 0 25594586.825241089 27049590.341644287 0 0 0 0 -3192709.5346300006 18084984.176402092 0 18084984.176402092 30263796.973155975 0 0 0 0 17444314.864908218 34527113.433208466 0 34527113.433208466 20070504.070922852 0 0 0 0 -1197951.287158692 4935914.1222651321 0 4935914.1222651321 2193402.021377448 0 0 0 0 2146278.6125437617 26503118.681537628 0 26503118.681537628 38362849.640533447 0 0 0 0 5322912.6400771141 28537421.056537628 0 28537421.056537628 36317715.526836395 0 0 0 0 7815085.5920251757 24179718.595790863 0 24179718.595790863 39022712.970863342 0 0 0 0 7150758.9850830436 28531065.89605999 0 28531065.89605999 36847589.845542908 0 0 0 0 4219575.6605834961 28099937.268497467 0 28099937.268497467 37213708.450584412 0 0 0 0 4138934.1815800667 28947660.304416656 0 28947660.304416656 30274841.587371826 0 0 0 0 1607696.7037696838 24670283.28017807 0 24670283.28017807 42650659.592979431 0 0 0 0 -2534228.0922317505 3825349.8835220337 0 3825349.8835220337 3993091.5751838684 0 0 0 0 -3382533.2261552811 5756866.7354254723 0 5756866.7354254723 5520976.0356369019 0 0 0 0 -3146347.624256134 10986214.305427551 0 10986214.305427551 15982348.415241241 0 0 0 0 4782376.8294487 2883934.2115497589 0 2883934.2115497589 10416434.042194366 0 0 0 0 165486.58025336266 7627504.1870191097 0 7627504.1870191097 5629719.4099807739 0 0 0 0 833756.9069108963 3863561.1336488724 0 3863561.1336488724 3241839.9481811523 0 0 0 0 1327008.4308376312 2666921.0658893585 0 2666921.0658893585 -2584647.4800720215 0 0 0 0 -658000.9447593689 5206383.6540107727 0 5206383.6540107727 8833853.3795776367 0 0 0 0 1172464.3121109009 14067196.238792419 0 14067196.238792419 9577439.2867279053 0 0 0 0 4325095.1622161865 12090633.005748749 0 12090633.005748749 1970122.3580932617 0 0 0 0 -2896412.8398351669 975253.82310771942 0 975253.82310771942 1841896.3136825562 0 0 0 0 -6681896.5267982483 892547.46332931519 0 892547.46332931519 4156589.6530151367 0 0 0 0 -4225318.0976760956 734631.05869450513 0 734631.05869450513 2222383.9298043326 0 0 0 0 -2944172.1793899536 4677716.367275238 0 4677716.367275238 4700296.1505889893 0 0 0 0 -7454373.3444023132 -6774009.9274597168 0 -6774009.9274597168 2222352.4193325043 0 0 0 0 9252558.7476959229 18667783.903739929 0 18667783.903739929 11552944.486347198 0 0 0 0 5265354.8286724091 9694186.2589645386 0 9694186.2589645386 8079974.0018119812 0 0 0 0 -16497868.874134064 183419.62187194824 0 183419.62187194824 3632442.8035526276 0 0 0 0 7037319.9048633575 13897710.19427681 0 13897710.19427681 16711499.2059021 0 0 0 0 -430103.14596616104 -292618.07805752195 0 -292618.07805752195 -136772.10311636701 0 0 0 0 -817698.64048984647 2525014.1390231997 0 2525014.1390231997 1674536.7608162984 0 0 0 0 -1622760.7963809967 1360504.6246299744 0 1360504.6246299744 724442.68607330322 0 0 0 0 -1991669.1520624161 2728616.9739346504 0 2728616.9739346504 3206348.3933944702 0 0 0 0 -440706.69507120736 1689838.2414101157 0 1689838.2414101157 696647.14026647992 0 0 0 0 -2107000.088181302 265609.56207291223 0 265609.56207291223 309490.4737373814 0 0 0 0 -12589617.610500336 1096665.0464630127 0 1096665.0464630127 12761767.367202759 0 0 0 0 238320.43640136719 2099628.234588623 0 2099628.234588623 5832955.4494628906 0 0 0 0 4325944.5748214722 6607678.0839996338 0 6607678.0839996338 4106863.0513153076 0 0 0 0 -1691571.1331197014 390181.59772361442 0 390181.59772361442 158444.497809764 0 0 0 0 646604.12405395508 7477982.6143112183 0 7477982.6143112183 14756029.935283661 0 0 0 0 -8514570.8915042877 11707895.349151611 0 11707895.349151611 24916075.267990112 0 0 0 0 -963797.5793094635 15026921.774650574 0 15026921.774650574 24078211.249023438 0 0 0 0 4368209.4078559875 12669967.145797729 0 12669967.145797729 16455452.640388489 0 0 0 0 2719639.0959281921 13661175.705101013 0 13661175.705101013 18176389.916187286 0 0 0 0 4024208.932636261 12316191.693504333 0 12316191.693504333 18848345.795623779 0 0 0 0 4216658.3844413757 14755121.645645142 0 14755121.645645142 18026403.786819458 0 0 0 0 4824550.1157283783 17654658.705657959 0 17654658.705657959 16883110.021621704 0 0 0 0 826954.25974655151 17989550.667762756 0 17989550.667762756 22592586.532302856 0 0 0 0 4153791.2411212921 22198313.549385071 0 22198313.549385071 23391057.206623077 0 0 0 0 2940199.3098258972 19751872.897006989 0 19751872.897006989 23716373.28175354 0 0 0 0 4073902.4608049393 21713491.755994797 0 21713491.755994797 21467595.093948364 0 0 0 0 321596.20341014862 23626227.084342957 0 23626227.084342957 28809611.783653259 0 0 0 0 997061.80435943604 26709295.56829834 0 26709295.56829834 33221397.72808075 0 0 0 0 -3517837.0432522297 22114008.811116219 0 22114008.811116219 29102050.386619568 0 0 0 0 52919489.138887405 22794874.668216705 0 22794874.668216705 17339522.602291107 0 0 0 0 13660933.753576279 18276129.296009064 0 18276129.296009064 17499417.097930908 0 0 0 0 15578082.488874435 19782451.259567261 0 19782451.259567261 17579723.269439697 0 0 0 0 11950272.188560486 19863525.472702026 0 19863525.472702026 19101628.057220459 0 0 0 0 13867648.211872101 27580366.980953217 0 27580366.980953217 24093195.676002502 0 0 0 0 8948385.6132640839 21357415.818214417 0 21357415.818214417 20088493.610687256 0 0 0 0 8492340.0240194798 16149976.619012356 0 16149976.619012356 15723205.605102539 0 0 0 0 19944677.981292725 13464080.637741089 0 13464080.637741089 11247009.524986267 0 0 0 0 -2320994.4429935869 -2452363.2496446203 0 -2452363.2496446203 1507118.9470399097 0 0 0 0 -13487597.088721275 -1528382.7398352623 0 -1528382.7398352623 6631052.0116653442 0 0 0 0 -4291422.5579096638 3636042.8492387254 0 3636042.8492387254 4316794.1286336649 0 0 0 0 11404035.762006044 17604427.772882462 0 17604427.772882462 18468427.292884827 0 0 0 0 -554219.70518357377 -1123339.3918211926 0 -1123339.3918211926 430431.66848416626 0 0 0 0 -9684441.1712360382 -10477299.400119781 0 -10477299.400119781 1412357.6453721225 0 0 0 0 -11218794.5925951 -7937815.8716926575 0 -7937815.8716926575 18537402.384147644 0 0 0 0 -5251361.4014968872 -750856.50883483887 0 -750856.50883483887 1372120.9564180821 0 0 0 0 -6821934.8216347694 5957257.2945375443 0 5957257.2945375443 12821931.045684814 0 0 0 0 1076865.9431915283 3661088.8145074844 0 3661088.8145074844 -6151935.350982666 0 0 0 0 -171396.30742454529 -213258.44033527374 0 -213258.44033527374 -18918234.333303452 0 0 0 0 3092108.0594922099 9568346.1017888747 0 9568346.1017888747 4594164.9899297087 0 0 0 0 2329258.8952655792 625677.69503712654 0 625677.69503712654 -34794145.419549942 0 0 0 0 3080046.7348233089 1355677.097397354 0 1355677.097397354 -6963610.5460252166 0 0 0 0 7802932.6449297927 6456135.3005429329 0 6456135.3005429329 -12061728.791209482 0 0 0 0 -77190108.720383629 -5239085.5367623568 0 -5239085.5367623568 192127113.61312866 0 0 0 0 -77667893.101249695 52190740.551631927 0 52190740.551631927 22213106.226585388 0 0 0 0 2121863.3414285332 11070433.776469449 0 11070433.776469449 2985811.5521943644 0 0 0 0 -1493988.4504127502 9033419.3253755569 0 9033419.3253755569 -5827186.9124145508 0 0 0 0 96453550.309657574 75290045.720235825 0 75290045.720235825 30677441.311904907 0 0 0 0 414003.49972343445 -19297261.757446289 0 -19297261.757446289 7497014.5215301514 0 0 0 0 -39453111.133792877 -81744183.386734009 0 -81744183.386734009 312221068.08798218 0 0 0 0 -3861691.1300010681 11335186.168792725 0 11335186.168792725 -6371731.9117188454 0 0 0 0 -5076841.8491783142 9960723.1841850281 0 9960723.1841850281 2060912.051076889 0 0 0 0 -137606.25125186145 1669283.6731508411 0 1669283.6731508411 -1842110.2080295379 0 0 0 0 3673311.2322368231 9168046.5834672041 0 9168046.5834672041 1824015.7993381936 0 0 0 0 158886972.83625412 264895493.08405304 0 264895493.08405304 -377898197.98455811 0 0 0 0 1093129.4615249634 3260237.7372283936 0 3260237.7372283936 -8865566.1094589233 0 0 0 0 3737957.3050426356 10866643.73453813 0 10866643.73453813 369749.13607183308 0 0 0 0 -1324510.7060864829 6336950.2994112922 0 6336950.2994112922 4860191.5041614184 0 0 0 0 41841045.776550293 5166640.3644447327 0 5166640.3644447327 -46926552.176143646 0 0 0 0 -9638607.8420944214 1480725.5084686279 0 1480725.5084686279 -30421316.969044924 0 0 0 0 2711580.8571452759 11766757.052616203 0 11766757.052616203 2462147.2749513378 0 0 0 0 -40581.764783441089 474142.11080491729 0 474142.11080491729 -576337.23723010253 0 0 0 0 -4785562.1072368622 9068428.792224884 0 9068428.792224884 18454481.928730011 0 0 0 0 -2306293.4319438934 9606974.5805931091 0 9606974.5805931091 -282215.57118606567 0 0 0 0 -618367.67867279053 5851698.5212974548 0 5851698.5212974548 4764536.6226987839 0 0 0 0 3189664.8695287704 41938782.055351257 0 41938782.055351257 50953649.426433563 0 0 0 0 34212184.214103699 -24838004.206308365 0 -24838004.206308365 -30451357.114822388 0 0 0 0 -20047725.92183876 15678029.897953987 0 15678029.897953987 2320964.2307815552 0 0 0 0 820728.67980957031 15551954.50793457 0 15551954.50793457 15015658.70010376 0 0 0 0 -11821077.848737717 15072657.834041595 0 15072657.834041595 29635010.795731544 0 0 0 0 3543380.1781089101 10351000.112678701 0 10351000.112678701 -1492994.2102403836 0 0 0 0 -3615510.9591064453 14411751.514636993 0 14411751.514636993 6710509.6491165161 0 0 0 0 -2829078.4067196846 15976609.695261002 0 15976609.695261002 481690.125 0 0 0 0 -563165.34228134155 11815741.093283415 0 11815741.093283415 99577.411712646484 0 0 0 0 -272970.13186645508 9717496.5648231506 0 9717496.5648231506 2863312.6081047058 0 0 0 0 -427040.25903129578 12672688.184475899 0 12672688.184475899 -335200.5118598938 0 0 0 0 -341999.73588251323 5452759.2075079549 0 5452759.2075079549 2237857.0127330907 0 0 0 0 -254294.45058059692 12146640.616632462 0 12146640.616632462 -2890981.0424404144 0 0 0 0 -1093692.5853843689 11456216.914505005 0 11456216.914505005 -1559368.5032901764 0 0 0 0 1578957.0214234758 7790823.9576547798 0 7790823.9576547798 5009433.1675370932 0 0 0 0 -173723925.25009155 90035034.663819313 0 90035034.663819313 2149500.7108163834 0 0 0 0 -149054254.59841919 37107139.98041153 0 37107139.98041153 -71686591.3098526 0 0 0 0 -64331023.485797882 75223822.853271484 0 75223822.853271484 -64158592.768053055 0 0 0 0 -487645.54165193439 955328.99468608573 0 955328.99468608573 795281.86629116512 0 0 0 0 -1883016.6379759312 13915111.14612174 0 13915111.14612174 -2641206.3077354431 0 0 0 0 -1573286.0710716248 9473992.5225811005 0 9473992.5225811005 -2310884.166721344 0 0 0 0 -1046147.337726593 12197057.146009445 0 12197057.146009445 3101708.0045852661 0 0 0 0 116811617.86154175 141474484.20033741 0 141474484.20033741 -130314463.15623856 0 0 0 0 148013723.33509064 105461384.98039305 0 105461384.98039305 7357547.4786872864 0 0 0 0 179328246.20058441 -44495896.100848198 0 -44495896.100848198 -15420822.561901093 0 0 0 0 -202906057.57662201 -40279933.788167953 0 -40279933.788167953 156636637.51209641 0 0 0 0 -203285698.09178162 56210484.507254601 0 56210484.507254601 94145300.400695801 0 0 0 0 -76119303.024635315 -206282255.93003845 0 -206282255.93003845 211848971.46762276 0 0 0 0 6756581.8411026001 -3136013.8376636505 0 -3136013.8376636505 -7434558.2599411011 0 0 0 0 204621.3768081665 49330970.482152939 0 49330970.482152939 -43100362.192527771 0 0 0 0 -48549228.313995361 29201874.907550812 0 29201874.907550812 -8123252.5842475891 0 0 0 0 -46840852.42489624 51314993.479341507 0 51314993.479341507 -45815212.803855896 0 0 0 0 -100321659.46087646 78139599.570261955 0 78139599.570261955 -56282193.252521515 0 0 0 0 -32818857.253444672 35118153.802351952 0 35118153.802351952 -19700456.879657745 0 0 0 0 -40937870.837806702 11893187.040161133 0 11893187.040161133 -80564177.369030952 0 0 0 0 23950980.887813568 46697019.079043388 0 46697019.079043388 -24969907.21121788 0 0 0 0 7676906.7905273438 16046973.578632355 0 16046973.578632355 -48994639.600224972 0 0 0 0 46570980.560239792 62780649.876314878 0 62780649.876314878 -16927186.27437973 0 0 0 0 54260138.132926941 27904867.715906143 0 27904867.715906143 -42232077.661056519 0 0 0 0 8092528.5493531227 16486734.404989839 0 16486734.404989839 -14567457.505180359 0 0 0 0 51714418.223754883 58335772.634187698 0 58335772.634187698 -13964744.125952721 0 0 0 0 56415899.964241028 82259373.165822983 0 82259373.165822983 11385660.092344284 0 0 0 0 58392843.938179016 60932502.262700081 0 60932502.262700081 -31394914.717128754 0 0 0 0 37588155.290584564 60112723.14926815 0 60112723.14926815 -5922273.1685619354 0 0 0 0 43852331.295730591 53454067.451904297 0 53454067.451904297 -20764303.24738884 0 0 0 0 32414611.134159088 42696288.466237068 0 42696288.466237068 -29722717.029119492 0 0 0 0 48744192.051841736 44603867.290193558 0 44603867.290193558 -13762404.687604755 0 0 0 0 28225954.173301697 47412010.572514057 0 47412010.572514057 -13785251.325950623 0 0 0 0 22553117.630069733 37532980.005678177 0 37532980.005678177 9619042.811044693 0 0 0 0 -6767308.943151474 12737380.645314574 0 12737380.645314574 -10549997.379226685 0 0 0 0 6956093.1844863892 20363437.100550175 0 20363437.100550175 -31066296.52605629 0 0 0 0 -11707991.243015289 42827235.170182705 0 42827235.170182705 36636866.36190176 0 0 0 0 18847441.22756958 77316738.193695545 0 77316738.193695545 60175013.307189941 0 0 0 0 729083.73031450063 538099.39198836242 0 538099.39198836242 -1896515.9485729998 0 0 0 0 -18496391.821781158 29485500.401301384 0 29485500.401301384 26451851.741004467 0 0 0 0 19694611.434710741 37412358.705508232 0 37412358.705508232 17501770.721709251 0 0 0 0 745457.32781904982 12602453.916220916 0 12602453.916220916 -3579246.5900660153 0 0 0 0 -5305577.4224572182 25007911.395580292 0 25007911.395580292 14385641.092728615 0 0 0 0 -657627.47801278229 10808845.536309678 0 10808845.536309678 -2255653.3175282814 0 0 0 0 4904595.5951857297 10543369.282768015 0 10543369.282768015 -4781711.9541671155 0 0 0 0 9911665.6412420273 22502208.876819611 0 22502208.876819611 5674297.8325614929 0 0 0 0 7892958.2512168884 10977279.46305275 0 10977279.46305275 7514655.6003870964 0 0 0 0 1963246.8286724091 18547933.273769379 0 18547933.273769379 21570831.567074776 0 0 0 0 9062419.6173658371 10066941.080768585 0 10066941.080768585 -1164019.0801086426 0 0 0 0 5860128.4364681244 14582530.753255844 0 14582530.753255844 -3040115.2848243713 0 0 0 0 1713473.6819114685 12230256.640478134 0 12230256.640478134 834914.00008392334 0 0 0 0 7043829.3643436432 7510773.7500019073 0 7510773.7500019073 2540012.5467262268 0 0 0 0 8237573.0232048035 12634258.440429688 0 12634258.440429688 639601.95889139175 0 0 0 0 7279833.4537696838 10856478.416584015 0 10856478.416584015 -2655937.4562587738 0 0 0 0 599994.99029655452 6799192.0442624371 0 6799192.0442624371 -5395740.1224158844 0 0 0 0 1500115.9867396355 8333280.6918463707 0 8333280.6918463707 -3727821.8816604614 0 0 0 0 3237300.9262046814 12386771.070756912 0 12386771.070756912 -2474871.9630508423 0 0 0 0 2627495.4275608063 13743735.282049179 0 13743735.282049179 1180280.0683879852 0 0 0 0 -1730236.4929409027 9535930.7171230316 0 9535930.7171230316 -3782548.6605358124 0 0 0 0 2049385.4403305054 9802415.0737657547 0 9802415.0737657547 -8154573.8194923401 0 0 0 0 1341216.3775336174 6616085.324374184 0 6616085.324374184 -6670487.0187760601 0 0 0 0 176569612.44417214 24160616.396857262 0 24160616.396857262 -104501055.7995882 0 0 0 0 601021.67013549805 9900020.992767334 0 9900020.992767334 -4611518.9745721817 0 0 0 0 44843568.734130144 19616478.710988998 0 19616478.710988998 30363797.934727669 0 0 0 0 -13837031.220735788 140758924.61534452 0 140758924.61534452 -168114752.2961998 0 0 0 0 110952129.9426893 90307584.329971075 0 90307584.329971075 -28433048.679771423 0 0 0 0 -8780028.8817498684 21956653.035088778 0 21956653.035088778 8880176.4824237823 0 0 0 0 -155807026.37406874 -333316.4929049015 0 -333316.4929049015 23397592.564743996 0 0 0 0 -40826.274470807286 996841.69224954769 0 996841.69224954769 208675.23507245537 0 0 0 0 63705723.87268281 -88111294.516024113 0 -88111294.516024113 -222066280.48404503 0 0 0 0 85473686.997055054 20266356.577293396 0 20266356.577293396 -89301874.116396904 0 0 0 0 44608426.816254139 27514352.104454994 0 27514352.104454994 -105270798.04318595 0 0 0 0 7899420.009250164 89964489.207468033 0 89964489.207468033 -87703291.909317017 0 0 0 0 84256956.559259713 74270003.803730726 0 74270003.803730726 -103018191.09533501 0 0 0 0 -11433607.774980068 74719981.13276577 0 74719981.13276577 -38493301.557572603 0 0 0 0 22552076.868433952 60594490.448184967 0 60594490.448184967 -35483361.616394043 0 0 0 0 76437757.914701939 35034359.959210038 0 35034359.959210038 -52011246.898385048 0 0 0 0 -83738.095306734787 3389261.0434902683 0 3389261.0434902683 1187248.8200378986 0 0 0 0 -23544335.394432783 13453662.286273479 0 13453662.286273479 19476424.841656685 0 0 0 0 60733748.496068001 43579939.485455513 0 43579939.485455513 -52795698.646856487 0 0 0 0 52810681.830818176 29238494.730803013 0 29238494.730803013 -4757438.3974609375 0 0 0 0 3218397.7050890923 40012016.156455994 0 40012016.156455994 28997690.802459717 0 0 0 0 22124795.653058529 48885219.453056812 0 48885219.453056812 26028917.716775894 0 0 0 0 -2348196.0462968452 8033830.9696877208 0 8033830.9696877208 6339391.2936943201 0 0 0 0 -28019.361168384552 16650884.622955799 0 16650884.622955799 26322044.122732162 0 0 0 0 4206843.6548070908 15707515.837323189 0 15707515.837323189 18590801.418217421 0 0 0 0 6367489.5594005585 20962053.746872902 0 20962053.746872902 29544266.278139114 0 0 0 0 -15003539.774146557 14936072.41425705 0 14936072.41425705 27853852.937551498 0 0 0 0 -3867755.1684007645 29738394.288089752 0 29738394.288089752 28469847.791910172 0 0 0 0 5787984.4299218655 25366661.144762516 0 25366661.144762516 30283123.732514381 0 0 0 0 -26699152.048465252 21077213.767792225 0 21077213.767792225 25189591.010629654 0 0 0 0 1875680.8106603622 46005418.908446312 0 46005418.908446312 12973172.432043076 0 0 0 0 -18351079.220931053 38422489.27742672 0 38422489.27742672 11110867.591386795 0 0 0 0 -25906425.147989273 26587984.669424057 0 26587984.669424057 18019955.299654007 0 0 0 0 3332099.3806061745 15027901.606933594 0 15027901.606933594 16334766.694321632 0 0 0 0 -3862172.4315013885 10891008.666622162 0 10891008.666622162 15118399.770085335 0 0 0 0 -19995094.522256374 -1043521.5652484894 0 -1043521.5652484894 10160964.287847519 0 0 0 0 18166132.343545914 -7027112.3065757751 0 -7027112.3065757751 -12634052.18611908 0 0 0 0 8035221.6778745651 4763939.00857687 0 4763939.00857687 88026.431849479675 0 0 0 0 -15224297.399887085 1669959.2173786163 0 1669959.2173786163 8763958.8676223755 0 0 0 0 -17220210.887949944 -31560816.287130356 0 -31560816.287130356 -6882283.7864570618 0 0 0 0 -60753405.196156502 -17362397.084669113 0 -17362397.084669113 13160892.204172134 0 0 0 0 -64733520.468802452 25358898.562354267 0 25358898.562354267 4148948.6361312866 0 0 0 0 -128083480.11315918 -22862072.368899345 0 -22862072.368899345 -6850592.7178287096 0 0 0 0 -48827684.497802258 65029212.976696968 0 65029212.976696968 -11984113.335487366 0 0 0 0 -60851262.832652092 16525093.735397339 0 16525093.735397339 17122652.261666298 0 0 0 0 -170177825.57629013 33298992.616036415 0 33298992.616036415 8306183.3706891537 0 0 0 0 -10754516.577208996 61348364.933981895 0 61348364.933981895 -26778467.840341568 0 0 0 0 13708764.911690235 93313156.210143089 0 93313156.210143089 -183839574.4329586 0 0 0 0 -131198525.19430399 142440966.8196435 0 142440966.8196435 -78071394.737807274 0 0 0 0 -136427794.32006359 122596043.47103691 0 122596043.47103691 -140748081.65932274 0 0 0 0 -87618831.484862328 32138930.834863663 0 32138930.834863663 -133985549.52996254 0 0 0 0 -149064913.23702431 131509770.6176796 0 131509770.6176796 -100644405.71931839 0 0 0 0 18852602.910275698 -11460088.083889961 0 -11460088.083889961 -65476638.289230347 0 0 0 0 242081.85755727452 166644.35777151166 0 166644.35777151166 -328441.38280677609 0 0 0 0 177891.3367439796 221319.61679958412 0 221319.61679958412 -131085.03616024833 0 0 0 0 78302134.527951241 89099187.767997742 0 89099187.767997742 -177508491.2362957 0 0 0 0 214905303.02122611 21026840.449540615 0 21026840.449540615 57661102.853606224 0 0 0 0 209939807.94370627 72056210.328752518 0 72056210.328752518 -74060314.353609085 0 0 0 0 95472254.360942364 44413888.225738525 0 44413888.225738525 -61305106.623113632 0 0 0 0 34492388.952701509 59296027.627663255 0 59296027.627663255 36043724.200351715 0 0 0 0 258004592.88417608 91191486.948140144 0 91191486.948140144 -38301810.642663002 0 0 0 0 353769976.34727734 -94865107.308400154 0 -94865107.308400154 46478555.688764989 0 0 0 0 -117769.87214633969 -257217.43660468562 0 -257217.43660468562 304236.62702234183 0 0 0 0 -456869265.92789984 237265326.72456264 0 237265326.72456264 25983985.494022369 0 0 0 0 705319277.23740244 -14352150.432261944 0 -14352150.432261944 -82472033.156224728 0 0 0 0 5630600.8152552843 5612277.9863557816 0 5612277.9863557816 5666339.9696426392 0 0 0 0 217080.66109843343 910940.41140524438 0 910940.41140524438 -474206.99171153316 0 0 0 0 161977686.65928519 -30953004.919508457 0 -30953004.919508457 76746650.629456997 0 0 0 0 633119.75701486971 684217.43373213755 0 684217.43373213755 -348386.66083670035 0 0 0 0 11268794.821122169 9488316.1842873096 0 9488316.1842873096 935393.86781692505 0 0 0 0 231120703.39637542 84696350.867482185 0 84696350.867482185 -9498085.7509126663 0 0 0 0 -59665058.374686718 -18087695.449376106 0 -18087695.449376106 -58217571.562516212 0 0 0 0 -2451351.548658371 60196822.420697212 0 60196822.420697212 -36560830.22444129 0 0 0 0 14580412.344716311 -13809966.866390705 0 -13809966.866390705 -55641002.58691597 0 0 0 0 -209728335.07675743 80237762.027667999 0 80237762.027667999 -73081791.985588446 0 0 0 0 -137119858.29477596 -6869234.7660841942 0 -6869234.7660841942 -71602391.655049637 0 0 0 0 -338570720.45855522 38000034.33939743 0 38000034.33939743 -12264655.130121231 0 0 0 0 -90884438.00013113 45055874.634288311 0 45055874.634288311 -47029982.193267822 0 0 0 0 -12946101.329870224 3103406.7343835831 0 3103406.7343835831 -60042990.276437044 0 0 0 0 -12106175.240172386 34955207.510577679 0 34955207.510577679 1448531.9000146389 0 0 0 0 -58666766.353004694 62870371.731680155 0 62870371.731680155 -44653585.597875595 0 0 0 0 -88844241.838068962 22516976.631394863 0 22516976.631394863 -456200.96047782898 0 0 0 0 -138373967.11684322 69889158.944621086 0 69889158.944621086 31324153.657437325 0 0 0 0 -26801801.825310379 106899894.09378311 0 106899894.09378311 43601239.652821541 0 0 0 0 133094311.10850525 24969938.759060383 0 24969938.759060383 74456509.073289871 0 0 0 0 -17561551.931243122 8268720.3315927088 0 8268720.3315927088 48375737.800744057 0 0 0 0 -14749316.096173108 42510606.345052153 0 42510606.345052153 73116845.986730576 0 0 0 0 -23206006.459903717 47906854.054916859 0 47906854.054916859 98383026.137842178 0 0 0 0 -10675226.44258213 23124774.763764381 0 23124774.763764381 42567563.345286369 0 0 0 0 -31079098.497148514 14489039.980561733 0 14489039.980561733 46545225.414165497 0 0 0 0 -1071453.9413535336 -236866.75587663241 0 -236866.75587663241 160445.63919829112 0 0 0 0 6403424.9764313698 7659133.4686946869 0 7659133.4686946869 10400232.723995209 0 0 0 0 -356718.86544513702 2722738.4926702976 0 2722738.4926702976 7218811.0617256165 0 0 0 0 321294397.1689921 248146462.48352599 0 248146462.48352599 63606920.910392761 0 0 0 0 112733111.47474003 171702511.58391333 0 171702511.58391333 24122567.853941917 0 0 0 0 182143919.29062939 91043871.552365303 0 91043871.552365303 85823987.622973084 0 0 0 0 714015.95449447632 260984431.31624937 0 260984431.31624937 -46669208.959678173 0 0 0 0 1600189.9196642376 4156946.9657690758 0 4156946.9657690758 95157.087400095537 0 0 0 0 -10291441.61225462 -1851115.8742275238 0 -1851115.8742275238 -5661449.7491226196 0 0 0 0 -12472042.428218842 -14866651.661182404 0 -14866651.661182404 7033804.2463703156 0 0 0 0 30004394.522380829 30256917.553887367 0 30256917.553887367 33139899.872062683 0 0 0 0 8182985.2810492516 10883039.66489172 0 10883039.66489172 15999763.259498596 0 0 0 0 1186390.8794546127 16593824.63768959 0 16593824.63768959 37844118.550463676 0 0 0 0 17117481.859374523 14894301.355204582 0 14894301.355204582 14856647.72527647 0 0 0 0 6230621.8740034103 19791495.613161087 0 19791495.613161087 39686213.955367088 0 0 0 0 4545983.623394426 12851761.313671876 0 12851761.313671876 -5231633.5583811253 0 0 0 0 8575215.3357653618 18811300.603557587 0 18811300.603557587 38539200.989574432 0 0 0 0 28424067.625749081 43620006.471222401 0 43620006.471222401 40872758.319135666 0 0 0 0 -285329.99421008059 -91455.62180704996 0 -91455.62180704996 20923.365734815598 0 0 0 0 3243200.886071682 37084132.993275642 0 37084132.993275642 60400770.094970703 0 0 0 0 4771141.3226866722 20383561.745286942 0 20383561.745286942 58493189.591293335 0 0 0 0 11713078.679323673 21203095.037078857 0 21203095.037078857 46463029.841117859 0 0 0 0 6020918.4150204659 23073701.792448044 0 23073701.792448044 51156598.82069397 0 0 0 0 12451231.192379951 33534418.970221877 0 33534418.970221877 68355790.05146575 0 0 0 0 29025585.746030807 66176109.696499586 0 66176109.696499586 71969738.921753526 0 0 0 0 -1655954.770644845 8423393.4124470092 0 8423393.4124470092 6828763.9288910609 0 0 0 0 8094888.9016432762 96453052.655149698 0 96453052.655149698 111749190.18489909 0 0 0 0 11622050.826224327 14502377.408407688 0 14502377.408407688 31129028.033574104 0 0 0 0 -12877583.285023147 12829540.163571943 0 12829540.163571943 38093710.60694313 0 0 0 0 6141335.1496508038 13163463.200133994 0 13163463.200133994 -6251486.6015233975 0 0 0 0 15053224.219576836 24130522.298854828 0 24130522.298854828 55079425.41740036 0 0 0 0 8275163.5861053467 19351692.779853821 0 19351692.779853821 51741911.695374489 0 0 0 0 3136848.9247939046 16216800.402126122 0 16216800.402126122 -4368174.0464593917 0 0 0 0 -2091357.364635061 3467236.8839688841 0 3467236.8839688841 6926074.2593307309 0 0 0 0 -304928998.55598831 -27156728.529640198 0 -27156728.529640198 346819696.41733551 0 0 0 0 -5301751.0551948547 93034767.162277222 0 93034767.162277222 105570662.42236328 0 0 0 0 26954143.30906105 57147800.910446167 0 57147800.910446167 71537727.77130127 0 0 0 0 -17340260.068565369 39531565.318126678 0 39531565.318126678 52916555.113388062 0 0 0 0 -53967875.628263474 64279978.697769165 0 64279978.697769165 91305432.68006897 0 0 0 0 -99878205.37502861 58245665.589355469 0 58245665.589355469 127170294.76793671 0 0 0 0 -23742001.429637909 29299765.996120453 0 29299765.996120453 57605811.835021973 0 0 0 0 -121095.98495769501 28067128.944038391 0 28067128.944038391 58341077.394863129 0 0 0 0 -1459938.9748482704 29269416.162239075 0 29269416.162239075 31225225.735137939 0 0 0 0 -14839390.710380554 36717281.555202484 0 36717281.555202484 41501432.92010498 0 0 0 0 -20421411.113780975 29606232.263793945 0 29606232.263793945 32789633.897880554 0 0 0 0 -7517799.9565639496 18612304.281082153 0 18612304.281082153 46306360.755531311 0 0 0 0 -23310575.134788513 26723575.943870544 0 26723575.943870544 33756782.333053589 0 0 0 0 -16555372.494251251 36659456.143451691 0 36659456.143451691 48210330.651359558 0 0 0 0 -36021012.046699524 34906898.073989868 0 34906898.073989868 36029402.598175049 0 0 0 0 -21078675.626884818 37813850.042977571 0 37813850.042977571 20059954.817108154 0 0 0 0 -46707997.806487083 26337904.714387894 0 26337904.714387894 21424493.012542725 0 0 0 0 -37853111.439098358 28517252.895729065 0 28517252.895729065 21591795.877380371 0 0 0 0 -59953952.325363159 28464064.051835537 0 28464064.051835537 38866071.094573975 0 0 0 0 -60336755.782058716 21179952.720153809 0 21179952.720153809 36410719.13822937 0 0 0 0 -46580110.587429047 40496490.301643372 0 40496490.301643372 52967291.437414169 0 0 0 0 8590174.8278298378 46116847.229808807 0 46116847.229808807 76671266.544433594 0 0 0 0 1715556.3761072159 14090204.384487152 0 14090204.384487152 71572911.265594482 0 0 0 0 1553462.9303123951 21481049.15720129 0 21481049.15720129 60477664.248954773 0 0 0 0 19190562.868253708 23143867.47832489 0 23143867.47832489 47298774.848712921 0 0 0 0 -3245337.9803695679 28058072.907765388 0 28058072.907765388 57134438.900550842 0 0 0 0 14241585.948389888 39655052.716489792 0 39655052.716489792 51747682.634941101 0 0 0 0 51602305.503165245 42074331.807703018 0 42074331.807703018 48908939.524795532 0 0 0 0 -198069.20198304544 -519329.81063300883 0 -519329.81063300883 298185.10521157831 0 0 0 0 48660647.252558708 67021127.158653259 0 67021127.158653259 46348646.743415833 0 0 0 0 6817802.8624556065 47649743.188308716 0 47649743.188308716 111600418.23137665 0 0 0 0 42625467.291416168 21532902.584396362 0 21532902.584396362 87687730.991889954 0 0 0 0 37499138.82130757 57446003.258760452 0 57446003.258760452 92680583.845954895 0 0 0 0 7507410.7566716671 32652350.057353973 0 32652350.057353973 84181528.872909546 0 0 0 0 24661600.277365446 82108043.90813446 0 82108043.90813446 115368612.06972885 0 0 0 0 -30319684.472047806 41936776.680335999 0 41936776.680335999 105140042.24660873 0 0 0 0 -29499525.47940946 -2008822.9277400374 0 -2008822.9277400374 79242828.984924316 0 0 0 0 -81212894.786135674 5060214.5163440704 0 5060214.5163440704 78888706.925109863 0 0 0 0 -34313766.012061596 -23428089.360713959 0 -23428089.360713959 24550509.466011047 0 0 0 0 -5658628.6834594011 -3900326.2168502808 0 -3900326.2168502808 47120249.14343071 0 0 0 0 -5866669.2479195595 10594341.264812469 0 10594341.264812469 51905205.669128418 0 0 0 0 18981626.799528956 30366509.582473755 0 30366509.582473755 58797482.141994476 0 0 0 0 17384971.419314157 10712397.201626539 0 10712397.201626539 56313544.628387451 0 0 0 0 -2827917.8595873117 17957681.125297546 0 17957681.125297546 54061263.073385239 0 0 0 0 -4310824.3440448046 31074911.298561096 0 31074911.298561096 88618053.875940323 0 0 0 0 8582273.4711580276 30339494.279909134 0 30339494.279909134 36323349.101085663 0 0 0 0 8189122.4169074297 28075359.723365784 0 28075359.723365784 44809661.639648438 0 0 0 0 8336516.7257056236 17073925.926635742 0 17073925.926635742 48545269.566070557 0 0 0 0 3556152.4272244819 11605436.144592779 0 11605436.144592779 -4722611.7354224101 0 0 0 0 9609615.5929448605 18778416.899683952 0 18778416.899683952 18740630.24016571 0 0 0 0 -1716580.1296246052 26596041.264606476 0 26596041.264606476 34067851.707649231 0 0 0 0 -6565172.4845778942 19122640.713596344 0 19122640.713596344 40860262.634815216 0 0 0 0 3218314.4372547138 13277182.92844617 0 13277182.92844617 -5046436.0360812265 0 0 0 0 -2071383.2258935748 5823043.1314370167 0 5823043.1314370167 8810148.5990649462 0 0 0 0 7608433.2697162628 26316164.062812805 0 26316164.062812805 42711005.920776367 0 0 0 0 -41669.499525785446 8981138.5772686005 0 8981138.5772686005 23456990.950126648 0 0 0 0 -23843923.572226942 -13765783.607980728 0 -13765783.607980728 34468839.190872192 0 0 0 0 -19544078.073458672 2736738.3445167542 0 2736738.3445167542 53835149.956604004 0 0 0 0 22522459.917566299 37299600.785823822 0 37299600.785823822 50261069.257141113 0 0 0 0 186438.53598867636 1426572.1525569437 0 1426572.1525569437 1858526.2207384557 0 0 0 0 6718257.560046494 23766322.28474617 0 23766322.28474617 40341084.827430725 0 0 0 0 870105350.28868484 882712953.95108604 0 882712953.95108604 662681879.07434082 0 0 0 0 975398636.98458862 51698030.384056091 0 51698030.384056091 183546528.33035278 0 0 0 0 -407693.19157758914 765887.36984166503 0 765887.36984166503 711716.64048841968 0 0 0 0 541982446.74214935 344450857.24117279 0 344450857.24117279 59416932.503227234 0 0 0 0 618045484.53124237 416154751.76548767 0 416154751.76548767 355632293.04126453 0 0 0 0 342778.79156494141 358159362.03030014 0 358159362.03030014 524029807.97157669 0 0 0 0 276794681.62937927 646755507.72246552 0 646755507.72246552 823800603.72776794 0 0 0 0 224250164.29701233 212233665.91215515 0 212233665.91215515 305021139.74885178 0 0 0 0 -784655.1703670267 1404073.2834733278 0 1404073.2834733278 1214944.9736625664 0 0 0 0 223402870.85064888 204399109.59587336 0 204399109.59587336 237393279.9411087 0 0 0 0 253165039.18637085 238362979.304039 0 238362979.304039 241309091.01036835 0 0 0 0 252917914.40697479 233321919.40208435 0 233321919.40208435 176579115.68436432 0 0 0 0 370951931.40825081 193841082.30749989 0 193841082.30749989 -32778753.117340088 0 0 0 0 380259306.35870218 272602666.00333214 0 272602666.00333214 62626094.745986938 0 0 0 0 202332274.76663971 149753495.51861954 0 149753495.51861954 34722273.384010315 0 0 0 0 335306833.19651031 157259339.43222427 0 157259339.43222427 -51148882.738746643 0 0 0 0 275153649.03591156 216748453.30031204 0 216748453.30031204 85622842.155128479 0 0 0 0 61255981.182289124 126027491.39118576 0 126027491.39118576 73273716.328227997 0 0 0 0 212242575.96751404 101461040.14088058 0 101461040.14088058 6717811.1871795654 0 0 0 0 -1207011.4142379761 77617024.188692093 0 77617024.188692093 68240252.482192993 0 0 0 0 27847425.716125488 74483998.465671539 0 74483998.465671539 32303146.617537498 0 0 0 0 23704398.57674408 99802153.003314972 0 99802153.003314972 39816907.100735664 0 0 0 0 -7797616.5469360352 23946826.082216263 0 23946826.082216263 -37009834.604118347 0 0 0 0 25533235.739852905 76361869.537708282 0 76361869.537708282 -37847294.071510315 0 0 0 0 -39389749.027938843 -41447915.383655548 0 -41447915.383655548 -111195309.43020669 0 0 0 0 89838744.925537109 -163936250.45572662 0 -163936250.45572662 -342478148.32951832 0 0 0 0 106325275.08660889 125839661.27393341 0 125839661.27393341 25004983.535703659 0 0 0 0 332239935.77789307 46941430.114383698 0 46941430.114383698 -257436868.62257385 0 0 0 0 81872815.177932739 67517408.071897507 0 67517408.071897507 -111750000.87728119 0 0 0 0 428728717.33792114 1131157769.7311287 0 1131157769.7311287 1069344422.3893433 0 0 0 0 507657.95846688002 124071.22890745848 0 124071.22890745848 500306.12021228299 0 0 0 0 655260890.08551788 741016623.15914917 0 741016623.15914917 1148703362.995903 0 0 0 0 -6954486.658416748 -37177652.035926819 0 -37177652.035926819 -89970020.682987213 0 0 0 0 -21213427.594892502 37538894.311027527 0 37538894.311027527 -50261243.52583313 0 0 0 0 17276334.160217285 24907988.372612 0 24907988.372612 -61328768.5675354 0 0 0 0 1925534.8517074585 38309583.478408813 0 38309583.478408813 -72979617.728660583 0 0 0 0 826876646.85617924 1030372024.103981 0 1030372024.103981 1104848668.6733627 0 0 0 0 2569199.2118662409 182338.72472613305 0 182338.72472613305 616195.17417500168 0 0 0 0 651655732.26506805 726821165.46988297 0 726821165.46988297 1126767175.7938385 0 0 0 0 605295423.65856934 803983900.93320847 0 803983900.93320847 943150089.78221893 0 0 0 0 647651556.47457886 625640857.33799362 0 625640857.33799362 785717807.05712891 0 0 0 0 921382880.77599335 775514508.55140591 0 775514508.55140591 896104100.95505524 0 0 0 0 615657291.78330231 852654711.94683075 0 852654711.94683075 880639873.94737816 0 0 0 0 344421557.54979706 656868624.01963425 0 656868624.01963425 962453327.70854187 0 0 0 0 165955.20708465576 547464726.63183975 0 547464726.63183975 890971389.68495655 0 0 0 0 304340266.36620712 752613009.13952446 0 752613009.13952446 811940201.82260895 0 0 0 0 320641320.52935028 588263310.24274445 0 588263310.24274445 774273547.15627623 0 0 0 0 246175.15798568726 918510719.8796978 0 918510719.8796978 441145496.46403503 0 0 0 0 354717132.40049314 836182007.22187829 0 836182007.22187829 634395305.73168945 0 0 0 0 456516412.12209511 454958310.96328449 0 454958310.96328449 511503847.30394745 0 0 0 0 597938.41873359308 1160232.7071413845 0 1160232.7071413845 324728.20674652047 0 0 0 0 516175341.82624817 440802218.71299934 0 440802218.71299934 -179130595.42881584 0 0 0 0 673464327.98306084 1068521808.692728 0 1068521808.692728 -853271.67844200134 0 0 0 0 1057315.804271403 1223989493.9686069 0 1223989493.9686069 1035471677.6706696 0 0 0 0 1739199508.7533455 477174504.78295517 0 477174504.78295517 -772994819.95367432 0 0 0 0 1154388.4197464976 1274224.5901183663 0 1274224.5901183663 205023.80720666051 0 0 0 0 1621745863.5123138 1122703837.9378395 0 1122703837.9378395 -1025666996.0082359 0 0 0 0 304864.15158522129 778605.31499946862 0 778605.31499946862 -37010.281870994717 0 0 0 0 1047381590.9760818 1299683083.0567513 0 1299683083.0567513 828072163.58552933 0 0 0 0 -365656625.15628052 90751263.12456131 0 90751263.12456131 286649659.8604126 0 0 0 0 1289380582.1910896 454974708.32426214 0 454974708.32426214 -672509737.84591675 0 0 0 0 722447543.53948975 472073220.04492569 0 472073220.04492569 409785943.80172729 0 0 0 0 794123878.96517372 588906608.27124786 0 588906608.27124786 477595116.79775238 0 0 0 0 13217006.381378174 514063258.24067688 0 514063258.24067688 642437670.38303375 0 0 0 0 599132647.01696014 590934649.18684769 0 590934649.18684769 613371251.76927567 0 0 0 0 720913155.24015045 629375286.91141129 0 629375286.91141129 486019645.02310276 0 0 0 0 705341707.43049622 548288673.98248291 0 548288673.98248291 360353636.40257645 0 0 0 0 799948292.47963715 789217667.09064484 0 789217667.09064484 702260907.25145721 0 0 0 0 624571470.19164276 544460317.38631058 0 544460317.38631058 708485547.51434326 0 0 0 0 836001919.95375061 704549452.67809677 0 704549452.67809677 818412050.6556282 0 0 0 0 685542515.17166424 799286900.7708025 0 799286900.7708025 758794991.0903244 0 0 0 0 5591821.0613284409 -177606.07914093137 0 -177606.07914093137 542131.77666385844 0 0 0 0 684332356.83766174 1111010302.3513489 0 1111010302.3513489 774385269.18887043 0 0 0 0 990710043.84231567 1013236249.4093475 0 1013236249.4093475 763662567.84830666 0 0 0 0 4567802.0445804596 -21522024.63839817 0 -21522024.63839817 -17598099.594989777 0 0 0 0 34783159.410186768 12758916.353294373 0 12758916.353294373 -13233501.872813106 0 0 0 0 840936077.47094536 497339629.88062191 0 497339629.88062191 474229852.31122589 0 0 0 0 9558142.2793387435 -219122.89417661354 0 -219122.89417661354 -44747.811464972794 0 0 0 0 27142677.764030457 -720793.27391052246 0 -720793.27391052246 -12859614.50165987 0 0 0 0 660625450.34719467 738188817.58845711 0 738188817.58845711 1594523809.7080688 0 0 0 0 1503516600.5019379 1127968131.1191368 0 1127968131.1191368 390305056.09994507 0 0 0 0 1131124933.3462641 831407192.09184361 0 831407192.09184361 383502409.632164 0 0 0 0 1513086185.1776123 802810730.8880806 0 802810730.8880806 -179455358.93424988 0 0 0 0 -657835939.47787476 1090205470.8327026 0 1090205470.8327026 714275422.95113373 0 0 0 0 763019.65638920106 998409.30753618525 0 998409.30753618525 694296.69960709289 0 0 0 0 362687317.50862885 1254824694.1319618 0 1254824694.1319618 709084066.89642715 0 0 0 0 709404742.978302 178849728.2218399 0 178849728.2218399 -446092008.75406647 0 0 0 0 1478543777.1083984 685311506.96219254 0 685311506.96219254 -334153119.13512421 0 0 0 0 1140807701.3823853 724154673.5779686 0 724154673.5779686 -44223357.790092468 0 0 0 0 1381085285.3901634 559453424.75499344 0 559453424.75499344 75610771.645935059 0 0 0 0 1366200671.0447464 626440920.75528812 0 626440920.75528812 -224639320.52801514 0 0 0 0 1378408034.927166 653999130.19430542 0 653999130.19430542 321822.76098251343 0 0 0 0 355737262.51229095 122903176.87588501 0 122903176.87588501 -64316175.765090942 0 0 0 0 -806714213.38063049 461816906.16111374 0 461816906.16111374 136467557.69863892 0 0 0 0 192022705.9365387 616011207.68133926 0 616011207.68133926 -723702.28621774912 0 0 0 0 -5919622.1071777344 97379100.347873688 0 97379100.347873688 308996.32605743408 0 0 0 0 23009954.964130402 27077491.602657318 0 27077491.602657318 -188300018.27374268 0 0 0 0 4783624.580702302 1082625.3100400399 0 1082625.3100400399 583577.45956490189 0 0 0 0 2310231789.0430908 454738902.458992 0 454738902.458992 -263329365.27818298 0 0 0 0 -52813016.532775879 57499125.86428833 0 57499125.86428833 -32135228.167823792 0 0 0 0 5354380.6437882436 2197155.3676234838 0 2197155.3676234838 1958659.8492100388 0 0 0 0 1162681800.7704239 627530193.83144379 0 627530193.83144379 55696471.719860077 0 0 0 0 3804413.5234451294 15721177.608188629 0 15721177.608188629 -4829822.6944046021 0 0 0 0 2645399.6792430431 2641756.9848651551 0 2641756.9848651551 -277830.91345213726 0 0 0 0 15055176.379440308 15920747.972259521 0 15920747.972259521 -7911660.0558242798 0 0 0 0 28549210.480369568 -71815648.715457916 0 -71815648.715457916 -26788420.953601837 0 0 0 0 858425.80588008091 826944.88760112226 0 826944.88760112226 -145800.73398645595 0 0 0 0 32569541.111282349 25172816.219177246 0 25172816.219177246 16357300.146438599 0 0 0 0 -47652.924140930176 43723936.031867981 0 43723936.031867981 21923471.573196411 0 0 0 0 -279552.5436630249 19016261.387363434 0 19016261.387363434 25863155.298904419 0 0 0 0 -23754435.510444641 35388070.410175323 0 35388070.410175323 35170003.118209839 0 0 0 0 -33596333.72376442 -10311735.438181877 0 -10311735.438181877 2830555.9434432983 0 0 0 0 12751760.965644836 17808242.816253662 0 17808242.816253662 2941671.8633728027 0 0 0 0 12296617.975957155 24262754.091679335 0 24262754.091679335 6853802.8639221191 0 0 0 0 39926987.540626526 44491506.552734375 0 44491506.552734375 13141839.089080811 0 0 0 0 21713121.681503296 2842765.5859413147 0 2842765.5859413147 -6439707.5986328125 0 0 0 0 -19223880.942314148 6675693.556892395 0 6675693.556892395 15200929.308013916 0 0 0 0 2160057.3980517597 6425142.2361538541 0 6425142.2361538541 3416857.4216824323 0 0 0 0 -3378755.3561706543 19001570.563514709 0 19001570.563514709 16355119.125747681 0 0 0 0 7959687.8257446289 1920988.1476821899 0 1920988.1476821899 1633398.4052658081 0 0 0 0 17419365.365631104 26075043.570022583 0 26075043.570022583 6588710.346244812 0 0 0 0 29627694.062889099 16544200.710826874 0 16544200.710826874 3431391.2709503174 0 0 0 0 20494798.185596466 29945834.873699188 0 29945834.873699188 9419500.3154754639 0 0 0 0 18019492.194839478 19526636.616996765 0 19526636.616996765 3456669.2209320068 0 0 0 0 16621882.332939148 22393305.478462219 0 22393305.478462219 -1762716.8654785156 0 0 0 0 -6679249.2832717896 29367691.755691528 0 29367691.755691528 43607146.012878418 0 0 0 0 1505759.493857461 1500141.2549437676 0 1500141.2549437676 -397366.11621474475 0 0 0 0 19879322.404098511 39513980.417930603 0 39513980.417930603 197448.43363952637 0 0 0 0 22511092.065292358 31633187.933757782 0 31633187.933757782 7747464.1322631836 0 0 0 0 17720176.107772827 35113627.76335144 0 35113627.76335144 24655777.134963989 0 0 0 0 1043594.7059664652 -13948.024305031635 0 -13948.024305031635 -1208016.9420344457 0 0 0 0 8548852.4514007568 -7796661.0229568481 0 -7796661.0229568481 -17399298.256469727 0 0 0 0 11475937.415176392 23406232.156646729 0 23406232.156646729 25382076.329504967 0 0 0 0 4072175.0153808594 -6015446.287771225 0 -6015446.287771225 -9663169.228302002 0 0 0 0 5302556.2306247503 7892247.3527002186 0 7892247.3527002186 1525410.8805922251 0 0 0 0 39812356.827013016 13738733.586799622 0 13738733.586799622 -5966269.8401947021 0 0 0 0 18971856.669488907 13676523.451603889 0 13676523.451603889 -7672883.5585632324 0 0 0 0 2534175.6083647162 8620312.3352773972 0 8620312.3352773972 1786780.9242153019 0 0 0 0 1417363.7897949219 4868595.916847229 0 4868595.916847229 -20753.25065612793 0 0 0 0 2096210.3003234863 4873446.09034729 0 4873446.09034729 -796966.63865089417 0 0 0 0 2248570.3204803467 4502995.3198814392 0 4502995.3198814392 102026.37626647949 0 0 0 0 1989420.7749368679 3651063.3329145275 0 3651063.3329145275 854617.78540817276 0 0 0 0 2501676.7830181122 4724449.5483951569 0 4724449.5483951569 -114856.71185302734 0 0 0 0 2353232.8848571777 3702076.2691993713 0 3702076.2691993713 943823.4300994873 0 0 0 0 18305569.380737305 18404734.127742767 0 18404734.127742767 394075.03406524658 0 0 0 0 3081038.3788604736 4216888.7492027283 0 4216888.7492027283 1519843.4118041992 0 0 0 0 -13585.227111816406 20001876.676223755 0 20001876.676223755 8792503.031665802 0 0 0 0 -201494.981111628 7811536.9870768487 0 7811536.9870768487 1681279.5236866847 0 0 0 0 -1037413.4062042236 6231434.834821701 0 6231434.834821701 -815849.94033813477 0 0 0 0 31927.409948326647 67033.073442906141 0 67033.073442906141 -42573.218197338283 0 0 0 0 3945091.7884521484 5530137.428237915 0 5530137.428237915 3039815.1186828613 0 0 0 0 18754021.972068787 51222320.240156174 0 51222320.240156174 13080015.790237427 0 0 0 0 33978771.855728149 8682391.4363174438 0 8682391.4363174438 -8320815.6370697021 0 0 0 0 15459932.237865448 31684219.777111053 0 31684219.777111053 -29714428.064407349 0 0 0 0 1381355.4890451645 1373803.5285499953 0 1373803.5285499953 125448.86509587616 0 0 0 0 1558852.9032332944 6593694.4600732643 0 6593694.4600732643 4662287.9490654841 0 0 0 0 198415.28516101837 13284489.071965694 0 13284489.071965694 9297607.6413879395 0 0 0 0 15890557.542411804 18356714.27039361 0 18356714.27039361 9974985.4399490356 0 0 0 0 19521405.086547852 9733221.5648498535 0 9733221.5648498535 2657426.73097229 0 0 0 0 15177364.380175769 5726511.2517598718 0 5726511.2517598718 -3375574.6695355941 0 0 0 0 19064148.151046753 4497404.2578582764 0 4497404.2578582764 -3607329.2975158691 0 0 0 0 71202674.156784058 2683400.7063484192 0 2683400.7063484192 -25412978.788063049 0 0 0 0 12413267.768600464 33113692.077461243 0 33113692.077461243 36600448.367023468 0 0 0 0 7659403.4006996155 17720428.294795036 0 17720428.294795036 -16878925.016319275 0 0 0 0 1045649.9758171365 2827913.1697707009 0 2827913.1697707009 383709.0489791017 0 0 0 0 -11363452.196525574 8676015.7737922668 0 8676015.7737922668 765961.47212982178 0 0 0 0 65877950.20627594 29347774.783229828 0 29347774.783229828 -41465085.756984711 0 0 0 0 17699001.354751587 46993929.895389557 0 46993929.895389557 -9458620.7147636414 0 0 0 0 69179658.090835571 19252066.560545921 0 19252066.560545921 -17524015.453186035 0 0 0 0 71940623.519012451 17955579.762557983 0 17955579.762557983 -33251935.226089478 0 0 0 0 64793112.823455811 1842007.887260437 0 1842007.887260437 -22450724.476366043 0 0 0 0 62629242.43397522 4624276.5733947754 0 4624276.5733947754 -1724419.6186904907 0 0 0 0 49831682.8516922 55524948.00296402 0 55524948.00296402 39697027.287242889 0 0 0 0 47861364.887190819 39866657.031708479 0 39866657.031708479 -12331590.616325378 0 0 0 0 11705269.284805298 70563623.488304138 0 70563623.488304138 14895567.1938591 0 0 0 0 4609198.143699646 31960120.955978394 0 31960120.955978394 22669667.298324585 0 0 0 0 -2926178.574508667 66242545.261833191 0 66242545.261833191 38194175.449323654 0 0 0 0 9327270.9651107788 72571654.633666992 0 72571654.633666992 39085416.524299622 0 0 0 0 100877572.63187408 68357943.519456863 0 68357943.519456863 5299189.8110294342 0 0 0 0 65341902.787376404 40892288.405763626 0 40892288.405763626 20570812.299598694 0 0 0 0 -642491.93515033182 680375.65100022778 0 680375.65100022778 430710.16070710868 0 0 0 0 -13434001.565048218 795390.84363937378 0 795390.84363937378 -719636.4153342247 0 0 0 0 -32816315.950317383 2250157.6920423508 0 2250157.6920423508 14931671.60218811 0 0 0 0 -160315.84239309607 5142320.738106532 0 5142320.738106532 1031315.3778101988 0 0 0 0 3083384.297594713 7016396.1079613306 0 7016396.1079613306 1491025.6058402583 0 0 0 0 8903911.5753250122 7014441.0577011108 0 7014441.0577011108 511214.38261795044 0 0 0 0 -8205787.3043251038 8067205.2630748749 0 8067205.2630748749 8927456.2120513916 0 0 0 0 2165850.034491539 6249180.962533474 0 6249180.962533474 -4682992.5753555298 0 0 0 0 3517753.9929656982 2286611.3269348145 0 2286611.3269348145 -606695.38818740845 0 0 0 0 7050983.331019694 5760321.1768689137 0 5760321.1768689137 259147.8295420371 0 0 0 0 -13985195.308258057 25144057.83493042 0 25144057.83493042 42684497.634616852 0 0 0 0 -7412050.1691589355 13096898.784425735 0 13096898.784425735 2855795.0487060547 0 0 0 0 -1438394.9812164307 20026552.26335907 0 20026552.26335907 1008284.8397903442 0 0 0 0 -4194701.6756973267 15132846.966690063 0 15132846.966690063 -6284904.297164917 0 0 0 0 -213128.5591506958 9249117.2577438354 0 9249117.2577438354 -5897011.7061920166 0 0 0 0 -11504187.25920105 12927692.546756744 0 12927692.546756744 437611.86016464233 0 0 0 0 -1006497.3704600758 1260126.2315604631 0 1260126.2315604631 -210473.90158078447 0 0 0 0 12484703.755599976 6312713.0242233276 0 6312713.0242233276 -7672812.4131011963 0 0 0 0 -10563896.507289886 8943541.8264770508 0 8943541.8264770508 1694059.2731246948 0 0 0 0 -285415.44848632812 8213738.9856147766 0 8213738.9856147766 4397616.0794754028 0 0 0 0 7596845.90650177 12548211.751358032 0 12548211.751358032 -6555498.6864089966 0 0 0 0 25188132.917282104 -508746.73645782471 0 -508746.73645782471 1318124.4885940552 0 0 0 0 48041561.14793396 10650283.164150238 0 10650283.164150238 -11637983.124023438 0 0 0 0 -362219.66046228493 109327.25316930003 0 109327.25316930003 -1324.249732952565 0 0 0 0 -29637438.701404572 8261826.541513443 0 8261826.541513443 10096917.970371246 0 0 0 0 8458281.0773620605 6028880.360496521 0 6028880.360496521 -3575.0397815704346 0 0 0 0 2589197.914150238 17756136.81256485 0 17756136.81256485 -22976807.359806061 0 0 0 0 9371352.7245826721 21369041.901073456 0 21369041.901073456 -5940618.2149200439 0 0 0 0 -7514807.6355667114 16680833.907691956 0 16680833.907691956 4574873.0123596191 0 0 0 0 -7950774.1634140015 18518156.903761864 0 18518156.903761864 6876580.2069091797 0 0 0 0 -25976766.074897766 31191938.708595276 0 31191938.708595276 -1783037.1510124207 0 0 0 0 -44279023.94675827 8296509.862405777 0 8296509.862405777 22144782.177429199 0 0 0 0 -503063.03855257481 520675.14318482205 0 520675.14318482205 482765.85578806326 0 0 0 0 -147970614.25946808 351346252.18395615 0 351346252.18395615 -44061642.892845154 0 0 0 0 91635576.337409973 42376267.365013123 0 42376267.365013123 -239185779.55857468 0 0 0 0 -169192479.25336933 -257321835.54088378 0 -257321835.54088378 236449329.31242371 0 0 0 0 -147067986.89965057 172689433.56795502 0 172689433.56795502 -68886627.693077087 0 0 0 0 -50882009.614746094 56003145.032409668 0 56003145.032409668 35723503.171707153 0 0 0 0 198612953.71772766 112329391.89249802 0 112329391.89249802 31909111.190422058 0 0 0 0 -39360427.51776123 124134340.24559402 0 124134340.24559402 200079469.41495514 0 0 0 0 -14223007.634048462 -4595435.9633979797 0 -4595435.9633979797 20478812.118264198 0 0 0 0 -10908023.363883972 14613309.210411072 0 14613309.210411072 3348852.6068687439 0 0 0 0 -26529078.517692089 197700221.27524853 0 197700221.27524853 5544354.546585083 0 0 0 0 -274553.31967783161 367024.19066023082 0 367024.19066023082 -278113.8325888738 0 0 0 0 -81619499.42565155 4867704.5497512817 0 4867704.5497512817 -28559763.702311516 0 0 0 0 -72128620.171180725 -69839407.304989815 0 -69839407.304989815 -42321519.842891693 0 0 0 0 1260190.4660903327 6656525.9772474915 0 6656525.9772474915 -503575.16814572364 0 0 0 0 -88712669.431266785 -84776870.841125488 0 -84776870.841125488 141702214.70527744 0 0 0 0 206097373.0136528 -13379910.208926201 0 -13379910.208926201 -166218239.3557663 0 0 0 0 1933066.3311721981 6379449.2069358975 0 6379449.2069358975 -1786590.7222863138 0 0 0 0 -8432838.3939056396 18641779.89216423 0 18641779.89216423 23137723.228843689 0 0 0 0 -2997288.3735771179 4969680.708770752 0 4969680.708770752 19060881.113531113 0 0 0 0 2288981.8503837585 12067482.03954792 0 12067482.03954792 20359892.123527527 0 0 0 0 466530.76315689087 4664920.0598373413 0 4664920.0598373413 13690895.025203705 0 0 0 0 1568551.5692520142 6812474.7408943176 0 6812474.7408943176 16659854.200630188 0 0 0 0 -687079.52304128185 3658012.4863641961 0 3658012.4863641961 4896044.2180137597 0 0 0 0 258198.09504316747 868092.30927830562 0 868092.30927830562 1267061.842261239 0 0 0 0 -81561514.419067383 -4343028.767370224 0 -4343028.767370224 -7154968.93019104 0 0 0 0 -1539875.7041091919 7434565.5142211914 0 7434565.5142211914 20243575.602035522 0 0 0 0 -23178.586675741011 1252116.3401259948 0 1252116.3401259948 -186561.24589967355 0 0 0 0 -184921.78991634771 1067458.5515723517 0 1067458.5515723517 -1732924.968417231 0 0 0 0 -1403292.1599655151 2846511.1008720398 0 2846511.1008720398 -268771.76170921326 0 0 0 0 -849228.30956663331 2441199.0210378189 0 2441199.0210378189 263162.37650901079 0 0 0 0 2372632.4981994629 3379643.1637496948 0 3379643.1637496948 755207.08500099182 0 0 0 0 -103564.68338615447 4873643.937901048 0 4873643.937901048 1273363.2148716273 0 0 0 0 -1944076.003074646 4227181.4111366272 0 4227181.4111366272 2576049.7328567505 0 0 0 0 -792171.53457886353 4221679.6478627361 0 4221679.6478627361 2299905.0983969094 0 0 0 0 -1595813.9910459444 2678433.5155826742 0 2678433.5155826742 -345266.69402922317 0 0 0 0 -1916744.8979949951 4113480.3716201782 0 4113480.3716201782 -561073.59474182129 0 0 0 0 -2634282.0195922852 3318604.9252624512 0 3318604.9252624512 -434271.33908081055 0 0 0 0 674022.95844571665 3277672.9537773589 0 3277672.9537773589 -2355219.7520157695 0 0 0 0 -509352.09902954102 3453654.6670837402 0 3453654.6670837402 -1566758.0966186523 0 0 0 0 2106714.0788972895 4091486.7460854221 0 4091486.7460854221 -1312274.0756023973 0 0 0 0 -1694992.8404541016 4162825.1723022461 0 4162825.1723022461 -1128285.2862854004 0 0 0 0 -96474.079887870699 2781781.6389496233 0 2781781.6389496233 3738550.0602272488 0 0 0 0 -2091886.5183868408 3726229.1637916565 0 3726229.1637916565 565210.60810852051 0 0 0 0 1559217.9331106544 4640259.4395005777 0 4640259.4395005777 3803134.7057687882 0 0 0 0 -394794.61791992188 3317220.7133331299 0 3317220.7133331299 -1687131.0388259888 0 0 0 0 1987092.1765926918 4073538.9367070422 0 4073538.9367070422 -1167593.7693603784 0 0 0 0 -591545.13464355469 3019604.1370544434 0 3019604.1370544434 -525029.45770263672 0 0 0 0 34120269.489959717 19096853.942996979 0 19096853.942996979 8021367.8912353516 0 0 0 0 469904.32630663365 1054110.4292795882 0 1054110.4292795882 -235070.17401066422 0 0 0 0 9458650.6314401627 14576413.458525181 0 14576413.458525181 8067734.3993530273 0 0 0 0 -363626.14954954712 1805711.0995675419 0 1805711.0995675419 3144162.3956476487 0 0 0 0 647358.21187973022 1925890.537727356 0 1925890.537727356 1149194.3175573349 0 0 0 0 1716298.1845446192 1856720.1826158762 0 1856720.1826158762 -21387.844194367528 0 0 0 0 1964365.0650367737 3190739.27602005 0 3190739.27602005 6859320.4678573608 0 0 0 0 152051.37927055359 1934970.6967849731 0 1934970.6967849731 8466826.102645874 0 0 0 0 194500.7724609375 3548538.7365093231 0 3548538.7365093231 9962625.3180923462 0 0 0 0 1697529.392829895 1580672.9187297821 0 1580672.9187297821 4199303.6414794922 0 0 0 0 2690659.9100990295 -497862.59817123413 0 -497862.59817123413 4660593.2097091675 0 0 0 0 8049.3610153198242 -379255.10754013062 0 -379255.10754013062 7962152.3184967041 0 0 0 0 1007440.327942064 217044.26086320542 0 217044.26086320542 778621.7524802126 0 0 0 0 5514.152229309082 2901570.8362979889 0 2901570.8362979889 8952204.6332855225 0 0 0 0 109276312.76327896 42225058.770645142 0 42225058.770645142 6073445.3296051025 0 0 0 0 45557826.963005066 9392911.4147186279 0 9392911.4147186279 3141445.338558197 0 0 0 0 72364.563272552565 413122.82893382572 0 413122.82893382572 302200.323711548 0 0 0 0 46302161.991134644 61963199.130228043 0 61963199.130228043 92495206.085449219 0 0 0 0 96212.697822570801 -116533.90299987793 0 -116533.90299987793 -775689.94376754761 0 0 0 0 27047458.207885742 -80535615.570030212 0 -80535615.570030212 105363386.43520403 0 0 0 0 5914118.481880188 521881.7254486084 0 521881.7254486084 -2564326.1722869873 0 0 0 0 1219853.3796463013 3747099.3917274475 0 3747099.3917274475 6167523.9168453217 0 0 0 0 387355.85942459106 1223400.3324317932 0 1223400.3324317932 -352085.64385986328 0 0 0 0 -918019.02428245544 2343957.4999065399 0 2343957.4999065399 -444925.96313476562 0 0 0 0 2251974.7620162964 5979190.2005763054 0 5979190.2005763054 -2817558.4767074585 0 0 0 0 537639.26024436951 -433364.20737171173 0 -433364.20737171173 -1670396.8954467773 0 0 0 0 337685.61409889534 1090286.1988319419 0 1090286.1988319419 370564.93506189995 0 0 0 0 -752721.89170837402 1111998.3571777344 0 1111998.3571777344 -32977.112587584605 0 0 0 0 334925487.54537582 53376270.852790833 0 53376270.852790833 -387546753.5579834 0 0 0 0 704371.22012523841 -585992.30459893122 0 -585992.30459893122 11450.4827824682 0 0 0 0 226621610.87840271 -86884697.465866089 0 -86884697.465866089 146206363.15206909 0 0 0 0 -555977.06348161167 -983019.93619408458 0 -983019.93619408458 265833.63029134274 0 0 0 0 -1225242.7124176025 235496677.1916275 0 235496677.1916275 -49939478.304336548 0 0 0 0 -3051054.4270204343 257623.85689158645 0 257623.85689158645 1181896.6479453109 0 0 0 0 -6266193.9758872986 3957785.6608104706 0 3957785.6608104706 280480.74034881592 0 0 0 0 -59991632.328239441 25008574.932266235 0 25008574.932266235 1339144.3350219727 0 0 0 0 -63979371.787635803 15017809.509750366 0 15017809.509750366 -6037110.2672019005 0 0 0 0 22426703.966291696 -7539831.3320379518 0 -7539831.3320379518 -2766214.9363557491 0 0 0 0 51791.9308032915 -2379.2843356467783 0 -2379.2843356467783 969245.7175794458 0 0 0 0 -2382423.3353424072 834085.24785614014 0 834085.24785614014 -1700865.0109539032 0 0 0 0 2410020.6437015533 -2926895.2740035057 0 -2926895.2740035057 -107631936.87006378 0 0 0 0 -2974746.371723175 1226399.6976203918 0 1226399.6976203918 5880145.6421127319 0 0 0 0 -2825540.414276123 1248096.4213371277 0 1248096.4213371277 -368694.91097164154 0 0 0 0 -9513352.5068368912 5285760.6209373474 0 5285760.6209373474 4596668.8459243774 0 0 0 0 -7670634.1378965378 -157492.98094654083 0 -157492.98094654083 6467483.8545684814 0 0 0 0 -601539.66621017456 1877050.8637800217 0 1877050.8637800217 5804018.3931732178 0 0 0 0 -770390.43678283691 701539.07172012329 0 701539.07172012329 6994901.4010314941 0 0 0 0 -1804683.441947937 3832487.3289203644 0 3832487.3289203644 8830856.7971611023 0 0 0 0 -7671286.3225860596 313742.60494232178 0 313742.60494232178 22122411.908180237 0 0 0 0 -7234556.6001882553 -886781.74169063568 0 -886781.74169063568 6341761.1479187012 0 0 0 0 -820053.03925178014 -213715.77647575922 0 -213715.77647575922 635735.49269408733 0 0 0 0 -8237691.2065887451 -11454363.960796356 0 -11454363.960796356 46083950.603538513 0 0 0 0 -14057644.218647003 22631352.14012146 0 22631352.14012146 37573662.980709076 0 0 0 0 9171527.9982757568 52789101.088050842 0 52789101.088050842 10640735.439811707 0 0 0 0 20419178.089729309 49149139.732788086 0 49149139.732788086 -10139508.289253235 0 0 0 0 -25855664.85559082 20353466.086219788 0 20353466.086219788 -13321451.834032059 0 0 0 0 -1937624.676359158 -184582.88224051893 0 -184582.88224051893 1190775.7284709327 0 0 0 0 -40330946.854759216 18160431.141845703 0 18160431.141845703 -10905790.790988922 0 0 0 0 -42857683.480148315 42085502.965616226 0 42085502.965616226 -8236469.2751617432 0 0 0 0 3505412.3666572571 43310738.933864594 0 43310738.933864594 -6411552.9486846924 0 0 0 0 9131931.0993423462 34477473.748035431 0 34477473.748035431 -7397.1296395872896 0 0 0 0 -23052600.470899105 17480418.985338449 0 17480418.985338449 2897293.1846694946 0 0 0 0 -24817477.702377319 27240211.295921326 0 27240211.295921326 -10781953.103744507 0 0 0 0 -44861258.039825439 30445793.664512634 0 30445793.664512634 -490.43258724988993 0 0 0 0 54202905.608911812 30832212.104547843 0 30832212.104547843 -4357610.7710723877 0 0 0 0 42017192.868106842 34093276.529701233 0 34093276.529701233 -7097.1690444946289 0 0 0 0 21034973.598918915 20644114.092346191 0 20644114.092346191 485738.66799926758 0 0 0 0 46309323.641124725 24530420.458171844 0 24530420.458171844 -4057847.3089389801 0 0 0 0 6569529.5669856071 32110100.056062222 0 32110100.056062222 19546991.940444946 0 0 0 0 46076865.708267212 34953281.639041901 0 34953281.639041901 -774065.96558570862 0 0 0 0 30226847.601104736 6062418.5103912354 0 6062418.5103912354 -3021947.4710426331 0 0 0 0 18794780.74741745 52501559.70483017 0 52501559.70483017 -7403815.6608810425 0 0 0 0 2184472.1751441956 38854229.950037003 0 38854229.950037003 -17091995.539878845 0 0 0 0 -12128740.332035065 14128411.38287735 0 14128411.38287735 -8355489.8794174194 0 0 0 0 455518.56781773083 595488.78852643818 0 595488.78852643818 -645768.10047570989 0 0 0 0 -10192460.771608353 12472731.313907623 0 12472731.313907623 -7036955.7081680298 0 0 0 0 14245957.852748871 -1783161.2365074158 0 -1783161.2365074158 -54851722.858470917 0 0 0 0 -3276125.723982811 19999257.793789148 0 19999257.793789148 28905403.736816406 0 0 0 0 -17297009.323097229 8479087.8714408875 0 8479087.8714408875 20691037.225240707 0 0 0 0 -12028972.620101929 -10037875.959222794 0 -10037875.959222794 85558085.440408707 0 0 0 0 -10136859.735752106 77908590.371383667 0 77908590.371383667 62965893.220115662 0 0 0 0 1781119.2624824177 6614354.4050166737 0 6614354.4050166737 -2701266.9607058764 0 0 0 0 4844606.6444129944 44989755.802206039 0 44989755.802206039 -37807098.856155396 0 0 0 0 55874399.716411591 -2205011.6118659973 0 -2205011.6118659973 943778.17876434326 0 0 0 0 68082111.75138092 -60778767.019702911 0 -60778767.019702911 -75378297.925487518 0 0 0 0 2117082.7048160769 6445598.0014059544 0 6445598.0014059544 -2425144.6062364262 0 0 0 0 -17586928.259773254 24093169.172969818 0 24093169.172969818 52305807.835380554 0 0 0 0 -66872617.592224121 22675557.629543304 0 22675557.629543304 164528723.49430466 0 0 0 0 -472868.26798845828 -50382.103515829891 0 -50382.103515829891 587351.57007176057 0 0 0 0 21009317.753456116 108994010.39567375 0 108994010.39567375 54198337.252859116 0 0 0 0 3786250.6196289062 -6233914.6435813904 0 -6233914.6435813904 8197615.3107261658 0 0 0 0 -5132835.3139915466 3185861.308412075 0 3185861.308412075 5471796.8180351257 0 0 0 0 -3983763.4815002009 2850458.7612807211 0 2850458.7612807211 785243.44288856722 0 0 0 0 84685518.596058846 -58282133.600233078 0 -58282133.600233078 31399436.767284393 0 0 0 0 -3182865.9617281556 3190920.1376515348 0 3190920.1376515348 -1164401.5843265839 0 0 0 0 119865.00030681118 1564573.6964736339 0 1564573.6964736339 44021.551726626232 0 0 0 0 171180406.04750061 -47383307.69361496 0 -47383307.69361496 10856595.315979004 0 0 0 0 -14428003.187793732 -11090790.851249695 0 -11090790.851249695 18490651.401370049 0 0 0 0 -3482169.6386146545 9045508.1390361786 0 9045508.1390361786 17284089.188735962 0 0 0 0 -3666165.4626655579 823357.02758789062 0 823357.02758789062 8248978.6634845287 0 0 0 0 -2759896.6308097839 -910539.28272628784 0 -910539.28272628784 8255815.3164419681 0 0 0 0 -2924199.5937843323 -172928.17110061646 0 -172928.17110061646 6860217.5307309628 0 0 0 0 -2409201.4256057739 503322.62189483643 0 503322.62189483643 4746171.2449798584 0 0 0 0 -4087284.1125869751 1684414.1127052307 0 1684414.1127052307 6908667.5988026857 0 0 0 0 -393155.53408050537 1545881.0824756622 0 1545881.0824756622 5274416.4864463806 0 0 0 0 -2387596.1666303761 2923392.8114127871 0 2923392.8114127871 691797.60682383366 0 0 0 0 -5260985.4549806118 4606254.1627986431 0 4606254.1627986431 19901560.608856201 0 0 0 0 -3037683.4308204651 2527753.1706466675 0 2527753.1706466675 5162690.0398254395 0 0 0 0 -501682.94893264771 7475753.9143772125 0 7475753.9143772125 -4755137.6478042603 0 0 0 0 -1820908.2099914551 8041901.9092855453 0 8041901.9092855453 4599403.1707458496 0 0 0 0 129836.44140625 10531493.357460022 0 10531493.357460022 5242732.1476745605 0 0 0 0 764037.63154220581 9017380.9928436279 0 9017380.9928436279 7147504.8141555786 0 0 0 0 5423764.5056533813 11541072.983966827 0 11541072.983966827 1661590.9303741455 0 0 0 0 138421.91521467268 127642.17704721913 0 127642.17704721913 65858.408780291677 0 0 0 0 4014998.250667572 7405519.7923812866 0 7405519.7923812866 170558.04121494293 0 0 0 0 -253399.3789148666 669476.79723413847 0 669476.79723413847 243387.52111648768 0 0 0 0 -2442212.3393936157 1724386.3399810791 0 1724386.3399810791 2294258.1289482117 0 0 0 0 -79772.852124901488 244183.82896200195 0 244183.82896200195 43215.891523469239 0 0 0 0 -3624667.534116745 -6925670.7422952652 0 -6925670.7422952652 -4652184.522228241 0 0 0 0 1385565.6425952911 2445840.6147918701 0 2445840.6147918701 -12041569.477294922 0 0 0 0 -1294189.504524231 12742164.010932922 0 12742164.010932922 -31004491.078865051 0 0 0 0 -19886695.638988495 26165954.138063431 0 26165954.138063431 -17538923.759368896 0 0 0 0 -55015771.850101471 6985759.5215606689 0 6985759.5215606689 4255227.102355957 0 0 0 0 -9576223.3023071289 1301659.3585166931 0 1301659.3585166931 2567987.6639480591 0 0 0 0 -23083309.676262856 18401375.48432827 0 18401375.48432827 -1469942.1447601318 0 0 0 0 -9902326.0276794434 9793451.8861465454 0 9793451.8861465454 5203885.5998001099 0 0 0 0 -12914223.298599243 9746363.0526199341 0 9746363.0526199341 5278850.7068786621 0 0 0 0 -9898955.7249984741 1726271.2260055542 0 1726271.2260055542 7894252.2407836914 0 0 0 0 -18290894.05338192 2392698.3419952393 0 2392698.3419952393 5298354.4799499512 0 0 0 0 -7580647.7062988281 3599932.6513900757 0 3599932.6513900757 5044420.5848693848 0 0 0 0 -7267948.9146118164 4645845.9355926514 0 4645845.9355926514 7661991.1367645264 0 0 0 0 -3063824.9087295532 12937342.832572937 0 12937342.832572937 -10838129.734163284 0 0 0 0 -7733576.555267334 12698491.550888062 0 12698491.550888062 -11334160.023590088 0 0 0 0 -7023831.2475471497 10099133.644405365 0 10099133.644405365 -4462728.7845916748 0 0 0 0 -11743210.826825142 15082680.501923561 0 15082680.501923561 -908568.7241973877 0 0 0 0 -7908589.1344451904 10297899.875274658 0 10297899.875274658 3446320.7683792114 0 0 0 0 -8498663.6565856934 12553998.715831757 0 12553998.715831757 6749808.6302490234 0 0 0 0 -4020495.6924972534 11174366.358478546 0 11174366.358478546 7078769.7508049011 0 0 0 0 -5846644.3526000977 9578003.5794067383 0 9578003.5794067383 9017437.9117584229 0 0 0 0 -12216545.042648315 11227001.061904907 0 11227001.061904907 8645303.3624420166 0 0 0 0 -1956573.0805664062 11480694.284221649 0 11480694.284221649 10392440.3491745 0 0 0 0 -8169822.1020717621 11335798.763378143 0 11335798.763378143 10403412.172843933 0 0 0 0 -872461.46500015259 5745013.0815391541 0 5745013.0815391541 13680610.669235229 0 0 0 0 -2347083.1991729736 3426520.4992485046 0 3426520.4992485046 10044294.204498291 0 0 0 0 -9629199.2523803711 2681609.1219711304 0 2681609.1219711304 10473149.905021667 0 0 0 0 -5927330.3177337646 1690571.5827789307 0 1690571.5827789307 14079885.037277222 0 0 0 0 -7306246.2157363892 7035912.2977981567 0 7035912.2977981567 10729775.106740952 0 0 0 0 -13516620.650737762 8993320.642490387 0 8993320.642490387 11115906.174179077 0 0 0 0 -618300.07752990723 4867178.1128120422 0 4867178.1128120422 10989102.335501671 0 0 0 0 -10230836.623020172 7196402.9081687927 0 7196402.9081687927 11761016.014961243 0 0 0 0 -4537533.5276412964 3348910.387008667 0 3348910.387008667 15997709.82510376 0 0 0 0 -2626569.6412935257 350798.69093322754 0 350798.69093322754 13563128.009559631 0 0 0 0 2357035.8585586548 15130654.566822052 0 15130654.566822052 3839546.9585819244 0 0 0 0 -11289489.956016541 3714233.528924942 0 3714233.528924942 12402984.441099167 0 0 0 0 -15164121.332573891 22599452.470086575 0 22599452.470086575 1189916.3161735535 0 0 0 0 -1107134.6044253521 7705087.6298543531 0 7705087.6298543531 3062646.5925936475 0 0 0 0 -5956679.796081543 8522967.3770942688 0 8522967.3770942688 8799619.4739608765 0 0 0 0 -1905050.7098388672 8747127.584526062 0 8747127.584526062 8735161.6966972351 0 0 0 0 -1560508.3087527957 7654692.5061129387 0 7654692.5061129387 3483170.0376544725 0 0 0 0 -810496.53382000327 6773110.6729974486 0 6773110.6729974486 3706095.3721180819 0 0 0 0 -1999400.3663749695 9270471.9848461151 0 9270471.9848461151 6451884.1667175293 0 0 0 0 -1796381.1368980408 7705895.0559501648 0 7705895.0559501648 4446775.5609588623 0 0 0 0 828388.17042160034 10079633.050284386 0 10079633.050284386 2862074.9953918457 0 0 0 0 205522.84162902832 6894583.9835109711 0 6894583.9835109711 -343003.63200187683 0 0 0 0 -365771.73942356929 6940543.3975038379 0 6940543.3975038379 3032704.5555268191 0 0 0 0 954830.90790557861 10947685.756759644 0 10947685.756759644 7215683.7219810486 0 0 0 0 11042582.649604797 16136936.485572815 0 16136936.485572815 5120042.5730628967 0 0 0 0 9419686.8667984009 7752034.4094238281 0 7752034.4094238281 4324069.6456851959 0 0 0 0 -3834182.0006489754 12808141.066102505 0 12808141.066102505 13370775.167861938 0 0 0 0 -3773635.8152389526 2364402.6715812683 0 2364402.6715812683 4783905.9136753082 0 0 0 0 -3342902.968186643 2651692.5524476115 0 2651692.5524476115 5751894.5127467997 0 0 0 0 6737530.8999452591 17075234.944923401 0 17075234.944923401 11247987.275512695 0 0 0 0 -5783776.7540016174 7238200.9487876892 0 7238200.9487876892 18468700.256673813 0 0 0 0 -490966.44725060277 284996.81524959486 0 284996.81524959486 -136512.99571495503 0 0 0 0 -2276984.7724781577 7757699.1047749463 0 7757699.1047749463 6720208.8451917805 0 0 0 0 -1911534.0488739014 8747074.5596904755 0 8747074.5596904755 -1859072.817565918 0 0 0 0 -17381340.476384163 1213006.0468740463 0 1213006.0468740463 11180940.142448425 0 0 0 0 -159359.1629486084 6574024.4794540405 0 6574024.4794540405 -1975020.9278080463 0 0 0 0 -5199107.7919197083 7739784.7311687469 0 7739784.7311687469 8978857.977848053 0 0 0 0 -4212.5121040344238 7404769.99426651 0 7404769.99426651 -4655046.4793281555 0 0 0 0 526102.87446975708 5120772.9779624939 0 5120772.9779624939 -1743480.3255577087 0 0 0 0 1330050.0893060751 4872352.2352360766 0 4872352.2352360766 -2611697.6693103705 0 0 0 0 7977805.614780426 5267293.1553659439 0 5267293.1553659439 -21504936.450945854 0 0 0 0 -47083.960240596905 1214588.38766394 0 1214588.38766394 113428.99094256305 0 0 0 0 6574484.0646057129 13657107.775226593 0 13657107.775226593 -19605808.378238797 0 0 0 0 -1929821.9221343994 4089626.0618228912 0 4089626.0618228912 -7114808.8517684937 0 0 0 0 257105.18288759328 6883502.9448721558 0 6883502.9448721558 1647655.4983915081 0 0 0 0 207115.51627070084 4880006.0059830584 0 4880006.0059830584 2648186.1573576522 0 0 0 0 1814112.8679199219 4159975.5173110962 0 4159975.5173110962 -6469355.183675766 0 0 0 0 1973511.414652884 2805852.29615113 0 2805852.29615113 -8580579.6904261112 0 0 0 0 1846235.4949808121 8067224.0383005142 0 8067224.0383005142 -13500377.794244766 0 0 0 0 25109356.155017853 5912107.1394248009 0 5912107.1394248009 -13810405.279870749 0 0 0 0 -2307126.281993866 4362098.193104744 0 4362098.193104744 -9062885.6913790703 0 0 0 0 -461297.41428262927 1358798.0822424851 0 1358798.0822424851 -477623.12202073075 0 0 0 0 8682221.3382129669 3605972.4366760254 0 3605972.4366760254 -9423896.2208819389 0 0 0 0 7626072.0159988403 6263926.9851861 0 6263926.9851861 -2862899.941400528 0 0 0 0 9415653.2168884277 7659095.7379970551 0 7659095.7379970551 -19007333.705797315 0 0 0 0 -123401.32662582397 2702170.798541069 0 2702170.798541069 -16284797.283924103 0 0 0 0 1239226.8136570025 2721351.5281790718 0 2721351.5281790718 -4098367.5457268185 0 0 0 0 -1106145.4336738586 16684495.441350937 0 16684495.441350937 -22033938.406490803 0 0 0 0 -11141644.861915588 21757562.378108978 0 21757562.378108978 27028.567216873169 0 0 0 0 -5045868.0233459473 8787968.5453395844 0 8787968.5453395844 14883759.10943985 0 0 0 0 -129433.8177311942 6629875.5405010283 0 6629875.5405010283 132122.16765336972 0 0 0 0 4750453.2440900803 5400492.954903841 0 5400492.954903841 -17934792.777500153 0 0 0 0 6723671.8936233521 13538930.725429535 0 13538930.725429535 -7391292.017906189 0 0 0 0 1660505.0982346963 5028077.1085100714 0 5028077.1085100714 -2754989.5393640716 0 0 0 0 93012.236197222024 543010.40848916769 0 543010.40848916769 1449346.6270729965 0 0 0 0 4468296.8269805908 31891429.257501602 0 31891429.257501602 1393202.4018268585 0 0 0 0 25126859.898405075 22023684.461003304 0 22023684.461003304 -10939986.957248688 0 0 0 0 15612892.267026424 18769159.828208685 0 18769159.828208685 -1750327.9638366699 0 0 0 0 719947.00959921628 6030468.6547597274 0 6030468.6547597274 -3079775.4868193902 0 0 0 0 4153689.5637512207 -8669233.9700088501 0 -8669233.9700088501 16156095.472374916 0 0 0 0 4888477.4293212891 19489790.135066986 0 19489790.135066986 5704980.2872505188 0 0 0 0 2125601.4696426392 14804124.828508377 0 14804124.828508377 -2048548.8023872375 0 0 0 0 -2199569.4842863083 -9539706.3644304276 0 -9539706.3644304276 19167166.675926208 0 0 0 0 1016480.569348773 877408.53641785961 0 877408.53641785961 -2644572.7213576213 0 0 0 0 13781536.40653038 3943458.8411722183 0 3943458.8411722183 -15165269.954145432 0 0 0 0 4120107.1561088562 9429867.5148272514 0 9429867.5148272514 -18463467.65922761 0 0 0 0 1097778.96568425 7220197.2011932619 0 7220197.2011932619 -3291875.0514122541 0 0 0 0 -553947.58033180237 7928767.5749597549 0 7928767.5749597549 -14726221.815086842 0 0 0 0 -7121913.0661239624 19156821.960446835 0 19156821.960446835 7519142.6224832535 0 0 0 0 -17188167.034957886 20139942.426976204 0 20139942.426976204 9334739.4282159805 0 0 0 0 -230929.70735565946 5268810.8143949471 0 5268810.8143949471 -5210037.8164202794 0 0 0 0 -16098794.982948303 1455380.7929868698 0 1455380.7929868698 -2123522.3641319275 0 0 0 0 -5492478.5462722778 10099762.523967743 0 10099762.523967743 3410015.7368574142 0 0 0 0 1878868.6708462685 8560391.4908894058 0 8560391.4908894058 -4996588.075046394 0 0 0 0 3689690.189666748 11430772.398151398 0 11430772.398151398 -4432548.5309772491 0 0 0 0 1003378.0121116638 7847538.5126669407 0 7847538.5126669407 -20872400.637498856 0 0 0 0 6454420.7433815002 4725985.4154071808 0 4725985.4154071808 6799818.415058136 0 0 0 0 -859601.94722871296 9264824.8591661751 0 9264824.8591661751 -5156743.5435882248 0 0 0 0 427730.60720443726 3543885.4113998413 0 3543885.4113998413 -1834814.5632247925 0 0 0 0 273249.12587903906 8573818.8008370083 0 8573818.8008370083 -5505389.6059024036 0 0 0 0 12999598.484062195 19163094.201504707 0 19163094.201504707 -11570521.886749268 0 0 0 0 3167201.3180236816 4118189.6410923004 0 4118189.6410923004 -3340753.9815826416 0 0 0 0 4392904.3185822889 5173725.1276135612 0 5173725.1276135612 -235866.85843984038 0 0 0 0 -10489741.382762909 15034270.772696495 0 15034270.772696495 9506045.1789035797 0 0 0 0 -2439149.9897918701 25433925.737899303 0 25433925.737899303 14205824.916152954 0 0 0 0 400752.8119790256 8524259.8132875003 0 8524259.8132875003 -8781365.7473756354 0 0 0 0 -1644159.8451510072 700078.40586563013 0 700078.40586563013 2161287.9956085682 0 0 0 0 -5694353.6107940674 17227993.564186096 0 17227993.564186096 4189620.8717498779 0 0 0 0 -3897446.9694976807 34330820.556617737 0 34330820.556617737 -22279800.899383545 0 0 0 0 -1982473.4246959053 8843411.7616059128 0 8843411.7616059128 22335.315045177937 0 0 0 0 60861226.701515198 2379726.548576355 0 2379726.548576355 -7795665.8462524414 0 0 0 0 -1921958.3158094957 366725.44315546378 0 366725.44315546378 465844.21385080554 0 0 0 0 2174933.2855716776 5873117.952714894 0 5873117.952714894 -626233.03668749891 0 0 0 0 2297231.0235900879 14055427.535945892 0 14055427.535945892 804682.72311401367 0 0 0 0 554971.24356842041 13179811.07427597 0 13179811.07427597 5572012.2396297455 0 0 0 0 8981592.1011962891 15041860.720450401 0 15041860.720450401 3847176.5438842773 0 0 0 0 14667909.479309082 11893412.782989502 0 11893412.782989502 694587.30860519409 0 0 0 0 -783509.62681871466 11922211.66992598 0 11922211.66992598 1579142.3017843775 0 0 0 0 -4360307.2700653076 17017942.021104813 0 17017942.021104813 6023927.7757949829 0 0 0 0 25706913.780540466 24777699.324338913 0 24777699.324338913 -2202819.6282730103 0 0 0 0 4151938.6927566528 16730689.987205505 0 16730689.987205505 -2488827.5961875916 0 0 0 0 -25829267.833330154 22031072.983283997 0 22031072.983283997 6566665.2488441467 0 0 0 0 11631.001281037927 9932080.836278066 0 9932080.836278066 3772152.9853024893 0 0 0 0 -219320.07737827301 29222336.168913841 0 29222336.168913841 1276026.669090271 0 0 0 0 -26488303.562540054 4513407.7023639679 0 4513407.7023639679 3724121.1710739136 0 0 0 0 22329336.766777039 16251967.290676117 0 16251967.290676117 -7863630.1909484863 0 0 0 0 30370682.073425293 20651599.82667923 0 20651599.82667923 -5974354.2027816772 0 0 0 0 28685503.785850525 52832342.797283173 0 52832342.797283173 38749026.744277954 0 0 0 0 54310473.620498657 22028079.646835327 0 22028079.646835327 -15263733.732810974 0 0 0 0 13146998.291397095 29857544.241317749 0 29857544.241317749 7273776.969367981 0 0 0 0 919824.23778915405 32682943.781562805 0 32682943.781562805 8182868.635892868 0 0 0 0 14411340.697742462 17748611.720977783 0 17748611.720977783 -8007283.7681045532 0 0 0 0 4229023.5751419067 16231797.292819977 0 16231797.292819977 505333.79843139648 0 0 0 0 9779924.8809814453 6434844.1892414093 0 6434844.1892414093 -5911538.0522537231 0 0 0 0 16577815.372577667 13707075.450874329 0 13707075.450874329 -1454068.9281394482 0 0 0 0 -92579.770203918219 7539760.8798398525 0 7539760.8798398525 -3827001.28985692 0 0 0 0 2414218.412322998 15290784.292566299 0 15290784.292566299 -10426585.685274482 0 0 0 0 5440942.0985183716 -2629811.2746696472 0 -2629811.2746696472 13447224.040496826 0 0 0 0 6493567.9781494141 -1587421.0809249878 0 -1587421.0809249878 2707694.6032333374 0 0 0 0 7203426.9516601562 -4088090.305480957 0 -4088090.305480957 14677547.647964478 0 0 0 0 -118260.04875536077 169045.26074561849 0 169045.26074561849 347343.44696222246 0 0 0 0 6915405.7688846588 -2622946.7724876404 0 -2622946.7724876404 5568572.686050415 0 0 0 0 2854589.6005994901 3932229.9979448076 0 3932229.9979448076 -3286628.4604479317 0 0 0 0 12680949.938209534 8316645.7762756348 0 8316645.7762756348 -6253450.0578770638 0 0 0 0 17249319.754138947 -15705307.957910538 0 -15705307.957910538 -16833323.359298706 0 0 0 0 23951969.169178009 6823925.8471031189 0 6823925.8471031189 2043240.9577715397 0 0 0 0 120052296.25835323 749057.22849464417 0 749057.22849464417 -2214214.2657775879 0 0 0 0 65199967.234504342 113111523.43970215 0 113111523.43970215 99032955.064308167 0 0 0 0 -2932726.1076678243 2686676.2768418826 0 2686676.2768418826 897308.42709238455 0 0 0 0 425724.06764652953 -22799.788862070069 0 -22799.788862070069 -330524.56088101864 0 0 0 0 -148070.7448557429 154368.21111763548 0 154368.21111763548 23476.624225154519 0 0 0 0 113208748.90841675 48491500.969299316 0 48491500.969299316 45488598.567337036 0 0 0 0 67722110.841758728 67447803.001159668 0 67447803.001159668 142520522.78977203 0 0 0 0 14961220.881507874 -16016911.459125519 0 -16016911.459125519 -9332939.6029510498 0 0 0 0 -3147424.9343490601 -5000470.1584739685 0 -5000470.1584739685 6335769.0003051758 0 0 0 0 -12921320.206176758 -1889799.7077026367 0 -1889799.7077026367 5458038.7671298981 0 0 0 0 590290.23542308807 56967173.743583679 0 56967173.743583679 -8811083.6087646484 0 0 0 0 -10832094.47372818 -20518414.074392319 0 -20518414.074392319 -2682581.8222198486 0 0 0 0 178066930.73506165 41929000.067783356 0 41929000.067783356 -31492273.379936218 0 0 0 0 -3135867.3206807598 3050587.9939332325 0 3050587.9939332325 -648580.69646277279 0 0 0 0 56655174.272544861 42170573.739486694 0 42170573.739486694 35178306.304550171 0 0 0 0 12518733.670936584 25090762.824794769 0 25090762.824794769 55803830.450126648 0 0 0 0 -22214475.199615479 90468031.707847595 0 90468031.707847595 139792258.57530212 0 0 0 0 -47444852.549621582 34232183.425300598 0 34232183.425300598 129387946.15193176 0 0 0 0 -68477152.740749359 -36690489.348139763 0 -36690489.348139763 60493911.851272583 0 0 0 0 22889774.196018219 -49436486.697332382 0 -49436486.697332382 -73084899.044967651 0 0 0 0 -1466631.2508809268 2124065.6897152588 0 2124065.6897152588 1458756.5509390803 0 0 0 0 42393437.48840332 -3634365.1091995239 0 -3634365.1091995239 -5921658.3468818665 0 0 0 0 -4740839.0223007202 21434730.504447937 0 21434730.504447937 -17550424.418888092 0 0 0 0 -9911179.5276031494 5364448.93309021 0 5364448.93309021 14577507.891361237 0 0 0 0 -48433523.153526306 -7306916.8251724243 0 -7306916.8251724243 13393504.555770874 0 0 0 0 -1368537.6266444176 6095454.2772975676 0 6095454.2772975676 2021181.0130173489 0 0 0 0 7249606.0520172119 8556097.4965667725 0 8556097.4965667725 4946932.0694313049 0 0 0 0 -26190488.406597137 -22707519.953304291 0 -22707519.953304291 -17921635.050964355 0 0 0 0 3504810.1621856689 12291913.956596375 0 12291913.956596375 1745072.2553253174 0 0 0 0 17076811.504514694 28762172.788354874 0 28762172.788354874 14721642.146713257 0 0 0 0 -24566758.479476929 -18351946.196662903 0 -18351946.196662903 4984083.1876239777 0 0 0 0 -42929041.032299042 -26522017.382627487 0 -26522017.382627487 8347662.8269042969 0 0 0 0 -31495898.615196228 6141757.4079383016 0 6141757.4079383016 35258658.816589355 0 0 0 0 -44229962.391113281 7346252.8281459808 0 7346252.8281459808 20095019.609363556 0 0 0 0 -31607154.839465916 244751.65668570995 0 244751.65668570995 -9387160.8754806519 0 0 0 0 -11768730.272853851 29598075.972976685 0 29598075.972976685 40650008.984954834 0 0 0 0 -14106735.6796875 7922018.1155853271 0 7922018.1155853271 25426997.964046478 0 0 0 0 -10481361.404708862 27315562.818557739 0 27315562.818557739 77301100.15448761 0 0 0 0 23610095.934280396 33409525.860183716 0 33409525.860183716 35716768.200134277 0 0 0 0 123719634.16524506 79663282.681831598 0 79663282.681831598 28179093.106964111 0 0 0 0 33574637.638549805 64456308.584007263 0 64456308.584007263 123833935.6783905 0 0 0 0 26570008.487014771 16703817.040391922 0 16703817.040391922 40645846.730606079 0 0 0 0 34335373.427307129 -5272323.9882202148 0 -5272323.9882202148 101953717.66503143 0 0 0 0 -13735968.521209717 808885.68919372559 0 808885.68919372559 46467244.853057861 0 0 0 0 1718253.6165387295 3266220.0864201151 0 3266220.0864201151 79164.117751777172 0 0 0 0 10687629.757534027 11511560.160348892 0 11511560.160348892 5128185.3963546753 0 0 0 0 53119.995431335643 10036515.072083408 0 10036515.072083408 5417594.3265268952 0 0 0 0 1861889.5116119385 4614819.7680702209 0 4614819.7680702209 2566246.7755527496 0 0 0 0 7744506.1788597107 6932563.1816663742 0 6932563.1816663742 -657000.8387260437 0 0 0 0 8327746.8308483139 6758142.2987689637 0 6758142.2987689637 -805357.22526361514 0 0 0 0 623009.61498776823 6104343.0451209098 0 6104343.0451209098 2556510.2258105054 0 0 0 0 -6782492.2901153564 5017757.6627616882 0 5017757.6627616882 -1447912.6941504478 0 0 0 0 267290.70664074644 6603065.9321142696 0 6603065.9321142696 1529585.0837513357 0 0 0 0 16902964.574386597 26125866.749427795 0 26125866.749427795 25426407.165246964 0 0 0 0 -10546216.181777954 3619526.6588230133 0 3619526.6588230133 1801409.604839325 0 0 0 0 -1773266.5869200863 1133554.0688975193 0 1133554.0688975193 925262.17985959351 0 0 0 0 -34737050.651424408 -8977489.9911661148 0 -8977489.9911661148 9117830.7912445068 0 0 0 0 -481712.36809293181 107246.27722002193 0 107246.27722002193 444791.09567894973 0 0 0 0 6967158.2041778564 7397515.5047073364 0 7397515.5047073364 3335798.685377121 0 0 0 0 389434.99696369097 4279197.0924551859 0 4279197.0924551859 1050858.9448085036 0 0 0 0 11360302.098291397 9956380.6179428101 0 9956380.6179428101 2673024.2860870361 0 0 0 0 -215484.02880565263 1791539.8424811214 0 1791539.8424811214 114383.16101952642 0 0 0 0 3762064.5038452148 3310717.7471399307 0 3310717.7471399307 8951595.5027122498 0 0 0 0 -24977601.7980299 50181499.256578922 0 50181499.256578922 -88953892.719291687 0 0 0 0 -107576030.19982147 101321517.82791519 0 101321517.82791519 -9697098.3510894775 0 0 0 0 -295665786.17575264 98625918.404359818 0 98625918.404359818 35045335.359275818 0 0 0 0 -119014.21224227734 636752.89751138538 0 636752.89751138538 31669.864620350301 0 0 0 0 -33644179.297515869 200548236.69183922 0 200548236.69183922 -38031745.326792717 0 0 0 0 42355649.220397949 33453686.722314835 0 33453686.722314835 5964006.9339179993 0 0 0 0 33171213.257709503 21669780.393316269 0 21669780.393316269 -16595591.932041168 0 0 0 0 882218.78988954425 1522882.4609462135 0 1522882.4609462135 -327277.10013089702 0 0 0 0 17329308.119644165 16623410.403274536 0 16623410.403274536 24181331.03040123 0 0 0 0 18899801.407562256 10313022.293857574 0 10313022.293857574 -6496766.4136276245 0 0 0 0 2909403.8443603516 21277966.440517426 0 21277966.440517426 13400723.314487457 0 0 0 0 16210252.761882782 15487815.171528816 0 15487815.171528816 8704846.4569244385 0 0 0 0 28681326.435791016 12976530.829240799 0 12976530.829240799 4884319.1754570007 0 0 0 0 14681533.541151047 11981938.223088264 0 11981938.223088264 3247694.2283935547 0 0 0 0 4533849.3952331543 7712805.0123519897 0 7712805.0123519897 9599066.580116272 0 0 0 0 3353040.7831344604 5393592.6092243195 0 5393592.6092243195 6344746.8186016083 0 0 0 0 27711595.511994362 8823041.8910105228 0 8823041.8910105228 -27172922.604904175 0 0 0 0 -15832131.129257202 8339838.8915328979 0 8339838.8915328979 7076260.198636055 0 0 0 0 2641464.0625457764 11654698.944393158 0 11654698.944393158 -7495552.403968811 0 0 0 0 -59447571.095695496 19949025.760612488 0 19949025.760612488 -6851748.8924255371 0 0 0 0 -5058127.6836090088 -17405399.76922226 0 -17405399.76922226 -42978700.195129395 0 0 0 0 -1022701.4372558594 31456675.190418243 0 31456675.190418243 -26484912.450164795 0 0 0 0 49009550.722351074 17908472.569385529 0 17908472.569385529 -34879416.240438461 0 0 0 0 7657697.4619522095 53499440.46875 0 53499440.46875 -59758270.461708069 0 0 0 0 48374478.085647583 11551841.018535137 0 11551841.018535137 -92371999.365699768 0 0 0 0 25150527.480377197 46450105.022819519 0 46450105.022819519 -43154099.260620117 0 0 0 0 13323747.611030579 60920927.564226151 0 60920927.564226151 -60850661.13772583 0 0 0 0 24193912.964294434 43078254.796066284 0 43078254.796066284 -2878456.794670105 0 0 0 0 102622721.2306366 55531475.838752747 0 55531475.838752747 -61139235.391637802 0 0 0 0 85528534.565216064 -12220220.250164032 0 -12220220.250164032 41771358.300521851 0 0 0 0 -728467.15432739258 77258664.262275696 0 77258664.262275696 19074158.891277313 0 0 0 0 134963637.02197266 31421017.359680176 0 31421017.359680176 -45082632.330612183 0 0 0 0 -156994224.22047424 11950230.107709885 0 11950230.107709885 31250787.313110352 0 0 0 0 -1806709.614731567 1335932.1846897081 0 1335932.1846897081 772262.71740176156 0 0 0 0 -81336449.157165527 90638548.060108185 0 90638548.060108185 -9792653.0639343262 0 0 0 0 26017102.215423584 52288641.068771362 0 52288641.068771362 -16766485.530570984 0 0 0 0 -69736623.577072144 -2740097.912902832 0 -2740097.912902832 3686272.9617505074 0 0 0 0 -79916860.836011887 63712318.16956234 0 63712318.16956234 -6538400.3064727783 0 0 0 0 -5135799.6402282715 30868314.333236694 0 30868314.333236694 -1888665.7897033691 0 0 0 0 -10838941.192564726 13149847.809713397 0 13149847.809713397 -1010967.5126231733 0 0 0 0 -26477259.304916382 20193484.967102051 0 20193484.967102051 10148405.053039551 0 0 0 0 -27260528.652786255 19849280.72252655 0 19849280.72252655 10107184.034428596 0 0 0 0 -9676746.0275421143 21761151.748390436 0 21761151.748390436 19637520.233311653 0 0 0 0 -32919872.496673584 34153597.049591064 0 34153597.049591064 -949935.86908531189 0 0 0 0 -28374397.344474792 19667571.427820206 0 19667571.427820206 10670199.076786041 0 0 0 0 -29891035.531707764 7079513.531211853 0 7079513.531211853 4167949.5376362801 0 0 0 0 -27926112.229095459 20194595.278549194 0 20194595.278549194 11238971.528121948 0 0 0 0 -57313878.680389404 20605875.78156662 0 20605875.78156662 11239688.68396759 0 0 0 0 -17677157.090003967 15799002.819406509 0 15799002.819406509 3437075.6744194031 0 0 0 0 -10391500.719985962 120341600.50708389 0 120341600.50708389 -87381479.259712219 0 0 0 0 -58070444.618774414 79940912.93598938 0 79940912.93598938 99899423.190494537 0 0 0 0 -6474899.9395752847 5328459.8479697183 0 5328459.8479697183 3303079.0297561176 0 0 0 0 3880689.1678695679 100806105.53334045 0 100806105.53334045 -15089268.044685364 0 0 0 0 8621754.9313964844 92886623.141307831 0 92886623.141307831 -6940921.578338623 0 0 0 0 18439299.016746521 88416834.222635269 0 88416834.222635269 -13193343.57383728 0 0 0 0 15497649.101287842 91806020.377723694 0 91806020.377723694 -13043908.454129219 0 0 0 0 3556677.0049519539 -20780738.520021915 0 -20780738.520021915 31408864.443473816 0 0 0 0 -3850150.7415453084 278382.27283721045 0 278382.27283721045 4000148.0084240288 0 0 0 0 18382088.531677246 43271896.873128176 0 43271896.873128176 7635882.7208271027 0 0 0 0 -43219540.624061584 26727085.443109512 0 26727085.443109512 18536134.482254028 0 0 0 0 -6025481.4759112149 5694284.1309701689 0 5694284.1309701689 3966965.8197628949 0 0 0 0 -9861468.4147166647 11711291.095714426 0 11711291.095714426 -5951967.0777977323 0 0 0 0 8344941.1935501099 -450530.18614816666 0 -450530.18614816666 17975420.432639122 0 0 0 0 -2878728.302696228 22887293.117203712 0 22887293.117203712 10711242.486071587 0 0 0 0 -15938413.325359344 26887730.909474969 0 26887730.909474969 19345245.832046032 0 0 0 0 -3080835.0625951886 3651206.9692585897 0 3651206.9692585897 -1123529.6037977906 0 0 0 0 -29778867.093139648 -6856945.1211261749 0 -6856945.1211261749 71466810.22743988 0 0 0 0 -1031498.8480987549 3248975.9520988464 0 3248975.9520988464 -66133.832845211029 0 0 0 0 -663593.48261439055 4887243.8055937625 0 4887243.8055937625 -5158462.5913596321 0 0 0 0 -3075492.8949927092 5440633.2485407405 0 5440633.2485407405 -3341923.7741107577 0 0 0 0 -996265.21584320068 3030300.3864631653 0 3030300.3864631653 1290408.5897417068 0 0 0 0 -4052054.7725674249 6798797.4032892901 0 6798797.4032892901 -5638588.2501143385 0 0 0 0 -9751387.4402761459 56343546.056035519 0 56343546.056035519 14732239.690628052 0 0 0 0 -43070883.090652466 39190256.901920319 0 39190256.901920319 95176093.999290466 0 0 0 0 15544516.389195204 28041004.163913488 0 28041004.163913488 41278477.688743591 0 0 0 0 -88782619.811141968 77283130.593456268 0 77283130.593456268 18937486.361558914 0 0 0 0 -81398889.908325195 -1249162.8188362122 0 -1249162.8188362122 45040893.446931839 0 0 0 0 6362968.5045967102 500072.97772789001 0 500072.97772789001 42477440.675662994 0 0 0 0 -9129705.6852035522 -36947338.995037079 0 -36947338.995037079 -18694433.660560608 0 0 0 0 -29857274.869491577 -23263775.23591423 0 -23263775.23591423 -17212115.495880127 0 0 0 0 -96072092.905593872 -97795859.24423027 0 -97795859.24423027 -76425134.395843506 0 0 0 0 -2167135.3757610321 87973434.190446377 0 87973434.190446377 -59829298.007675171 0 0 0 0 -46882899.529945374 12506002.983507156 0 12506002.983507156 20393744.319519043 0 0 0 0 -248619894.20324707 42383959.885128021 0 42383959.885128021 18038389.328714371 0 0 0 0 -62426380.23550415 149685079.32385063 0 149685079.32385063 -153597449.39596558 0 0 0 0 3176474.6015777588 51653679.351799011 0 51653679.351799011 -40071841.319490433 0 0 0 0 53968803.20797348 17934934.137346268 0 17934934.137346268 -98267553.466598511 0 0 0 0 -278975724.20931625 84845577.8640728 0 84845577.8640728 2675368.0537719727 0 0 0 0 229267.93445460871 485797.75936516747 0 485797.75936516747 -145974.0077300705 0 0 0 0 39412835.295509338 -9191470.5396633148 0 -9191470.5396633148 -26155331.345027924 0 0 0 0 -105478906.88822937 -67000078.744953156 0 -67000078.744953156 95367708.57624054 0 0 0 0 -248348777.22649384 112226820.93648529 0 112226820.93648529 -87589583.687561512 0 0 0 0 103918599.99162674 30826167.920238495 0 30826167.920238495 -58692955.058834076 0 0 0 0 379265.59634905308 -494885.89782769419 0 -494885.89782769419 166225.61271344929 0 0 0 0 23923588.998336792 28218424.874954224 0 28218424.874954224 32697117.33779335 0 0 0 0 -15534867.628707886 9173890.3442802429 0 9173890.3442802429 125989775.70283222 0 0 0 0 3600542.1266937256 882763.94171905518 0 882763.94171905518 1043744.7377738953 0 0 0 0 26090124.3294487 -2918586.8681116104 0 -2918586.8681116104 1438478.0869178772 0 0 0 0 33668355.124305725 -12693560.082345963 0 -12693560.082345963 -19046422.668720245 0 0 0 0 -480885.0238494873 -44464307.468845367 0 -44464307.468845367 -47903833.903158188 0 0 0 0 -11593787.919153214 -32882889.021267891 0 -32882889.021267891 18677757.552715302 0 0 0 0 12578086.550453186 -21133332.596538544 0 -21133332.596538544 20374679.122984409 0 0 0 0 -243548.11519280449 3074586.9075817717 0 3074586.9075817717 -1766389.0126111116 0 0 0 0 -150025.21842579544 1549050.9836666929 0 1549050.9836666929 -996400.61223362386 0 0 0 0 -5253187.3315601349 6854730.8438334465 0 6854730.8438334465 -3523511.7268829346 0 0 0 0 -7930661.3082294464 12176661.268984795 0 12176661.268984795 -10776847.478290558 0 0 0 0 337574.50794968754 990953.50377446413 0 990953.50377446413 -852005.59137580264 0 0 0 0 4057886.7541732788 7157046.5949954987 0 7157046.5949954987 -28351609.100845337 0 0 0 0 -807302.44111633301 8744424.1831207275 0 8744424.1831207275 -12264085.821395874 0 0 0 0 -21223.12321472168 8998179.1302261353 0 8998179.1302261353 -13444210.207937241 0 0 0 0 -863763.39852142334 10737392.812858582 0 10737392.812858582 -18488839.038528442 0 0 0 0 -4665073.7834243774 9102408.5904521942 0 9102408.5904521942 -9640464.2744102478 0 0 0 0 -2292633.9071426392 9107023.9023609161 0 9107023.9023609161 -12888013.466339111 0 0 0 0 3490.8078765869141 7313997.8055286407 0 7313997.8055286407 -11614999.010120392 0 0 0 0 -3728175.065120697 7880116.5413780212 0 7880116.5413780212 -9887284.7414474487 0 0 0 0 -1965479.032043457 6251276.1611003876 0 6251276.1611003876 -9827059.9982780218 0 0 0 0 59838.89871071279 453887.10061296448 0 453887.10061296448 -1174262.3870664034 0 0 0 0 1147587.8048083 -1386088.6723401621 0 -1386088.6723401621 497256.31301896239 0 0 0 0 2909744.8026657104 -11881540.78836441 0 -11881540.78836441 106444428.92195606 0 0 0 0 6297964.1942481995 -1652408.716094017 0 -1652408.716094017 1118193.333316803 0 0 0 0 -136848.9441819191 -1295728.845880745 0 -1295728.845880745 569629.51889535319 0 0 0 0 -1970450.8646087646 5575626.954914093 0 5575626.954914093 -12698496.105209351 0 0 0 0 2641710.8523712158 -34942565.81533432 0 -34942565.81533432 322610135.06248093 0 0 0 0 -795.88423919677734 1667690.4417533875 0 1667690.4417533875 209643.29940652847 0 0 0 0 1374166.6116823852 121666.47261917964 0 121666.47261917964 -1247081.1484294645 0 0 0 0 24482863.959114075 117987213.3574276 0 117987213.3574276 70109924.785560608 0 0 0 0 -307500.25505828857 188630496.93917847 0 188630496.93917847 270622257.04380131 0 0 0 0 117488422.92102814 170307231.37446404 0 170307231.37446404 92893274.031385422 0 0 0 0 1196457.3704376221 249536647.1889019 0 249536647.1889019 40800518.388729095 0 0 0 0 78012846.654079437 100089167.35122776 0 100089167.35122776 -4699289.586265564 0 0 0 0 106213624.152771 127889263.64875603 0 127889263.64875603 12490525.540887833 0 0 0 0 36560075.709388733 61516534.653652191 0 61516534.653652191 175462954.70122147 0 0 0 0 8329107.3546485901 334722.65873241425 0 334722.65873241425 49013054.409168243 0 0 0 0 38699196.160301208 -13517175.268016815 0 -13517175.268016815 7390183.7802619934 0 0 0 0 -128861485.14180756 73155404.551847458 0 73155404.551847458 14944876.539188623 0 0 0 0 -18993377.139900208 -7381586.9167346954 0 -7381586.9167346954 -26002113.950881958 0 0 0 0 58240892.139678955 76282266.266803741 0 76282266.266803741 64619171.691184044 0 0 0 0 106516983.87625122 100521762.28720856 0 100521762.28720856 19613984.414821625 0 0 0 0 -47878826.434318542 160418139.87937164 0 160418139.87937164 -2973701.7631053925 0 0 0 0 105134594.10840607 69113313.077617645 0 69113313.077617645 -91129191.473445892 0 0 0 0 -114911619.29545975 51409171.975696564 0 51409171.975696564 74097966.737556458 0 0 0 0 -39678029.461212158 53961695.26051712 0 53961695.26051712 57660748.520793915 0 0 0 0 103483962.28137207 94166873.698669434 0 94166873.698669434 59070370.066455841 0 0 0 0 -3478813.2817764282 133526159.91219616 0 133526159.91219616 64922251.096549988 0 0 0 0 337392963.73851013 86803294.409580231 0 86803294.409580231 71986175.728645325 0 0 0 0 178717467.17227554 164083975.33754921 0 164083975.33754921 71635942.272003174 0 0 0 0 232984491.87509918 126152762.30147934 0 126152762.30147934 67287066.03096199 0 0 0 0 105580667.71125031 91815374.107892036 0 91815374.107892036 73073091.869667053 0 0 0 0 248902189.95868301 184012061.31588364 0 184012061.31588364 194452691.93144989 0 0 0 0 460517427.80560684 262391331.79222107 0 262391331.79222107 -10323388.053878784 0 0 0 0 228267.22847747803 50165544.768890381 0 50165544.768890381 49991109.434381485 0 0 0 0 -743843.21550592221 1369228.9107216783 0 1369228.9107216783 1257020.7988362089 0 0 0 0 235106815.22650909 277045167.49987793 0 277045167.49987793 7310201.8860588074 0 0 0 0 201411950.3239975 107774209.87887192 0 107774209.87887192 -734071.06267166138 0 0 0 0 233828064.84216309 169138534.76745987 0 169138534.76745987 25894084.311508179 0 0 0 0 -2422978.2622680664 22499928.85092926 0 22499928.85092926 -41325611.437147141 0 0 0 0 618857.87825012207 27748449.348231316 0 27748449.348231316 -51335145.891563416 0 0 0 0 -372971.91170883179 22798252.954364777 0 22798252.954364777 -63035037.494224548 0 0 0 0 -6393273.5641937256 36208200.445306778 0 36208200.445306778 -55734810.846583366 0 0 0 0 -4422202.4784240723 30232176.243614197 0 30232176.243614197 -47458787.831407547 0 0 0 0 -3545793.1627254486 25316221.969547272 0 25316221.969547272 -35294447.963888168 0 0 0 0 6837.9264640808105 29111160.324901581 0 29111160.324901581 -48012233.731985092 0 0 0 0 -1270589.8767089844 15525671.587187767 0 15525671.587187767 -30982283.05687952 0 0 0 0 7465477.8549499512 23187064.305423737 0 23187064.305423737 -26259621.793419838 0 0 0 0 4616501.9087905884 21765309.170129776 0 21765309.170129776 -43135112.401107788 0 0 0 0 -10016823.05657959 28012540.51452446 0 28012540.51452446 -19177705.496185303 0 0 0 0 2171237.9586181641 22983351.558488846 0 22983351.558488846 -17968498.023777246 0 0 0 0 -6380396.0890426636 27410707.280375481 0 27410707.280375481 -20890819.808562279 0 0 0 0 -18242302.982818604 40011148.346464157 0 40011148.346464157 -28499132.225010872 0 0 0 0 -18043960.218849182 14490273.693435669 0 14490273.693435669 -37041130.970035553 0 0 0 0 4443997.6438674927 16353703.583284378 0 16353703.583284378 -33560168.384489536 0 0 0 0 -7854572.9865646362 31459300.017000198 0 31459300.017000198 -214720.63098716736 0 0 0 0 5918445.4849947803 1938226.1403423864 0 1938226.1403423864 -1250559.77096863 0 0 0 0 4856162.2778911591 24646012.693555832 0 24646012.693555832 -37181988.137151718 0 0 0 0 1353317.9544677734 2374359.7330112457 0 2374359.7330112457 -659811.75991535187 0 0 0 0 3061222.6063919067 3572881.353064537 0 3572881.353064537 -3457233.0842027664 0 0 0 0 4500414.2130542807 2957756.4999535903 0 2957756.4999535903 -2577458.5347266048 0 0 0 0 914650.10634472966 407625.00886332802 0 407625.00886332802 -464486.89234078676 0 0 0 0 5903918.7130584717 19782967.624326706 0 19782967.624326706 -78425071.366809845 0 0 0 0 -29881418.670028687 30262582.359662056 0 30262582.359662056 -17411406.424739838 0 0 0 0 5079863.5568084717 6950912.5271377563 0 6950912.5271377563 2417379.5760498047 0 0 0 0 3461895.5161945671 3626616.8804855803 0 3626616.8804855803 253280.70095452946 0 0 0 0 796789.29284667969 7272672.3596382141 0 7272672.3596382141 12401342.17861557 0 0 0 0 -4954967.5208358765 -18119210.531475067 0 -18119210.531475067 1589136.0824642181 0 0 0 0 14477.752299267799 1029591.8284511007 0 1029591.8284511007 221921.13075703508 0 0 0 0 1330247.2901611328 4034757.1530132294 0 4034757.1530132294 8554154.3675994873 0 0 0 0 6700578.1758422852 8647107.3180007935 0 8647107.3180007935 4181477.66796875 0 0 0 0 5040669.1895713806 5185470.8765916824 0 5185470.8765916824 2129037.108215332 0 0 0 0 5625897.8979988098 2155076.8040723801 0 2155076.8040723801 -8328275.2231273651 0 0 0 0 15450061.052490234 12572928.154373169 0 12572928.154373169 2718835.5759167671 0 0 0 0 5059766.1830695532 1624303.2116053719 0 1624303.2116053719 -2452025.9292937787 0 0 0 0 -24110060.22701323 -5226702.7188792303 0 -5226702.7188792303 -3067111.9145107269 0 0 0 0 -112393.49391390942 -346120.2049245378 0 -346120.2049245378 -380534.91170398146 0 0 0 0 -12968934.081382751 61407330.452856064 0 61407330.452856064 -201104732.46004391 0 0 0 0 -25154147.134151459 -74000534.011854172 0 -74000534.011854172 -109020940.76991081 0 0 0 0 52960059.440315247 -10890338.873575211 0 -10890338.873575211 -146803589.3108902 0 0 0 0 45384432.982851028 -86040938.681255817 0 -86040938.681255817 -214472197.27624321 0 0 0 0 57492843.530052185 -56058050.132856369 0 -56058050.132856369 -147682841.99352902 0 0 0 0 20826432.347187042 -28940771.021386147 0 -28940771.021386147 -128463803.20575523 0 0 0 0 -22759306.069602966 -72110628.547399521 0 -72110628.547399521 -147985915.52407265 0 0 0 0 50179167.986427307 -28211905.633932114 0 -28211905.633932114 -180708741.60338116 0 0 0 0 130794.47709520161 1880036.5967850965 0 1880036.5967850965 680170.62110543682 0 0 0 0 -473497.58839797974 661376.61819314957 0 661376.61819314957 1127387.7542057037 0 0 0 0 25919009.417182922 100139225.60600471 0 100139225.60600471 69288183.376317978 0 0 0 0 -720803.30448913574 28040980.948886871 0 28040980.948886871 -46324503.885127068 0 0 0 0 1416470.8945688903 1893744.1442646421 0 1893744.1442646421 -68799.844126204029 0 0 0 0 -868305.25853729248 631613.89276504517 0 631613.89276504517 3291532.5544204712 0 0 0 0 -3176126.6047000885 19557691.161757946 0 19557691.161757946 -63466939.005901337 0 0 0 0 -264593.51914121956 1161432.1634202483 0 1161432.1634202483 -327942.64627612289 0 0 0 0 -18907.500366210938 5522629.9617500305 0 5522629.9617500305 702637.93707191944 0 0 0 0 -36790.735187478364 878807.45979948388 0 878807.45979948388 882649.60857786424 0 0 0 0 -1475559745.2157135 -528757250.33874512 0 -528757250.33874512 771881505.52293396 0 0 0 0 584556.35173034668 406147003.81660271 0 406147003.81660271 -386209954.85715675 0 0 0 0 48779935.730934143 -260719601.22670937 0 -260719601.22670937 -442300074.14937615 0 0 0 0 -712557.63596681505 1125528.3521222919 0 1125528.3521222919 -1350203.3957385253 0 0 0 0 358813740.47009277 131637037.28457737 0 131637037.28457737 -528939287.20277023 0 0 0 0 -173873185.66418362 28440699.647789478 0 28440699.647789478 17912317.60631752 0 0 0 0 -3713034.7150421143 17045876.429456711 0 17045876.429456711 -6504963.762512207 0 0 0 0 -2405278.6671961024 3427989.2857384738 0 3427989.2857384738 -3541173.5834324248 0 0 0 0 -4252238.0640153885 14884562.953815818 0 14884562.953815818 5709854.9639015198 0 0 0 0 -288109.96253585815 12180221.194255829 0 12180221.194255829 -1345588.2395954132 0 0 0 0 -3516229.3304824829 8083953.8120174408 0 8083953.8120174408 -3551682.5407800674 0 0 0 0 -2376465.6897583008 9356556.7690505981 0 9356556.7690505981 -4067954.8751525879 0 0 0 0 -3239808.3949890137 10834736.73954916 0 10834736.73954916 1123723.4705314636 0 0 0 0 -8260440.1734695435 4645095.4664840698 0 4645095.4664840698 -11448049.220685959 0 0 0 0 -2055715.1719665527 10303928.687486172 0 10303928.687486172 -7630377.4599990845 0 0 0 0 76429.589611053467 9452400.0531129837 0 9452400.0531129837 -11996992.305862427 0 0 0 0 3719478.0090332031 14618798.408989906 0 14618798.408989906 -6694890.9446144104 0 0 0 0 1234916.4017715454 8150234.9731445312 0 8150234.9731445312 -6157911.707195282 0 0 0 0 1670221.7311515808 7129064.1067643166 0 7129064.1067643166 -7387342.471622467 0 0 0 0 -2192790.3726654053 16257413.053970337 0 16257413.053970337 -13665384.563838959 0 0 0 0 -692825.9772567749 5645366.2200222015 0 5645366.2200222015 -3234294.2420101166 0 0 0 0 -2798535.1471691132 13605565.901646614 0 13605565.901646614 4418610.0281066895 0 0 0 0 4519669.7445602417 18146959.963871002 0 18146959.963871002 3079686.7352995872 0 0 0 0 57871120.143559456 -902814.31556293368 0 -902814.31556293368 -34532716.380104065 0 0 0 0 50890743.010688663 149609381.8059952 0 149609381.8059952 81394470.018213272 0 0 0 0 -4307494.4020309411 5655201.2440989278 0 5655201.2440989278 -4926777.2111142911 0 0 0 0 3788681.8380966187 7567440.8538246155 0 7567440.8538246155 2502193.4670028687 0 0 0 0 99506808.613754272 105049086.27008438 0 105049086.27008438 -101907628.61325455 0 0 0 0 120839634.73926735 55631079.374377251 0 55631079.374377251 -273678903.70327187 0 0 0 0 18715015.316875458 -69190276.923541546 0 -69190276.923541546 -296634640.6027565 0 0 0 0 -95366058.957756042 2504505.2953062057 0 2504505.2953062057 70611671.22260648 0 0 0 0 37882666.538995743 -39109137.141553402 0 -39109137.141553402 -205631942.19761276 0 0 0 0 16686687.438430786 -26699870.095711708 0 -26699870.095711708 -115204979.21436787 0 0 0 0 36246297.570861816 -48447101.250626564 0 -48447101.250626564 -250253870.46194744 0 0 0 0 11737326.205558777 -104214620.23888302 0 -104214620.23888302 -356285771.79543543 0 0 0 0 681499.0066665411 531693.01191949286 0 531693.01191949286 -895541.35797320493 0 0 0 0 7673158.6958007812 -78106808.712781906 0 -78106808.712781906 -199142717.02742004 0 0 0 0 -212594.18631649017 30760229.275394917 0 30760229.275394917 -125205555.77342796 0 0 0 0 1674541.8875908852 29544433.121183515 0 29544433.121183515 -317516295.08745956 0 0 0 0 -61870242.038902283 34922098.104557514 0 34922098.104557514 7570253.5120763779 0 0 0 0 -67966675.22628212 85577189.647052765 0 85577189.647052765 -146886311.46268082 0 0 0 0 42205365.385055542 42010736.396741867 0 42010736.396741867 -86993682.277185917 0 0 0 0 4656324.1418151855 35857009.643187523 0 35857009.643187523 -128120062.24682331 0 0 0 0 -2917188.3180999756 38785566.140547752 0 38785566.140547752 -10353380.357622147 0 0 0 0 -6401047.2338376231 7868292.4485654756 0 7868292.4485654756 -5236682.4427322857 0 0 0 0 35912774.150291443 90336115.300394058 0 90336115.300394058 74098160.152213097 0 0 0 0 11416364.103904724 -4587799.7462801933 0 -4587799.7462801933 29366348.553604126 0 0 0 0 9014423.8362121582 84646216.741134644 0 84646216.741134644 81298058.93942976 0 0 0 0 -25271414.755048752 12537289.448230267 0 12537289.448230267 41934475.539468765 0 0 0 0 66952954.588027954 54466543.883054733 0 54466543.883054733 50687636.251595974 0 0 0 0 -32284166.788803101 29307112.209749222 0 29307112.209749222 8431044.4362366199 0 0 0 0 -98691021.989906311 35086520.834153652 0 35086520.834153652 70144977.625396729 0 0 0 0 -20354060.937965393 41775589.566859245 0 41775589.566859245 30700822.074237823 0 0 0 0 87870164.23348999 71389155.899728775 0 71389155.899728775 35733611.931670189 0 0 0 0 -132804434.58795357 -36824790.134394169 0 -36824790.134394169 40786296.087497711 0 0 0 0 -53907372.581214905 -16330199.273282051 0 -16330199.273282051 75296954.105007172 0 0 0 0 -9890582.4409675598 34007406.431133509 0 34007406.431133509 -3021985.5915622711 0 0 0 0 35534535.985943556 65135581.684856489 0 65135581.684856489 133808268.58150101 0 0 0 0 -110140.04446337 493604.82472194266 0 493604.82472194266 -802258.09165607579 0 0 0 0 -29920083.154407501 28884207.261383533 0 28884207.261383533 13011927.212043285 0 0 0 0 -12622461.373005867 26182656.387105823 0 26182656.387105823 -3506554.4136724472 0 0 0 0 -16870396.724470139 34834122.584145188 0 34834122.584145188 14142272.657575607 0 0 0 0 -1095446.7189617306 603687.39117561653 0 603687.39117561653 511872.0779911438 0 0 0 0 3669950.2240791321 52466950.561402321 0 52466950.561402321 -25404024.268505096 0 0 0 0 72142856.248714447 25347236.022391796 0 25347236.022391796 -23611230.10326767 0 0 0 0 -62425207.831157684 -211391.99582004547 0 -211391.99582004547 -388105.52270126343 0 0 0 0 65430698.036035538 -111987581.778409 0 -111987581.778409 -71314663.169283867 0 0 0 0 -26001212.168621063 -15749935.98093605 0 -15749935.98093605 -20715343.541010559 0 0 0 0 -132875391.33610153 -80446237.548752308 0 -80446237.548752308 -55687087.056941032 0 0 0 0 20315227.250537872 -1686440.6181783676 0 -1686440.6181783676 -248281730.80815887 0 0 0 0 12538356.951943398 11316516.484372377 0 11316516.484372377 3305863.6928157806 0 0 0 0 -738373.00046682358 68195562.527677536 0 68195562.527677536 -52657191.090415955 0 0 0 0 -1098383.2649102211 70985358.519514084 0 70985358.519514084 -56970573.558425903 0 0 0 0 16108630.637664795 24362644.285941124 0 24362644.285941124 -27472726.180328369 0 0 0 0 -45154878.279556274 55467496.617091179 0 55467496.617091179 -24595006.773347735 0 0 0 0 -122850703.00792694 73063991.689414978 0 73063991.689414978 -3213606.4586639404 0 0 0 0 -71160045.131469727 143312895.04937649 0 143312895.04937649 -126896455.78821659 0 0 0 0 -17928241.635425568 24525520.917765617 0 24525520.917765617 -17151413.608783722 0 0 0 0 -86255059.624481201 12053219.110257149 0 12053219.110257149 10499696.984956741 0 0 0 0 25444147.247415632 8970841.6147358492 0 8970841.6147358492 -13165626.00012207 0 0 0 0 8392122.6473083496 -67983617.893548012 0 -67983617.893548012 -170996731.92025757 0 0 0 0 -16134121.39743042 42981620.386223793 0 42981620.386223793 -105074672.20642328 0 0 0 0 1810680.795868054 1528205.2310046479 0 1528205.2310046479 -2196904.0685475273 0 0 0 0 25384303.015298426 2490239.7115306109 0 2490239.7115306109 -1459627.9488258362 0 0 0 0 2074109.4891967773 2378311.5301504135 0 2378311.5301504135 -821524.83045959473 0 0 0 0 2015583.0966949463 1828941.3769111633 0 1828941.3769111633 -747002.85985946655 0 0 0 0 1146509.2565681338 1590974.1224718196 0 1590974.1224718196 280270.47318884917 0 0 0 0 8343977.1261100769 2161220.2014522552 0 2161220.2014522552 -838769.29821014404 0 0 0 0 856402.18987499736 -346668.03863139823 0 -346668.03863139823 97300.368174672127 0 0 0 0 21925486.281517029 -56241.710246086121 0 -56241.710246086121 -15796512.30540657 0 0 0 0 -33472353.122314453 3171424.0330924988 0 3171424.0330924988 10007553.618946075 0 0 0 0 1556086.7166900635 1891535.3541755676 0 1891535.3541755676 -608397.19272041321 0 0 0 0 4437106.9826447926 4703591.1238728492 0 4703591.1238728492 1044539.2086095624 0 0 0 0 54559.016044616699 3688779.7150611877 0 3688779.7150611877 -1755647.0913743973 0 0 0 0 -3037867.3507232666 28177687.531002998 0 28177687.531002998 -14797102.342245102 0 0 0 0 -11584764.053591251 -3852208.3051561117 0 -3852208.3051561117 11855975.091934204 0 0 0 0 -1692274.1904357541 -22138.489891488105 0 -22138.489891488105 1077148.2525296928 0 0 0 0 5141946.2254930343 2403984.9873412866 0 2403984.9873412866 556515.49516581371 0 0 0 0 39919857.581626892 -9592125.1420879364 0 -9592125.1420879364 -1067088.7287197113 0 0 0 0 23647077.757167816 14434532.688821793 0 14434532.688821793 7533916.5224711895 0 0 0 0 6685001.8242378235 16988239.785348892 0 16988239.785348892 11894881.318599701 0 0 0 0 34254421.159580231 16027275.226761818 0 16027275.226761818 -25005903.392774582 0 0 0 0 14180198.397275925 38412728.626821995 0 38412728.626821995 -68533993.414875031 0 0 0 0 2547265.4665050507 33858987.577165127 0 33858987.577165127 -14381383.677616119 0 0 0 0 -3720141.2248458862 10789969.716779232 0 10789969.716779232 3472502.6608772278 0 0 0 0 6761469.9050674438 11541747.44447422 0 11541747.44447422 -37585889.64750123 0 0 0 0 10074703.467624664 50504665.962532043 0 50504665.962532043 -108139039.81151867 0 0 0 0 -5166982.4417724609 34451338.20416832 0 34451338.20416832 -20947905.650938988 0 0 0 0 12314310.820091248 20943284.916795731 0 20943284.916795731 -26196733.512851238 0 0 0 0 3013772.624874115 25801358.97508812 0 25801358.97508812 -32892855.54987669 0 0 0 0 4803538.1692886353 29510181.097459793 0 29510181.097459793 -19836496.719823837 0 0 0 0 18751042.589538574 6718219.7590675354 0 6718219.7590675354 -40846704.354615688 0 0 0 0 16762062.19422245 8004997.491484642 0 8004997.491484642 -14249622.130031586 0 0 0 0 7355339.0794334412 35394235.338741302 0 35394235.338741302 -74996466.213819504 0 0 0 0 108121449.11985016 -22847683.482937336 0 -22847683.482937336 -62552867.068061829 0 0 0 0 61466307.043681145 -2893997.4706718922 0 -2893997.4706718922 -160972882.26643562 0 0 0 0 60740278.759349823 13686262.254197121 0 13686262.254197121 -82194222.002900362 0 0 0 0 25918097.414187431 86238278.480597973 0 86238278.480597973 -20669563.807063103 0 0 0 0 4120269.7624778748 49468988.361693382 0 49468988.361693382 -29841404.211718798 0 0 0 0 -73153586.805084229 109381903.82321024 0 109381903.82321024 -87556577.176200867 0 0 0 0 -542572.82407220453 -309069.58876919094 0 -309069.58876919094 453788.1012802925 0 0 0 0 -13887576.634151459 49972698.6971488 0 49972698.6971488 -63170820.008434296 0 0 0 0 -424278.37477874756 68155320.072769165 0 68155320.072769165 -52753057.532496929 0 0 0 0 32728028.915370941 71416932.121215343 0 71416932.121215343 -94346092.167686462 0 0 0 0 45660887.911418915 30444217.421610832 0 30444217.421610832 -59221337.692244172 0 0 0 0 -905255.22499979474 -542139.69823620655 0 -542139.69823620655 694382.63458346855 0 0 0 0 8980196.6641864777 48591394.453603864 0 48591394.453603864 -31254223.291675568 0 0 0 0 17420834.764429092 25987209.787265301 0 25987209.787265301 -42120145.720983505 0 0 0 0 -13036074.750518799 26407114.034399509 0 26407114.034399509 -41904902.708918929 0 0 0 0 -5354468.7935466766 39716200.108919859 0 39716200.108919859 -49017747.307710648 0 0 0 0 -568706.73192364164 -343991.36259883363 0 -343991.36259883363 444432.56450519804 0 0 0 0 -39399218.622650146 68724003.205499172 0 68724003.205499172 -102094338.13092899 0 0 0 0 -21507503.67792511 -22290893.843856812 0 -22290893.843856812 -86193448.220174789 0 0 0 0 -18526909.518268585 13756135.802490473 0 13756135.802490473 -9368642.15209198 0 0 0 0 -14996188.468082428 15344458.208457947 0 15344458.208457947 -37794038.568918228 0 0 0 0 -32958443.523036957 5195153.9005656242 0 5195153.9005656242 -1760839.7216944695 0 0 0 0 2374597.9108514786 8238160.8805701733 0 8238160.8805701733 -7869533.0607843399 0 0 0 0 -9124693.8602333069 4897731.2385847569 0 4897731.2385847569 -28290440.103005409 0 0 0 0 -1753068.3309551142 2130499.9557436835 0 2130499.9557436835 -715421.37617010716 0 0 0 0 8231591.9840507507 5019829.3849554062 0 5019829.3849554062 -14058600.414225101 0 0 0 0 -17922944.4896698 44703765.095253468 0 44703765.095253468 -47572155.325964928 0 0 0 0 -12168526.951885223 34730179.631086349 0 34730179.631086349 -52615077.690958977 0 0 0 0 23761265.502435684 3832603.0010414124 0 3832603.0010414124 -7416326.8072171211 0 0 0 0 -1447181.4927291349 808217.32445929851 0 808217.32445929851 454657.84189875331 0 0 0 0 -8263504.7321548462 40819056.39883709 0 40819056.39883709 -46639396.385195017 0 0 0 0 -10858491.271240234 36969886.296679497 0 36969886.296679497 -37941600.654484749 0 0 0 0 -59832579.310958862 75945025.24363637 0 75945025.24363637 -14880845.783430099 0 0 0 0 -41018502.038036346 38294582.776364326 0 38294582.776364326 27721298.213289738 0 0 0 0 48338292.489206314 73234463.393783331 0 73234463.393783331 5166806.3145179749 0 0 0 0 114824960.70008469 14000060.710059643 0 14000060.710059643 -1101362.971701622 0 0 0 0 -650050.7336018309 165125.45498187467 0 165125.45498187467 401926.939564717 0 0 0 0 7312371.4466896057 10512033.056675434 0 10512033.056675434 -915263.00835928321 0 0 0 0 28046866.685182571 52224411.27312398 0 52224411.27312398 30618580.681371689 0 0 0 0 -12162688.469353676 35118614.845964551 0 35118614.845964551 -13303947.205410957 0 0 0 0 -20631416.423591614 10861846.932780743 0 10861846.932780743 1260065.2058775425 0 0 0 0 59779961.354028225 -6973311.1483984888 0 -6973311.1483984888 -7253079.8528232574 0 0 0 0 121755523.14350891 -3292920.3321313858 0 -3292920.3321313858 -7586965.8351759911 0 0 0 0 -355899.58516062237 421937.68367860653 0 421937.68367860653 176035.19977983227 0 0 0 0 -26687032.450894356 36319845.043318212 0 36319845.043318212 84010756.106924057 0 0 0 0 73555565.015487671 109340780.05441284 0 109340780.05441284 59069310.408340931 0 0 0 0 339463.38269424438 32041163.829857349 0 32041163.829857349 -60617068.358497143 0 0 0 0 260813.80443177186 395773.68264049198 0 395773.68264049198 -256393.35495064268 0 0 0 0 -5051361.438578248 55995608.972991303 0 55995608.972991303 26572041.558525085 0 0 0 0 -6163433.9612693787 70551083.51432991 0 70551083.51432991 21987365.527400494 0 0 0 0 6591708.6128158569 16105272.037918568 0 16105272.037918568 -84815026.960091591 0 0 0 0 7030287.3854875565 -12644090.432424068 0 -12644090.432424068 -124748324.52505779 0 0 0 0 -11166396.497756004 17054427.538624883 0 17054427.538624883 -83910246.677161217 0 0 0 0 -117309430.20881462 137752921.46250916 0 137752921.46250916 -155154413.91932052 0 0 0 0 12609707.425645828 -11993637.983561516 0 -11993637.983561516 -167092702.06006336 0 0 0 0 -43350081.101575851 -28042253.981503487 0 -28042253.981503487 -44699072.920590401 0 0 0 0 23719573.665500641 126934452.9510355 0 126934452.9510355 -124028822.56009769 0 0 0 0 -94054.055997106247 -358085.1877970472 0 -358085.1877970472 -102633.84954784345 0 0 0 0 52710438.318809509 -52080179.551647663 0 -52080179.551647663 -51119391.662116051 0 0 0 0 21648653.612453461 12880667.618492126 0 12880667.618492126 -12271805.963905334 0 0 0 0 21567518.547157288 15872259.243663788 0 15872259.243663788 -20281435.410105705 0 0 0 0 29795811.055080414 13748562.925501823 0 13748562.925501823 -14937843.089303017 0 0 0 0 35631034.139465332 6293473.6239570379 0 6293473.6239570379 -10617968.502735138 0 0 0 0 33718495.099502563 -5158359.2926588058 0 -5158359.2926588058 -7092774.4212913513 0 0 0 0 2020251.6981793717 262140.35913739912 0 262140.35913739912 -2299629.1955241999 0 0 0 0 -50562485.558496475 103802465.7046504 0 103802465.7046504 -150064646.14751244 0 0 0 0 -42699699.298265457 69731039.863808632 0 69731039.863808632 -79998790.072977185 0 0 0 0 -121145883.56039238 78993760.536215305 0 78993760.536215305 -40966605.140069962 0 0 0 0 -46940722.77911377 34651490.825251102 0 34651490.825251102 -145776399.00677681 0 0 0 0 -52794421.364215851 33338275.774776936 0 33338275.774776936 -23896523.799333572 0 0 0 0 -62175662.01758194 73408763.702783585 0 73408763.702783585 -80111908.597158432 0 0 0 0 -12100198.963153839 -3127750.1154193878 0 -3127750.1154193878 -2122442.6479549408 0 0 0 0 -13793045.698312759 -2943041.4426679611 0 -2943041.4426679611 2738434.6129417419 0 0 0 0 -6309850.3573141098 -702335.547747612 0 -702335.547747612 -3417333.9096469879 0 0 0 0 -14158375.722038269 -1531510.8097515106 0 -1531510.8097515106 4631658.215555191 0 0 0 0 -14238846.874656677 -4773816.2192955017 0 -4773816.2192955017 -4476208.5033111572 0 0 0 0 391321.47741306014 655343.75083516352 0 655343.75083516352 25422.897034765221 0 0 0 0 -13267342.582946777 -6778752.8618011475 0 -6778752.8618011475 -8214806.2738113403 0 0 0 0 -13489244.71969223 -1579992.9683427811 0 -1579992.9683427811 3869423.8397674561 0 0 0 0 -3558557.5762082618 -540263.65220557619 0 -540263.65220557619 2552797.413688465 0 0 0 0 -26967521.191017151 4901179.8706436157 0 4901179.8706436157 -15104717.394247532 0 0 0 0 -132092497.94379997 40510462.96704483 0 40510462.96704483 9785226.3450469971 0 0 0 0 -123579446.16445732 138921354.73610783 0 138921354.73610783 -80578910.072471619 0 0 0 0 -46530739.474863052 100763694.85258389 0 100763694.85258389 -62238964.65546608 0 0 0 0 -175923548.26887894 62359239.355288982 0 62359239.355288982 387849.18236732483 0 0 0 0 855848.32048983872 593924.09438997135 0 593924.09438997135 56799.690481860191 0 0 0 0 4473259.1930007935 -5346368.6768131256 0 -5346368.6768131256 -3816838.6570091248 0 0 0 0 -12939927.878295898 10768086.978790283 0 10768086.978790283 8928498.1773605347 0 0 0 0 7554186.6050464567 7777433.6078114249 0 7777433.6078114249 4305485.0937758908 0 0 0 0 20632706.457847595 10863387.647867203 0 10863387.647867203 -7650075.6664056778 0 0 0 0 21205518.465206146 9184993.770825386 0 9184993.770825386 -10263322.622867584 0 0 0 0 17408346.326133728 14261285.744303703 0 14261285.744303703 -7476838.9853672981 0 0 0 0 22031233.163619995 13283171.80002594 0 13283171.80002594 -7270431.2207965851 0 0 0 0 15570152.504753113 13234559.317076683 0 13234559.317076683 5210887.1161003113 0 0 0 0 -12132495.895114899 -7713895.5241298676 0 -7713895.5241298676 3286409.0400810242 0 0 0 0 32522779.832054138 27036238.54651022 0 27036238.54651022 13476360.021509647 0 0 0 0 14080236.592007054 7403019.5645628106 0 7403019.5645628106 -3580476.6305801766 0 0 0 0 -4879525.7999826409 4317950.4362690803 0 4317950.4362690803 10482314.531564215 0 0 0 0 -10643338.809844971 -3305154.0407876968 0 -3305154.0407876968 1323487.9408283234 0 0 0 0 -15781982.57239151 -277313.01675224304 0 -277313.01675224304 14064842.04094696 0 0 0 0 -15577808.057319641 718314.88579750061 0 718314.88579750061 13141035.534053802 0 0 0 0 34994454.459472656 38171859.631026268 0 38171859.631026268 32806368.576063037 0 0 0 0 -4505263.2291367445 3827386.3912770059 0 3827386.3912770059 10337509.088049151 0 0 0 0 525821.7678565979 14455593.360605717 0 14455593.360605717 35080986.971321106 0 0 0 0 43068066.54133606 43270833.148578405 0 43270833.148578405 26362487.654352188 0 0 0 0 35015673.271911621 39105053.24489975 0 39105053.24489975 44378453.738040924 0 0 0 0 -15170893.498067856 -1135437.6196937561 0 -1135437.6196937561 12677359.563304901 0 0 0 0 -14797715.73415947 2454945.9323892593 0 2454945.9323892593 15494228.772407532 0 0 0 0 -13910853.872509003 3131060.7699337006 0 3131060.7699337006 9754792.8671684265 0 0 0 0 -157619.34285968752 -286328.61999569274 0 -286328.61999569274 40544.166665085359 0 0 0 0 -15257135.708911896 -2400285.7634649277 0 -2400285.7634649277 19944693.012481689 0 0 0 0 -14574426.243507385 -192260.82979202271 0 -192260.82979202271 13466610.348098755 0 0 0 0 -15077879.916564941 -1271865.7891101837 0 -1271865.7891101837 15294902.367652893 0 0 0 0 -16483562.809646606 3928261.0193424225 0 3928261.0193424225 17396567.627250671 0 0 0 0 -14733634.940608978 2822855.9690823555 0 2822855.9690823555 17536501.088356018 0 0 0 0 -16355207.648422241 4845731.0211143494 0 4845731.0211143494 23943065.501091957 0 0 0 0 -13390948.137741089 -199489.28427314758 0 -199489.28427314758 16674223.352706432 0 0 0 0 -7829896.2275505066 -8749353.9052495956 0 -8749353.9052495956 26991161.328369141 0 0 0 0 -11716906.430580139 -6496947.5721950531 0 -6496947.5721950531 14849484.452817917 0 0 0 0 -4664880.299407959 -2650944.2289171219 0 -2650944.2289171219 4668049.7779445648 0 0 0 0 -1416507.5079285838 -110325.09512438439 0 -110325.09512438439 1161127.4310679864 0 0 0 0 -1843260.1844482422 -9212932.468518734 0 -9212932.468518734 17762606.024421692 0 0 0 0 -6107404.6998815536 -2841617.018201232 0 -2841617.018201232 22646416.429704666 0 0 0 0 1058291.4050426483 -15452981.877763748 0 -15452981.877763748 32219196.411535263 0 0 0 0 -26954780.034250259 -200573.54787254333 0 -200573.54787254333 89166583.690475464 0 0 0 0 -30747827.179592133 13983472.360806465 0 13983472.360806465 36139847.436718941 0 0 0 0 -21104222.233163834 18986512.079848289 0 18986512.079848289 24986397.900594711 0 0 0 0 -21833081.872054577 3287515.5163354874 0 3287515.5163354874 43031729.896968842 0 0 0 0 -5150855.4165000916 51160930.630847931 0 51160930.630847931 -28526309.161029816 0 0 0 0 -5281667.4091160893 32680715.611308679 0 32680715.611308679 13090522.998245239 0 0 0 0 -60074679.055339813 61283296.039960861 0 61283296.039960861 48470383.987282753 0 0 0 0 -36066330.880678177 -5380737.6829602718 0 -5380737.6829602718 69723422.799926758 0 0 0 0 -37057691.67480278 63659208.598958015 0 63659208.598958015 -76375215.706724167 0 0 0 0 -236832.93359095044 748463.5509627657 0 748463.5509627657 1912960.7511119158 0 0 0 0 18303943.621643066 15124371.623569489 0 15124371.623569489 -15728725.166892052 0 0 0 0 -755587.41648143064 1857255.8759081867 0 1857255.8759081867 1404449.1619612798 0 0 0 0 3884376.4619178772 21553482.59369278 0 21553482.59369278 -715210.2547416687 0 0 0 0 -826603.12663459778 15820718.546255112 0 15820718.546255112 14691945.320285797 0 0 0 0 -62069833.801315308 4346500.8561706543 0 4346500.8561706543 38200340.061329842 0 0 0 0 -2980656.6694781967 9071583.1526575275 0 9071583.1526575275 2479593.790159387 0 0 0 0 121304857.07345581 85307239.704616785 0 85307239.704616785 299036171.3519516 0 0 0 0 -120199543.9867897 47627562.982868552 0 47627562.982868552 8814481.4527227879 0 0 0 0 -1751094.0597558403 -3160842.3068180755 0 -3160842.3068180755 13128976.002307143 0 0 0 0 301871060.84392166 232465987.24518394 0 232465987.24518394 139268315.94537544 0 0 0 0 583823518.9668808 263003857.04115295 0 263003857.04115295 244250417.88575363 0 0 0 0 167172950.64554214 368873711.59643364 0 368873711.59643364 328381275.58720779 0 0 0 0 12728426.456100464 20356793.759170532 0 20356793.759170532 606607.57110983133 0 0 0 0 415513.7223789189 12920683.161618762 0 12920683.161618762 1465634.0740874093 0 0 0 0 18093752.945030808 27837649.118432391 0 27837649.118432391 -31756072.06423378 0 0 0 0 18045495.823234558 29249037.301062107 0 29249037.301062107 -38489199.257052898 0 0 0 0 -1002720.6963768005 12517120.315786362 0 12517120.315786362 20322478.427078247 0 0 0 0 5415604.3478841782 15598207.027117968 0 15598207.027117968 14438666.847625732 0 0 0 0 -691249.73170852661 13959534.227431297 0 13959534.227431297 15668683.404996872 0 0 0 0 -2785483.9496037709 8029764.5171454195 0 8029764.5171454195 12623994.820938477 0 0 0 0 -3765031.5435333252 12340112.834997177 0 12340112.834997177 15036844.150295258 0 0 0 0 -14129107.30002594 9428535.3684959412 0 9428535.3684959412 17514395.022210121 0 0 0 0 -8820191.8364601135 21365123.619722366 0 21365123.619722366 12235324.629144669 0 0 0 0 -7395935.917350769 26818280.626047134 0 26818280.626047134 26916625.245313644 0 0 0 0 -13952163.74105835 13945777.937525749 0 13945777.937525749 27673302.187942505 0 0 0 0 -14123317.440759659 10183555.5523718 0 10183555.5523718 18813698.602302551 0 0 0 0 -15427596.009971619 7665657.9222946167 0 7665657.9222946167 21742153.684774399 0 0 0 0 -20882429.086208344 7095446.2285122871 0 7095446.2285122871 23237790.271686554 0 0 0 0 -3337683.8422908247 5598292.0343627241 0 5598292.0343627241 12853189.291633535 0 0 0 0 -12943249.282336712 8597291.3315806389 0 8597291.3315806389 16579338.697101593 0 0 0 0 -14153759.201293945 7478692.6196250916 0 7478692.6196250916 15144732.475049019 0 0 0 0 -14592191.061019897 6267521.9948062897 0 6267521.9948062897 13290223.239376068 0 0 0 0 -1626122.3810529709 10940322.122962475 0 10940322.122962475 18468285.880427361 0 0 0 0 1875238.3514247797 2944491.5922787227 0 2944491.5922787227 2370756.5412808768 0 0 0 0 19273101.596511841 66682472.360078335 0 66682472.360078335 17480058.356157541 0 0 0 0 35827295.657745361 40105038.96403718 0 40105038.96403718 30005039.951125264 0 0 0 0 3063011.9765625 60299853.021156788 0 60299853.021156788 49045555.543541431 0 0 0 0 -76574373.761184692 43211715.815150738 0 43211715.815150738 64174886.058309317 0 0 0 0 -6343719.9549541473 99513878.223704815 0 99513878.223704815 31180929.577877045 0 0 0 0 -29246005.988124847 129646057.93355465 0 129646057.93355465 81025385.705034256 0 0 0 0 15347022.99671936 42475035.254630089 0 42475035.254630089 -16361250.609670162 0 0 0 0 701547.20222989097 891585.02144009061 0 891585.02144009061 546204.53336993349 0 0 0 0 -44224832.499084473 109332002.82587576 0 109332002.82587576 -15549621.17069727 0 0 0 0 -32459579.876425743 1512174.5853179246 0 1512174.5853179246 18346387.05510664 0 0 0 0 14362518.106925964 12050703.736765385 0 12050703.736765385 3160221.4472064972 0 0 0 0 -50675253.958892822 25989881.78207612 0 25989881.78207612 4397799.7967661023 0 0 0 0 -26931859.056868076 5700790.999804005 0 5700790.999804005 19490895.636929989 0 0 0 0 -142843591.06798553 -6501770.0595615804 0 -6501770.0595615804 73503651.114521757 0 0 0 0 -44548252.54865551 61711416.497801855 0 61711416.497801855 84191683.405863047 0 0 0 0 42796757.861907959 -119743763.38641143 0 -119743763.38641143 -73973600.072918981 0 0 0 0 -69511376.683314323 276279802.82853204 0 276279802.82853204 58737222.641825795 0 0 0 0 -76540663.832969666 70833307.568967581 0 70833307.568967581 -31128051.431142896 0 0 0 0 545155.50847028941 4948627.5095415907 0 4948627.5095415907 755557.14775354147 0 0 0 0 -62219138.141845703 -33250126.52791518 0 -33250126.52791518 -23231534.349113286 0 0 0 0 148755055.76754761 30823282.105035961 0 30823282.105035961 19053763.471601337 0 0 0 0 51265102.277755737 -31939122.363039136 0 -31939122.363039136 -13046431.97867012 0 0 0 0 -414598.36324349046 130508.24698810652 0 130508.24698810652 420560.08843989705 0 0 0 0 639536407.55098343 186047727.76026785 0 186047727.76026785 -168224199.09801251 0 0 0 0 -3056.4247334876563 -411853.96405361407 0 -411853.96405361407 581334.09934279625 0 0 0 0 -126973430.84720612 63186769.019783914 0 63186769.019783914 109211129.52978642 0 0 0 0 193492780.08777618 127514224.87529278 0 127514224.87529278 32685295.527853727 0 0 0 0 223007473.10609436 -12166352.917246819 0 -12166352.917246819 119153570.39932132 0 0 0 0 8310086.7813262939 -2344703.2145262361 0 -2344703.2145262361 -31948403.89284718 0 0 0 0 -8894065.9803543091 10094887.593811989 0 10094887.593811989 297039.51034545898 0 0 0 0 5369010.7016601562 2286211.4397647977 0 2286211.4397647977 -11227733.605723381 0 0 0 0 2337675.4896724001 1847796.7504822966 0 1847796.7504822966 -2387745.0790494601 0 0 0 0 5608677.8795318604 1660409.8863039017 0 1660409.8863039017 -9594440.1417889595 0 0 0 0 -244441.2164651081 115001.91392876953 0 115001.91392876953 2000186.5152867041 0 0 0 0 303953903.98516846 59378210.542557955 0 59378210.542557955 -62134355.640372753 0 0 0 0 252441.2825922519 139504.79927799106 0 139504.79927799106 -121422.45438615244 0 0 0 0 211118021.70978546 39587651.164640188 0 39587651.164640188 -72853322.050719023 0 0 0 0 233129043.46427917 106962479.80999041 0 106962479.80999041 107888241.49579048 0 0 0 0 86450372.133781433 25830027.616966486 0 25830027.616966486 1644319.5906348228 0 0 0 0 -19750464.827579021 -16339613.166539297 0 -16339613.166539297 2490203.7501115799 0 0 0 0 899155.18455833942 149234.43617890775 0 149234.43617890775 -689099.11658818647 0 0 0 0 217061283.53768921 -48807627.422923088 0 -48807627.422923088 -38166507.396771908 0 0 0 0 118802138.78642273 142081043.71219206 0 142081043.71219206 44974106.123887539 0 0 0 0 23688802.051223755 -49253093.182250738 0 -49253093.182250738 13442904.491687775 0 0 0 0 71926389.009536743 80766748.926163673 0 80766748.926163673 20098284.219261646 0 0 0 0 90366290.814422607 25554449.101536751 0 25554449.101536751 -3051978.5295114517 0 0 0 0 7094389.4149017334 4944153.7285168171 0 4944153.7285168171 -15178157.680191994 0 0 0 0 5597903.1035194397 3695240.2084215283 0 3695240.2084215283 -9810760.2588553429 0 0 0 0 5324171.0722351074 -1157112.9598059654 0 -1157112.9598059654 -11293208.910836935 0 0 0 0 10159070.067810059 968367.20483422279 0 968367.20483422279 -15690819.039710522 0 0 0 0 13441148.773803711 4195777.6393873692 0 4195777.6393873692 -18620241.028907776 0 0 0 0 21525509.038406372 559635.94328045845 0 559635.94328045845 -18379981.445178747 0 0 0 0 6518853.7152633667 11388449.138115406 0 11388449.138115406 -19199745.195451289 0 0 0 0 23652288.21244812 -38698982.793856382 0 -38698982.793856382 -26996590.733507633 0 0 0 0 25161093.269248962 30569123.440982699 0 30569123.440982699 5744361.7854106426 0 0 0 0 1984926.0301314592 132650.27541849762 0 132650.27541849762 -3396005.3545248248 0 0 0 0 19206064.04045105 6883839.6669807434 0 6883839.6669807434 4470694.3366861343 0 0 0 0 10921572.497804515 8829277.1730758678 0 8829277.1730758678 -2889424.3484421121 0 0 0 0 15447934.320659637 5720380.8502616882 0 5720380.8502616882 4124167.8999786377 0 0 0 0 -68603463.993545532 -90583798.347595036 0 -90583798.347595036 -8232875.8044176102 0 0 0 0 6024813.108795166 14715180.130779266 0 14715180.130779266 23399412.967939377 0 0 0 0 14243375.891819 9633319.6826858521 0 9633319.6826858521 14148267.348690033 0 0 0 0 -50643312.865333557 -45096784.395977736 0 -45096784.395977736 -35423937.743920326 0 0 0 0 32815949.204589844 31790819.488020897 0 31790819.488020897 -87908214.257543564 0 0 0 0 -15206404.376428127 44448706.475058518 0 44448706.475058518 -15164672.60293293 0 0 0 0 280662.51742199995 -32483.827214039862 0 -32483.827214039862 -217258.77332157502 0 0 0 0 53879920.760368347 28054290.33227253 0 28054290.33227253 -190604768.06850338 0 0 0 0 39345618.144790649 28470221.163655043 0 28470221.163655043 -20144505.061324596 0 0 0 0 36052897.346847534 14666646.997387886 0 14666646.997387886 -2781355.7562897727 0 0 0 0 35173430.222141266 27138769.508862555 0 27138769.508862555 2008831.498683691 0 0 0 0 25019588.30657959 22653198.745878935 0 22653198.745878935 2468882.7745913006 0 0 0 0 23031860.758342743 63676957.323382616 0 63676957.323382616 1997074.5571296215 0 0 0 0 62343404.816914558 43766905.715362057 0 43766905.715362057 39112488.082703114 0 0 0 0 40475783.676780701 57651754.639058352 0 57651754.639058352 38791072.558829784 0 0 0 0 49748357.524370193 24735045.692929387 0 24735045.692929387 15552558.933370113 0 0 0 0 26533508.715499878 27090273.016740561 0 27090273.016740561 43574917.061401486 0 0 0 0 35117526.040168762 20831612.521697044 0 20831612.521697044 738335.64396071434 0 0 0 0 34521551.820583344 3012022.9639552832 0 3012022.9639552832 -8696935.7358343601 0 0 0 0 21765714.432582855 17041426.01769352 0 17041426.01769352 19333701.357534409 0 0 0 0 11005035.844685405 6954835.5209158929 0 6954835.5209158929 -3352691.8658824363 0 0 0 0 9706032.8348960876 1251056.0105985403 0 1251056.0105985403 -2274894.3348445892 0 0 0 0 -4095819.3952026367 -2007646.5912966728 0 -2007646.5912966728 26017369.586836338 0 0 0 0 1310169.8849563599 9513326.7499437332 0 9513326.7499437332 22063281.190628052 0 0 0 0 20927386.877120972 13435463.734396935 0 13435463.734396935 7058361.9507846832 0 0 0 0 12156194.460764278 6498811.5461428845 0 6498811.5461428845 -3529009.7439975892 0 0 0 0 9354355.1564407349 20929561.024679184 0 20929561.024679184 13726719.739369392 0 0 0 0 14026252.309555054 21794339.443259239 0 21794339.443259239 -7376394.688577652 0 0 0 0 13726522.809186101 15450100.445573568 0 15450100.445573568 -5718778.7972183228 0 0 0 0 -2585822.9557714462 18340080.209089756 0 18340080.209089756 -1163988.6198501587 0 0 0 0 2536697.5542373657 20126338.728939056 0 20126338.728939056 5350761.1545109749 0 0 0 0 10159277.995008469 14483414.217625618 0 14483414.217625618 -1032893.3524284363 0 0 0 0 6994044.4195861816 5241785.3828392029 0 5241785.3828392029 8451584.8137454987 0 0 0 0 -7535780.9143676758 20801367.374115467 0 20801367.374115467 12672359.635490417 0 0 0 0 6703462.0301361084 7218310.9799985886 0 7218310.9799985886 15217620.91078186 0 0 0 0 22753303.331474304 -1660761.930267334 0 -1660761.930267334 8220530.9497833252 0 0 0 0 10498970.264438629 476960.30419254303 0 476960.30419254303 17615249.287540436 0 0 0 0 9580736.1526184082 8923783.3087234497 0 8923783.3087234497 14469314.623513222 0 0 0 0 4196806.3559494019 6772051.4485025406 0 6772051.4485025406 14943360.00989151 0 0 0 0 -2743547.1639060974 11445582.810168266 0 11445582.810168266 14109084.040008545 0 0 0 0 9248339.2529067993 26178249.319099426 0 26178249.319099426 30312773.440055847 0 0 0 0 43441473.888526917 18451094.894734383 0 18451094.894734383 -2340688.945016861 0 0 0 0 -3760441.1164093018 6182383.4596729279 0 6182383.4596729279 555985.77695083618 0 0 0 0 5421902.4415740967 30013382.255529404 0 30013382.255529404 -11537045.158955574 0 0 0 0 4389842.1058349609 11098080.29265213 0 11098080.29265213 1735630.2740402222 0 0 0 0 42954590.648609161 -8267716.7066049576 0 -8267716.7066049576 6272637.9000453949 0 0 0 0 19195168.956062317 6513656.7091445923 0 6513656.7091445923 -1720154.666557312 0 0 0 0 11016857.597457886 -6497994.9376420975 0 -6497994.9376420975 45592884.139968872 0 0 0 0 38364026.995384216 29468623.677207947 0 29468623.677207947 16151920.112316132 0 0 0 0 43769977.139228821 -6773873.7162971497 0 -6773873.7162971497 12646697.894608021 0 0 0 0 -2514907.0498177521 1966170.9816890955 0 1966170.9816890955 2458349.7877691826 0 0 0 0 43932689.570800781 -7652396.2170886993 0 -7652396.2170886993 10798144.448056698 0 0 0 0 -9691466.5741348267 13600787.041799545 0 13600787.041799545 32221555.395090103 0 0 0 0 -13423294.182777405 9188126.8567495346 0 9188126.8567495346 27352024.890918732 0 0 0 0 -17444774.872276306 11913903.377580166 0 11913903.377580166 22575323.811674118 0 0 0 0 6642452.4220094625 7188866.1331202071 0 7188866.1331202071 4190039.8008608557 0 0 0 0 11767471.842208862 18193777.667890549 0 18193777.667890549 -12441312.240840912 0 0 0 0 12888632.028701782 24761379.387825489 0 24761379.387825489 -18594337.893472672 0 0 0 0 1574315.7406463623 39260101.609016895 0 39260101.609016895 2818558.3871879578 0 0 0 0 -2912519.1542872041 1168456.3691522945 0 1168456.3691522945 2147334.4286701106 0 0 0 0 -8524478.0782852173 4548418.1584115028 0 4548418.1584115028 -10165488.961654663 0 0 0 0 -90573.014877319336 32162889.82749176 0 32162889.82749176 -15956191.893379927 0 0 0 0 905256.81179964263 637419.08914509788 0 637419.08914509788 -123435.27462689672 0 0 0 0 -12969272.191749573 1897938.3654508591 0 1897938.3654508591 -42318298.337710381 0 0 0 0 14908177.655162811 25170456.549934745 0 25170456.549934745 -62981907.158021927 0 0 0 0 580712.40114370733 -440729.93433382921 0 -440729.93433382921 -479653.50105744367 0 0 0 0 16071391.61529541 33201892.286334038 0 33201892.286334038 -62563534.255114555 0 0 0 0 11868426.817732811 20659456.190001488 0 20659456.190001488 -42613359.322498322 0 0 0 0 -28409955.394546509 23105994.585442543 0 23105994.585442543 -18659759.2623564 0 0 0 0 5906013.2650299072 -29038378.798650742 0 -29038378.798650742 -5448370.2606945038 0 0 0 0 13079784.684051514 903608.69468307495 0 903608.69468307495 -48977739.57565403 0 0 0 0 -7849726.0300750732 13562001.074411392 0 13562001.074411392 45473202.931930542 0 0 0 0 -20338102.370941162 5857594.8302063942 0 5857594.8302063942 47315829.309646606 0 0 0 0 -1521598.0447692871 37667131.747588158 0 37667131.747588158 56900831.671892166 0 0 0 0 75867756.964874268 44674577.992210388 0 44674577.992210388 54863359.212135315 0 0 0 0 44137414.041442871 20888456.35717392 0 20888456.35717392 39263785.914191246 0 0 0 0 11453569.358222961 52538589.674639225 0 52538589.674639225 77556412.472560883 0 0 0 0 -13435639.369620323 12818176.51729992 0 12818176.51729992 126820335.61080551 0 0 0 0 36228675.3618927 79302080.072265625 0 79302080.072265625 134728982.64363098 0 0 0 0 26054438.685203552 54013644.293745041 0 54013644.293745041 77144901.86529541 0 0 0 0 -13850728.811485291 28460338.434946775 0 28460338.434946775 179540152.05604553 0 0 0 0 2034.8498346619308 164374.09429875761 0 164374.09429875761 -212775.57542813802 0 0 0 0 65921699.646392822 79914647.047218323 0 79914647.047218323 90420723.044819117 0 0 0 0 104849098.93450928 57148725.222758293 0 57148725.222758293 21294300.184131622 0 0 0 0 254887.04911995679 337941.44169254322 0 337941.44169254322 -427483.03939275886 0 0 0 0 21282073.570510864 -243716.78743648529 0 -243716.78743648529 104684273.97300339 0 0 0 0 21887204.145706177 6256635.5876326561 0 6256635.5876326561 42163781.058139801 0 0 0 0 30694305.884429932 33980582.270666122 0 33980582.270666122 32678550.155057907 0 0 0 0 -6699292.9744720459 31177115.04168129 0 31177115.04168129 80473572.252796173 0 0 0 0 1624337.930229187 24003179.971154213 0 24003179.971154213 55671569.065172195 0 0 0 0 2113794.4644470215 47515900.189384937 0 47515900.189384937 55198374.131561279 0 0 0 0 672314.13665771484 3822218.7804777622 0 3822218.7804777622 -6483083.3642846346 0 0 0 0 -3029718.7560922876 4784049.6311079729 0 4784049.6311079729 1018553.2546611405 0 0 0 0 -2573723.8773956299 41469762.800708771 0 41469762.800708771 65242712.149645805 0 0 0 0 -17222791.787567139 56488023.182641983 0 56488023.182641983 63634350.485333443 0 0 0 0 7917944.5834960938 43335595.839918137 0 43335595.839918137 57899452.486367226 0 0 0 0 1379765.5960769653 6464331.9613454342 0 6464331.9613454342 -6644553.1648116112 0 0 0 0 11763383.550832748 -9786446.9052014351 0 -9786446.9052014351 12837923.342358589 0 0 0 0 -3194601.2910361104 7973294.5143474042 0 7973294.5143474042 734743.6197863603 0 0 0 0 2048455.6856842041 5737034.1819965839 0 5737034.1819965839 -7438312.108825922 0 0 0 0 -9352074.5434188843 45007473.977440357 0 45007473.977440357 5341625.3595066071 0 0 0 0 10171132.175170898 34690058.677584648 0 34690058.677584648 -46496376.293823242 0 0 0 0 9041405.6667940021 9235962.1367798615 0 9235962.1367798615 1096016.4634664301 0 0 0 0 12964089.683980942 23032660.793218374 0 23032660.793218374 -41424588.966711044 0 0 0 0 11915346.281951904 17692898.110754013 0 17692898.110754013 -7272728.8631634712 0 0 0 0 26378570.442192078 6109638.7916297913 0 6109638.7916297913 -4698024.3080291748 0 0 0 0 11888072.544365581 10480084.401557112 0 10480084.401557112 -1330650.5450234488 0 0 0 0 1601149.3465766907 6697647.7101765871 0 6697647.7101765871 -7779555.8806095123 0 0 0 0 1882978.2680587769 9551834.3516851664 0 9551834.3516851664 -13376487.297908545 0 0 0 0 2102559.7671508789 6300244.3798767328 0 6300244.3798767328 -9223381.175511837 0 0 0 0 3904132.7591552734 3615913.8131209016 0 3615913.8131209016 -10221930.630610585 0 0 0 0 2228603.8121452332 2439444.2546598911 0 2439444.2546598911 -4579960.7401276827 0 0 0 0 295423.63068389893 4368475.1222281456 0 4368475.1222281456 -6759493.4378385544 0 0 0 0 1121279.0173568726 4080838.4486318827 0 4080838.4486318827 -6868628.4316506386 0 0 0 0 3354814.4436286576 2190195.4682337716 0 2190195.4682337716 -2916554.8152864594 0 0 0 0 4057648.0439068079 1264439.7422398943 0 1264439.7422398943 -4905954.727517128 0 0 0 0 3763733.078250885 1906714.309212625 0 1906714.309212625 -5139803.5230391026 0 0 0 0 4008249.7333602905 3531566.4908332378 0 3531566.4908332378 -3695202.5395243093 0 0 0 0 4074558.2862743698 1908242.4789276402 0 1908242.4789276402 -3422279.1467133798 0 0 0 0 7370089.2040557861 -1532705.4173798561 0 -1532705.4173798561 -6708097.4423284531 0 0 0 0 305027.58953386918 257074.0917349793 0 257074.0917349793 -928004.06399902585 0 0 0 0 -396925.21768609807 2402655.6437006714 0 2402655.6437006714 -1520095.5900158251 0 0 0 0 8265967.7021560669 9977138.0488874912 0 9977138.0488874912 -2745843.2845523357 0 0 0 0 -12967039.748222351 48588638.795610368 0 48588638.795610368 -247440846.1211791 0 0 0 0 180757683.72905159 -232168128.6449832 0 -232168128.6449832 -527400984.19235027 0 0 0 0 -29294849.573730469 473174187.72574562 0 473174187.72574562 -338815062.16971612 0 0 0 0 -344602824.62376404 -6536922.2190355398 0 -6536922.2190355398 -228782763.72661886 0 0 0 0 -440593.21389404312 412685.26852658205 0 412685.26852658205 -159955.50910116869 0 0 0 0 -74943648.114486694 -1988380.2621779442 0 -1988380.2621779442 29338105.482001543 0 0 0 0 -21655047.895103455 -373211167.9037742 0 -373211167.9037742 -522598730.91428453 0 0 0 0 10958732.960391998 3141158.3159921169 0 3141158.3159921169 -31487347.640797138 0 0 0 0 -126410061.82465744 73545630.679063439 0 73545630.679063439 -20864810.776117802 0 0 0 0 -19029916.105211258 15930509.799355745 0 15930509.799355745 -21663434.962790966 0 0 0 0 -16815292.593292236 23769895.834890366 0 23769895.834890366 -10643559.629383564 0 0 0 0 -24141477.27690506 10182010.527265191 0 10182010.527265191 -5508538.8001689911 0 0 0 0 1179697.0066833496 -4924171.719686985 0 -4924171.719686985 -806558.93267035484 0 0 0 0 1097317.6719589233 3591153.8057774305 0 3591153.8057774305 -6665530.3266320229 0 0 0 0 9290039.4370880127 -3218411.223151207 0 -3218411.223151207 -982081.556224823 0 0 0 0 2833614.5801788941 612647.62344309874 0 612647.62344309874 -4308034.1763796695 0 0 0 0 -16592878.599060059 26446862.813309669 0 26446862.813309669 11325480.430293083 0 0 0 0 -1976733.8385429382 32072294.571829915 0 32072294.571829915 -6930569.587387085 0 0 0 0 -11303943.174598694 7415004.5513750315 0 7415004.5513750315 72861.364757537842 0 0 0 0 31440758.813735962 12554041.013156891 0 12554041.013156891 -64947.57494020462 0 0 0 0 8701052.149017334 -7942348.8031708002 0 -7942348.8031708002 1304332.3928909302 0 0 0 0 12811857.742355347 40589453.264870644 0 40589453.264870644 33566790.903856277 0 0 0 0 11485434.554389954 34582610.849617004 0 34582610.849617004 13343935.449447632 0 0 0 0 -18163293.779373169 31824582.922380447 0 31824582.922380447 45920581.025688171 0 0 0 0 -17128964.85345459 33344020.111037254 0 33344020.111037254 17440994.011140823 0 0 0 0 -26179813.689041138 34350252.973855495 0 34350252.973855495 20971581.3800354 0 0 0 0 -10426241.242889404 38021268.253514767 0 38021268.253514767 -2168321.0759534836 0 0 0 0 -22965101.165245056 34026971.505037785 0 34026971.505037785 5311641.624663353 0 0 0 0 -23323233.173628807 42384191.054029226 0 42384191.054029226 -10450457.107656479 0 0 0 0 -23975431.212047577 65051010.574937344 0 65051010.574937344 -36040101.342743874 0 0 0 0 -33610604.860412598 51221433.208402872 0 51221433.208402872 -10459384.257803977 0 0 0 0 -44605812.418815613 71327383.835676193 0 71327383.835676193 -35814682.898224354 0 0 0 0 -39986891.685501099 42709234.766788006 0 42709234.766788006 950974.55924749374 0 0 0 0 -26364297.349182129 52509071.724664688 0 52509071.724664688 -28360731.082213402 0 0 0 0 -58390222.835418701 35513815.533018827 0 35513815.533018827 -12608715.313795507 0 0 0 0 -35771818.133415222 57214543.519735456 0 57214543.519735456 -53905485.953748584 0 0 0 0 -70857119.356483459 128530664.00738969 0 128530664.00738969 -129095100.37427092 0 0 0 0 -25873985.817772865 85042125.229800716 0 85042125.229800716 -83613839.927199125 0 0 0 0 -16004489.086029053 43409076.87844342 0 43409076.87844342 -88848062.068548918 0 0 0 0 2947704.5427894592 40800256.806731105 0 40800256.806731105 -107527892.48888588 0 0 0 0 -23318100.218048096 5443501.4036051035 0 5443501.4036051035 -285161432.85483086 0 0 0 0 10593835.484466553 48773087.661017537 0 48773087.661017537 -99925155.323989272 0 0 0 0 10920293.646148682 38533720.430707127 0 38533720.430707127 -71862391.080567181 0 0 0 0 3565.7886695861816 40517111.053119123 0 40517111.053119123 -44402423.746243596 0 0 0 0 -4224155.6708602905 60691137.258348703 0 60691137.258348703 -74488157.538783014 0 0 0 0 104.04453277587891 46330020.024106264 0 46330020.024106264 -47232123.294821262 0 0 0 0 -4687241.3990097046 54664197.97630167 0 54664197.97630167 -52015874.40662241 0 0 0 0 -12850176.147590637 42010429.495568633 0 42010429.495568633 -19185057.329171181 0 0 0 0 -16402074.777008057 47351572.527284145 0 47351572.527284145 -27192809.282950401 0 0 0 0 -8104550.1313934326 50957045.547235489 0 50957045.547235489 -44397830.688718796 0 0 0 0 -12088.209301706893 41330689.249775261 0 41330689.249775261 -33356436.252116203 0 0 0 0 1519656.4944381714 30077763.745942116 0 30077763.745942116 -52175198.398355007 0 0 0 0 218316.46793365479 25859592.497255325 0 25859592.497255325 22933679.108444929 0 0 0 0 -481605.65941059589 -1175416.3238907065 0 -1175416.3238907065 456089.75077114068 0 0 0 0 8809726.1146316528 12206071.083735466 0 12206071.083735466 -9921242.0206594467 0 0 0 0 -3214100.1488723755 28902303.228308678 0 28902303.228308678 -24710764.984363556 0 0 0 0 -16414281.224525452 17526872.056307316 0 17526872.056307316 7795604.6725559235 0 0 0 0 -20363123.918243408 23952829.645049095 0 23952829.645049095 2524226.2056229115 0 0 0 0 -22970725.887252808 14551021.640082359 0 14551021.640082359 7459477.3380231857 0 0 0 0 -15183836.114379883 17367592.682796955 0 17367592.682796955 4776312.9463653564 0 0 0 0 -15367949.336791992 16360384.287904739 0 16360384.287904739 4729393.6702039242 0 0 0 0 -21883668.067504883 19954107.380972862 0 19954107.380972862 44705456.378681183 0 0 0 0 -8782316.2679481506 21380924.16713953 0 21380924.16713953 35370535.54227066 0 0 0 0 -23554310.790054321 15385421.139979362 0 15385421.139979362 32372118.300989151 0 0 0 0 -24827882.801780701 21081898.529715538 0 21081898.529715538 13488660.428693771 0 0 0 0 -21685585.776611328 10513569.208397865 0 10513569.208397865 20143435.57862854 0 0 0 0 -13201662.830646515 12281644.457222462 0 12281644.457222462 -705041.8911857605 0 0 0 0 -10100260.204852104 -3480204.969093442 0 -3480204.969093442 21829904.849258423 0 0 0 0 -11395491.053741455 7534887.7523937225 0 7534887.7523937225 9112522.3554573059 0 0 0 0 -704069.01995849609 35603188.839103699 0 35603188.839103699 -37152003.090324402 0 0 0 0 978413.067501802 -743815.49469797732 0 -743815.49469797732 -814905.35342637915 0 0 0 0 6844659.2841033936 20179631.148118973 0 20179631.148118973 -46743225.181555748 0 0 0 0 -4825723.2894592285 2829716.0506110191 0 2829716.0506110191 -7538045.6195411682 0 0 0 0 -2245967.3190307617 -2560057.1422863007 0 -2560057.1422863007 2698898.3677597046 0 0 0 0 -13860673.619659424 23110843.555101395 0 23110843.555101395 -25175509.858901978 0 0 0 0 -12372207.456420898 18290305.025159836 0 18290305.025159836 -15899265.964050293 0 0 0 0 -14702630.58770752 20629151.673168182 0 20629151.673168182 -26735998.700147629 0 0 0 0 -8149397.9282836914 27948539.874048233 0 27948539.874048233 -32132009.654712677 0 0 0 0 -20075090.230316162 9407059.8168678284 0 9407059.8168678284 -46098861.594512939 0 0 0 0 -12136949.21395874 7092589.1921014786 0 7092589.1921014786 16988526.74407959 0 0 0 0 -271637.58511304483 -638862.80148849916 0 -638862.80148849916 248247.28349459812 0 0 0 0 472531.62362670898 28671561.096120834 0 28671561.096120834 -55109924.015452385 0 0 0 0 -19071002.193878174 20069326.671927452 0 20069326.671927452 22514589.39266777 0 0 0 0 -17327729.981342316 14817869.719769001 0 14817869.719769001 7624086.5087871552 0 0 0 0 -16387299.368179321 12600127.836265564 0 12600127.836265564 7143371.9408454895 0 0 0 0 -29274059.898864746 20302374.689022064 0 20302374.689022064 -57389979.63353157 0 0 0 0 -14743802.354736328 28770147.660690308 0 28770147.660690308 -4106143.334854126 0 0 0 0 -281113.42051696777 26291523.462059021 0 26291523.462059021 -58102354.986127973 0 0 0 0 552429.33085728437 -459453.09349006135 0 -459453.09349006135 -488698.61517365742 0 0 0 0 -20025142.308589935 15830912.234035492 0 15830912.234035492 58857104.779565811 0 0 0 0 -14094088.378173828 33049502.308843613 0 33049502.308843613 27043030.505316734 0 0 0 0 1837309.4677276611 24048919.871490479 0 24048919.871490479 -33392288.815864563 0 0 0 0 -14038444.312957764 11676143.830789089 0 11676143.830789089 25996045.118236542 0 0 0 0 -13953163.224918365 16227185.91696167 0 16227185.91696167 -6917919.7660713196 0 0 0 0 -14788780.348739624 18737896.734006882 0 18737896.734006882 33486119.60112524 0 0 0 0 -14460246.717124939 25145790.709021568 0 25145790.709021568 3409808.3612861633 0 0 0 0 -4858059.0610275269 45898312.428762436 0 45898312.428762436 41863313.782525063 0 0 0 0 -8070988.0710868835 27186158.761216164 0 27186158.761216164 10957202.158800125 0 0 0 0 -13715116.886581421 33600840.453855515 0 33600840.453855515 24881577.868755043 0 0 0 0 -9530256.9729232788 38084849.407276154 0 38084849.407276154 6595343.8936767578 0 0 0 0 -7103681.963508606 26472805.184473038 0 26472805.184473038 6688003.8192596436 0 0 0 0 20556229.580535889 26516243.856767654 0 26516243.856767654 6416718.5317130089 0 0 0 0 -6936.3952503556702 27081864.862229042 0 27081864.862229042 1323528.5808582306 0 0 0 0 327245.98731994629 19328073.930235863 0 19328073.930235863 7764986.1156663895 0 0 0 0 6479.8280414780829 26869429.695617013 0 26869429.695617013 20487289.208097458 0 0 0 0 6668585.8615875244 29514224.536650658 0 29514224.536650658 -58965800.777101517 0 0 0 0 6030871.1212463379 28271014.288027287 0 28271014.288027287 19769911.541049957 0 0 0 0 -1075666.8188972473 22885828.692421198 0 22885828.692421198 25359669.671262741 0 0 0 0 274139413.86407351 186840853.87768579 0 186840853.87768579 -62544145.098670959 0 0 0 0 174571613.36259413 72303136.817113876 0 72303136.817113876 -37895228.176028252 0 0 0 0 795016.57615160546 -378373.77499188809 0 -378373.77499188809 -1173704.2891631154 0 0 0 0 211766514.47481108 -17887041.60653019 0 -17887041.60653019 -269870059.31305313 0 0 0 0 -50821218.160878181 190751591.13953018 0 190751591.13953018 -12201103.674952269 0 0 0 0 -33944493.057445765 60771392.397699356 0 60771392.397699356 199883830.46139908 0 0 0 0 -24210308.177158207 42027352.604428053 0 42027352.604428053 112901186.6008606 0 0 0 0 37985519.442099333 172505587.13070583 0 172505587.13070583 139254307.53367805 0 0 0 0 10852178.411565781 120550649.69299126 0 120550649.69299126 104867469.26723814 0 0 0 0 158798793.160676 91306606.65676403 0 91306606.65676403 -26595136.076997757 0 0 0 0 163444519.0252924 111508067.17330933 0 111508067.17330933 -80645666.309211731 0 0 0 0 5946796.8875288963 121338740.82011271 0 121338740.82011271 -30261096.797258854 0 0 0 0 67154329.587992668 7525666.0382938385 0 7525666.0382938385 -4410941.9141530991 0 0 0 0 261874.96001677215 -19892162.607670441 0 -19892162.607670441 -10790066.928703308 0 0 0 0 147492945.98753548 20370935.915658951 0 20370935.915658951 22613861.209759712 0 0 0 0 53985149.049047947 -4249986.6854801178 0 -4249986.6854801178 18080884.818843842 0 0 0 0 98291713.035479546 88710416.867908478 0 88710416.867908478 -21081422.53074646 0 0 0 0 163506679.70282793 42536645.386222839 0 42536645.386222839 9335911.7935352325 0 0 0 0 158432914.96308899 80075236.94482851 0 80075236.94482851 40198252.475204468 0 0 0 0 140228000.84061527 19874113.029024601 0 19874113.029024601 26729777.712330818 0 0 0 0 900602.75136732135 -515948.2019344205 0 -515948.2019344205 -1093957.7421127446 0 0 0 0 134794095.47159833 -27943213.144303769 0 -27943213.144303769 31116298.633529663 0 0 0 0 141469010.57521361 30836632.201606989 0 30836632.201606989 51163098.253007889 0 0 0 0 188345613.62494481 -65794025.512109041 0 -65794025.512109041 94664896.249652863 0 0 0 0 207424732.66976434 37393604.943024516 0 37393604.943024516 47068534.592033386 0 0 0 0 192532079.38713932 51047715.306199074 0 51047715.306199074 17457877.454776764 0 0 0 0 191156811.05582976 15433418.450796127 0 15433418.450796127 236536917.58480835 0 0 0 0 175462110.70082068 -21339642.409828663 0 -21339642.409828663 25613985.269367218 0 0 0 0 209427352.68641663 18614787.374705315 0 18614787.374705315 42913824.965586662 0 0 0 0 115351518.85306382 76548666.505744934 0 76548666.505744934 19963382.458389282 0 0 0 0 -1135477.1213407516 94162318.804009438 0 94162318.804009438 25743137.232147217 0 0 0 0 99988417.079015255 44934818.881277084 0 44934818.881277084 -45042038.212682247 0 0 0 0 85787410.133358717 33769236.281648636 0 33769236.281648636 84415925.069881439 0 0 0 0 105952228.13453904 78952788.909183264 0 78952788.909183264 24390979.312511444 0 0 0 0 276589561.23518324 78919588.300842285 0 78919588.300842285 93653544.642561913 0 0 0 0 41765002.535801411 149790698.96850586 0 149790698.96850586 365131542.8539238 0 0 0 0 -3541910.9167850167 43945256.061539173 0 43945256.061539173 136658880.20614624 0 0 0 0 -53612857.371791482 16230745.290344656 0 16230745.290344656 114110612.05226135 0 0 0 0 -53602136.968342632 14880636.46959877 0 14880636.46959877 229086766.92181778 0 0 0 0 -32506050.458363473 84194846.072305679 0 84194846.072305679 169624797.85118389 0 0 0 0 -65218636.941526413 58221813.966100693 0 58221813.966100693 129100767.96003056 0 0 0 0 -53253704.298622608 20695165.613964081 0 20695165.613964081 123477634.94622993 0 0 0 0 -34118384.546298504 33195033.315333366 0 33195033.315333366 96866642.400375366 0 0 0 0 -50098624.704452991 40654961.157344818 0 40654961.157344818 106379158.57418442 0 0 0 0 -54907574.119405985 28462874.317508698 0 28462874.317508698 110214097.57137299 0 0 0 0 -46889209.86689496 66477134.181257248 0 66477134.181257248 31148333.507162094 0 0 0 0 -43915668.924682021 100455849.36620665 0 100455849.36620665 -48328539.398081779 0 0 0 0 -87408329.791493535 70785489.558300972 0 70785489.558300972 32884381.32956934 0 0 0 0 22450369.408600509 54769044.520859241 0 54769044.520859241 -198919032.66981602 0 0 0 0 -74767831.124098063 23382619.968660355 0 23382619.968660355 -1966409.6771817207 0 0 0 0 -30265739.100123763 82530151.114916801 0 82530151.114916801 29935925.476741791 0 0 0 0 -9724185.9264822006 75826221.853242874 0 75826221.853242874 115613076.08065987 0 0 0 0 8102840.7805976868 45525919.282640457 0 45525919.282640457 89519127.729507446 0 0 0 0 33729518.373615265 67749377.394634247 0 67749377.394634247 14026390.740158081 0 0 0 0 30617803.089080274 41011533.761642158 0 41011533.761642158 51296801.333526611 0 0 0 0 10292123.458720207 85363680.37528801 0 85363680.37528801 73017460.003108978 0 0 0 0 13443908.842446804 73663161.553267479 0 73663161.553267479 46648141.728697777 0 0 0 0 10521174.207281113 90123875.708187103 0 90123875.708187103 53763639.908044338 0 0 0 0 516189.13187503815 95808840.299791336 0 95808840.299791336 84630594.554149628 0 0 0 0 -29771305.839260101 46661916.147094727 0 46661916.147094727 37410982.665706635 0 0 0 0 -13014893.42975235 55764856.397083282 0 55764856.397083282 941461.44264507294 0 0 0 0 -71295949.417350769 48900015.044761658 0 48900015.044761658 -30395302.90020752 0 0 0 0 -33083772.826955795 8464359.9271888733 0 8464359.9271888733 9494920.0378923416 0 0 0 0 -33559836.712022781 32709371.081958771 0 32709371.081958771 59117138.12071228 0 0 0 0 -7763453.7503471375 79072836.604696274 0 79072836.604696274 51976015.699510098 0 0 0 0 -18818750.951612473 89610225.621234179 0 89610225.621234179 42075093.942420959 0 0 0 0 12214011.522209644 139256123.49471998 0 139256123.49471998 93985307.627738953 0 0 0 0 -399289.07233903836 2519407.4880588138 0 2519407.4880588138 818892.41617267206 0 0 0 0 -23909846.996084213 39044626.720485687 0 39044626.720485687 163235398.33452892 0 0 0 0 -12602243.198570251 104957514.82129669 0 104957514.82129669 147333618.89311028 0 0 0 0 13733598.746551514 103834724.43771935 0 103834724.43771935 64055550.83562851 0 0 0 0 182579.40059661865 81824077.987163544 0 81824077.987163544 61320916.174152374 0 0 0 0 -5998216.5192775726 80134442.021188259 0 80134442.021188259 71961656.525787354 0 0 0 0 23634313.950572968 -1379669.3371047974 0 -1379669.3371047974 26221979.471641541 0 0 0 0 -18419118.147190094 19070578.084878922 0 19070578.084878922 70771898.887886047 0 0 0 0 26960326.955123901 111127611.15111351 0 111127611.15111351 18412030.184944868 0 0 0 0 -91119079.18389225 125137721.62603092 0 125137721.62603092 -56435470.992904663 0 0 0 0 -50310873.236913681 114902694.46580601 0 114902694.46580601 -71347240.915651321 0 0 0 0 -7050660.3299211264 6384396.8023824692 0 6384396.8023824692 11671142.962116241 0 0 0 0 4527067.2919197083 9316029.0423946381 0 9316029.0423946381 5514256.8747558594 0 0 0 0 3306681.1534451842 54147874.035093307 0 54147874.035093307 -123692911.704813 0 0 0 0 -292828.45957489475 927597.71535596508 0 927597.71535596508 943835.47508542519 0 0 0 0 129279443.95954132 31416204.303253174 0 31416204.303253174 -158871276.54528809 0 0 0 0 -11561.662001586112 29823.028030026238 0 29823.028030026238 -16316.219162751921 0 0 0 0 -23633655.020163059 -55788591.997286797 0 -55788591.997286797 -95387842.132339478 0 0 0 0 2829394.5188826621 -1392668.5280594826 0 -1392668.5280594826 8825329.2570457458 0 0 0 0 -291835388.1133709 -225529403.46271706 0 -225529403.46271706 87677779.960823059 0 0 0 0 -252408220.18547058 -253519165.72995758 0 -253519165.72995758 -4951715.3869934082 0 0 0 0 175492985.40855312 127147121.46421528 0 127147121.46421528 -34869105.796744347 0 0 0 0 176969.69435545942 -145162.01959471521 0 -145162.01959471521 -148824.26213250123 0 0 0 0 -290662599.10672712 155909520.98388147 0 155909520.98388147 -82202731.252073288 0 0 0 0 -468325110.36744118 25676290.582971573 0 25676290.582971573 54204492.072399139 0 0 0 0 -175774293.35256958 109945126.78841019 0 109945126.78841019 -52710649.94511795 0 0 0 0 -2069239.5690891743 39858896.346952438 0 39858896.346952438 102119472.36551619 0 0 0 0 61911779.19406575 203948467.40913296 0 203948467.40913296 -299909689.42471123 0 0 0 0 -816731.00004989328 621975.0218822211 0 621975.0218822211 323701.73002259224 0 0 0 0 -2549190.5321929753 1462197.1655096198 0 1462197.1655096198 958140.24590856116 0 0 0 0 18376446.911784708 7943732.8209238052 0 7943732.8209238052 3576603.2691812515 0 0 0 0 41906962.422911286 68336718.001783371 0 68336718.001783371 41491864.693376079 0 0 0 0 173691.01334750652 22446064.241531372 0 22446064.241531372 40772134.558671951 0 0 0 0 45952548.876071334 19566036.361501694 0 19566036.361501694 136920.02890443802 0 0 0 0 69598313.156249285 85825902.594542742 0 85825902.594542742 -75211741.242528915 0 0 0 0 37335317.269516945 108611135.03111172 0 108611135.03111172 65514513.228748322 0 0 0 0 71564728.601513147 72327422.590128899 0 72327422.590128899 -4906099.6501698494 0 0 0 0 33138320.607770026 90881956.020653248 0 90881956.020653248 -1547037.7610855103 0 0 0 0 33662932.662917852 49766869.720411301 0 49766869.720411301 2646805.792755127 0 0 0 0 84403812.570620179 49359437.573101044 0 49359437.573101044 2580057.0900704861 0 0 0 0 103906369.78667992 11925782.787626266 0 11925782.787626266 6687300.238919735 0 0 0 0 61591861.27432166 28692496.673268318 0 28692496.673268318 894005.07666778564 0 0 0 0 121157282.61152744 54115268.467988968 0 54115268.467988968 -22765620.683968067 0 0 0 0 57449875.699615419 72438838.296046019 0 72438838.296046019 235719.92350387573 0 0 0 0 71928834.297379851 68630370.358285427 0 68630370.358285427 -16631974.157876968 0 0 0 0 -10818176.034990311 9812135.4255456924 0 9812135.4255456924 -27921807.187169075 0 0 0 0 -334702315.87297398 -39175532.913977444 0 -39175532.913977444 23268622.764465332 0 0 0 0 20783.197951636743 520850.76442947239 0 520850.76442947239 -322766.50787948165 0 0 0 0 -35141.821962276968 970571.81830078433 0 970571.81830078433 611634.21985732671 0 0 0 0 -382302552.53384018 296144881.18313313 0 296144881.18313313 -57079809.752907753 0 0 0 0 -241134428.69274187 141380887.17325258 0 141380887.17325258 -3697552.898235321 0 0 0 0 62977075.608558081 27510676.928151131 0 27510676.928151131 395138.16919136047 0 0 0 0 -183097466.53370857 107450304.08093929 0 107450304.08093929 -79584677.224470139 0 0 0 0 -106682701.77782631 -4780018.8067264557 0 -4780018.8067264557 11339972.755774498 0 0 0 0 -83706677.37402153 2984396.9272260666 0 2984396.9272260666 14512693.476557732 0 0 0 0 -11503.19648965681 689563.66812157026 0 689563.66812157026 155195.94154559192 0 0 0 0 -80395713.559518814 7615429.7844257355 0 7615429.7844257355 -28596171.479259968 0 0 0 0 -11056.628697705433 671258.29563049611 0 671258.29563049611 759227.04014527984 0 0 0 0 -370951654.58564568 149157092.99995804 0 149157092.99995804 91913908.365119934 0 0 0 0 -186171886.98153186 -60369755.012761116 0 -60369755.012761116 -19605462.09592247 0 0 0 0 -440795027.11245871 56684389.090798378 0 56684389.090798378 44376073.891309738 0 0 0 0 -26833650.580883026 88104171.435106754 0 88104171.435106754 -26595136.488883972 0 0 0 0 -10443940.127194405 42224812.714764595 0 42224812.714764595 92619445.086112022 0 0 0 0 58869040.960596815 75971048.516923666 0 75971048.516923666 1895929.0447177887 0 0 0 0 154049410.9526754 65628475.721295357 0 65628475.721295357 -20852337.552536488 0 0 0 0 143833121.22194272 43719547.637074471 0 43719547.637074471 11666601.352684975 0 0 0 0 206232643.54387742 20350850.003519058 0 20350850.003519058 -25734613.340096474 0 0 0 0 -102020.85847848246 67576.033516558819 0 67576.033516558819 648174.20057321433 0 0 0 0 381551401.14814329 -30724789.234344482 0 -30724789.234344482 -35043799.596342087 0 0 0 0 189612477.15784609 36434682.377193928 0 36434682.377193928 -15075638.397293091 0 0 0 0 52556707.728687525 114396344.00148392 0 114396344.00148392 -2757774.7955055237 0 0 0 0 87894346.861144543 151836953.1059227 0 151836953.1059227 -116849234.71147919 0 0 0 0 49084875.602840066 100692633.42656851 0 100692633.42656851 -3966495.5903301239 0 0 0 0 -22674900.394130707 88026999.262103081 0 88026999.262103081 2357777.8457756042 0 0 0 0 -129844435.95273054 1480443.8624117374 0 1480443.8624117374 -78730190.198684692 0 0 0 0 -180218225.0010457 213682754.46129227 0 213682754.46129227 -88186383.072143555 0 0 0 0 -23678772.990759373 32597908.279186249 0 32597908.279186249 21669839.645615101 0 0 0 0 29611411.045948923 96218204.582734823 0 96218204.582734823 -101984786.80699158 0 0 0 0 -126351123.07577324 39278807.548042297 0 39278807.548042297 35492953.795613289 0 0 0 0 -41272387.681921721 89343629.952363014 0 89343629.952363014 23666179.652053833 0 0 0 0 -57207898.378872633 36847416.285775661 0 36847416.285775661 53568371.808908463 0 0 0 0 3344534.5196447372 43386425.357543945 0 43386425.357543945 -15354173.94698143 0 0 0 0 9366477.6221849918 87249797.255349159 0 87249797.255349159 -71394968.812295914 0 0 0 0 48637238.375001192 30279247.49852562 0 30279247.49852562 -1946238.5836963654 0 0 0 0 54924662.697656482 -40674835.996199042 0 -40674835.996199042 4126634.5672664642 0 0 0 0 233117481.02245021 24291095.225941658 0 24291095.225941658 -128628808.81461525 0 0 0 0 179189460.87665164 -72534182.649586439 0 -72534182.649586439 -70847480.036220551 0 0 0 0 340913.48800416966 -151153.61844389327 0 -151153.61844389327 -536867.80109533202 0 0 0 0 138760539.95802638 9423486.1464766264 0 9423486.1464766264 171439312.56832314 0 0 0 0 33995665.876526833 138866506.8371191 0 138866506.8371191 42473749.569059372 0 0 0 0 48857356.225953579 126587728.85531616 0 126587728.85531616 -40791775.537672043 0 0 0 0 -7771574.8678790331 106462006.00301158 0 106462006.00301158 -83411910.385446548 0 0 0 0 37209542.722238541 5087496.934258461 0 5087496.934258461 -84250205.847791672 0 0 0 0 -94771.445689001586 405184.53263308574 0 405184.53263308574 442136.75319711585 0 0 0 0 120948545.73179436 -64563420.093212128 0 -64563420.093212128 -70676312.561676979 0 0 0 0 -77380.310743393376 744407.20413172571 0 744407.20413172571 762859.7200514772 0 0 0 0 16407123.498235703 45938623.30616188 0 45938623.30616188 -92412985.867618322 0 0 0 0 221918597.11788344 38432031.362171173 0 38432031.362171173 -76414706.496330261 0 0 0 0 -39240202.731517196 32742358.780004263 0 32742358.780004263 169018328.99913502 0 0 0 0 43961566.609885693 -103675310.7220645 0 -103675310.7220645 94413935.913247108 0 0 0 0 153324832.30295014 129420088.40788317 0 129420088.40788317 -10215063.703320503 0 0 0 0 206984141.85837698 -7588438.2342053652 0 -7588438.2342053652 -85716661.944009781 0 0 0 0 34148440.367389679 -20826739.245996952 0 -20826739.245996952 198542502.81299305 0 0 0 0 470714.29206451494 731883.20112558547 0 731883.20112558547 -480158.49692224176 0 0 0 0 -34746912.668919086 177942699.26754284 0 177942699.26754284 -47237030.791923046 0 0 0 0 -79843174.65814209 -7194411.0452866554 0 -7194411.0452866554 151502624.42010069 0 0 0 0 -41817414.924780846 102163058.81439543 0 102163058.81439543 -5781809.1234841347 0 0 0 0 -156911.24808724038 439750.49488216429 0 439750.49488216429 501363.23758506589 0 0 0 0 -16570634.854340792 -99587863.787791252 0 -99587863.787791252 132661087.37988567 0 0 0 0 46146016.880475044 70879612.302962303 0 70879612.302962303 5029504.8857111931 0 0 0 0 -85612605.018808842 -255931809.53418255 0 -255931809.53418255 -143416740.01321465 0 0 0 0 1575290.9242428439 3079900.1764185065 0 3079900.1764185065 -1812660.0784188376 0 0 0 0 4333619.3045520782 4250557.6488361359 0 4250557.6488361359 -1497338.2590255737 0 0 0 0 -295238.0803604126 3461617.8964576721 0 3461617.8964576721 1236025.8233766556 0 0 0 0 35568.327931214124 5329759.5096448921 0 5329759.5096448921 124650.06963319797 0 0 0 0 -1469322.3929166794 2263145.2013220787 0 2263145.2013220787 382673.84002304077 0 0 0 0 -76074710.476964951 -60436857.205424547 0 -60436857.205424547 119132742.71808624 0 0 0 0 128730218.0701437 63177620.330967903 0 63177620.330967903 -60639555.897958755 0 0 0 0 1414021.313438938 3474958.2290221043 0 3474958.2290221043 -1542557.9862705087 0 0 0 0 15194209.15328002 25268708.310320139 0 25268708.310320139 -21874466.199897766 0 0 0 0 61753621.696183681 -11206122.563760281 0 -11206122.563760281 -852729.17638444901 0 0 0 0 1948138.0176078901 2605143.5181699586 0 2605143.5181699586 -1059298.2623865968 0 0 0 0 -726620.78567504883 5186219.1424980164 0 5186219.1424980164 -1011651.3581957817 0 0 0 0 -469534.21732043661 3255630.632090251 0 3255630.632090251 1773045.5465918714 0 0 0 0 7853153.8831043243 -4123540.9517998695 0 -4123540.9517998695 -11774082.721363068 0 0 0 0 2698849.0471259737 3696231.0995871327 0 3696231.0995871327 77760.765753053129 0 0 0 0 -2086624.0825042725 9950943.9511756897 0 9950943.9511756897 14866237.292955399 0 0 0 0 27125696.173217773 16200552.34542942 0 16200552.34542942 -6057724.6735014915 0 0 0 0 -2765042.864764397 896984.85271916818 0 896984.85271916818 1583993.9721672554 0 0 0 0 62114358.966734886 -14260203.295350075 0 -14260203.295350075 -34425156.186142921 0 0 0 0 44609910.427489281 -32082519.868474007 0 -32082519.868474007 -36482006.384726286 0 0 0 0 -5354279.4789266586 20374864.411025047 0 20374864.411025047 -47044797.670366406 0 0 0 0 98507657.915363312 -26266298.122237206 0 -26266298.122237206 -28869666.598991394 0 0 0 0 27903235.158053398 -25320883.651678085 0 -25320883.651678085 -26619456.815654755 0 0 0 0 7711396.196975708 -16473541.301964283 0 -16473541.301964283 13605070.195420265 0 0 0 0 -13720092.75107193 -33504642.080734253 0 -33504642.080734253 160925555.78027821 0 0 0 0 101742123.58964634 82652602.456002593 0 82652602.456002593 41887507.947633743 0 0 0 0 34088765.236286163 39727044.0303545 0 39727044.0303545 14763457.2703619 0 0 0 0 67198852.994894028 54362024.037683427 0 54362024.037683427 -11699857.978216171 0 0 0 0 25344188.114738464 39767067.023836136 0 39767067.023836136 -1459243.197725296 0 0 0 0 32103841.600585938 33022448.09495616 0 33022448.09495616 -6361600.809211731 0 0 0 0 17153556.832155228 44794600.968478203 0 44794600.968478203 9366627.6436195374 0 0 0 0 -10414655.054691315 30033366.859496117 0 30033366.859496117 1474094.9001865387 0 0 0 0 23601050.225755692 31447202.083433628 0 31447202.083433628 -30583725.119853973 0 0 0 0 -17666217.410491943 13558088.630828857 0 13558088.630828857 -24687196.610756397 0 0 0 0 -52300559.414657593 46793935.630950451 0 46793935.630950451 7012571.6215343475 0 0 0 0 -10490075.111969829 24532512.925387993 0 24532512.925387993 3323795.8056144714 0 0 0 0 -11217518.132961273 251307.32506799698 0 251307.32506799698 58024119.125216484 0 0 0 0 -74564439.942241669 2355213.7795753479 0 2355213.7795753479 62160474.886366367 0 0 0 0 -34275347.100440979 38414932.044337749 0 38414932.044337749 4423730.4224271774 0 0 0 0 133146.24610953592 338539.87422222644 0 338539.87422222644 -203930.68844135338 0 0 0 0 -52055544.061508179 43125606.266941071 0 43125606.266941071 10375485.619745731 0 0 0 0 3386286.6923092026 4257442.3111737873 0 4257442.3111737873 271505.57999662869 0 0 0 0 -49529918.835720062 26124082.377969742 0 26124082.377969742 19005117.068074226 0 0 0 0 -54692060.67492485 47730520.186959267 0 47730520.186959267 -892190.7477645874 0 0 0 0 -98915747.550491333 23499349.330842972 0 23499349.330842972 -2956123.0956897736 0 0 0 0 -49566973.545951843 49652159.7534132 0 49652159.7534132 -186860.19924926758 0 0 0 0 -54774193.075659752 49674864.688308954 0 49674864.688308954 7843394.1460990906 0 0 0 0 -4281107.4424762726 6117442.9216632843 0 6117442.9216632843 -1337822.2854132652 0 0 0 0 631707.38076305389 3677428.6624393463 0 3677428.6624393463 -2476710.4719543457 0 0 0 0 1448704.9560625982 3501306.1885822406 0 3501306.1885822406 1336734.8929175064 0 0 0 0 -32647477.271896362 -12188337.269970894 0 -12188337.269970894 -21841899.549381256 0 0 0 0 -4884378.422645092 7602800.9679503441 0 7602800.9679503441 -1389420.745470047 0 0 0 0 -46677027.958389282 43202530.903202057 0 43202530.903202057 3786939.7398042679 0 0 0 0 -47366628.568519592 16779810.034406662 0 16779810.034406662 17812521.278827667 0 0 0 0 -61373751.186096191 -8082226.4271733761 0 -8082226.4271733761 27371210.631055832 0 0 0 0 -13632253.450202942 13736936.584165573 0 13736936.584165573 14397539.535346031 0 0 0 0 -31118941.444284439 -12598238.933405876 0 -12598238.933405876 22715285.369543076 0 0 0 0 -91479288.411071777 -41803534.17225647 0 -41803534.17225647 9552743.6172189713 0 0 0 0 41878324.748456955 -44905237.000299811 0 -44905237.000299811 -54490165.37770462 0 0 0 0 -153299163.14721298 -121619172.34356213 0 -121619172.34356213 -27376843.875892639 0 0 0 0 -66390792.421855927 19609956.668924332 0 19609956.668924332 -35450447.802459545 0 0 0 0 -231815080.21179962 84177771.741244316 0 84177771.741244316 -35873450.19136063 0 0 0 0 21832711.743264198 84528440.323235869 0 84528440.323235869 -246383721.07518387 0 0 0 0 -30214882.555044174 -26626365.810796738 0 -26626365.810796738 20456859.256498337 0 0 0 0 16262695.758343697 49245488.315775633 0 49245488.315775633 -53037507.819067001 0 0 0 0 29834640.212329865 19692079.013557434 0 19692079.013557434 -169604525.15160847 0 0 0 0 -3703669.9154167175 -23464388.124032021 0 -23464388.124032021 -94948035.677072048 0 0 0 0 266794.5267791748 41202942.077541351 0 41202942.077541351 -93724315.129310608 0 0 0 0 33038585.278236389 -8064073.2438545227 0 -8064073.2438545227 -55050700.540290833 0 0 0 0 312150.13068011031 613549.98801977839 0 613549.98801977839 -379445.81304918416 0 0 0 0 -29296367.888902664 49812191.320672989 0 49812191.320672989 45987932.635151863 0 0 0 0 31313359.80368042 -63837109.420872688 0 -63837109.420872688 -65059346.108924866 0 0 0 0 -38486951.656723022 42410357.622692108 0 42410357.622692108 -29676123.983490944 0 0 0 0 -46678.895336454269 -415556.78703012597 0 -415556.78703012597 -122030.72477983218 0 0 0 0 25478311.832988739 44134341.704482555 0 44134341.704482555 -156537985.67918324 0 0 0 0 14755201.594099045 -9651468.6031017303 0 -9651468.6031017303 63718.897904396057 0 0 0 0 19296885.98343277 1716806.8810129166 0 1716806.8810129166 -8325221.6151771545 0 0 0 0 16086218.368728638 5851214.5393295288 0 5851214.5393295288 21175452.713507652 0 0 0 0 71710849.530848503 -35417942.503399372 0 -35417942.503399372 -51192061.131858826 0 0 0 0 51876806.894570351 24326486.400610447 0 24326486.400610447 -214510233.23543549 0 0 0 0 -30265745.907539368 271819118.63857079 0 271819118.63857079 -170330776.60514259 0 0 0 0 8586368.1270294189 243784929.07897758 0 243784929.07897758 -265680802.25984049 0 0 0 0 -2211037.8916110992 61701042.611762941 0 61701042.611762941 -73013178.145679474 0 0 0 0 -271289873.36639786 132921102.60996389 0 132921102.60996389 -81771818.427238464 0 0 0 0 -135805.95047949068 -395788.3970728945 0 -395788.3970728945 -603198.12473503407 0 0 0 0 -75885854.085834503 355833773.5718112 0 355833773.5718112 -167231799.60705757 0 0 0 0 -287033148.44840622 404648121.66857719 0 404648121.66857719 -71038454.990169525 0 0 0 0 108580299.37887383 -253437464.46889377 0 -253437464.46889377 -164019518.73003578 0 0 0 0 46970061.014486313 7272052.5389811993 0 7272052.5389811993 -526252.68055725098 0 0 0 0 -342744.75896639004 -976672.46102449857 0 -976672.46102449857 -977577.57963945344 0 0 0 0 26274129.182100296 -8228915.9589080811 0 -8228915.9589080811 -12110222.419071198 0 0 0 0 31151948.864902496 1045086.667057991 0 1045086.667057991 6690620.0231971741 0 0 0 0 -69545.808934039436 -662052.02171578165 0 -662052.02171578165 -258976.40668278001 0 0 0 0 24557478.222450256 5094371.323756218 0 5094371.323756218 4207924.2284011841 0 0 0 0 -56109243.780414581 39656851.564405441 0 39656851.564405441 16194670.985136032 0 0 0 0 90350496.835704803 3979608.7547698021 0 3979608.7547698021 -57319606.962274551 0 0 0 0 -9297159.508024931 -4365753.2100294828 0 -4365753.2100294828 -3159920.688627243 0 0 0 0 60040767.922773361 -48451380.982150078 0 -48451380.982150078 17111874.77853322 0 0 0 0 -1353278.2849880848 266966.64358062064 0 266966.64358062064 1043544.681507865 0 0 0 0 51204223.657660484 -32060185.980306625 0 -32060185.980306625 30962003.005046844 0 0 0 0 40548601.869743109 -29371551.633912563 0 -29371551.633912563 31811827.592124939 0 0 0 0 33026616.980818748 -23253576.019938469 0 -23253576.019938469 15042500.63216114 0 0 0 0 -6712323.9304656982 4343850.5857386589 0 4343850.5857386589 1218707.9179010391 0 0 0 0 -1468929.1964363661 506958.24936890882 0 506958.24936890882 1160114.6235670596 0 0 0 0 -539858549.9425087 230133416.48724556 0 230133416.48724556 8406799.7535362244 0 0 0 0 837739.90666365484 578033.3169868188 0 578033.3169868188 -581969.4593542954 0 0 0 0 5986950.1777954102 9106829.9286289215 0 9106829.9286289215 -210145884.85036945 0 0 0 0 -12830893.119503975 8871282.4578237534 0 8871282.4578237534 253016.14022278786 0 0 0 0 2395657.2709500352 3868011.6816852335 0 3868011.6816852335 2417041.2189249257 0 0 0 0 -87715304.424846649 162701480.72925138 0 162701480.72925138 -176432031.16267014 0 0 0 0 -34000745.667133331 141763609.17590904 0 141763609.17590904 -208664782.80834076 0 0 0 0 -105996447.75938892 142545616.52168608 0 142545616.52168608 -96369285.744291306 0 0 0 0 -65550206.905834198 9377550.7291374207 0 9377550.7291374207 62972231.763130188 0 0 0 0 -19627443.058383942 78121799.809530258 0 78121799.809530258 -234207397.52681828 0 0 0 0 -38831276.039907455 36684729.476734638 0 36684729.476734638 -104256436.79421997 0 0 0 0 15366096.487541199 64193568.891967773 0 64193568.891967773 -371313704.50426644 0 0 0 0 2435993.8567838231 3524277.9492938127 0 3524277.9492938127 2810774.0188302025 0 0 0 0 -18294397.430693626 48652183.009261131 0 48652183.009261131 9914297.7012805939 0 0 0 0 -69222345.316509008 250234462.07178426 0 250234462.07178426 -360971443.69947433 0 0 0 0 -595688.24605629267 -29721.194918826921 0 -29721.194918826921 543003.02971968986 0 0 0 0 127294415.02163124 -12394577.57451725 0 -12394577.57451725 50515660.262515068 0 0 0 0 1673301.3595035532 2986265.2735144398 0 2986265.2735144398 3099257.9337500622 0 0 0 0 29991486.599035263 129690055.92595291 0 129690055.92595291 77458200.652936935 0 0 0 0 -18803371.183202744 -36359378.583559036 0 -36359378.583559036 -60287596.848996162 0 0 0 0 -180334113.9270916 451458974.24148655 0 451458974.24148655 -237002555.31713104 0 0 0 0 -27936919.280042648 549834617.54221725 0 549834617.54221725 -638474528.81194687 0 0 0 0 -69779912.546800613 -32246768.573593378 0 -32246768.573593378 -110332603.50679016 0 0 0 0 59604823.01485157 483902458.46590161 0 483902458.46590161 372864232.15652466 0 0 0 0 -358893019.32296562 341207174.89298725 0 341207174.89298725 1306316867.7833843 0 0 0 0 479365175.44125366 506922805.57133961 0 506922805.57133961 380539575.51408577 0 0 0 0 45953800.622777462 -13752061.959924936 0 -13752061.959924936 637568130.89058495 0 0 0 0 422494371.66286278 -161354632.41211319 0 -161354632.41211319 86743245.544540405 0 0 0 0 -90158167.305392265 -1956157.4959164858 0 -1956157.4959164858 -147530717.03728104 0 0 0 0 8311183.7524356842 98986710.635586739 0 98986710.635586739 -44213216.336675644 0 0 0 0 -23111789.645332336 -107728213.73261023 0 -107728213.73261023 93363541.454381943 0 0 0 0 106341142.08659744 -60168637.430867195 0 -60168637.430867195 -117603193.50377834 0 0 0 0 -16293573.007419586 -93538649.939153671 0 -93538649.939153671 32277733.106007099 0 0 0 0 63163469.943218231 -22927788.548535347 0 -22927788.548535347 29205050.797859192 0 0 0 0 96399504.97347641 158188004.69814491 0 158188004.69814491 88600882.361452103 0 0 0 0 -3099520.4627037048 168472493.22962761 0 168472493.22962761 196440953.19530392 0 0 0 0 -260085.31702888943 -514661.40474714804 0 -514661.40474714804 109877.26795829833 0 0 0 0 137130662.86299133 215292376.20168304 0 215292376.20168304 62204755.964787483 0 0 0 0 178586962.05881691 160129429.2316885 0 160129429.2316885 4832240.4532852173 0 0 0 0 211318210.3504715 184753150.70723724 0 184753150.70723724 21441317.073951721 0 0 0 0 361327243.28044891 247193792.38984489 0 247193792.38984489 20732268.347445518 0 0 0 0 184520088.86882782 152186923.09871864 0 152186923.09871864 5634573.306060791 0 0 0 0 253796138.95258045 137432739.91211796 0 137432739.91211796 -60596530.98828125 0 0 0 0 194314437.35739899 95698848.061662674 0 95698848.061662674 -53831801.924612045 0 0 0 0 798208.44759416766 1491299.8922969121 0 1491299.8922969121 621456.78790596686 0 0 0 0 -93134907.793590546 18806235.613659859 0 18806235.613659859 22905168.95697403 0 0 0 0 78125884.8840065 -3318955.7987422943 0 -3318955.7987422943 -29080694.655990601 0 0 0 0 -141843373.39722443 28010392.713928223 0 28010392.713928223 -55364211.171066284 0 0 0 0 84721267.310620308 -106907974.9701426 0 -106907974.9701426 27250121.510566711 0 0 0 0 1941084.8500611838 1613785.2782373186 0 1613785.2782373186 -1067318.6418656155 0 0 0 0 450978258.74748611 -55698668.264539719 0 -55698668.264539719 -153159731.76065636 0 0 0 0 276415313.05953979 449183875.56490898 0 449183875.56490898 442390633.57189655 0 0 0 0 131096877.88655567 244593505.1494503 0 244593505.1494503 259035715.02516174 0 0 0 0 260571327.31175995 116853566.70219231 0 116853566.70219231 432399.83092498779 0 0 0 0 619725702.70850372 320970869.85933161 0 320970869.85933161 48378514.027614594 0 0 0 0 -23263200.702392578 32978870.026475906 0 32978870.026475906 -82533972.345466733 0 0 0 0 -56060703.724624634 45318990.339295387 0 45318990.339295387 -9634257.4652366638 0 0 0 0 -27663357.459041595 99092507.597537994 0 99092507.597537994 -83095421.735261917 0 0 0 0 -40475987.147026062 97536920.030674934 0 97536920.030674934 -75116889.657875061 0 0 0 0 -43661.135906906798 -362119.1831978336 0 -362119.1831978336 -118991.5089725405 0 0 0 0 35876957.77543664 -14547759.290706158 0 -14547759.290706158 -27613800.616197586 0 0 0 0 -55811177.468883514 72452328.914505959 0 72452328.914505959 -52570963.694012165 0 0 0 0 38694207.789844513 17334908.257914543 0 17334908.257914543 -97903170.573007584 0 0 0 0 29882363.511686325 11384110.224933147 0 11384110.224933147 -18980815.68454361 0 0 0 0 -439655.08127985429 -1024792.0591285499 0 -1024792.0591285499 -299307.83738327399 0 0 0 0 9363271.3345117569 33089783.362489462 0 33089783.362489462 -38967792.69442749 0 0 0 0 -84606301.455438614 62155110.658652425 0 62155110.658652425 41935688.801458359 0 0 0 0 55486435.042713165 128368605.17361164 0 128368605.17361164 66215503.418147564 0 0 0 0 22112214.500572205 62033185.035210609 0 62033185.035210609 -30069792.270664454 0 0 0 0 -2217626.5979690552 108610426.24240685 0 108610426.24240685 100831032.36417961 0 0 0 0 25238226.475819349 29431924.915339947 0 29431924.915339947 -30310106.01990509 0 0 0 0 -41364022.129699707 42012766.604968071 0 42012766.604968071 1081877.6795377731 0 0 0 0 52173002.296279907 35511118.916995049 0 35511118.916995049 -1547995.7697262764 0 0 0 0 -14614439.203800201 17753715.518081188 0 17753715.518081188 -12206739.938415527 0 0 0 0 137338928.7413578 39251630.638645172 0 39251630.638645172 64767772.018945694 0 0 0 0 37874994.084796906 73389617.862019539 0 73389617.862019539 148353876.51965141 0 0 0 0 19784437.627980232 -57027903.286454201 0 -57027903.286454201 122315337.70472527 0 0 0 0 -500204.0084068086 -90468.85138587933 0 -90468.85138587933 488924.22875371203 0 0 0 0 42364947.171312332 108062419.2775631 0 108062419.2775631 65459023.796489716 0 0 0 0 162201943.22359085 101467928.13558578 0 101467928.13558578 164803732.3913126 0 0 0 0 51297081.43365097 46175751.497937202 0 46175751.497937202 137307293.86953163 0 0 0 0 75002694.70402813 135110778.36648154 0 135110778.36648154 148065595.98400879 0 0 0 0 65496607.609554291 99853204.843513489 0 99853204.843513489 191312762.19597054 0 0 0 0 85565610.836143494 108749760.90826988 0 108749760.90826988 100736261.57546568 0 0 0 0 42728212.569525719 117170953.08986378 0 117170953.08986378 158750165.0684967 0 0 0 0 48242988.885612488 97109656.984548569 0 97109656.984548569 238069452.48745155 0 0 0 0 86247453.444892883 132827840.351614 0 132827840.351614 164052100.44296265 0 0 0 0 3943159.174270995 -1745030.8308299221 0 -1745030.8308299221 -3839220.8144761389 0 0 0 0 61189515.938394547 153524892.7563076 0 153524892.7563076 275201769.80884171 0 0 0 0 132031296.89697266 -89709051.11655426 0 -89709051.11655426 -116647286.6978178 0 0 0 0 156202525.1085844 44738398.373821974 0 44738398.373821974 -16018045.666790009 0 0 0 0 234370083.11804962 -155314087.65526581 0 -155314087.65526581 14813091.711200714 0 0 0 0 -172204874.2815094 -19228897.539402008 0 -19228897.539402008 326684641.16619492 0 0 0 0 -15958456.353042603 -3807310.2390956879 0 -3807310.2390956879 -75702192.333187103 0 0 0 0 -100120489.97048378 -508533.47566127777 0 -508533.47566127777 -100032453.03603745 0 0 0 0 -64546869.221687317 -75076886.667219162 0 -75076886.667219162 48535235.496510506 0 0 0 0 -216308015.27394104 142863484.58325005 0 142863484.58325005 -27289658.338829994 0 0 0 0 85447857.946769714 90864394.587687016 0 90864394.587687016 227722480.94931984 0 0 0 0 115233441.22999573 128461038.96120644 0 128461038.96120644 203563527.27595234 0 0 0 0 171096927.19015121 266817502.23197174 0 266817502.23197174 360295844.71244431 0 0 0 0 1984369.836657159 -751277.04139644932 0 -751277.04139644932 -1473636.7688992806 0 0 0 0 -10038502.493637085 3190214.2960147858 0 3190214.2960147858 -100826824.15937948 0 0 0 0 56646960.912826538 -46464838.06073761 0 -46464838.06073761 -323983865.59019852 0 0 0 0 418112.20411271229 -240701.79663507268 0 -240701.79663507268 -268719.41978725418 0 0 0 0 -137778644.34017181 153787853.19682503 0 153787853.19682503 680419293.43356466 0 0 0 0 108720314.04146957 535585246.2340889 0 535585246.2340889 745079599.11321521 0 0 0 0 242672242.01861191 126438903.69680452 0 126438903.69680452 97525567.072086334 0 0 0 0 71817260.612155914 127053496.33679771 0 127053496.33679771 -39727724.215254784 0 0 0 0 69078707.004718781 122234701.72531128 0 122234701.72531128 168044131.06291771 0 0 0 0 -7976814.5444943905 74519657.677770793 0 74519657.677770793 48999043.810409546 0 0 0 0 -4527313.9585464001 -19793740.449686527 0 -19793740.449686527 71199747.581962585 0 0 0 0 60753133.151885986 31105014.577251434 0 31105014.577251434 47586726.213256836 0 0 0 0 6817867.3801593781 17167076.29806757 0 17167076.29806757 285181.66583287716 0 0 0 0 3844376.4902790878 10077912.10669191 0 10077912.10669191 8361196.5525787454 0 0 0 0 933239.67913895659 21833857.550283965 0 21833857.550283965 5900421.6476370692 0 0 0 0 16927708.955824647 6681692.1893863361 0 6681692.1893863361 -21750569.480287563 0 0 0 0 74373953.515453339 29528143.376335144 0 29528143.376335144 -3362484.8966741562 0 0 0 0 82094774.864379883 45686021.459785461 0 45686021.459785461 -12490028.831710815 0 0 0 0 47256405.812294006 52423454.969165802 0 52423454.969165802 126294379.0463047 0 0 0 0 -383647.12818296999 -712142.40146452049 0 -712142.40146452049 -1108153.5795617942 0 0 0 0 6960693.2954740524 17629152.47468245 0 17629152.47468245 -4622119.4781979322 0 0 0 0 8581572.2378206253 17965576.293825686 0 17965576.293825686 -10794926.629807949 0 0 0 0 2160723.0899262428 22221741.633907493 0 22221741.633907493 4744145.876778841 0 0 0 0 2725464.944311142 23575300.387032524 0 23575300.387032524 1645285.0923158228 0 0 0 0 3531326.7908649445 21798120.354987741 0 21798120.354987741 4148846.5576546639 0 0 0 0 3449754.2797241211 39272527.956238747 0 39272527.956238747 63553201.42332077 0 0 0 0 2200534.7645776826 11009887.43564255 0 11009887.43564255 -2929844.4429614036 0 0 0 0 3386453.8218259811 22080845.408978224 0 22080845.408978224 4035646.333853811 0 0 0 0 4003959.8866839409 20780700.41777651 0 20780700.41777651 4577055.2282662392 0 0 0 0 71994811.436201096 82894795.987728119 0 82894795.987728119 57347618.224258423 0 0 0 0 1019771.1916528409 6910446.4507153407 0 6910446.4507153407 4101063.3864672873 0 0 0 0 3014554.1999266967 3112905.2858509365 0 3112905.2858509365 -3223637.3217398897 0 0 0 0 206343467.09066963 105829019.54862404 0 105829019.54862404 26448462.482204437 0 0 0 0 173085315.22783756 128402056.62923813 0 128402056.62923813 46739823.94890213 0 0 0 0 92925943.576374054 156559897.90910912 0 156559897.90910912 108170860.09735298 0 0 0 0 107895855.50684738 149045769.85878563 0 149045769.85878563 65555263.492826462 0 0 0 0 102180352.60932922 146101818.19460392 0 146101818.19460392 80327033.609668732 0 0 0 0 17931393.583034515 122412866.70981789 0 122412866.70981789 108502027.13321877 0 0 0 0 20887121.162399292 188495523.16114902 0 188495523.16114902 94141569.756181717 0 0 0 0 62358532.223723412 144432464.20335007 0 144432464.20335007 119272153.97449112 0 0 0 0 39425843.073822021 137578431.08217049 0 137578431.08217049 156315101.10694504 0 0 0 0 52107748.18665123 148360050.29797363 0 148360050.29797363 108542169.16426849 0 0 0 0 68409749.632953644 105310713.62265015 0 105310713.62265015 154322790.06363177 0 0 0 0 59475158.64793396 118836476.45893288 0 118836476.45893288 133997252.6915946 0 0 0 0 5853676.2851067036 -3068220.9858401688 0 -3068220.9858401688 -9129630.9291780107 0 0 0 0 77469753.769561768 121466664.85479736 0 121466664.85479736 134340015.01000595 0 0 0 0 86667438.640129089 104536482.73011208 0 104536482.73011208 93966839.536641121 0 0 0 0 -25546294.348464966 67244497.546711922 0 67244497.546711922 90391230.904254913 0 0 0 0 1300061.348900849 2960539.5813338971 0 2960539.5813338971 2449676.8387251999 0 0 0 0 6301087.5654617418 10901019.837467488 0 10901019.837467488 -13700401.861055765 0 0 0 0 67624528.85610199 102525578.24654007 0 102525578.24654007 45383563.568595886 0 0 0 0 -107048496.37263489 -26407023.443584442 0 -26407023.443584442 46142625.451395035 0 0 0 0 36059774.23400116 19728195.748222351 0 19728195.748222351 -91776482.994663239 0 0 0 0 91213723.295955658 69154104.737468719 0 69154104.737468719 49348788.610546112 0 0 0 0 86530712.600975037 106840836.87059402 0 106840836.87059402 87794620.765419006 0 0 0 0 3174041.1155576985 10045133.520543769 0 10045133.520543769 -15112166.572273318 0 0 0 0 24512378.314832687 74279898.316987038 0 74279898.316987038 83589052.899147034 0 0 0 0 49012606.039474487 46446364.242195129 0 46446364.242195129 39924296.261147261 0 0 0 0 -17622618.447790146 4143975.1270265579 0 4143975.1270265579 21265141.09828949 0 0 0 0 28752909.73425293 70898736.658790588 0 70898736.658790588 60310145.272390366 0 0 0 0 -14315063.929569088 9606699.3491696436 0 9606699.3491696436 9045768.9713783935 0 0 0 0 82554279.293598175 79334237.545612812 0 79334237.545612812 2123694.2473907471 0 0 0 0 91139073.278839111 96516247.220329285 0 96516247.220329285 36424144.337706566 0 0 0 0 92062434.76896286 47780815.828350067 0 47780815.828350067 4512691.0646972656 0 0 0 0 -2682150.8780822754 34364934.697864532 0 34364934.697864532 40552249.306312561 0 0 0 0 -7841606.1598136909 1715096.3390931264 0 1715096.3390931264 6720476.5940011088 0 0 0 0 122825875.26539993 38631924.733061075 0 38631924.733061075 784204.18436813354 0 0 0 0 115234238.79175377 78645241.319706917 0 78645241.319706917 -12211323.164962769 0 0 0 0 7253072.7713861465 13530245.794027925 0 13530245.794027925 -12635500.915313482 0 0 0 0 7935336.3562932014 17238533.879658282 0 17238533.879658282 -8370790.9258375168 0 0 0 0 -9969906.8759155273 1042094.4392967224 0 1042094.4392967224 5630506.4377670288 0 0 0 0 -8782920.9653469697 11534166.039490599 0 11534166.039490599 10321390.16809311 0 0 0 0 -8270356.2006907323 8291264.9838549383 0 8291264.9838549383 8247353.3306683516 0 0 0 0 -1100178.9859980512 5387169.4214543421 0 5387169.4214543421 7288838.5993847009 0 0 0 0 9909288.9755458832 6019163.636446476 0 6019163.636446476 7859019.0012946129 0 0 0 0 -12009721.613170624 3925772.5582823753 0 3925772.5582823753 3797124.649222374 0 0 0 0 -11987200.829115868 4876610.3315634727 0 4876610.3315634727 5025753.9442009926 0 0 0 0 -10355217.683064269 4910228.7077958612 0 4910228.7077958612 8489831.714169234 0 0 0 0 -10360751.158736907 789675.1228325977 0 789675.1228325977 5446664.9923700169 0 0 0 0 -41450860.922599792 -3780324.7863881588 0 -3780324.7863881588 3187488.7159622312 0 0 0 0 -525222.45030403137 4540677.2102973461 0 4540677.2102973461 9779006.2144880295 0 0 0 0 88410547.865925789 3937852.9697408676 0 3937852.9697408676 -19188326.865344048 0 0 0 0 28331915.749340057 72327923.688094616 0 72327923.688094616 15675592.111301064 0 0 0 0 -28988354.706821442 43002102.70778203 0 43002102.70778203 116384239.29464483 0 0 0 0 62240159.51418972 25006348.79056567 0 25006348.79056567 -22583938.817946434 0 0 0 0 2882422.8286685944 32076182.846670866 0 32076182.846670866 17889612.972708702 0 0 0 0 -30675575.025453568 -9646265.7998138666 0 -9646265.7998138666 14275708.997557491 0 0 0 0 -62778492.942878723 35057251.814711332 0 35057251.814711332 53381825.761689901 0 0 0 0 -2103460.7605369193 10671732.7482577 0 10671732.7482577 5859624.3287945371 0 0 0 0 545020.43277401105 1261877.8297214056 0 1261877.8297214056 1897761.2457205267 0 0 0 0 -16162823.685237885 47714574.765012741 0 47714574.765012741 -2932708.2586483955 0 0 0 0 -13224194.651664734 30801524.072303534 0 30801524.072303534 -22433201.059379101 0 0 0 0 8989531.914516449 6407194.2241241932 0 6407194.2241241932 6587425.4543356895 0 0 0 0 2276506.5079824449 359169.87313029263 0 359169.87313029263 -1704096.9300827268 0 0 0 0 922362.76243542321 1119574.9216938037 0 1119574.9216938037 -197347.83451938862 0 0 0 0 898809.17670249939 68412961.49632287 0 68412961.49632287 13003401.705195427 0 0 0 0 35524833.588707447 108845269.8606652 0 108845269.8606652 60158341.409896374 0 0 0 0 -5116723.1181173325 35506751.964021087 0 35506751.964021087 -45781575.713794708 0 0 0 0 8614959.9121923447 74171246.179537058 0 74171246.179537058 6435129.2616662979 0 0 0 0 -676384.00655937195 56975629.883076668 0 56975629.883076668 -16606015.90172267 0 0 0 0 -32475511.210588455 39519844.353322983 0 39519844.353322983 173573005.55898094 0 0 0 0 29821905.353393555 81798583.35123837 0 81798583.35123837 -27276544.950683117 0 0 0 0 22044672.150215149 109260730.05274856 0 109260730.05274856 11812919.50675869 0 0 0 0 -26699177.775880814 51220683.696201801 0 51220683.696201801 32388484.662238121 0 0 0 0 -31662053.514135659 27339739.044770047 0 27339739.044770047 -12978061.235586166 0 0 0 0 -73227806.063711166 -50291928.145415783 0 -50291928.145415783 47151110.048639297 0 0 0 0 73302880.586257935 -51934941.991466522 0 -51934941.991466522 10038710.210738659 0 0 0 0 -8740845.655125618 19753117.960826322 0 19753117.960826322 10827681.90280652 0 0 0 0 285786.93478775024 26976104.402956262 0 26976104.402956262 -2084335.7009806484 0 0 0 0 6762283.1001682281 21478868.22461164 0 21478868.22461164 -17053702.728827953 0 0 0 0 -845213.19186210632 30165542.5639458 0 30165542.5639458 -10956734.055959389 0 0 0 0 -52216340.685241699 -27478287.161985636 0 -27478287.161985636 -21127207.478302278 0 0 0 0 -4791246.8219001628 9344981.8900735639 0 9344981.8900735639 4305624.4246548992 0 0 0 0 57229827.570206642 7627656.9151074616 0 7627656.9151074616 -42388776.159542397 0 0 0 0 -6365633.2785976967 9066533.0714547243 0 9066533.0714547243 3380803.6030169996 0 0 0 0 22460312.389463425 15635627.013889074 0 15635627.013889074 7164924.4018558264 0 0 0 0 -1844692.0914764404 17936731.302970082 0 17936731.302970082 11607674.641134009 0 0 0 0 7629659.9661474228 10001476.569525756 0 10001476.569525756 13414183.55431208 0 0 0 0 9129573.6906433105 13887044.905523181 0 13887044.905523181 11649908.814844433 0 0 0 0 -665197.6591106588 8923047.1096291803 0 8923047.1096291803 -2957651.0250761216 0 0 0 0 320747.06510066986 107795312.11267138 0 107795312.11267138 36121917.742828369 0 0 0 0 -64163044.511573792 109968174.18711233 0 109968174.18711233 -17341512.368988037 0 0 0 0 73034453.15039444 7220774.5058574677 0 7220774.5058574677 -48139489.998434067 0 0 0 0 -28880082.851247787 58840656.765727043 0 58840656.765727043 54929491.671169281 0 0 0 0 54837162.976303101 62178540.012016296 0 62178540.012016296 -159095204.81123734 0 0 0 0 14511115.366562843 14319182.198945522 0 14319182.198945522 5473598.9623708725 0 0 0 0 67302692.208173752 6669822.0146427155 0 6669822.0146427155 -19018958.07339859 0 0 0 0 1886541.6627195189 8835942.1004781313 0 8835942.1004781313 -4540417.9313694527 0 0 0 0 9572799.1086217165 18109534.217949651 0 18109534.217949651 7944993.1899738312 0 0 0 0 -21763223.300316811 -1996850.628159523 0 -1996850.628159523 -14961103.210196972 0 0 0 0 8534816.9068870544 -14416289.312917233 0 -14416289.312917233 -30838233.908691406 0 0 0 0 34090794.278819084 38480949.996322036 0 38480949.996322036 -37027045.259337425 0 0 0 0 -13900069.955116272 5443958.195920229 0 5443958.195920229 -11392902.948096275 0 0 0 0 -27707445.389120102 -10971403.539726734 0 -10971403.539726734 -28466453.066125393 0 0 0 0 15372919.738375664 17322761.840854406 0 17322761.840854406 6584191.7035889626 0 0 0 0 -7995857.3131317524 9957520.2513021119 0 9957520.2513021119 3340365.0069352621 0 0 0 0 -795491.84000968933 13140714.449012756 0 13140714.449012756 2686438.8654899597 0 0 0 0 7865901.218070507 9920747.2859735489 0 9920747.2859735489 2975914.9649165273 0 0 0 0 7744435.2665683236 11022080.281725813 0 11022080.281725813 -7640088.88240756 0 0 0 0 -266484036.09890699 -41055714.604848862 0 -41055714.604848862 109687259.98719025 0 0 0 0 2924590.458578153 6940094.4533506827 0 6940094.4533506827 -2674393.0574878938 0 0 0 0 -10095681.103143593 6382110.4027110096 0 6382110.4027110096 4195535.3556592967 0 0 0 0 -9211136.978448391 4637534.3885755539 0 4637534.3885755539 5002883.4240167737 0 0 0 0 -21547985.709479332 8314459.8360357285 0 8314459.8360357285 28180117.67073822 0 0 0 0 5797553.6873803139 8247753.1120624542 0 8247753.1120624542 -3625050.290140152 0 0 0 0 -9490000.9433532059 3851880.9273146009 0 3851880.9273146009 4898771.1687812693 0 0 0 0 -232278.19858643599 204766.43073602935 0 204766.43073602935 214145.40160366334 0 0 0 0 -17755277.270511627 -41407156.551887512 0 -41407156.551887512 2140852.9032821655 0 0 0 0 -2805281.3165717125 1724036.0107460022 0 1724036.0107460022 14168165.131814957 0 0 0 0 -5005361.040948391 -13469896.052177429 0 -13469896.052177429 28457361.188686371 0 0 0 0 -484983.55988405901 -13399.008771844208 0 -13399.008771844208 529715.70025689714 0 0 0 0 -307006.318016064 945207.28044253169 0 945207.28044253169 -332123.68711419962 0 0 0 0 171810630.31060028 244398934.5570879 0 244398934.5570879 98355463.839256287 0 0 0 0 108022391.18143463 -80306192.98739624 0 -80306192.98739624 64843432.300537109 0 0 0 0 -7754636.1667580605 -83519851.862707138 0 -83519851.862707138 284598242.11279392 0 0 0 0 -789513.38360190392 -53319407.255828857 0 -53319407.255828857 63131579.394813538 0 0 0 0 181274408.85896015 145229670.42607212 0 145229670.42607212 128026595.89937305 0 0 0 0 211049365.29440784 190941347.67087936 0 190941347.67087936 31262388.019537926 0 0 0 0 171393218.65736747 167064015.81660271 0 167064015.81660271 107112335.6944046 0 0 0 0 149249923.21418953 204523884.49726105 0 204523884.49726105 236429087.44550622 0 0 0 0 499553440.2888155 19904375.981284142 0 19904375.981284142 -15018647.356904984 0 0 0 0 187101503.80588078 129969179.52802181 0 129969179.52802181 -10708411.020313263 0 0 0 0 503153.45199710596 -321628.13771631103 0 -321628.13771631103 -494273.60723823309 0 0 0 0 975787168.6769352 295223023.60322571 0 295223023.60322571 -12972003.840927064 0 0 0 0 306852473.07736063 -247385593.82814455 0 -247385593.82814455 82468254.500579834 0 0 0 0 -61191371.979423523 -47297435.448139191 0 -47297435.448139191 126738390.36944962 0 0 0 0 -473248352.45322037 -136412700.21223259 0 -136412700.21223259 -318043591.23960876 0 0 0 0 -217002234.47046256 397674526.09970951 0 397674526.09970951 111534412.21751022 0 0 0 0 745609752.38969421 -273494447.93259621 0 -273494447.93259621 -35329278.850912094 0 0 0 0 -435848433.89055872 540109309.16056824 0 540109309.16056824 273502481.01539612 0 0 0 0 280795.64479451347 1269255.8352815167 0 1269255.8352815167 1858978.4856423754 0 0 0 0 -596693215.41937447 390125041.81290245 0 390125041.81290245 503163835.39240265 0 0 0 0 -404176363.02432823 -64176368.092496872 0 -64176368.092496872 689497930.77568913 0 0 0 0 -144739042.11107635 211742223.46089745 0 211742223.46089745 318184699.25583076 0 0 0 0 -348280053.57504928 376826446.76668525 0 376826446.76668525 533477629.34283447 0 0 0 0 6281570.1013419153 4963299.1159769809 0 4963299.1159769809 -4071177.4785900572 0 0 0 0 1345278690.7566299 396544627.79270935 0 396544627.79270935 38719363.851445436 0 0 0 0 747443870.1805706 1448057680.8662167 0 1448057680.8662167 896219754.29447937 0 0 0 0 1333586748.0641384 242869588.26203728 0 242869588.26203728 -210597206.77257538 0 0 0 0 296010884.25952911 255498824.4561348 0 255498824.4561348 28102116.705477715 0 0 0 0 199027518.21883965 315016762.79068279 0 315016762.79068279 203422097.68092155 0 0 0 0 -4802821.3960542679 13732529.461605072 0 13732529.461605072 23460288.351999521 0 0 0 0 -8198388.5126869343 5735405.8676833315 0 5735405.8676833315 -1345276.2147559216 0 0 0 0 150127927.26327133 111827385.49318409 0 111827385.49318409 161981896.18293905 0 0 0 0 241358871.74674988 64177590.819244385 0 64177590.819244385 -176018916.51976395 0 0 0 0 -280076140.50276566 -59770404.795774937 0 -59770404.795774937 -15892660.90861702 0 0 0 0 231961711.93648338 -29862833.450246811 0 -29862833.450246811 -311199804.69428921 0 0 0 0 176576.5458323136 1952456.1321525844 0 1952456.1321525844 -557195.59707709251 0 0 0 0 4454380.145989418 14935370.365535736 0 14935370.365535736 -16371311.534763336 0 0 0 0 -7310471.8625773136 3762979.5632855343 0 3762979.5632855343 -254778.46173026226 0 0 0 0 -172217230.73746252 448800692.40220058 0 448800692.40220058 440982000.42442894 0 0 0 0 28775108.564960241 48442006.347504616 0 48442006.347504616 27406147.330610275 0 0 0 0 -20923287.312158585 53444331.333379745 0 53444331.333379745 98299068.829493523 0 0 0 0 -42682969.528630018 15958384.092229843 0 15958384.092229843 97972660.912714005 0 0 0 0 -21396410.020767689 22950011.816772461 0 22950011.816772461 67719084.796164989 0 0 0 0 -36916496.860355377 31522693.141422272 0 31522693.141422272 69452307.413105011 0 0 0 0 -10047185.205074251 -64074486.426859856 0 -64074486.426859856 100596197.4927063 0 0 0 0 -45502652.804896593 11977103.894762039 0 11977103.894762039 116223530.89099121 0 0 0 0 -21193735.933445215 7590982.7216510773 0 7590982.7216510773 62295070.077709198 0 0 0 0 -21373786.491094172 -17783326.640213013 0 -17783326.640213013 82201393.355396271 0 0 0 0 -11905153.511909753 -11499064.112190247 0 -11499064.112190247 51138667.66942215 0 0 0 0 -18274698.708495378 -1895318.9241142273 0 -1895318.9241142273 52768817.27351284 0 0 0 0 -10747517.657703802 -25624759.042406082 0 -25624759.042406082 85874058.273773193 0 0 0 0 -4576714.8690829277 7440220.5206985474 0 7440220.5206985474 -985902.04730796814 0 0 0 0 -12670039.696523193 5035609.9384319978 0 5035609.9384319978 2822200.8192385556 0 0 0 0 -10722055.889576554 6483488.5837955475 0 6483488.5837955475 30763861.91386795 0 0 0 0 -15579000.595130205 -4225185.7160992622 0 -4225185.7160992622 24957300.532394409 0 0 0 0 -968099.35026836395 26916853.88973999 0 26916853.88973999 28083327.817367554 0 0 0 0 -13149562.596207619 17458918.386035919 0 17458918.386035919 31825616.66646862 0 0 0 0 -20808903.449943662 9937109.3561325073 0 9937109.3561325073 33892367.470676422 0 0 0 0 108697774.2898674 122316546.79238224 0 122316546.79238224 95343295.719764709 0 0 0 0 -12104964.325698704 2201615.9578318596 0 2201615.9578318596 1399722.2040176392 0 0 0 0 -9262091.8026275784 6818454.2798998654 0 6818454.2798998654 -1056500.4712501597 0 0 0 0 158465320.81216431 55550955.729760885 0 55550955.729760885 -16595093.838932037 0 0 0 0 90325141.139917374 35790815.697521687 0 35790815.697521687 -3575236.4543170929 0 0 0 0 41493939.626914978 55807673.451155186 0 55807673.451155186 11722917.574552536 0 0 0 0 64609596.816383362 61835904.328476429 0 61835904.328476429 12572698.368467331 0 0 0 0 -2191992.0269958302 -969064.45923480392 0 -969064.45923480392 1698411.9530296782 0 0 0 0 97061251.236354828 32901939.364035606 0 32901939.364035606 -28150132.437707901 0 0 0 0 80145.951019287109 10802676.945220947 0 10802676.945220947 4204163.5642566681 0 0 0 0 -31748834.02734375 6171689.5295791626 0 6171689.5295791626 6008466.5471370816 0 0 0 0 -6349762.008654288 2953566.5216634264 0 2953566.5216634264 1667053.3957726294 0 0 0 0 -34733051.44444561 31773251.944695592 0 31773251.944695592 -30838895.337607384 0 0 0 0 -3625790.5679569244 19664513.565221786 0 19664513.565221786 8609885.3397884369 0 0 0 0 56090585.056810379 8111890.6975011826 0 8111890.6975011826 -6954482.9256210327 0 0 0 0 55788576.897310257 -6618119.056417942 0 -6618119.056417942 -18911768.06778717 0 0 0 0 75262383.498935699 24771385.633275986 0 24771385.633275986 -25768229.253788114 0 0 0 0 96023929.78405571 -2220462.5518136024 0 -2220462.5518136024 -51100645.625658035 0 0 0 0 44431326.905612946 -43285337.480932236 0 -43285337.480932236 -45212986.272980213 0 0 0 0 54319667.497802734 -27097074.303751945 0 -27097074.303751945 -27920634.35307169 0 0 0 0 80249474.224176407 -24995282.915260315 0 -24995282.915260315 -78879591.268983841 0 0 0 0 130063302.06911278 18716297.823959827 0 18716297.823959827 -57321395.737835884 0 0 0 0 44154430.714174271 -45658386.304250717 0 -45658386.304250717 -70142656.873566151 0 0 0 0 42606704.97118187 -29104119.678513527 0 -29104119.678513527 -146825459.69279957 0 0 0 0 20445226.680114746 -4949680.2899107933 0 -4949680.2899107933 -7854230.1237874031 0 0 0 0 -95762143.008150101 -61900335.373056889 0 -61900335.373056889 -29136712.060489655 0 0 0 0 -45002095.372246027 -27929492.246544868 0 -27929492.246544868 31724979.273482323 0 0 0 0 92950338.195960999 -24785286.05496645 0 -24785286.05496645 -3247996.6203737259 0 0 0 0 14302296.520977974 24065776.711806774 0 24065776.711806774 91248956.784431458 0 0 0 0 81463308.425239563 83216579.262415409 0 83216579.262415409 139762948.76782751 0 0 0 0 9780892.2515983582 10227483.874353886 0 10227483.874353886 55940665.235291958 0 0 0 0 -48074075.478208542 3470952.9386415482 0 3470952.9386415482 100089227.08480549 0 0 0 0 -97246408.227909088 37435343.047181129 0 37435343.047181129 37469417.652664661 0 0 0 0 41921685.225486517 113148341.15721607 0 113148341.15721607 78556556.869677067 0 0 0 0 -2423671.2441934971 1829046.4520931412 0 1829046.4520931412 945564.55393582676 0 0 0 0 57243414.940608978 -10572633.381505966 0 -10572633.381505966 -8258854.9738330841 0 0 0 0 -604479.0131475646 615485.06889638957 0 615485.06889638957 346644.81259787921 0 0 0 0 143869516.12922287 21987813.156741142 0 21987813.156741142 33031383.25989151 0 0 0 0 -40332613.129050255 -104352122.3610872 0 -104352122.3610872 107856689.60948372 0 0 0 0 131871.35616850574 226157.69796335977 0 226157.69796335977 215059.74548874283 0 0 0 0 -44750318.499307632 -106866388.8638165 0 -106866388.8638165 140406254.28892291 0 0 0 0 -64061056.044221878 51757119.899974823 0 51757119.899974823 38760483.773736 0 0 0 0 -64693226.129631042 33335574.621280909 0 33335574.621280909 -13204190.181991577 0 0 0 0 415183.96297018696 595449.39826686401 0 595449.39826686401 357836.1727631581 0 0 0 0 120276985.67047787 -149606656.75394881 0 -149606656.75394881 58059536.058895111 0 0 0 0 -79883721.326293945 190316642.65556097 0 190316642.65556097 153019537.48357296 0 0 0 0 765926.65401884168 848287.14599390887 0 848287.14599390887 75942.40308522596 0 0 0 0 -22686638.140771866 144154517.06565332 0 144154517.06565332 -63108859.324518204 0 0 0 0 -56111680.18661499 119564445.37772965 0 119564445.37772965 33744607.052211761 0 0 0 0 -14839053.010354042 50387957.397894442 0 50387957.397894442 -11511548.428183556 0 0 0 0 -37048232.585342407 78766842.216173172 0 78766842.216173172 -41235280.736598969 0 0 0 0 -37217432.660068512 78115019.316196918 0 78115019.316196918 -41429107.275294304 0 0 0 0 -18007665.46875 -25047713.919504166 0 -25047713.919504166 84359535.81901598 0 0 0 0 -40497676.8659935 -27740957.112636566 0 -27740957.112636566 224381425.45803595 0 0 0 0 -15758956.095731735 -17449702.586951971 0 -17449702.586951971 109930486.35699081 0 0 0 0 49388047.769763947 -8055189.0134539604 0 -8055189.0134539604 -94730097.894367695 0 0 0 0 52549435.190639496 -80842448.326150894 0 -80842448.326150894 43579581.929325581 0 0 0 0 -10374975.154212952 58288213.299894333 0 58288213.299894333 -72081125.353860021 0 0 0 0 13530028.225036621 -32974275.65973568 0 -32974275.65973568 23166104.655758381 0 0 0 0 -5617258.2405586243 -3821431.0784137249 0 -3821431.0784137249 -10989647.262212753 0 0 0 0 15086294.445022583 -10927210.59158802 0 -10927210.59158802 -30470915.465108871 0 0 0 0 2267957.0140419006 3932293.6147158146 0 3932293.6147158146 -21541718.286340475 0 0 0 0 2205291.0473396406 -4964727.1329903156 0 -4964727.1329903156 -13021042.823816299 0 0 0 0 1204888.6494369507 -3782145.7334074974 0 -3782145.7334074974 -14320071.797366142 0 0 0 0 10424352.616853237 115694672.5133943 0 115694672.5133943 12455324.275654793 0 0 0 0 -43230174.342216492 17653130.516318679 0 17653130.516318679 -1739061.2225331441 0 0 0 0 38198215.752126694 12084312.575297609 0 12084312.575297609 -2745300.519043684 0 0 0 0 1048579.5863953028 1241319.4263326135 0 1241319.4263326135 -78027.171506055631 0 0 0 0 -695238.63056542166 1029478.1884121988 0 1029478.1884121988 410474.8714196349 0 0 0 0 128545.92462595925 1323799.7549403077 0 1323799.7549403077 812424.19228095817 0 0 0 0 -15015697.003297806 20464255.143637896 0 20464255.143637896 -69102259.481356621 0 0 0 0 9604530.6729946136 40805847.581379652 0 40805847.581379652 -161266362.07715607 0 0 0 0 -114569612.47097778 -47190847.572593689 0 -47190847.572593689 -17771987.339847326 0 0 0 0 -133577909.32581329 -190707903.46292782 0 -190707903.46292782 -114053650.15633106 0 0 0 0 1624258.2613945007 121343370.73360586 0 121343370.73360586 -127837400.71372747 0 0 0 0 -227931079.72233057 -2940328.8676032722 0 -2940328.8676032722 53904607.892988205 0 0 0 0 -184914666.16751862 159636160.36005878 0 159636160.36005878 61722097.524094939 0 0 0 0 -119204097.32341766 59707101.024397969 0 59707101.024397969 37417752.280802011 0 0 0 0 -109518602.12675095 56081049.134348691 0 56081049.134348691 38022707.627145916 0 0 0 0 -98289686.154418945 34640834.828117728 0 34640834.828117728 48821188.739423752 0 0 0 0 -129033232.40852356 489716.4195997715 0 489716.4195997715 16197237.199701309 0 0 0 0 2420075.6155471802 -13378533.336212635 0 -13378533.336212635 -11261470.982372165 0 0 0 0 25103280.38703537 -9437095.3768173456 0 -9437095.3768173456 -25516771.855800152 0 0 0 0 1764967.0657364838 3376478.8565127328 0 3376478.8565127328 2219968.3904061634 0 0 0 0 -26921435.195812225 22735931.489366293 0 22735931.489366293 15261612.678784132 0 0 0 0 -32793499.356651306 19988387.71739912 0 19988387.71739912 19612043.063095808 0 0 0 0 -7011282.6723022461 3919196.3380535394 0 3919196.3380535394 8012865.6178707853 0 0 0 0 3009986.0307571124 2335619.9415846532 0 2335619.9415846532 -2411540.5811991645 0 0 0 0 -2093819.4355688095 3930136.7753512859 0 3930136.7753512859 441417.91048526764 0 0 0 0 4564249.4310035706 20223633.731245995 0 20223633.731245995 -9497289.4167461395 0 0 0 0 1448252.2858506786 3897870.3179973108 0 3897870.3179973108 4248626.809387587 0 0 0 0 -121538285.23540306 108502090.78266066 0 108502090.78266066 -2887290.2037078142 0 0 0 0 952150.97271347046 57343986.180496223 0 57343986.180496223 -3207756.0389786437 0 0 0 0 -107982747.42341995 54871726.170072734 0 54871726.170072734 18489849.652597427 0 0 0 0 31185166.258237839 71785776.544823885 0 71785776.544823885 42975571.68116188 0 0 0 0 884773.53004134633 2244217.6506614722 0 2244217.6506614722 2744928.5399763728 0 0 0 0 -48467395.912643433 -72739879.296935022 0 -72739879.296935022 -94130655.255656928 0 0 0 0 -11325625.68756485 -13186148.311137199 0 -13186148.311137199 -16622661.584399462 0 0 0 0 14748.234318920178 -50616.577495967504 0 -50616.577495967504 3546589.8602004703 0 0 0 0 -1744708.4000022775 -7185.719848369481 0 -7185.719848369481 1380455.8758576196 0 0 0 0 -23652069.810364723 -17767357.522535086 0 -17767357.522535086 -4371416.3785333633 0 0 0 0 -64695840.149857044 50027564.866465092 0 50027564.866465092 -37839732.318677902 0 0 0 0 75559044.971748352 182369356.88443768 0 182369356.88443768 150544850.82946709 0 0 0 0 288134129.9834671 385054029.47122157 0 385054029.47122157 275710357.67640799 0 0 0 0 564540.26703540422 571423.21015836019 0 571423.21015836019 -127487.56745556172 0 0 0 0 11140560.192924023 54766831.826867379 0 54766831.826867379 307219823.41912848 0 0 0 0 2108752.1100921631 -47590582.382461801 0 -47590582.382461801 49831573.274600089 0 0 0 0 -795196.36477299407 1033655.9368199054 0 1033655.9368199054 466161.45150229416 0 0 0 0 -50436960.361251831 15583255.707517028 0 15583255.707517028 20212756.011579633 0 0 0 0 -346426.66727703437 344815.45535355061 0 344815.45535355061 232656.21022199263 0 0 0 0 -223746750.10656738 -12943912.922398001 0 -12943912.922398001 19751949.400959224 0 0 0 0 45431827.93740797 76973505.230912715 0 76973505.230912715 -87676085.229558825 0 0 0 0 -100169009.76699829 78075327.072569489 0 78075327.072569489 24216361.860924006 0 0 0 0 165797034.11790276 193261995.10009414 0 193261995.10009414 -56645896.39602375 0 0 0 0 129465619.0489006 229209246.67164534 0 229209246.67164534 -66178079.906239539 0 0 0 0 105343627.83819866 233347344.26710576 0 233347344.26710576 20414201.759794176 0 0 0 0 205676250.66183472 299908287.66958976 0 299908287.66958976 28813489.104722202 0 0 0 0 122038437.98409462 216049964.95384532 0 216049964.95384532 -18278613.477379024 0 0 0 0 328384851.21020508 178756506.04803491 0 178756506.04803491 28560152.965874165 0 0 0 0 137448769.72725296 285736394.65107131 0 285736394.65107131 212661805.56839395 0 0 0 0 424072345.85109901 429635598.19689751 0 429635598.19689751 -153293765.89307785 0 0 0 0 133004420.54230213 352488903.7809068 0 352488903.7809068 3927993.088842392 0 0 0 0 878340.23454178125 1660283.9296815423 0 1660283.9296815423 -818468.25273187784 0 0 0 0 18332678.72375679 13002117.920783758 0 13002117.920783758 50261.231308937073 0 0 0 0 -36143086.170763016 -362255622.4554168 0 -362255622.4554168 519637583.0905143 0 0 0 0 108182512.29710579 382037846.01456851 0 382037846.01456851 254491096.85685036 0 0 0 0 -137629784.28141403 169858228.38173246 0 169858228.38173246 744904147.05047226 0 0 0 0 -114513429.51043892 187258388.08343375 0 187258388.08343375 356346868.70188999 0 0 0 0 15059921.97322464 -2700173.9789743423 0 -2700173.9789743423 444437749.17898273 0 0 0 0 525870324.59548187 188739761.77010453 0 188739761.77010453 -95990787.714258194 0 0 0 0 228168.12772852648 717024.79105428886 0 717024.79105428886 1064205.6863900435 0 0 0 0 398424848.68731117 -47069834.041624963 0 -47069834.041624963 54501698.28111124 0 0 0 0 -922334.31207863521 43471.349392005242 0 43471.349392005242 816938.79308363399 0 0 0 0 32478680.441925049 70234542.554736137 0 70234542.554736137 282551011.85932541 0 0 0 0 37111162.257148743 -131955943.92545891 0 -131955943.92545891 -32476956.336771011 0 0 0 0 -236905.18678951263 -49207443.094806671 0 -49207443.094806671 31032839.832783699 0 0 0 0 297485907.76309204 311915473.57873583 0 311915473.57873583 275250157.52442789 0 0 0 0 -190837.53462309181 -697055.81737347646 0 -697055.81737347646 1562757.001936004 0 0 0 0 -263978113.96256638 89023570.036641449 0 89023570.036641449 518589401.76522398 0 0 0 0 123441406.49276733 146510184.68630886 0 146510184.68630886 122476037.68891275 0 0 0 0 84414363.302646637 258474132.29060364 0 258474132.29060364 313678041.30314517 0 0 0 0 -3973518.0460128784 202068648.22777224 0 202068648.22777224 289401640.30364478 0 0 0 0 -28393235.43447876 231724185.5509679 0 231724185.5509679 386289184.61122042 0 0 0 0 -27656751.092453003 249905691.42104793 0 249905691.42104793 386770972.56777167 0 0 0 0 -4610994.8101577759 -45030126.881111979 0 -45030126.881111979 249436257.80218008 0 0 0 0 -19535612.43926239 179835294.81470209 0 179835294.81470209 232535400.38309509 0 0 0 0 -37451829.883981705 209141188.94382942 0 209141188.94382942 675281347.58784318 0 0 0 0 72944888.626987457 -238383393.44743025 0 -238383393.44743025 494787743.61129153 0 0 0 0 52039104.34295845 -124885256.42733485 0 -124885256.42733485 -55091761.906119108 0 0 0 0 58717107.341648102 -9485455.5657647252 0 -9485455.5657647252 22678348.664361 0 0 0 0 91351346.143718719 18438949.585154116 0 18438949.585154116 -75288099.23714304 0 0 0 0 52012634.452095985 -70515681.127209008 0 -70515681.127209008 -105744428.26241231 0 0 0 0 -303097122.04422712 123865371.39609623 0 123865371.39609623 453564444.17732573 0 0 0 0 -257471748.18253517 235732343.58785796 0 235732343.58785796 645647076.20670533 0 0 0 0 300219482.5355835 305386123.76570046 0 305386123.76570046 180988999.24820888 0 0 0 0 433681006.16412735 -128342609.72414881 0 -128342609.72414881 -47089970.061002612 0 0 0 0 98998377.835842133 30297945.435753345 0 30297945.435753345 -64120829.061421871 0 0 0 0 150249277.53462029 78430584.362368584 0 78430584.362368584 -407438785.99026871 0 0 0 0 222853984.38121796 -59085418.938000202 0 -59085418.938000202 -579131604.48936892 0 0 0 0 -85991803.889160156 11868587.751327991 0 11868587.751327991 -25300891.281140566 0 0 0 0 -68752936.523889542 12747669.510172367 0 12747669.510172367 -277562006.67953205 0 0 0 0 1969905.5185558433 2739755.8959950753 0 2739755.8959950753 60586.927752249496 0 0 0 0 34082721.544294357 99637479.044431686 0 99637479.044431686 -264512810.13384509 0 0 0 0 144094715.94917393 -70696358.113665164 0 -70696358.113665164 -18118733.440594912 0 0 0 0 -4697011.4336681366 -2733939.3555173874 0 -2733939.3555173874 -9033403.5483856201 0 0 0 0 932785.48078715522 -382831.9996697614 0 -382831.9996697614 -1578700.6878881427 0 0 0 0 128366602.71030426 264316260.23140001 0 264316260.23140001 -612987149.57322037 0 0 0 0 5973635.6528868182 2980511.3684164225 0 2980511.3684164225 -6047838.1896565575 0 0 0 0 6121195.79139328 9204955.1547050476 0 9204955.1547050476 -114818.27251815796 0 0 0 0 -2701492.5105056763 3094311.5981080532 0 3094311.5981080532 -98972947.843102932 0 0 0 0 -25988831.502838135 -24741910.733689308 0 -24741910.733689308 -129751764.28454971 0 0 0 0 2935023.1587012503 7545476.379918959 0 7545476.379918959 377174.2237010845 0 0 0 0 -79914479.552337646 66911813.236593246 0 66911813.236593246 -191337197.98091936 0 0 0 0 -1561404.3276977539 225702325.0468998 0 225702325.0468998 -195806706.09066033 0 0 0 0 81492668.239377975 -38310461.388928175 0 -38310461.388928175 -237965679.0898037 0 0 0 0 -73596332.960403442 180822144.57466078 0 180822144.57466078 -344443239.33322215 0 0 0 0 -126426242.95858002 -53984831.629024506 0 -53984831.629024506 -476905451.88573074 0 0 0 0 -13593.769364272244 175358.70060729003 0 175358.70060729003 182968.56176200241 0 0 0 0 6318038.5096211433 8858142.588508606 0 8858142.588508606 -4797597.0799484253 0 0 0 0 12670391.321845055 3995461.2203098536 0 3995461.2203098536 -2359238.6453557014 0 0 0 0 2309772.9719573604 4071870.7078313222 0 4071870.7078313222 -2565397.2655599033 0 0 0 0 -35200092.147386551 -94454077.899200201 0 -94454077.899200201 -122080148.82584906 0 0 0 0 18196990.139765739 9960853.8966088295 0 9960853.8966088295 887924.17449903488 0 0 0 0 87229811.473381042 225630429.7191433 0 225630429.7191433 -80790164.029186696 0 0 0 0 50013650.781917572 -63925494.845631719 0 -63925494.845631719 -179588182.41095963 0 0 0 0 -11872117.021897316 92980061.513782501 0 92980061.513782501 59680988.655434132 0 0 0 0 24816148.247396946 -118330421.82693624 0 -118330421.82693624 -135381894.54663014 0 0 0 0 -177669693.75376916 76614528.281909466 0 76614528.281909466 333722712.60214424 0 0 0 0 -159721429.22716641 -94175816.053013384 0 -94175816.053013384 -110811330.41874528 0 0 0 0 893000.49192195258 -978233.90617024456 0 -978233.90617024456 -462150.31164737471 0 0 0 0 81335153.376354694 185483194.60989174 0 185483194.60989174 141062712.43790931 0 0 0 0 14320368.758555412 181168398.39464569 0 181168398.39464569 56850258.266675949 0 0 0 0 -55189237.463231087 81732606.552737355 0 81732606.552737355 69630710.247996807 0 0 0 0 86809015.169013977 -73777729.563831806 0 -73777729.563831806 -61738696.180837154 0 0 0 0 111309705.96089935 -27308734.438612595 0 -27308734.438612595 23129800.338006914 0 0 0 0 5016.1169737856835 264578.9623649898 0 264578.9623649898 809974.68966291659 0 0 0 0 19542795.021420479 136580125.67429543 0 136580125.67429543 234451326.17499185 0 0 0 0 498943095.25358391 35203252.859319448 0 35203252.859319448 48024946.980257988 0 0 0 0 206136931.55126572 -64555972.689142942 0 -64555972.689142942 37345175.73878777 0 0 0 0 250401446.77829349 187038438.53154892 0 187038438.53154892 104118071.16545439 0 0 0 0 -21432468.904623508 140333348.60969079 0 140333348.60969079 143323622.8973701 0 0 0 0 19631803.607819557 139757926.87521124 0 139757926.87521124 111949400.60850573 0 0 0 0 -134651994.44111681 91259924.247763157 0 91259924.247763157 237354417.80059814 0 0 0 0 10503116.14207232 -118012981.83762336 0 -118012981.83762336 -35973936.450242043 0 0 0 0 -26792225.227873802 -139013637.35475016 0 -139013637.35475016 415034482.50936979 0 0 0 0 301980022.56003571 355899599.6749022 0 355899599.6749022 388177621.11027527 0 0 0 0 237425630.44391108 13780941.327805281 0 13780941.327805281 -131778846.895998 0 0 0 0 27423724.273042679 47526897.101449013 0 47526897.101449013 -130131054.39045054 0 0 0 0 -136451119.96909857 -80146164.384569168 0 -80146164.384569168 -43224525.360616207 0 0 0 0 -8183992.6103880405 49234305.526603699 0 49234305.526603699 69865126.235404968 0 0 0 0 1569051.804688022 -1772301.3742402454 0 -1772301.3742402454 -713914.66291343421 0 0 0 0 -27197576.733187765 118859294.3447175 0 118859294.3447175 46612559.990261078 0 0 0 0 -142804282.13932562 60470070.408036232 0 60470070.408036232 104346479.50921726 0 0 0 0 -66707459.083611012 112105214.28797913 0 112105214.28797913 142917147.56484032 0 0 0 0 -246112446.75964713 -149995008.41558099 0 -149995008.41558099 75102006.976853371 0 0 0 0 1590612.7531881162 -1849413.2396644298 0 -1849413.2396644298 -603301.38166736346 0 0 0 0 -189852124.2160573 -13034942.691619396 0 -13034942.691619396 144762608.2781415 0 0 0 0 -132550761.63581407 11796095.170779705 0 11796095.170779705 82523044.255901337 0 0 0 0 -121809280.50229311 -60524335.796783209 0 -60524335.796783209 414520225.63632011 0 0 0 0 176052962.13263607 320400744.12791204 0 320400744.12791204 272026207.57145119 0 0 0 0 -15501447.203754723 121078450.30963993 0 121078450.30963993 69806287.350158691 0 0 0 0 -14947377.179041743 103784837.37772942 0 103784837.37772942 64902703.6690979 0 0 0 0 3380249.831905663 86327708.007390976 0 86327708.007390976 113724106.22407722 0 0 0 0 -26595955.757599831 124096700.51673317 0 124096700.51673317 71448323.438452721 0 0 0 0 6558048.1487867236 111537849.50976372 0 111537849.50976372 73907503.559926987 0 0 0 0 38497791.184243798 54153957.8260746 0 54153957.8260746 -68133966.798961639 0 0 0 0 66152133.469066143 30197572.961655617 0 30197572.961655617 44425940.124744415 0 0 0 0 115982633.06928158 9306703.2497296333 0 9306703.2497296333 -111533201.28339767 0 0 0 0 479735.9854615787 972703.22510133358 0 972703.22510133358 -702217.81117400061 0 0 0 0 13584787.500947952 60833356.416790009 0 60833356.416790009 -68290160.569618225 0 0 0 0 -8308261.3311223984 142973776.49765968 0 142973776.49765968 163522678.61621135 0 0 0 0 -54916405.049034119 91671754.8531847 0 91671754.8531847 165294132.02132988 0 0 0 0 -24734637.841152191 89231372.355201721 0 89231372.355201721 6214912.0549621582 0 0 0 0 1007076.0388676609 587260.01366871223 0 587260.01366871223 -793673.39754079375 0 0 0 0 115829244.56798649 111449414.02319145 0 111449414.02319145 71789274.642367542 0 0 0 0 -22077014.205873072 13314360.728321314 0 13314360.728321314 -81416615.668041229 0 0 0 0 -16780725.374397039 33387135.833753586 0 33387135.833753586 -22890211.193847656 0 0 0 0 -3053001.4800434113 63631494.831832886 0 63631494.831832886 -68202913.839527369 0 0 0 0 -13594854.521326065 46964549.431468964 0 46964549.431468964 14134395.083316803 0 0 0 0 -14175943.072510004 72352174.740099072 0 72352174.740099072 18275193.08719635 0 0 0 0 -13877797.562577248 81652335.066647053 0 81652335.066647053 -27368917.908096313 0 0 0 0 -18021790.224506378 40474716.269493103 0 40474716.269493103 -41816261.865642548 0 0 0 0 -20587764.866687775 36676318.428565979 0 36676318.428565979 1070205.3094787598 0 0 0 0 13428573.025348663 -10202884.821746826 0 -10202884.821746826 8222293.3492388725 0 0 0 0 -5848318.1675195694 28691236.754749298 0 28691236.754749298 -43803172.288536072 0 0 0 0 34111318.446145415 -9548781.8008503914 0 -9548781.8008503914 -158589527.83883858 0 0 0 0 3688801.4856438637 -7429359.9962244034 0 -7429359.9962244034 12905202.016121864 0 0 0 0 442168.07753491984 3089179.4919373072 0 3089179.4919373072 1133098.9365316201 0 0 0 0 53454067.45253706 40727956.277259827 0 40727956.277259827 -125566528.97620487 0 0 0 0 82426135.835640669 -5148823.6805064678 0 -5148823.6805064678 -82001993.969919205 0 0 0 0 426906.99282660009 -383045.63716556318 0 -383045.63716556318 -108991.37551725656 0 0 0 0 -19173761.199077606 186462.16581726074 0 186462.16581726074 10867697.310805082 0 0 0 0 167084881.74266124 188594554.01682568 0 188594554.01682568 60858192.997743607 0 0 0 0 -196027489.35282135 -39204546.391907692 0 -39204546.391907692 -24008733.397474289 0 0 0 0 852029.94642250333 -888236.11311380146 0 -888236.11311380146 -557721.71015925519 0 0 0 0 -92127089.850212574 -61994969.922163785 0 -61994969.922163785 -46955071.172189713 0 0 0 0 -142191870.8004961 108659788.60248852 0 108659788.60248852 203902518.42021179 0 0 0 0 18191536.352268025 126508573.96020588 0 126508573.96020588 186339571.9631424 0 0 0 0 76294349.482210159 182711085.95759296 0 182711085.95759296 123525071.57149506 0 0 0 0 218909739.75184441 33998228.710391998 0 33998228.710391998 -115427457.72573853 0 0 0 0 21107511.226776123 31545732.497592926 0 31545732.497592926 16929315.354125261 0 0 0 0 28443819.985918045 26340796.514751434 0 26340796.514751434 58218975.029953003 0 0 0 0 4299374.6427459717 -89660117.231365204 0 -89660117.231365204 19508272.005477905 0 0 0 0 -96927019.698022842 -1619114.3564548492 0 -1619114.3564548492 229150490.09972763 0 0 0 0 -71229860.401119232 -149940402.54044151 0 -149940402.54044151 67153609.724855423 0 0 0 0 -1960888.5913200378 -41509727.555648804 0 -41509727.555648804 -147736179.3727417 0 0 0 0 -1174917.3922767639 4579363.9190812111 0 4579363.9190812111 -66966.4133644104 0 0 0 0 9959780.5595006943 23676258.306827545 0 23676258.306827545 4039994.459785223 0 0 0 0 1961467.1795059959 2194044.5682628462 0 2194044.5682628462 -750506.49587389547 0 0 0 0 358366.05476318114 3857278.8627304146 0 3857278.8627304146 4455832.4076161319 0 0 0 0 41049.41068315506 1599240.4962953925 0 1599240.4962953925 -152355.32022571564 0 0 0 0 3357336.1394058634 3601165.377134406 0 3601165.377134406 2641358.5593700828 0 0 0 0 331577.69327766821 1551486.7528980654 0 1551486.7528980654 872158.40326522756 0 0 0 0 -265505.94379806519 3874143.2150974274 0 3874143.2150974274 244416.60164451599 0 0 0 0 -257461.65277099609 4170380.6884260178 0 4170380.6884260178 51458.056538581848 0 0 0 0 -173671.08463573456 4337511.0576937795 0 4337511.0576937795 222760.09973430634 0 0 0 0 2290026.8233050434 5727240.9128264589 0 5727240.9128264589 5801974.5512441956 0 0 0 0 5221120.0974868871 10976505.397743709 0 10976505.397743709 5496346.7384523898 0 0 0 0 7875162.7066726685 2997867.5649676323 0 2997867.5649676323 220107.300167799 0 0 0 0 6892582.4594261013 7052705.8209429272 0 7052705.8209429272 4725995.3715383559 0 0 0 0 728803.24168109894 3980886.0081883669 0 3980886.0081883669 -1287266.7645893097 0 0 0 0 4803503.0143650807 4732755.600433127 0 4732755.600433127 -513031.87077979371 0 0 0 0 -8857196.8132381439 43020585.275680542 0 43020585.275680542 -176116878.6866951 0 0 0 0 1696101.0081048077 5872440.2954261163 0 5872440.2954261163 1773864.6469246168 0 0 0 0 -4727736.3729972839 1322.3750114440918 0 1322.3750114440918 -67656683.183925629 0 0 0 0 9559837.812477231 20795160.715505853 0 20795160.715505853 -12093263.124855518 0 0 0 0 18345511.967752457 16402927.043091059 0 16402927.043091059 -15144197.394536972 0 0 0 0 6088839.7154433066 2553637.310797336 0 2553637.310797336 -4113608.3626169758 0 0 0 0 27483278.024045467 8717869.5457721353 0 8717869.5457721353 -14450598.945150375 0 0 0 0 1002907.3051484437 1558568.2353627868 0 1558568.2353627868 -422284.9803076298 0 0 0 0 18423041.957417488 3354890.7346794605 0 3354890.7346794605 -9046895.920539856 0 0 0 0 2650779.1107730865 4537739.8962877989 0 4537739.8962877989 -1733200.5921727419 0 0 0 0 12821073.843444824 8221416.6380567551 0 8221416.6380567551 -9070227.3284869194 0 0 0 0 5459803.9395332336 11428083.131507397 0 11428083.131507397 -6877199.7717447281 0 0 0 0 3829929.7294601994 4526626.3348420206 0 4526626.3348420206 -513860.02989194216 0 0 0 0 7071794.7697372437 2366253.2196779251 0 2366253.2196779251 -2128686.5602731705 0 0 0 0 2994684.965941906 12482657.975757599 0 12482657.975757599 19951774.36972332 0 0 0 0 5971546.7612720132 29267691.684165597 0 29267691.684165597 53015420.066394806 0 0 0 0 -6322967.2378996611 12201109.687579632 0 12201109.687579632 28104816.29360199 0 0 0 0 23915571.550908089 -23270818.691135406 0 -23270818.691135406 -59199418.512539387 0 0 0 0 -11910968.15512228 16408887.616918564 0 16408887.616918564 14090020.300786972 0 0 0 0 804762.31741764327 5949702.6713974867 0 5949702.6713974867 3128295.4293995285 0 0 0 0 -9304251.3535950184 12962303.935564041 0 12962303.935564041 12834727.82465744 0 0 0 0 -6766339.852140069 9607919.7478437424 0 9607919.7478437424 16467046.824207306 0 0 0 0 -12443161.762778759 13982729.576423645 0 13982729.576423645 18028448.17551899 0 0 0 0 -3391474.0983581543 1199108.2794473171 0 1199108.2794473171 -8463505.3737049103 0 0 0 0 -632737.54516983032 15377694.967388153 0 15377694.967388153 -1444263.021987915 0 0 0 0 2079629.1613158572 13128477.483585142 0 13128477.483585142 8091796.3493228443 0 0 0 0 74478.141287326813 25523150.791330338 0 25523150.791330338 -2253452.7890853882 0 0 0 0 2711719.5174436569 25100610.300668716 0 25100610.300668716 25465285.530045509 0 0 0 0 -49257.114514962304 615946.61871228367 0 615946.61871228367 -519926.38672962599 0 0 0 0 26277780.77943182 18698189.523112297 0 18698189.523112297 -1979839.5936050415 0 0 0 0 -7553765.8211088181 9889076.1938858032 0 9889076.1938858032 -4010661.1037330627 0 0 0 0 3136709.7205770845 8650712.2905271053 0 8650712.2905271053 -347357.86850797478 0 0 0 0 -17052263.475945234 4613860.4207000732 0 4613860.4207000732 6378174.5698738098 0 0 0 0 22546832.591095448 35686081.73920536 0 35686081.73920536 30109091.418956757 0 0 0 0 -1402901.4945200118 1033700.4602319506 0 1033700.4602319506 1289128.5878751185 0 0 0 0 -21320001.968458652 -13592845.294785023 0 -13592845.294785023 14652772.324926376 0 0 0 0 -47050814.580084801 28732162.748006821 0 28732162.748006821 46920301.482649803 0 0 0 0 -24738995.850678921 -10344879.875366211 0 -10344879.875366211 41352113.427895069 0 0 0 0 -26444170.493417621 -648064.71381092072 0 -648064.71381092072 18869699.856872559 0 0 0 0 50232881.436542511 66313395.001756668 0 66313395.001756668 82659585.171229601 0 0 0 0 -14515610.947858814 5540146.2706161011 0 5540146.2706161011 8212027.5403225375 0 0 0 0 53207655.092296362 91742993.934562802 0 91742993.934562802 98708259.526248932 0 0 0 0 -13292864.999124352 2820585.7334682192 0 2820585.7334682192 8654607.0196974445 0 0 0 0 -18213548.728244901 33519422.48167181 0 33519422.48167181 30328102.420139313 0 0 0 0 -3360414.6709356308 9034706.528046608 0 9034706.528046608 13694199.476828098 0 0 0 0 -55068439.089928627 67859653.452175617 0 67859653.452175617 -39095644.765713692 0 0 0 0 9427941.4574253559 31177586.271995068 0 31177586.271995068 -4151797.8256549835 0 0 0 0 8183985.5719666481 -4493782.2588324547 0 -4493782.2588324547 -8209967.1514139175 0 0 0 0 7774553.1039075851 -17340464.669891834 0 -17340464.669891834 -17043859.32950592 0 0 0 0 19116538.622821331 -10486443.989704609 0 -10486443.989704609 -15239696.216228485 0 0 0 0 31286084.857703924 -8663556.0373170376 0 -8663556.0373170376 -125954201.79240799 0 0 0 0 -18143134.857789993 183747744.7682991 0 183747744.7682991 -69695645.311021805 0 0 0 0 -29430787.333471298 -111743136.75629711 0 -111743136.75629711 -16774455.640343666 0 0 0 0 15775056.320345402 80630075.490127563 0 80630075.490127563 -198042834.53060722 0 0 0 0 -62724087.732330322 31836510.119302273 0 31836510.119302273 74396076.160230637 0 0 0 0 -97078664.305191994 122948382.83277321 0 122948382.83277321 110523654.39397168 0 0 0 0 621905.2599190335 1558199.4796419975 0 1558199.4796419975 -1081767.5636724508 0 0 0 0 94134831.306111574 -85486942.402733088 0 -85486942.402733088 -32467763.506950378 0 0 0 0 -60094112.135252953 -75620543.344791412 0 -75620543.344791412 78210282.540834904 0 0 0 0 322330.3035440722 1104887.9603868304 0 1104887.9603868304 111571.08504468948 0 0 0 0 -27040106.90410614 -10542829.873907089 0 -10542829.873907089 -14958466.452550888 0 0 0 0 -4813388.8619251251 -113746845.33953285 0 -113746845.33953285 -226614857.44016004 0 0 0 0 -61299980.926577568 -23881239.922048569 0 -23881239.922048569 -54837701.659711838 0 0 0 0 -8834135.2241930962 -12468524.855153084 0 -12468524.855153084 57444769.665237308 0 0 0 0 26788712.966715336 15415276.343153 0 15415276.343153 -3562618.272354126 0 0 0 0 -75590156.922185421 9152107.1550517082 0 9152107.1550517082 33670534.046737671 0 0 0 0 153655988.140625 20794566.454678535 0 20794566.454678535 103444995.12788963 0 0 0 0 -53173510.208213806 38564151.968997955 0 38564151.968997955 25246105.947965145 0 0 0 0 2082213.5268859863 32249101.195222855 0 32249101.195222855 24004001.624066353 0 0 0 0 -2000484.7175410949 1086159.5103889536 0 1086159.5103889536 1473003.4623218048 0 0 0 0 -25087696.449497223 -26042222.898098946 0 -26042222.898098946 11585245.90618515 0 0 0 0 -10028614.56019783 14121977.040466309 0 14121977.040466309 -115376339.31120682 0 0 0 0 -5511164.3294048309 62744755.98340416 0 62744755.98340416 -160716363.96234131 0 0 0 0 35974682.908729553 -54056371.543481827 0 -54056371.543481827 -306624165.65028572 0 0 0 0 35238685.55670166 -28615925.477893829 0 -28615925.477893829 -169413255.47231579 0 0 0 0 17057492.806651115 7974832.3185696602 0 7974832.3185696602 -219311796.91004753 0 0 0 0 13420387.477316856 -13869679.754827976 0 -13869679.754827976 -177193847.34568405 0 0 0 0 87739315.50596261 144660417.86414635 0 144660417.86414635 154062964.61152649 0 0 0 0 -50701416.996135712 253084957.80370331 0 253084957.80370331 119076777.29443216 0 0 0 0 1403885.3235696815 9312486.7793061472 0 9312486.7793061472 -15690820.074300773 0 0 0 0 58488728.004306078 106332114.37074685 0 106332114.37074685 116505203.73620987 0 0 0 0 91036365.463169098 97323707.824361801 0 97323707.824361801 106774066.83015156 0 0 0 0 -994471.45422115177 218434.71865485236 0 218434.71865485236 768769.26375653315 0 0 0 0 -91010543.573467255 103633634.8199501 0 103633634.8199501 -219235841.17874527 0 0 0 0 1757238.6522410903 9679014.450417541 0 9679014.450417541 -15692398.012364356 0 0 0 0 -128483496.70939636 422101985.49550629 0 422101985.49550629 -118507549.04720306 0 0 0 0 306526574.20909882 -5504109.133644104 0 -5504109.133644104 235272871.6696701 0 0 0 0 81327581.75774765 116247667.6217289 0 116247667.6217289 109636531.46131134 0 0 0 0 82928602.808895111 86378606.534948349 0 86378606.534948349 83715745.067801952 0 0 0 0 61147121.390983582 75585343.245052338 0 75585343.245052338 96227711.560734749 0 0 0 0 -2886211.7916545868 -10375478.10084486 0 -10375478.10084486 -7871298.4585189819 0 0 0 0 -3175642.6575746536 -6582370.3973960876 0 -6582370.3973960876 -530826.9267911911 0 0 0 0 -11441159.171747822 796049.47835962148 0 796049.47835962148 9866126.4590981249 0 0 0 0 60928483.883853912 69980915.96896553 0 69980915.96896553 110479822.0491066 0 0 0 0 54376592.34441185 100529604.33914328 0 100529604.33914328 148345907.56079102 0 0 0 0 115443964.79177475 123407350.70721245 0 123407350.70721245 115176356.46682715 0 0 0 0 -4424443.0572242737 44009359.199491501 0 44009359.199491501 120275024.77404034 0 0 0 0 76325446.651359558 205264686.56363344 0 205264686.56363344 212617503.01502228 0 0 0 0 77831799.769577026 126408889.2925148 0 126408889.2925148 177150984.3922863 0 0 0 0 12481792.497745514 117835975.29786682 0 117835975.29786682 78471782.844391823 0 0 0 0 1824939.420278579 8953699.1164254211 0 8953699.1164254211 -15538480.118744122 0 0 0 0 -21741294.363453388 -16879975.327682018 0 -16879975.327682018 26015203.141486168 0 0 0 0 -6196436.7038589492 -1153064.0376389939 0 -1153064.0376389939 13885065.074182922 0 0 0 0 4274868.6143519878 161699752.28504252 0 161699752.28504252 164374687.51167297 0 0 0 0 55372574.556793213 71282239.406925201 0 71282239.406925201 8065414.6470222473 0 0 0 0 -9129447.873468833 -640268.12465754035 0 -640268.12465754035 11599822.07664619 0 0 0 0 -18926925.347071648 -9101670.1834869385 0 -9101670.1834869385 1114373.0552845001 0 0 0 0 -21713998.425666809 -23885767.055909634 0 -23885767.055909634 -6380403.5049734116 0 0 0 0 -11737405.814281464 3744279.6082830429 0 3744279.6082830429 92762427.021339417 0 0 0 0 444797.02073148824 535594.7869893366 0 535594.7869893366 -413442.86353593925 0 0 0 0 -12693116.014226913 -25834131.718971729 0 -25834131.718971729 -29873320.34452343 0 0 0 0 -6948500.1558504105 -7119954.4053530693 0 -7119954.4053530693 -14897011.917834282 0 0 0 0 -18180824.328567266 -12748791.54689312 0 -12748791.54689312 -3064265.2525405884 0 0 0 0 -5452469.8191320896 -12529913.992467642 0 -12529913.992467642 1739685.277223587 0 0 0 0 744285.82311235694 1020642.7036889684 0 1020642.7036889684 -767773.59336651419 0 0 0 0 10174484.910748482 64267792.739294052 0 64267792.739294052 126496082.3369627 0 0 0 0 -19218948.680315018 36072522.503226757 0 36072522.503226757 115176663.47955894 0 0 0 0 32873896.77132225 59150036.517995834 0 59150036.517995834 111871014.81997681 0 0 0 0 32108070.736348629 58610703.786277533 0 58610703.786277533 114404191.55878258 0 0 0 0 32652426.268831015 59115070.147150397 0 59115070.147150397 107592543.03436661 0 0 0 0 815054.66679085605 650297.68108011852 0 650297.68108011852 495806.69592308765 0 0 0 0 -77003893.760538101 -7283420.3370082378 0 -7283420.3370082378 32079615.31539917 0 0 0 0 81557292.615749359 75927418.878179073 0 75927418.878179073 54071327.320371389 0 0 0 0 156883314.06086731 110733088.0692358 0 110733088.0692358 64400697.569942474 0 0 0 0 39598802.697288513 82267540.768699646 0 82267540.768699646 126507741.34420204 0 0 0 0 61260326.905918121 56151382.054239273 0 56151382.054239273 76518029.536491394 0 0 0 0 27547487.469696045 43097379.562725544 0 43097379.562725544 73354537.037535667 0 0 0 0 31031904.82816124 29520757.731016159 0 29520757.731016159 35726513.000530243 0 0 0 0 2837897.5945601463 8290701.7532560825 0 8290701.7532560825 60836135.610750198 0 0 0 0 -15442174.592290759 5793931.6794462204 0 5793931.6794462204 93708311.098484039 0 0 0 0 8344860.2989826202 33749355.243517876 0 33749355.243517876 101257635.81119394 0 0 0 0 13521140.520742416 29419615.306136131 0 29419615.306136131 99118229.109327316 0 0 0 0 -16290621.299346924 -290873.68014669418 0 -290873.68014669418 89800869.399429798 0 0 0 0 -4074308.483045578 30120057.008908272 0 30120057.008908272 68177140.560592055 0 0 0 0 -4062218.9407012463 25863376.615146995 0 25863376.615146995 23417323.788680077 0 0 0 0 -39933328.41637516 3256488.8586313725 0 3256488.8586313725 31951803.575012445 0 0 0 0 -17759643.502961993 -10403743.193420142 0 -10403743.193420142 36934278.209872723 0 0 0 0 -11856467.365258694 -123973927.01984215 0 -123973927.01984215 40266062.678671837 0 0 0 0 -8088193.7915658951 72712700.042299271 0 72712700.042299271 132453162.39314103 0 0 0 0 58085509.576951981 193646418.70699215 0 193646418.70699215 325796941.56624162 0 0 0 0 -113035034.54914761 -83985272.40630722 0 -83985272.40630722 393033918.3224864 0 0 0 0 216235417.03306198 11103129.331822872 0 11103129.331822872 -134392210.26716423 0 0 0 0 1948543.4189898809 857538.32508347789 0 857538.32508347789 -1291395.4807811719 0 0 0 0 66714188.839948654 10052695.69645977 0 10052695.69645977 8991107.8735313416 0 0 0 0 432098588.79986095 131823107.26743412 0 131823107.26743412 -118464850.7107563 0 0 0 0 1730594.7337809168 647041.55196744669 0 647041.55196744669 -1030585.000672725 0 0 0 0 -54072425.094453335 43044425.514483452 0 43044425.514483452 64977774.899365425 0 0 0 0 -28303040.697078705 -11789826.768918514 0 -11789826.768918514 94340041.942738056 0 0 0 0 55116809.517525673 -6023745.2036437988 0 -6023745.2036437988 -11863230.624055862 0 0 0 0 641289.02189841866 1322604.9256296491 0 1322604.9256296491 -935218.05302125798 0 0 0 0 7901069.1347546577 -15479495.231117725 0 -15479495.231117725 -5500823.6883945465 0 0 0 0 -30871971.769686699 50950058.058871269 0 50950058.058871269 58063316.535516739 0 0 0 0 46324555.011198997 -39046410.447741508 0 -39046410.447741508 25179585.629703522 0 0 0 0 -24491430.979370117 37663920.646682262 0 37663920.646682262 195514103.55843544 0 0 0 0 760638.17599395523 355034.92935238313 0 355034.92935238313 -506053.28695797874 0 0 0 0 -32196920.108319521 55199212.497386217 0 55199212.497386217 157101813.99766731 0 0 0 0 6644680.0384187698 64205503.35985136 0 64205503.35985136 150448768.4434824 0 0 0 0 57075809.264649391 55733322.399750233 0 55733322.399750233 103458084.67404175 0 0 0 0 30459137.046220779 4553401.7484331131 0 4553401.7484331131 142669596.88606453 0 0 0 0 -5117189.2211055756 31862499.23962307 0 31862499.23962307 129631309.54318905 0 0 0 0 -23325025.607139587 57057755.620014191 0 57057755.620014191 103012923.26702666 0 0 0 0 6160925.3561553955 72059373.917938232 0 72059373.917938232 103626507.46878815 0 0 0 0 21241831.327373505 38048510.983118534 0 38048510.983118534 81752304.094760895 0 0 0 0 -16806772.904708862 19449478.177757263 0 19449478.177757263 77213350.515925169 0 0 0 0 1315753.5421814919 39007004.32217586 0 39007004.32217586 41488428.809259415 0 0 0 0 -34353339.715240479 32655911.415052891 0 32655911.415052891 41798001.697889328 0 0 0 0 -20704549.702100754 54403679.328962803 0 54403679.328962803 16139978.384631515 0 0 0 0 6979482.9082341194 34576934.811145067 0 34576934.811145067 79776653.049399376 0 0 0 0 4984244.0169315338 33901658.361320496 0 33901658.361320496 108822038.71094513 0 0 0 0 31276370.433876038 40600696.376855373 0 40600696.376855373 49970448.983237267 0 0 0 0 -4925563.3057273626 15296364.096747279 0 15296364.096747279 67303569.927706718 0 0 0 0 12145025.408805847 42830610.166492939 0 42830610.166492939 37016583.60219717 0 0 0 0 18069135.701931 25806432.83033514 0 25806432.83033514 41965633.571120977 0 0 0 0 81502884.916319847 46750519.964724541 0 46750519.964724541 27240038.476716518 0 0 0 0 33144399.852667212 48955821.053620696 0 48955821.053620696 86154574.471718788 0 0 0 0 16820038.236681938 62822531.127919197 0 62822531.127919197 89438723.523905516 0 0 0 0 61978471.295282364 124305846.74229646 0 124305846.74229646 163431002.39771271 0 0 0 0 -7697698.8030767441 62214392.001594305 0 62214392.001594305 163883917.18995667 0 0 0 0 442011.20897488145 -755265.54608249385 0 -755265.54608249385 1488958.0754573722 0 0 0 0 12292896.63800931 -140090100.38682008 0 -140090100.38682008 41508566.479427338 0 0 0 0 292740778.12949157 156069568.57990193 0 156069568.57990193 91619855.855697155 0 0 0 0 140583960.06705725 45881939.344169736 0 45881939.344169736 21285011.002532959 0 0 0 0 64922006.406948745 6664930.3821852207 0 6664930.3821852207 17140795.303917885 0 0 0 0 43137561.630410194 11837056.116286278 0 11837056.116286278 21209816.741934299 0 0 0 0 49890268.540609598 8504563.6186453104 0 8504563.6186453104 3686192.2137069702 0 0 0 0 1977123.5103735982 -76503.086322174757 0 -76503.086322174757 3837866.0560710058 0 0 0 0 39928559.58043921 -2583683.7347604036 0 -2583683.7347604036 -4391269.7368106842 0 0 0 0 19061880.855461121 9722737.0686607957 0 9722737.0686607957 -11586670.86043644 0 0 0 0 10273326.570307732 23914185.43572402 0 23914185.43572402 -11204266.098250479 0 0 0 0 30977613.80134964 17745468.4545784 0 17745468.4545784 -10187316.248184979 0 0 0 0 57907562.462300301 17995758.461222172 0 17995758.461222172 -1217626.7327194214 0 0 0 0 28817326.324188828 21708217.136035562 0 21708217.136035562 -1667505.9508223534 0 0 0 0 35889985.697742462 23437402.482647181 0 23437402.482647181 19726260.891291499 0 0 0 0 39658441.177572012 41057591.588992119 0 41057591.588992119 11319428.221995354 0 0 0 0 18258091.141730309 26481241.307356358 0 26481241.307356358 1507549.4767246246 0 0 0 0 4701924.4680595398 53596883.273410082 0 53596883.273410082 -9507971.1509132385 0 0 0 0 -3054725.1281700134 39183034.238412857 0 39183034.238412857 -13411552.989104748 0 0 0 0 311023.60597991943 17221580.810074329 0 17221580.810074329 6163388.9211673737 0 0 0 0 -53173636.683111191 37726085.580899715 0 37726085.580899715 4632483.087729454 0 0 0 0 840593.05176537379 2379594.1829095799 0 2379594.1829095799 753823.89978937106 0 0 0 0 -137909.81340789795 6342892.3277950287 0 6342892.3277950287 -1314090.1730079651 0 0 0 0 5893016.1791908685 9541206.7203776725 0 9541206.7203776725 5155503.2888896437 0 0 0 0 -829817.86016273499 34775407.850530028 0 34775407.850530028 4581254.4484406114 0 0 0 0 -652481.40522384644 2461173.2376413345 0 2461173.2376413345 2361732.4428939819 0 0 0 0 5590916.8315430339 7717226.6053697933 0 7717226.6053697933 1144787.8673830852 0 0 0 0 19749.790442466736 28784309.370111704 0 28784309.370111704 -8142775.2461600304 0 0 0 0 22469291.857217312 38846973.119790077 0 38846973.119790077 -4886956.3950328827 0 0 0 0 19136143.617497921 28593392.815962315 0 28593392.815962315 -16517511.91587472 0 0 0 0 33203989.828378677 2030392.5447425842 0 2030392.5447425842 -26873104.123966217 0 0 0 0 12318689.192093233 11600878.244086124 0 11600878.244086124 7348458.1019081604 0 0 0 0 6841872.5778620299 3465835.7486702129 0 3465835.7486702129 -4777633.4175028168 0 0 0 0 10200622.904117584 8003934.5838680267 0 8003934.5838680267 -5200381.0593643188 0 0 0 0 2827143.0184009923 5728930.5193410413 0 5728930.5193410413 2499736.4872156903 0 0 0 0 14971594.12269783 13140879.002073288 0 13140879.002073288 -1669628.3609771729 0 0 0 0 3878944.8532310501 5358092.3797985064 0 5358092.3797985064 5104567.485675212 0 0 0 0 14581657.928287506 6747517.2512836456 0 6747517.2512836456 2484312.0897006989 0 0 0 0 4872191.6296596527 18334420.446573734 0 18334420.446573734 22040.220111846924 0 0 0 0 15582624.597541809 16040128.198680878 0 16040128.198680878 -5017647.730682373 0 0 0 0 15616768.018871307 20895138.404937744 0 20895138.404937744 -17447201.930920839 0 0 0 0 -38132616.477294922 55563633.266283035 0 55563633.266283035 4958446.8150596619 0 0 0 0 14762300.687102456 12575231.464180153 0 12575231.464180153 6499416.8810239062 0 0 0 0 24727979.417896867 8213716.455716908 0 8213716.455716908 -21826605.730090618 0 0 0 0 30561409.976858139 31370489.40134716 0 31370489.40134716 -25262020.876979828 0 0 0 0 1153930.6581181241 9930347.8136792965 0 9930347.8136792965 19332411.234719284 0 0 0 0 -163562.11505173519 7255973.1977158114 0 7255973.1977158114 20825805.087262101 0 0 0 0 -51668863.152906418 30287593.048045158 0 30287593.048045158 38086247.957854033 0 0 0 0 12614533.060436249 23869530.10866189 0 23869530.10866189 13052822.406419277 0 0 0 0 14455887.62522459 31053399.574178338 0 31053399.574178338 22713244.827020645 0 0 0 0 -5501740.7126245499 40546701.789397299 0 40546701.789397299 12530919.590750799 0 0 0 0 10154040.448653221 23962754.397755682 0 23962754.397755682 11242297.849275947 0 0 0 0 5106021.0629372708 4699758.9088108074 0 4699758.9088108074 -3405066.9891870553 0 0 0 0 53209850.305608511 44120952.178657204 0 44120952.178657204 15908136.724201202 0 0 0 0 37867651.933380127 28627242.866603851 0 28627242.866603851 15890720.782087326 0 0 0 0 310256.40590616409 -957781.96359239914 0 -957781.96359239914 -1056741.1684400945 0 0 0 0 52570791.882305145 38097903.268769741 0 38097903.268769741 11942534.997685432 0 0 0 0 42963092.333293915 43780255.889180183 0 43780255.889180183 15135554.784723282 0 0 0 0 46310003.794857025 42688292.767362118 0 42688292.767362118 13626803.065606594 0 0 0 0 40750308.042030334 46855702.00898838 0 46855702.00898838 31265663.140414238 0 0 0 0 73815659.205635071 48662556.86669445 0 48662556.86669445 33465469.399290562 0 0 0 0 40763490.903519481 36462943.10313274 0 36462943.10313274 29307901.191139221 0 0 0 0 -133820.1105594635 6309327.6940345764 0 6309327.6940345764 2984779.2524032593 0 0 0 0 571640.5555305481 8512937.3943767548 0 8512937.3943767548 3182468.6694335938 0 0 0 0 4343838.8765202472 7266632.1992657864 0 7266632.1992657864 4969526.5443049818 0 0 0 0 4485019.7269551074 2281518.2238658806 0 2281518.2238658806 -4422224.3879694995 0 0 0 0 -58000.408126831055 3559122.9245491028 0 3559122.9245491028 4171756.7105474472 0 0 0 0 916744.74008560181 4058857.6190643311 0 4058857.6190643311 79404.647874832153 0 0 0 0 1001084.502784729 4854058.6914386749 0 4854058.6914386749 3535839.8827629089 0 0 0 0 4575466.3803650811 4586587.0402193181 0 4586587.0402193181 523099.61327735009 0 0 0 0 5197778.2634849548 8217930.7814369202 0 8217930.7814369202 3244194.0557632446 0 0 0 0 -27403.182936277241 283518.745122205 0 283518.745122205 856275.44607941434 0 0 0 0 4335852.3465929031 9102052.960062027 0 9102052.960062027 10907498.455848694 0 0 0 0 8514134.781452179 10893148.417413712 0 10893148.417413712 6651345.7980861664 0 0 0 0 3199177.8173828125 5397027.9518356323 0 5397027.9518356323 8030371.5110721588 0 0 0 0 2262270.5218048096 11367584.924907684 0 11367584.924907684 27660682.24168396 0 0 0 0 17334384.06098175 14038506.728601456 0 14038506.728601456 9785223.904006958 0 0 0 0 1368616.2322301343 4767734.3067368502 0 4767734.3067368502 7210866.0104609355 0 0 0 0 8874959.0613088608 11915251.145402908 0 11915251.145402908 9531602.5506362915 0 0 0 0 5643040.4990125634 6662905.7035578676 0 6662905.7035578676 -7832147.1588106807 0 0 0 0 4567733.7216911316 33693494.92829895 0 33693494.92829895 21960676.369171143 0 0 0 0 24156401.472675323 22938018.173005223 0 22938018.173005223 2888357.7427862883 0 0 0 0 54734654.503097534 26295264.139175415 0 26295264.139175415 21032278.450141907 0 0 0 0 30567720.981220245 36115680.220277786 0 36115680.220277786 30290628.928718567 0 0 0 0 6320187.6245040894 -36184111.359613419 0 -36184111.359613419 56312580.600631714 0 0 0 0 1576718.5842769966 1684043.8336550631 0 1684043.8336550631 2826322.147489246 0 0 0 0 1843468.6666161828 1839273.5382872457 0 1839273.5382872457 1868819.0446734037 0 0 0 0 -8892751.1988525391 80474814.902754784 0 80474814.902754784 64405964.31224823 0 0 0 0 69229998.678764343 -10283617.667022705 0 -10283617.667022705 97645358.997406006 0 0 0 0 47954580.286268234 38567404.975065231 0 38567404.975065231 10959572.419303894 0 0 0 0 -134068588.38023472 -27005626.103406906 0 -27005626.103406906 8896772.6629562378 0 0 0 0 894664.95666794293 907782.70619640127 0 907782.70619640127 -632216.07095391303 0 0 0 0 6162849.2828273773 260842392.40568447 0 260842392.40568447 -379632955.84009552 0 0 0 0 -255868198.97492981 190304666.2086792 0 190304666.2086792 -54741559.122982264 0 0 0 0 -90384247.143714905 -26663128.927791595 0 -26663128.927791595 -63926306.173689127 0 0 0 0 -16339678.328594208 -2639269.8613128662 0 -2639269.8613128662 -13518696.122787476 0 0 0 0 608455.24930282496 415742.61640288914 0 415742.61640288914 737342.39738979191 0 0 0 0 -116321529.65229225 70789883.750144958 0 70789883.750144958 72506224.526741028 0 0 0 0 -5692934.0343971252 29103926.162107468 0 29103926.162107468 -44019366.375282288 0 0 0 0 76992401.453212738 104936320.84597015 0 104936320.84597015 -24268031.301727295 0 0 0 0 -636251.41957092285 18248698.476753235 0 18248698.476753235 51439016.176483154 0 0 0 0 24176008.096380234 -8644898.9887857437 0 -8644898.9887857437 17419350.982658386 0 0 0 0 -17841634.60402298 21959948.625007629 0 21959948.625007629 -4751881.5261459351 0 0 0 0 -221385161.46842957 86661832.322090149 0 86661832.322090149 -26673687.885772705 0 0 0 0 -51216603.869309902 -12175116.400421143 0 -12175116.400421143 -37863079.601036072 0 0 0 0 -72265282.680160522 128924698.52561569 0 128924698.52561569 -24023556.947257996 0 0 0 0 -76333770.317695618 35352610.685707092 0 35352610.685707092 -62210652.079805374 0 0 0 0 6403155.0374984741 29475566.645771027 0 29475566.645771027 -41914306.250833511 0 0 0 0 -11726885.984300613 -16363579.218195915 0 -16363579.218195915 -143915879.69805145 0 0 0 0 6542731.6236114502 3826438.1443214417 0 3826438.1443214417 -52782277.923059464 0 0 0 0 -14412042.045105696 -19645908.127509952 0 -19645908.127509952 -7424273.9934539795 0 0 0 0 1099750.6597557068 640681.21580505371 0 640681.21580505371 16686286.397502899 0 0 0 0 -976214.79592132568 4067784.95495224 0 4067784.95495224 13086897.034423828 0 0 0 0 -1564619.8980914354 -7550221.7417612076 0 -7550221.7417612076 2391567.5468826294 0 0 0 0 1607206.0815195451 1999405.8014986813 0 1999405.8014986813 992600.52721394226 0 0 0 0 6965216.8571243286 1258529.7796802521 0 1258529.7796802521 11138827.520582199 0 0 0 0 7144905.701374054 20425495.518817902 0 20425495.518817902 -25303802.818481445 0 0 0 0 479849.12255277671 587473.30742693879 0 587473.30742693879 296727.40043318272 0 0 0 0 6444901.0997729301 5441292.7891690731 0 5441292.7891690731 1434834.6012268066 0 0 0 0 47572662.59817028 77904185.229040623 0 77904185.229040623 32866408.097122192 0 0 0 0 34539801.846728325 11815020.894966364 0 11815020.894966364 -39294532.897224426 0 0 0 0 92291.61715294607 -206119.56426547281 0 -206119.56426547281 -44267.367414318258 0 0 0 0 73313653.269489288 71222515.329795837 0 71222515.329795837 -311475306.63565886 0 0 0 0 -16946579.844490051 110392080.664814 0 110392080.664814 125900110.85585976 0 0 0 0 -103448558.08014202 121861151.24913073 0 121861151.24913073 -123653773.27631378 0 0 0 0 11534102.750156403 161008483.69062233 0 161008483.69062233 -135280355.87590027 0 0 0 0 7411618.261554718 22212083.080429077 0 22212083.080429077 -22189765.712295532 0 0 0 0 50787212.180606842 116965745.90921974 0 116965745.90921974 -57428891.539794922 0 0 0 0 -6708163.9696922302 153838438.70524597 0 153838438.70524597 64670037.879127502 0 0 0 0 -54848945.50957489 134174001.7630043 0 134174001.7630043 -67669377.954338074 0 0 0 0 -103220521.02651978 204166663.14385223 0 204166663.14385223 -399007904.59378815 0 0 0 0 -138867357.07510757 -62291583.933462143 0 -62291583.933462143 -185784932.13907623 0 0 0 0 -154862959.26202011 107143844.31189728 0 107143844.31189728 -79519375.120521545 0 0 0 0 -44638801.647781372 55399509.888904572 0 55399509.888904572 -73362340.649642944 0 0 0 0 -274941400.38054657 48399778.605834961 0 48399778.605834961 5062919.1813201904 0 0 0 0 -48424433.992080688 165109835.08755493 0 165109835.08755493 -154217861.29087448 0 0 0 0 -64401861.109573364 96044834.282566071 0 96044834.282566071 -157844032.17753601 0 0 0 0 -23341250.827644348 108317714.63214874 0 108317714.63214874 -98752786.497161865 0 0 0 0 -91991809.064659119 164767551.14041138 0 164767551.14041138 3898288.358039856 0 0 0 0 -189811057.02500343 270874360.28555679 0 270874360.28555679 -337787089.64199829 0 0 0 0 -89008998.268310547 154657172.26667404 0 154657172.26667404 -52081669.269172668 0 0 0 0 1015515.4375748914 729546.24203100614 0 729546.24203100614 -583052.65393498912 0 0 0 0 -152033432.70279694 292816619.86099625 0 292816619.86099625 -370344619.36734009 0 0 0 0 -187158102.11877823 282412185.58618927 0 282412185.58618927 -288151750.19940186 0 0 0 0 -98648318.440002441 76571919.344482422 0 76571919.344482422 34768789.016204834 0 0 0 0 -108694232.77667236 203363522.05865479 0 203363522.05865479 -253967818.02229309 0 0 0 0 -169981891.84740448 276788601.82450104 0 276788601.82450104 -310950133.62713242 0 0 0 0 -145160174.12643433 308200775.19134521 0 308200775.19134521 -286134186.76768875 0 0 0 0 -153013908.65962219 207332782.80929565 0 207332782.80929565 -126772176.60151672 0 0 0 0 -179351341.0538559 319937444.34783936 0 319937444.34783936 -370645362.41702652 0 0 0 0 -153223108.81234741 307491132.50032043 0 307491132.50032043 -380414792.54403687 0 0 0 0 -176492321.19952774 288200451.16547775 0 288200451.16547775 -393091075.22067642 0 0 0 0 -175630354.81372166 304346655.21544695 0 304346655.21544695 -373133739.06496429 0 0 0 0 -185830017.26708984 210968436.4065094 0 210968436.4065094 -303783400.46562195 0 0 0 0 9623914.3809509277 11671116.655715942 0 11671116.655715942 -9162183.5296554565 0 0 0 0 -49805318.481719971 -24776877.312633514 0 -24776877.312633514 -4533355.9840812683 0 0 0 0 1191136.035976883 1064605.7903316654 0 1064605.7903316654 -209278.75601016916 0 0 0 0 -701330.64598788694 77229.972117679194 0 77229.972117679194 190131.10909903795 0 0 0 0 -98510211.851531982 -21939468.40034008 0 -21939468.40034008 261329.81091308594 0 0 0 0 -141146530.51572418 132367349.2828598 0 132367349.2828598 -301640165.63707733 0 0 0 0 -191993891.17961121 246747000.34698486 0 246747000.34698486 -276558342.89284515 0 0 0 0 88946.269112126902 27901.239589482546 0 27901.239589482546 -158279.84966523573 0 0 0 0 -108996944.78667068 -10451201.724998474 0 -10451201.724998474 24546351.416547775 0 0 0 0 -5862935.4431037903 74157563.590068817 0 74157563.590068817 118656527.15086079 0 0 0 0 51334689.760028839 -76343292.316993713 0 -76343292.316993713 -22783270.4114151 0 0 0 0 -123136572.29957581 23172561.696846008 0 23172561.696846008 160608776.18439865 0 0 0 0 95826276.715570927 82261087.861229897 0 82261087.861229897 -38923892.860160828 0 0 0 0 1473828.7041888814 784655.19011760503 0 784655.19011760503 -786450.44072959572 0 0 0 0 129383439.52140045 -29503403.040132523 0 -29503403.040132523 -9578092.0444324017 0 0 0 0 -1685140.8105163574 -9063896.7387294769 0 -9063896.7387294769 82585164.993019104 0 0 0 0 -1166243.6231880188 -6959164.3391819 0 -6959164.3391819 19848754.024841309 0 0 0 0 -1526610.0077619553 25538299.172562599 0 25538299.172562599 71269557.059532166 0 0 0 0 -800655.98609161377 27425429.19719696 0 27425429.19719696 20243070.321752548 0 0 0 0 35080747.255022049 23850509.797587872 0 23850509.797587872 16560751.669559479 0 0 0 0 78011972.844573498 53087644.737254143 0 53087644.737254143 18632478.269824982 0 0 0 0 -5915126.8844985962 63793689.323913574 0 63793689.323913574 19304738.745983124 0 0 0 0 -54782472.012392044 28356818.18637085 0 28356818.18637085 -38153455.444442749 0 0 0 0 19300621.828662872 37494722.623677254 0 37494722.623677254 -39729630.443462372 0 0 0 0 -13524839.624557495 55690384.589797974 0 55690384.589797974 26672561.021047592 0 0 0 0 143245.71765472926 -342167.89278735779 0 -342167.89278735779 -68427.217875734321 0 0 0 0 -22871961.039375305 100247910.07399559 0 100247910.07399559 -32195552.775774956 0 0 0 0 36516142.879817963 42984248.723218918 0 42984248.723218918 -96453345.488983154 0 0 0 0 56508.216689985245 -260327.26662245579 0 -260327.26662245579 -34677.540519245667 0 0 0 0 -70241775.432876587 44453243.790496826 0 44453243.790496826 162500154.48061895 0 0 0 0 -39585452.816360474 57155978.201164246 0 57155978.201164246 -44456172.248867035 0 0 0 0 64735284.65146637 46171974.762926102 0 46171974.762926102 -211400489.72646713 0 0 0 0 125843226.74609756 29099638.746953964 0 29099638.746953964 -69240595.402545929 0 0 0 0 -38375938.204701424 -53472906.686501503 0 -53472906.686501503 -20618032.4087677 0 0 0 0 -11051224.885932922 38602535.978443146 0 38602535.978443146 -69100670.566069186 0 0 0 0 -6243306.9378433228 24481970.295825958 0 24481970.295825958 -30291856.255981445 0 0 0 0 -21626101.936080933 26684880.595573425 0 26684880.595573425 5779080.9100112915 0 0 0 0 4547315.9413719177 5866955.7796096802 0 5866955.7796096802 588875.70574188232 0 0 0 0 8315658.4205513 13530163.469278336 0 13530163.469278336 10788191.191757202 0 0 0 0 1962355.445693498 6192688.9536564043 0 6192688.9536564043 1985438.0745327994 0 0 0 0 12548867.883644104 8556641.3659667969 0 8556641.3659667969 112916.73625183105 0 0 0 0 7914691.2677574158 8419489.5049819946 0 8419489.5049819946 725236.40258789062 0 0 0 0 4357855.740978241 4309391.8289899826 0 4309391.8289899826 -947373.98680114746 0 0 0 0 2782327.8531063367 7340277.1807393618 0 7340277.1807393618 274168.29066957533 0 0 0 0 4696620.3373527527 3158396.6775093079 0 3158396.6775093079 -1997639.6205558777 0 0 0 0 1819295.9865522645 3640523.2195386402 0 3640523.2195386402 -2310051.1220744476 0 0 0 0 7189964.5750007629 3329869.9334907532 0 3329869.9334907532 -1187522.9753189087 0 0 0 0 7202251.1949074855 3389164.5850358522 0 3389164.5850358522 -418892.6648176685 0 0 0 0 10729329.233316422 2551134.3873138428 0 2551134.3873138428 -1593374.3648986816 0 0 0 0 -2714237.1419258118 6666550.2894096375 0 6666550.2894096375 6141272.7020111084 0 0 0 0 18935882.969680786 2784857.9041633606 0 2784857.9041633606 -1805539.8246459961 0 0 0 0 45428.551051608287 188607.22992874309 0 188607.22992874309 -218934.53544677794 0 0 0 0 5883404.067298919 6760358.1662006248 0 6760358.1662006248 2016683.0542175919 0 0 0 0 8323059.1976470947 6513256.9793586731 0 6513256.9793586731 -721488.5087890625 0 0 0 0 3093740.5813368005 7451805.3562663374 0 7451805.3562663374 2797069.6756152809 0 0 0 0 4353501.0756239891 5623718.4667191505 0 5623718.4667191505 1014318.2331390381 0 0 0 0 32085582.772689819 16202698.580705643 0 16202698.580705643 1499657.9997024536 0 0 0 0 4713964.6023810785 3280119.3955061766 0 3280119.3955061766 1484989.9412432611 0 0 0 0 6371473.0368919373 3197119.6334342957 0 3197119.6334342957 2963368.7776622772 0 0 0 0 4038356.4867115021 4538363.2739458084 0 4538363.2739458084 767138.15181732178 0 0 0 0 8345345.4951325329 7307609.8366659312 0 7307609.8366659312 3252445.6583402194 0 0 0 0 2946786.3662213217 7302894.0005589928 0 7302894.0005589928 4879257.3220972773 0 0 0 0 5308216.6951007843 6113392.4793128967 0 6113392.4793128967 1265080.6353416443 0 0 0 0 5235244.8198509216 7279728.5567760468 0 7279728.5567760468 87860.474627494812 0 0 0 0 9809116.4938154221 10052945.095516682 0 10052945.095516682 2559510.3383731842 0 0 0 0 2261781.0563174714 7419553.8496154211 0 7419553.8496154211 534912.4316265136 0 0 0 0 2799498.0182657242 11293600.290893078 0 11293600.290893078 1933483.6389846802 0 0 0 0 6358517.4219455719 6618251.7097682953 0 6618251.7097682953 2167058.0293340683 0 0 0 0 6382984.7131183464 8726760.2013236675 0 8726760.2013236675 2270325.6531473193 0 0 0 0 -1134751.9386520386 8004773.3782196045 0 8004773.3782196045 6651788.6246948242 0 0 0 0 2511491.1267571729 6163682.9160290034 0 6163682.9160290034 1049979.2104107905 0 0 0 0 11688732.562592983 8653863.5362901688 0 8653863.5362901688 -1337011.3388185501 0 0 0 0 10626967.639618278 13923508.992852211 0 13923508.992852211 7797743.6573104858 0 0 0 0 6736775.9899516106 7936284.2846660614 0 7936284.2846660614 798389.49972724915 0 0 0 0 4033346.6991882548 6778620.8128762878 0 6778620.8128762878 -738526.37529117055 0 0 0 0 13326348.942276001 9194114.3013086319 0 9194114.3013086319 82075.912475585938 0 0 0 0 8700001.1694669724 8075254.7895207405 0 8075254.7895207405 4663881.0432128906 0 0 0 0 4815927.4566535354 5340599.2484157383 0 5340599.2484157383 185517.50257004611 0 0 0 0 2384734.1830869108 4500748.1114800358 0 4500748.1114800358 -1361446.7943362035 0 0 0 0 12712745.786988735 11978252.560396194 0 11978252.560396194 3813571.465177536 0 0 0 0 4124202.8449539444 5229088.5917176297 0 5229088.5917176297 -1661899.1101575587 0 0 0 0 10100862.671575069 11054581.455394745 0 11054581.455394745 367418.56042480469 0 0 0 0 9864886.6502139866 7820207.5787651539 0 7820207.5787651539 -1387082.3997612 0 0 0 0 1718686.8268394386 4080448.3458091794 0 4080448.3458091794 -4265517.667036891 0 0 0 0 25709575.149900675 27069787.131151199 0 27069787.131151199 -1216249.091542244 0 0 0 0 -247468.51887688111 803656.89743240178 0 803656.89743240178 -173096.84252029285 0 0 0 0 16102453.121536851 -19041400.967761993 0 -19041400.967761993 -51758881.066223145 0 0 0 0 -16661003.209769249 59881535.38508606 0 59881535.38508606 -5983994.2572250366 0 0 0 0 11268585.787042141 10182888.894750595 0 10182888.894750595 2029136.9388046265 0 0 0 0 17123559.786987782 24654861.067033768 0 24654861.067033768 -6248447.6027603149 0 0 0 0 7284277.5525193214 12466663.265762329 0 12466663.265762329 -2117220.8534393311 0 0 0 0 17024461.719067097 15543888.972496033 0 15543888.972496033 3960134.1443166733 0 0 0 0 9853819.4977378845 8536593.4743690491 0 8536593.4743690491 2479679.183921814 0 0 0 0 17993682.891488075 5178515.8281898499 0 5178515.8281898499 3599927.5109710693 0 0 0 0 -34870254.330229878 50298434.536917686 0 50298434.536917686 29447126.023986816 0 0 0 0 -420477.26647662185 281355.84192046989 0 281355.84192046989 277761.32004662231 0 0 0 0 -37083011.36455822 36170180.390792847 0 36170180.390792847 2472205.1939735413 0 0 0 0 -11880617.36029458 42328266.512459755 0 42328266.512459755 -13583655.318832397 0 0 0 0 -3599728.0591001511 11757774.533679962 0 11757774.533679962 13819857.162532806 0 0 0 0 -199797669.26584816 66192053.075035095 0 66192053.075035095 -93311357.123519182 0 0 0 0 1365903.5677900314 44266335.996110916 0 44266335.996110916 81607918.226837158 0 0 0 0 436008.27421051497 72948.319685462862 0 72948.319685462862 1141422.7516934304 0 0 0 0 -20790507.107883692 76959198.853134155 0 76959198.853134155 -51390349.272499084 0 0 0 0 73971295.539284706 -197536599.69314575 0 -197536599.69314575 -92086903.439872742 0 0 0 0 71444012.289041877 44822314.642100811 0 44822314.642100811 4263757.5766220093 0 0 0 0 -24198239.927216053 24204926.454391479 0 24204926.454391479 57787179.390743256 0 0 0 0 50021351.609042048 -21082966.151472092 0 -21082966.151472092 -9547273.7190628052 0 0 0 0 -19696824.157723904 -28128296.165267944 0 -28128296.165267944 6017850.3855609894 0 0 0 0 1688290.6150097847 23398115.929340363 0 23398115.929340363 4555983.8475111127 0 0 0 0 -10243839.908428669 -8103122.7489814758 0 -8103122.7489814758 45015375.88986969 0 0 0 0 32203385.249746323 16984058.802909851 0 16984058.802909851 -36435188.213413239 0 0 0 0 14869353.796635628 13076757.044704437 0 13076757.044704437 2001885.8628333062 0 0 0 0 1801273.3410092187 4827805.9854368577 0 4827805.9854368577 -3628991.602410268 0 0 0 0 -12587883.448449612 38954964.729469299 0 38954964.729469299 17349556.030517578 0 0 0 0 14122827.071807384 12853120.492365837 0 12853120.492365837 4198906.0663604736 0 0 0 0 13722739.455832958 11773948.487656355 0 11773948.487656355 5332447.3852615356 0 0 0 0 13814442.851327896 12420388.400009155 0 12420388.400009155 4163175.9016458988 0 0 0 0 3689198.0312926918 5412430.7964568194 0 5412430.7964568194 -371901.2196034044 0 0 0 0 2053791.3322215839 7733893.5344712324 0 7733893.5344712324 -1249053.3867773339 0 0 0 0 9414694.0997633338 12529011.948416114 0 12529011.948416114 321929.46534729004 0 0 0 0 8486257.4895982742 6728105.7158031464 0 6728105.7158031464 -2217793.1252670288 0 0 0 0 7655550.5966908075 6965323.0454058032 0 6965323.0454058032 -5465864.0271262508 0 0 0 0 13684137.548601151 29311685.48459816 0 29311685.48459816 -19468535.785760641 0 0 0 0 9581579.9221016355 6283288.56775585 0 6283288.56775585 -10004457.457691109 0 0 0 0 15918754.14652738 -27924231.838228151 0 -27924231.838228151 7565012.0603237152 0 0 0 0 -1900929.3022851944 13276247.928760529 0 13276247.928760529 12607758.13732338 0 0 0 0 -1805507.1575767994 13977854.84967947 0 13977854.84967947 3282832.4141273499 0 0 0 0 9884802.751742363 8900598.1947126389 0 8900598.1947126389 5346001.923374176 0 0 0 0 -14136558.254240036 18236870.371980667 0 18236870.371980667 6751197.6191005707 0 0 0 0 7838157.3243689975 8616614.5885986239 0 8616614.5885986239 -1140544.3473706609 0 0 0 0 1985157.8682994843 21545971.860198975 0 21545971.860198975 -9782139.7048015594 0 0 0 0 15666017.271989822 21545571.269666672 0 21545571.269666672 2681642.3537979126 0 0 0 0 3769906.6856314996 7972851.5559235141 0 7972851.5559235141 215776.36079917103 0 0 0 0 148530.83930206299 13968506.898426056 0 13968506.898426056 3174427.6567344666 0 0 0 0 588473.3297455227 1192330.5820157388 0 1192330.5820157388 879940.09788140655 0 0 0 0 19396380.912845612 14253654.273506165 0 14253654.273506165 10197252.941143036 0 0 0 0 30458972.163680077 35348979.393979073 0 35348979.393979073 -5701188.7480788231 0 0 0 0 16670598.647263527 18268245.010349274 0 18268245.010349274 1821441.0934371948 0 0 0 0 308716.17980003357 15467840.850442886 0 15467840.850442886 13588550.696102142 0 0 0 0 785094.90461945534 13103593.350022316 0 13103593.350022316 14211118.209236145 0 0 0 0 865784.55448913574 13112829.916980743 0 13112829.916980743 14202489.279685974 0 0 0 0 -4564696.5517425537 19650030.41815567 0 19650030.41815567 6869115.7510147095 0 0 0 0 3860451.5002094982 6843316.3561205305 0 6843316.3561205305 -1884143.3406294044 0 0 0 0 6364946.5058479309 9671839.529586792 0 9671839.529586792 16344953.720092773 0 0 0 0 5137540.1689853668 5335596.0542960167 0 5335596.0542960167 17966253.943786621 0 0 0 0 4169240.8173885345 13277342.575725555 0 13277342.575725555 14577907.860403061 0 0 0 0 -8303429.2473363876 7620915.1641688347 0 7620915.1641688347 -7137748.8331718445 0 0 0 0 -6541516.846822381 20337461.996645093 0 20337461.996645093 9172373.8687820435 0 0 0 0 12529706.326974869 25507817.683919907 0 25507817.683919907 -11776459.732135773 0 0 0 0 9485401.3163495064 8854279.5100235939 0 8854279.5100235939 -31754111.570865631 0 0 0 0 6828900.7835950851 9146928.9473018646 0 9146928.9473018646 -7381058.5336620808 0 0 0 0 26298754.503448486 17985490.479236603 0 17985490.479236603 1755083.950214386 0 0 0 0 7455430.2431395287 5341836.8040246479 0 5341836.8040246479 -5865166.4732511602 0 0 0 0 34776510.197948456 8257799.9846506119 0 8257799.9846506119 -8327457.8809857368 0 0 0 0 590856.33983014384 547400.48038674518 0 547400.48038674518 345581.82737469953 0 0 0 0 15087621.515090942 16948278.836156845 0 16948278.836156845 15667357.364775658 0 0 0 0 1451530.6586847007 -1585729.159236107 0 -1585729.159236107 -2186982.820520455 0 0 0 0 -7321778.3093338013 -4656838.6504602432 0 -4656838.6504602432 -10242883.256797791 0 0 0 0 8407731.8219114188 3762163.1721867286 0 3762163.1721867286 -4299678.0151010845 0 0 0 0 -21226.088175296783 4494835.4175138474 0 4494835.4175138474 3806107.5468444824 0 0 0 0 6894870.2601912022 11783286.582002878 0 11783286.582002878 117553.59982681274 0 0 0 0 69998086.196297646 -10378163.977915287 0 -10378163.977915287 -9889726.4214038849 0 0 0 0 -7272155.5768213272 8431246.4357719421 0 8431246.4357719421 10542564.00512886 0 0 0 0 540729.67410068121 611451.35389309213 0 611451.35389309213 -494410.14043859858 0 0 0 0 5526158.4690341949 -3287310.7700710297 0 -3287310.7700710297 4974068.1660165787 0 0 0 0 29748275.507604122 -1295767.2448272705 0 -1295767.2448272705 -12507070.317056656 0 0 0 0 22999542.407280922 13660137.644033432 0 13660137.644033432 -29577952.841985703 0 0 0 0 -10036214.045825958 15598732.442921162 0 15598732.442921162 -2463690.7715892792 0 0 0 0 65546432.283893585 100075023.25455022 0 100075023.25455022 -31766308.952508211 0 0 0 0 2403832.5513632102 2651467.9395863079 0 2651467.9395863079 -2274513.2336053853 0 0 0 0 5370686.8667331953 3996629.1709178593 0 3996629.1709178593 -6199338.2773736883 0 0 0 0 102974302.62261009 -12556383.267802715 0 -12556383.267802715 44339660.424453497 0 0 0 0 59249070.640936852 126144386.09328556 0 126144386.09328556 -79863815.235852003 0 0 0 0 98519916.213757277 31666600.435191974 0 31666600.435191974 -169030193.08325672 0 0 0 0 -43154366.803512096 -10136706.524163961 0 -10136706.524163961 27159022.131812572 0 0 0 0 37797081.135868073 36619371.818406105 0 36619371.818406105 -63769026.674768686 0 0 0 0 21490296.821508408 1735993.3609242439 0 1735993.3609242439 9594815.3687705994 0 0 0 0 1764879.1594972261 1168740.2343069662 0 1168740.2343069662 139908.42922048434 0 0 0 0 26236332.118428707 4001563.6062284708 0 4001563.6062284708 -33009795.211118221 0 0 0 0 1130544.9333481789 23974658.181136131 0 23974658.181136131 214745980.90409732 0 0 0 0 32011852.335336089 37119935.992885113 0 37119935.992885113 -18910369.752269268 0 0 0 0 35045599.673445821 -73279711.101740599 0 -73279711.101740599 -56381775.648244381 0 0 0 0 -33779553.183086336 59818119.351438046 0 59818119.351438046 -16613614.159092903 0 0 0 0 5984724.0466249511 7254898.5801046947 0 7254898.5801046947 4550358.6883799192 0 0 0 0 15314753.558915377 56045369.187042713 0 56045369.187042713 -66568494.460904479 0 0 0 0 43810901.876331806 555160.45296907425 0 555160.45296907425 911767.43640565872 0 0 0 0 52233226.746325493 21312147.53560257 0 21312147.53560257 -38474336.635340691 0 0 0 0 16341277.949658215 21557226.772455931 0 21557226.772455931 4656525.4681901932 0 0 0 0 5348272.7089496879 11318578.68026999 0 11318578.68026999 6885750.7909452766 0 0 0 0 19541107.293293953 23487787.591751099 0 23487787.591751099 -13935199.559834003 0 0 0 0 -15559193.123068988 40593018.069159031 0 40593018.069159031 -6589591.9910945892 0 0 0 0 2394819.4783635074 5204529.2202210948 0 5204529.2202210948 21213.766248444095 0 0 0 0 -837138.44339942932 7086306.3431768417 0 7086306.3431768417 3235112.7665572166 0 0 0 0 7568878.0858167158 11642372.455350596 0 11642372.455350596 6353528.4876486138 0 0 0 0 2407167.1744790077 7016317.2714586258 0 7016317.2714586258 -3076909.054069519 0 0 0 0 6233060.2371425629 6885277.3910064697 0 6885277.3910064697 630851.85335540771 0 0 0 0 6357090.4369306564 8875727.1388320923 0 8875727.1388320923 1421256.6466751099 0 0 0 0 6276998.962283453 8796510.8069040366 0 8796510.8069040366 2951315.7815120127 0 0 0 0 12908338.400169253 12579939.610220075 0 12579939.610220075 819438.80167007446 0 0 0 0 7351912.1167085357 11731838.810009237 0 11731838.810009237 -2930456.5504666176 0 0 0 0 5929293.552904129 9217826.2853050232 0 9217826.2853050232 2226138.5339736938 0 0 0 0 12300637.35741806 5984822.3576755524 0 5984822.3576755524 7334571.1948776245 0 0 0 0 10078893.049187746 2658002.2744538942 0 2658002.2744538942 -13013266.376139671 0 0 0 0 432686.40996978618 347241.66764615034 0 347241.66764615034 265971.65077939443 0 0 0 0 7126978.6527821925 7349783.3671666821 0 7349783.3671666821 -4604350.4318823349 0 0 0 0 9333755.3929290771 9083196.4294052124 0 9083196.4294052124 -8384924.415763855 0 0 0 0 6235301.7489128113 16084098.52955246 0 16084098.52955246 -6391061.8722438812 0 0 0 0 18284513.025533676 10265966.882411957 0 10265966.882411957 9395793.4421114922 0 0 0 0 11795445.271948814 18051088.53505373 0 18051088.53505373 510255.54223632812 0 0 0 0 1402454.4883270264 10952158.575203896 0 10952158.575203896 4559076.6840362549 0 0 0 0 12448715.112918854 16621917.474575043 0 16621917.474575043 3503086.9215316772 0 0 0 0 534653.81382157281 492578.75473544234 0 492578.75473544234 309044.6634106962 0 0 0 0 5290984.0331665035 7416592.815605714 0 7416592.815605714 -4517883.5922999727 0 0 0 0 2908540.5480924072 6920114.3004299831 0 6920114.3004299831 4043756.6445943639 0 0 0 0 6820381.3995027542 13275518.297475815 0 13275518.297475815 22146247.113572121 0 0 0 0 16358575.646547794 53160045.23477149 0 53160045.23477149 35058404.529833674 0 0 0 0 15793708.768165588 65663486.249680519 0 65663486.249680519 130379863.73361981 0 0 0 0 40666.104103088379 50636488.091571331 0 50636488.091571331 116153779.61219025 0 0 0 0 -1741406.945174709 509185.21283107391 0 509185.21283107391 3121461.6042265687 0 0 0 0 20231317.505791187 42260909.079825461 0 42260909.079825461 64927339.157826424 0 0 0 0 1977560.2714573145 910673.50196913956 0 910673.50196913956 -1830371.5409320593 0 0 0 0 188914.28422546387 5244072.1844043732 0 5244072.1844043732 10919274.154445648 0 0 0 0 -3321672.9362414517 2121530.0004053107 0 2121530.0004053107 2888857.9528444041 0 0 0 0 1648742.4627113342 6802411.6734209061 0 6802411.6734209061 12457986.266815186 0 0 0 0 32434785.613426208 13027560.904450893 0 13027560.904450893 32173113.275310516 0 0 0 0 11934238.93019104 48096460.02761364 0 48096460.02761364 87613430.140794754 0 0 0 0 -3230498.2864265442 72892338.468332291 0 72892338.468332291 240911815.70120907 0 0 0 0 82499590.897171021 128610680.85861683 0 128610680.85861683 100366553.66211748 0 0 0 0 70922646.411542892 47798476.278799653 0 47798476.278799653 -30903535.791862488 0 0 0 0 174727.80809758976 214104.10465676617 0 214104.10465676617 949260.38961432781 0 0 0 0 28457295.524337769 165356773.99267888 0 165356773.99267888 205850155.46949387 0 0 0 0 50092888.909347534 18030388.451891661 0 18030388.451891661 171165726.74998879 0 0 0 0 -2404512.3989970684 70079259.311988696 0 70079259.311988696 153447012.68117285 0 0 0 0 -20824.368434906006 59955107.24770093 0 59955107.24770093 132301105.04568261 0 0 0 0 -34835.225715637207 52708185.901464462 0 52708185.901464462 85761810.841651917 0 0 0 0 -12626879.783599854 22942590.113444805 0 22942590.113444805 158125098.28366765 0 0 0 0 28535.703392028809 40455862.830255419 0 40455862.830255419 -44407760.210240006 0 0 0 0 -15885926.251243591 8690338.8121441603 0 8690338.8121441603 68062108.812855214 0 0 0 0 -9659415.2990365028 44227062.324534267 0 44227062.324534267 34553824.594629765 0 0 0 0 -316622542.17121124 -106030588.90652204 0 -106030588.90652204 -45809577.63122046 0 0 0 0 -92060175.291534424 27797749.870957732 0 27797749.870957732 5244185.9751591682 0 0 0 0 -5962795.7368927002 51684215.372956187 0 51684215.372956187 -82087119.506910443 0 0 0 0 -48716972.538734436 -28397884.25105691 0 -28397884.25105691 -62721402.667781681 0 0 0 0 -65977421.473007202 44978823.844708681 0 44978823.844708681 69073382.026518583 0 0 0 0 -83364193.853410721 54056115.713156372 0 54056115.713156372 65218724.186699867 0 0 0 0 -25687757.020889282 92288047.541795492 0 92288047.541795492 113879831.46640015 0 0 0 0 -27804303.641609192 11017564.725554466 0 11017564.725554466 92947900.665626526 0 0 0 0 5165029.8332633972 61975996.310593665 0 61975996.310593665 128268864.40108013 0 0 0 0 -13216631.898414612 77619155.818649769 0 77619155.818649769 129560226.06056166 0 0 0 0 91446828.963939667 120920549.5685547 0 120920549.5685547 144656751.00466728 0 0 0 0 17413570.60144043 129796222.51094151 0 129796222.51094151 163635739.78475761 0 0 0 0 35855235.17023468 121701293.25955582 0 121701293.25955582 117487631.97453976 0 0 0 0 55661287.273933411 159706433.5780983 0 159706433.5780983 97729905.533473015 0 0 0 0 17735560.681045532 142202009.50476694 0 142202009.50476694 94681263.821080685 0 0 0 0 29713552.365402222 101278537.63649082 0 101278537.63649082 64777489.565453053 0 0 0 0 95597428.750144958 137675786.31372428 0 137675786.31372428 51880023.744999886 0 0 0 0 98293771.508140564 199822725.58900547 0 199822725.58900547 89527178.258924007 0 0 0 0 -16470506.190582275 226129644.68565798 0 226129644.68565798 163191462.3429718 0 0 0 0 -1231291.9141120911 155019852.30431789 0 155019852.30431789 135405709.92201424 0 0 0 0 -41107021.602592468 137419039.58075976 0 137419039.58075976 128318029.31891119 0 0 0 0 -75769675.82302618 134696650.45575732 0 134696650.45575732 151230767.58972931 0 0 0 0 -190292630.71735382 66162485.956887484 0 66162485.956887484 116197730.19427913 0 0 0 0 -132108217.82082367 197082688.57589287 0 197082688.57589287 158844274.51513708 0 0 0 0 -63802788.388031006 168213225.91416907 0 168213225.91416907 145825910.29827613 0 0 0 0 27417155.588493347 314865404.35764015 0 314865404.35764015 279294965.62694287 0 0 0 0 -87285876.490550995 127308719.36431396 0 127308719.36431396 212653282.99322915 0 0 0 0 -52287135.769836426 107195121.49743953 0 107195121.49743953 23901760.598278284 0 0 0 0 -228330617.71748352 179516715.54018515 0 179516715.54018515 -5228272.7236237526 0 0 0 0 444218076.3710556 725023562.50888884 0 725023562.50888884 415698956.18014079 0 0 0 0 -161212536.46018982 -36339738.491394997 0 -36339738.491394997 667227492.49402452 0 0 0 0 -250620104.56196213 341819419.72068352 0 341819419.72068352 290941496.14999485 0 0 0 0 466837039.09457397 -489782251.57850051 0 -489782251.57850051 244317226.71157211 0 0 0 0 185887987.68817902 495710024.08885676 0 495710024.08885676 612398645.13799047 0 0 0 0 666440540.76008606 300780949.64334857 0 300780949.64334857 45767275.775956154 0 0 0 0 322532704.29532623 267670165.07364678 0 267670165.07364678 71656530.243982792 0 0 0 0 256474902.56762695 186278153.85283041 0 186278153.85283041 32335153.75429821 0 0 0 0 613557933.84563065 -14405526.067133427 0 -14405526.067133427 -7188468.8810272217 0 0 0 0 257376216.06977463 202631419.07771623 0 202631419.07771623 2555506.403799057 0 0 0 0 480781580.00968933 -222777170.76248264 0 -222777170.76248264 231780960.15370369 0 0 0 0 -1675465.7156321704 940575.19862057827 0 940575.19862057827 2660182.8890530039 0 0 0 0 -11369595.630004883 -90075412.009576797 0 -90075412.009576797 160378626.66016388 0 0 0 0 359233059.14343262 -47358428.766372681 0 -47358428.766372681 -18735421.67053318 0 0 0 0 -30997637.889469147 23856016.190233707 0 23856016.190233707 36450524.615591526 0 0 0 0 516710.58581235074 4812387.3992680274 0 4812387.3992680274 4336649.8488931581 0 0 0 0 -253461.5195498243 490124.46418923512 0 490124.46418923512 262441.11624913255 0 0 0 0 97163311.178794861 -103133275.76066136 0 -103133275.76066136 -19037249.162416458 0 0 0 0 7488816.0515136719 39275528.997016907 0 39275528.997016907 -78550430.958307981 0 0 0 0 104923398.56465149 193469198.99279118 0 193469198.99279118 49678989.737448215 0 0 0 0 230640008.65539551 68986735.029598236 0 68986735.029598236 -16578457.057021141 0 0 0 0 416142333.08699036 88001840.979959488 0 88001840.979959488 -52598121.184799194 0 0 0 0 189596124.98873901 49620202.249799252 0 49620202.249799252 -24724843.133989811 0 0 0 0 45074051.538421631 41544084.908248901 0 41544084.908248901 13290609.228929996 0 0 0 0 84065820.373977661 114976796.26956177 0 114976796.26956177 13797819.614163876 0 0 0 0 201603720.5118618 163160243.52522865 0 163160243.52522865 28462718.345807076 0 0 0 0 50597629.42767334 67130307.341493607 0 67130307.341493607 41245696.336417198 0 0 0 0 121271225.04679108 84904679.499746561 0 84904679.499746561 21330147.957132339 0 0 0 0 36085068.385192871 53167020.493618011 0 53167020.493618011 27812125.730369925 0 0 0 0 28079226.062045097 10555905.846963197 0 10555905.846963197 -9079413.1475162506 0 0 0 0 43786879.677894592 46390973.086193979 0 46390973.086193979 6236081.0434989929 0 0 0 0 -28231790.830635071 5089723.0879421234 0 5089723.0879421234 29747707.007135391 0 0 0 0 -11308556.412940979 -2231127.8527927399 0 -2231127.8527927399 20333963.291192055 0 0 0 0 672378.10464096069 21085451.4720397 0 21085451.4720397 34575636.976758957 0 0 0 0 -6378901.0298194885 20495243.395267487 0 20495243.395267487 29488086.64825058 0 0 0 0 11934116.851959229 50141168.09250927 0 50141168.09250927 75094461.876556396 0 0 0 0 -9648169.7470617481 -2597519.7987890281 0 -2597519.7987890281 11237850.481714666 0 0 0 0 -3318158.9085235596 -7212295.6636376381 0 -7212295.6636376381 8821614.7273521423 0 0 0 0 -15360552.131702423 6022183.1639008522 0 6022183.1639008522 54620118.767084122 0 0 0 0 -2027470.3867874146 20822248.018606186 0 20822248.018606186 40427412.009975433 0 0 0 0 22275073.825271606 43891658.931271553 0 43891658.931271553 56123314.88363266 0 0 0 0 1635531.8306236267 56789004.100997925 0 56789004.100997925 116530373.05988216 0 0 0 0 -13445778.105690002 31669733.255080223 0 31669733.255080223 82998531.993722916 0 0 0 0 -16695711.261795044 36889419.484926224 0 36889419.484926224 331535782.94673967 0 0 0 0 -1803898.4214651734 3621696.9108708669 0 3621696.9108708669 5396574.6444553975 0 0 0 0 2411780.7695274353 29013978.940452814 0 29013978.940452814 81864472.327850342 0 0 0 0 9288187.4265136719 19549458.940683365 0 19549458.940683365 3872559.1308698654 0 0 0 0 -4292492.2104868293 4667041.7194596957 0 4667041.7194596957 3631140.065762816 0 0 0 0 -3359750.2936573029 9675721.341894865 0 9675721.341894865 5952506.6623191833 0 0 0 0 -754262.89492797852 11463085.632014275 0 11463085.632014275 13043923.28400898 0 0 0 0 -1644848.8352157697 8531840.2838533279 0 8531840.2838533279 6079381.1959996829 0 0 0 0 -22212599.779014587 29228573.289060593 0 29228573.289060593 34928641.843501091 0 0 0 0 -7709264.7903213501 3470495.8889970779 0 3470495.8889970779 33976588.547314644 0 0 0 0 5158020.6321524829 2911067.5747653404 0 2911067.5747653404 -4019532.4045921895 0 0 0 0 3307793.3660469055 8964422.6226539612 0 8964422.6226539612 6729963.7034311295 0 0 0 0 510511.72752698511 12109504.689414859 0 12109504.689414859 -6797073.8732461398 0 0 0 0 2848896.0809326172 43722071.965240479 0 43722071.965240479 210706450.41743851 0 0 0 0 27046422.971229553 140992729.98276138 0 140992729.98276138 162742326.03105736 0 0 0 0 287086.58116560429 12619098.673946515 0 12619098.673946515 -1868220.4500612151 0 0 0 0 -43105274.673591614 141770598.31867218 0 141770598.31867218 342875666.57486153 0 0 0 0 -73231670.594573975 -69259634.359916687 0 -69259634.359916687 64649306.558158875 0 0 0 0 -2517282.9485778809 7809080.3258361816 0 7809080.3258361816 3574264.028719902 0 0 0 0 -2729139.6592482924 3236912.2475197907 0 3236912.2475197907 6986873.4295907849 0 0 0 0 12407171.301773071 -9625523.1933059692 0 -9625523.1933059692 101245604.63962841 0 0 0 0 -64161.441593952477 14433707.866525931 0 14433707.866525931 1643227.5270483992 0 0 0 0 1234573.8725814819 9720783.9138975143 0 9720783.9138975143 -1596471.1959381104 0 0 0 0 -10908074.536523007 -4754862.6352862418 0 -4754862.6352862418 19720071.545938581 0 0 0 0 1095771.0808474943 11318987.67279451 0 11318987.67279451 -1044443.2730933994 0 0 0 0 -8665669.6381607056 -53246431.610868454 0 -53246431.610868454 71254938.922447205 0 0 0 0 -664723.46545410156 2699881.8343658447 0 2699881.8343658447 9420155.0597343445 0 0 0 0 31386157.248722076 -35635793.947217941 0 -35635793.947217941 -76023746.891860962 0 0 0 0 -842232.35642571747 13255491.491472032 0 13255491.491472032 -3680006.4888852825 0 0 0 0 -902027.12268236279 -229939.21223113872 0 -229939.21223113872 2562459.4544744082 0 0 0 0 74077062.59765625 -75178677.869476318 0 -75178677.869476318 149812159.59098816 0 0 0 0 52260994.996109009 118715903.6514492 0 118715903.6514492 89962714.463245392 0 0 0 0 158284.32070457935 12626458.324815638 0 12626458.324815638 3848035.9945389712 0 0 0 0 716313.67541503906 6925194.9841461182 0 6925194.9841461182 -4302920.5163078308 0 0 0 0 48655392.661560059 101858931.02220917 0 101858931.02220917 59109493.871994019 0 0 0 0 571954.22083450109 13282101.576146977 0 13282101.576146977 -5309924.0599384736 0 0 0 0 107147655.53143311 131860456.2374115 0 131860456.2374115 70586259.472640991 0 0 0 0 -5226887.4126434326 68440789.484676361 0 68440789.484676361 101094339.02180099 0 0 0 0 -80208327.110595703 146839640.43175888 0 146839640.43175888 222683389.30555344 0 0 0 0 -70686923.330253601 72048675.03156662 0 72048675.03156662 388488604.17351723 0 0 0 0 35691568.214887619 17196695.960165024 0 17196695.960165024 291378310.62253571 0 0 0 0 -45176762.544898987 32982367.332752228 0 32982367.332752228 281215840.71410751 0 0 0 0 -3365392.5463867188 14435616.365413666 0 14435616.365413666 406757609.95080566 0 0 0 0 -6346084.8130950928 82147226.122764587 0 82147226.122764587 322517698.00456619 0 0 0 0 17522555.375282288 35466424.378616333 0 35466424.378616333 512540795.54758453 0 0 0 0 7186778.7008180618 -26717434.280973911 0 -26717434.280973911 398946867.49942017 0 0 0 0 11264607.604438782 29797931.861507416 0 29797931.861507416 293648957.04231262 0 0 0 0 -38001946.079284668 -23536919.755065918 0 -23536919.755065918 478253707.46623993 0 0 0 0 302572.47217977047 10933262.507259183 0 10933262.507259183 -5335958.8827784378 0 0 0 0 -54800842.905761719 14240478.9764328 0 14240478.9764328 434447052.05318689 0 0 0 0 -30028663.132637024 -24629835.413105011 0 -24629835.413105011 417777709.10314178 0 0 0 0 13190320.577194214 1912937.159488678 0 1912937.159488678 434070881.19731903 0 0 0 0 -6392514.293964386 -34808719.966655731 0 -34808719.966655731 428594398.64070129 0 0 0 0 -360657.91156329587 10108756.755358603 0 10108756.755358603 -1910379.569091348 0 0 0 0 -79534933.012046814 2902091.7394275665 0 2902091.7394275665 6926852.4908761978 0 0 0 0 21933219.060798645 -6337917.2055206299 0 -6337917.2055206299 677563491.98394775 0 0 0 0 75919793.158538818 140834497.38840485 0 140834497.38840485 516329633.30914688 0 0 0 0 10489771.746994019 -65444687.867034912 0 -65444687.867034912 594827309.27054977 0 0 0 0 1838516.0651325285 11783268.381402571 0 11783268.381402571 -3842419.2853289582 0 0 0 0 11033295.508895874 26231417.645925522 0 26231417.645925522 26229082.369724751 0 0 0 0 -16336527.04914856 45857292.115219116 0 45857292.115219116 12205464.722926915 0 0 0 0 -51285920.906349182 24190930.866473198 0 24190930.866473198 20987475.965950012 0 0 0 0 -20600060.343734741 -9043440.3762464523 0 -9043440.3762464523 556505.6254196167 0 0 0 0 -24396896.368469238 62915396.72521019 0 62915396.72521019 -26127710.788719177 0 0 0 0 31414742.610031128 11757653.547542572 0 11757653.547542572 10527064.825317383 0 0 0 0 10071287.083694458 25628416.913549423 0 25628416.913549423 5689992.3645572662 0 0 0 0 -10400131.320045471 36231259.741990089 0 36231259.741990089 70665579.051021576 0 0 0 0 4387635.7071533203 2739828.8008651733 0 2739828.8008651733 6898684.1407976151 0 0 0 0 -1744292.1652718373 2506699.0148633868 0 2506699.0148633868 9637308.5184621178 0 0 0 0 31033775.733123779 10422169.583568573 0 10422169.583568573 5991553.4943885803 0 0 0 0 219213.46216063201 669357.25312438328 0 669357.25312438328 -349800.22246890003 0 0 0 0 -12610030.67464304 22298704.960169077 0 22298704.960169077 64218718.235898972 0 0 0 0 -2299227.9226722717 53392374.716065407 0 53392374.716065407 73406339.25154686 0 0 0 0 -32358138.142890453 46910154.260749817 0 46910154.260749817 143515658.63469315 0 0 0 0 18025565.765453339 79005650.2274189 0 79005650.2274189 105636396.85036659 0 0 0 0 -2855784.790411979 1265539.1992560066 0 1265539.1992560066 1757955.4740704044 0 0 0 0 -12479445.064689636 42044746.502333641 0 42044746.502333641 99193442.267075539 0 0 0 0 -26445261.356861115 28992740.837393761 0 28992740.837393761 92098026.343952656 0 0 0 0 45356502.460708618 36694485.834246635 0 36694485.834246635 36147061.362142563 0 0 0 0 -2420714.8710695058 2281948.0300798491 0 2281948.0300798491 3100975.7622736646 0 0 0 0 -4807760.9892044067 2934975.346757412 0 2934975.346757412 6022545.0205574036 0 0 0 0 -4977616.0852413177 62647966.098258018 0 62647966.098258018 117445262.98596191 0 0 0 0 107162334.71152496 80038022.733558655 0 80038022.733558655 60546903.716379166 0 0 0 0 -4972294.5462303162 88299840.381606102 0 88299840.381606102 235150899.81974411 0 0 0 0 -21185610.397850037 33034190.559329987 0 33034190.559329987 96981579.530143738 0 0 0 0 7699003.862121582 -19842211.723101616 0 -19842211.723101616 21368739.16015625 0 0 0 0 -10340584.346555948 408020.20413888991 0 408020.20413888991 8953727.6631857958 0 0 0 0 11209122.541091919 103794168.03271675 0 103794168.03271675 166310972.53539276 0 0 0 0 -21816821.324668884 -14190075.207753181 0 -14190075.207753181 150754082.97089744 0 0 0 0 -3147818.6560567208 -2239634.9671216309 0 -2239634.9671216309 2779453.3581518289 0 0 0 0 -6122029.8341140747 4821493.2464139462 0 4821493.2464139462 5056039.9380979538 0 0 0 0 -17171774.416637421 6449862.6076173782 0 6449862.6076173782 13647961.194669724 0 0 0 0 -31807739.084854126 13400309.937063932 0 13400309.937063932 23366494.511768579 0 0 0 0 -3528649.4291472025 4179782.4316927586 0 4179782.4316927586 9739054.0283726379 0 0 0 0 -4313429.6433830261 2441079.7606321573 0 2441079.7606321573 3839234.5782467127 0 0 0 0 -918323.49098968506 3068476.2989895344 0 3068476.2989895344 4327772.6228618622 0 0 0 0 -4351226.6245651245 2923861.8502836227 0 2923861.8502836227 5867083.4526884556 0 0 0 0 643341363.58281708 179211434.38684881 0 179211434.38684881 -267925467.38834548 0 0 0 0 -1597641.4332122803 4123831.6008690596 0 4123831.6008690596 5104205.9907078743 0 0 0 0 -1019855668.4192352 -492495582.37281704 0 -492495582.37281704 166707537.14045477 0 0 0 0 -7884469.9760322571 3619774.9168710113 0 3619774.9168710113 4790346.3853700161 0 0 0 0 -6117949.1858636923 3756230.3916932587 0 3756230.3916932587 4089020.4701552656 0 0 0 0 -92046103.239868164 348769623.99287748 0 348769623.99287748 -7643711.0313955545 0 0 0 0 -241463780.3397522 180484934.11277103 0 180484934.11277103 374325204.04141927 0 0 0 0 -242095115.64074707 194113066.41571927 0 194113066.41571927 160012516.37072039 0 0 0 0 -518067412.65544128 -224831140.84584361 0 -224831140.84584361 19531864.366963387 0 0 0 0 -575257437.95703125 200692032.02712512 0 200692032.02712512 260098959.61666059 0 0 0 0 -1281995.239107471 2540611.6428276831 0 2540611.6428276831 -624926.35091111739 0 0 0 0 -42342843.805263519 -278296673.36749363 0 -278296673.36749363 -325975642.04010534 0 0 0 0 49748623.292221069 14553345.53599453 0 14553345.53599453 33326198.890017301 0 0 0 0 195046798.36566734 301373473.24846053 0 301373473.24846053 385663492.71025789 0 0 0 0 175282966.27086258 249860982.80932835 0 249860982.80932835 437395649.67627954 0 0 0 0 150441322.6105957 -135348313.25058365 0 -135348313.25058365 162823533.53942594 0 0 0 0 -115890929.44090271 -115547504.81102243 0 -115547504.81102243 176638483.68705082 0 0 0 0 255877452.97113037 349189946.36256927 0 349189946.36256927 313406812.0349257 0 0 0 0 -323171974.43545449 702272493.16228342 0 702272493.16228342 289209463.9333179 0 0 0 0 -209182109.62431335 322779953.92548752 0 322779953.92548752 154134458.58465427 0 0 0 0 -189066324.27457929 271614621.95056731 0 271614621.95056731 237550130.71565247 0 0 0 0 -184497967.88395691 38983929.986502111 0 38983929.986502111 209585466.67845678 0 0 0 0 14729488.333717346 6250905.2072336674 0 6250905.2072336674 -7197035.2390668392 0 0 0 0 -215555418.19583511 32050950.716709256 0 32050950.716709256 113374489.12417698 0 0 0 0 -88184441.942886353 -65648078.124198198 0 -65648078.124198198 101339486.50030193 0 0 0 0 -18491827.339031219 -62687113.768262863 0 -62687113.768262863 -172332259.96707726 0 0 0 0 -4778895.6877617612 6118964.1099250615 0 6118964.1099250615 -748594.3600893484 0 0 0 0 -58173877.769340515 118703539.55873142 0 118703539.55873142 154713793.29852688 0 0 0 0 -91709694.319969177 -25468441.576494932 0 -25468441.576494932 -6890219.3316483498 0 0 0 0 62493299.386508942 205259768.96871567 0 205259768.96871567 -186638942.26478004 0 0 0 0 -88649738.607788086 47414902.66968441 0 47414902.66968441 93998079.256194115 0 0 0 0 -87008428.727745056 58528938.257804871 0 58528938.257804871 158496714.19199514 0 0 0 0 -3452625.5330753215 4960340.4284397857 0 4960340.4284397857 3178383.8426000951 0 0 0 0 -448859.24383687973 6082477.9469354153 0 6082477.9469354153 8175617.3875670433 0 0 0 0 -1663856.4984512329 3006355.4592466354 0 3006355.4592466354 6096517.1413140297 0 0 0 0 318997.28683118895 5827428.3484864626 0 5827428.3484864626 2551322.4140178682 0 0 0 0 637146.05819129944 5883721.8531538248 0 5883721.8531538248 7020012.8987007141 0 0 0 0 -3225754.4059964363 503671.76542316843 0 503671.76542316843 1089844.1409477196 0 0 0 0 -84087789.481193542 -90873455.059102058 0 -90873455.059102058 23767701.106955528 0 0 0 0 -74058935.76865387 -129288285.2998333 0 -129288285.2998333 166927114.10647964 0 0 0 0 -369488341.7485199 221557072.67721176 0 221557072.67721176 -111047853.15101051 0 0 0 0 -57173501.535840988 -265286578.3646512 0 -265286578.3646512 -764542848.557827 0 0 0 0 -1059982.2622373328 1205234.9818344803 0 1205234.9818344803 947073.20332978666 0 0 0 0 304426.43737011775 651884.42205215618 0 651884.42205215618 -54548.999198457226 0 0 0 0 -55476915.218315125 81866137.618296623 0 81866137.618296623 -694175386.70269394 0 0 0 0 800156857.06881618 468324591.19332862 0 468324591.19332862 -216324791.3227005 0 0 0 0 670843.8794701742 -1288089.2564177942 0 -1288089.2564177942 1539475.9202252356 0 0 0 0 521796520.39870262 601245379.58749723 0 601245379.58749723 -162582213.63499069 0 0 0 0 -357254451.9576149 -598534156.84478855 0 -598534156.84478855 267967278.44028091 0 0 0 0 -331060004.76664114 -168573017.45038331 0 -168573017.45038331 115668765.92982292 0 0 0 0 -378878971.11880302 153106500.85921168 0 153106500.85921168 -328413569.58734608 0 0 0 0 -189294406.13792419 -139054731.35111618 0 -139054731.35111618 118753103.13637465 0 0 0 0 -23376850.881652832 171872609.95761871 0 171872609.95761871 -117682062.92494202 0 0 0 0 -22549100.319381714 100900919.92437744 0 100900919.92437744 -853560652.34478569 0 0 0 0 -438179177.20439529 197898893.27175927 0 197898893.27175927 -12244016.347900391 0 0 0 0 36015839.96547699 -103505774.86185884 0 -103505774.86185884 159671617.55285454 0 0 0 0 151455084.64002228 350130822.6171298 0 350130822.6171298 1608543.453438282 0 0 0 0 -24323692.660545349 -25538796.111719489 0 -25538796.111719489 522633520.48802006 0 0 0 0 -445483.98222537711 117948.4126861915 0 117948.4126861915 319339.41462858184 0 0 0 0 -80624539.437774658 67521615.627132773 0 67521615.627132773 231721263.49507129 0 0 0 0 3034975.0901521817 4912035.0559133161 0 4912035.0559133161 -2493145.9659555759 0 0 0 0 -172786831.09383392 39791216.776405334 0 39791216.776405334 505919830.76481628 0 0 0 0 147773236.17719793 294260609.14486486 0 294260609.14486486 448032811.75917721 0 0 0 0 -133090394.9911232 -69394116.013657779 0 -69394116.013657779 217259669.43235746 0 0 0 0 -63298959.444812775 33712366.400486946 0 33712366.400486946 297528525.31048948 0 0 0 0 44244860.965263367 -86273103.271436259 0 -86273103.271436259 83163541.644858241 0 0 0 0 1061907.2199390717 1810514.8401123825 0 1810514.8401123825 -884754.39892220113 0 0 0 0 23466897.195482254 7151303.4559764266 0 7151303.4559764266 -56443043.682756901 0 0 0 0 23037665.536958694 2193423.5353702307 0 2193423.5353702307 -25150449.178294659 0 0 0 0 15346278.994483948 -1753043.69109869 0 -1753043.69109869 -2803862.3783732057 0 0 0 0 53676.440563831478 5991458.3197258022 0 5991458.3197258022 -1692222.1230646758 0 0 0 0 5305848.3011884689 9997279.2319158018 0 9997279.2319158018 -13440222.674482822 0 0 0 0 -10897445.993185997 39096282.526772618 0 39096282.526772618 -49140930.12244606 0 0 0 0 190475886.17784119 74792786.492246628 0 74792786.492246628 -77490173.454927444 0 0 0 0 -223919.29765435308 836448.36811304651 0 836448.36811304651 791861.16824774817 0 0 0 0 294624125.31016922 212962730.58576202 0 212962730.58576202 -44165833.55040741 0 0 0 0 367828023.78517151 204841311.02116013 0 204841311.02116013 -365970441.46133804 0 0 0 0 287110881.04682541 239759866.31174278 0 239759866.31174278 107560763.19596863 0 0 0 0 225450880.62673187 125720379.34028625 0 125720379.34028625 282741918.73913956 0 0 0 0 239759412.05079269 130101917.76329708 0 130101917.76329708 73565072.51839447 0 0 0 0 -26397203.735912323 146148665.48570386 0 146148665.48570386 -174243832.38739252 0 0 0 0 25224733.841842651 21932825.991661549 0 21932825.991661549 -33485754.841724396 0 0 0 0 264010093.09968567 -46926547.365574598 0 -46926547.365574598 -462663760.71189213 0 0 0 0 373031152.30819702 125688774.93690681 0 125688774.93690681 -16039084.034568787 0 0 0 0 327436459.7442627 162856937.12722397 0 162856937.12722397 21797304.860729218 0 0 0 0 465209973.06342697 278518095.77660751 0 278518095.77660751 24539398.779941559 0 0 0 0 363715483.71208191 145925902.00621223 0 145925902.00621223 -23726685.737508774 0 0 0 0 -43715566.45275116 -213928312.60648298 0 -213928312.60648298 203926494.9458847 0 0 0 0 607701.14928048942 -2991671.2782160109 0 -2991671.2782160109 6459778.1587486137 0 0 0 0 326695660.26686096 237775967.44861603 0 237775967.44861603 273397819.54006577 0 0 0 0 356779992.76319504 220023703.61429214 0 220023703.61429214 -46142022.022237778 0 0 0 0 -26444428.274506569 15642436.96561861 0 15642436.96561861 12676460.015354156 0 0 0 0 18382137.539276123 163535.95959091187 0 163535.95959091187 16582985.67546463 0 0 0 0 204478675.54867554 230560944.28830719 0 230560944.28830719 14720454.507137299 0 0 0 0 5039397.6491851807 -1011553.6897335052 0 -1011553.6897335052 16713121.715600252 0 0 0 0 9447560.1850299835 2284944.128798008 0 2284944.128798008 18897985.84462738 0 0 0 0 -1434060.830190653 2864343.5812018653 0 2864343.5812018653 1272783.6011645831 0 0 0 0 159519580.68590164 15350031.505832672 0 15350031.505832672 281303452.8542614 0 0 0 0 -456655.24990652595 2818103.923347773 0 2818103.923347773 2325689.5126096066 0 0 0 0 233980709.44385529 68402448.819263458 0 68402448.819263458 431351393.63232994 0 0 0 0 264887657.61125183 52401859.368721008 0 52401859.368721008 122643145.11338234 0 0 0 0 146560106.04077911 288420668.13583183 0 288420668.13583183 66079201.390602112 0 0 0 0 454318567.91188812 -37955730.826181412 0 -37955730.826181412 353327581.63080788 0 0 0 0 24510374.406921387 52093260.771677494 0 52093260.771677494 40626115.323320836 0 0 0 0 -40715547.373710632 -7386382.3744125366 0 -7386382.3744125366 -14559991.256361008 0 0 0 0 79094786.269348145 18959308.717163086 0 18959308.717163086 -346258876.23674011 0 0 0 0 39675.753350080922 -25169.523489083163 0 -25169.523489083163 -335089.16962904017 0 0 0 0 3368606.4555955864 8673247.7774008624 0 8673247.7774008624 -15697911.465621084 0 0 0 0 50424217.856586456 22447718.708782196 0 22447718.708782196 43612206.537676811 0 0 0 0 263919846.18542862 174145969.77479553 0 174145969.77479553 43108186.782737732 0 0 0 0 140792122.9095459 230431829.34939194 0 230431829.34939194 198509419.82501221 0 0 0 0 -31586625.595332146 892020.57890057564 0 892020.57890057564 328057219.95271301 0 0 0 0 34418691.70148468 106539635.57135773 0 106539635.57135773 341162743.04759216 0 0 0 0 56968583.161399841 174565478.27290344 0 174565478.27290344 188961176.42528439 0 0 0 0 123960512.11665535 362443716.56979561 0 362443716.56979561 653521828.36993408 0 0 0 0 -22358686.345882416 -86503884.275510788 0 -86503884.275510788 142186456.52348328 0 0 0 0 17229438.365459442 -113676329.93235779 0 -113676329.93235779 67273003.622891426 0 0 0 0 -2000982.4956678655 -2841084.0802571438 0 -2841084.0802571438 2474892.3647919111 0 0 0 0 246883764.48972702 243587791.92248917 0 243587791.92248917 155604696.45395088 0 0 0 0 130328485.24121174 536171440.31083184 0 536171440.31083184 297149175.88272858 0 0 0 0 -129816492.91631317 553868892.19254684 0 553868892.19254684 -16601569.138473511 0 0 0 0 -343361593.9582901 -113066786.50565338 0 -113066786.50565338 -18464756.210647583 0 0 0 0 130700508.02376938 302710232.6123085 0 302710232.6123085 559745633.3356781 0 0 0 0 24058035.517436713 28295083.151465774 0 28295083.151465774 29043148.93533802 0 0 0 0 -197140.72405354492 12581347.346858637 0 12581347.346858637 4845645.7025024034 0 0 0 0 7896342.1812245697 2547643.3714068215 0 2547643.3714068215 -18395391.095498651 0 0 0 0 984612.22733373381 -258262.49322811235 0 -258262.49322811235 -4462819.3136662766 0 0 0 0 595902900.5435791 276839466.08029175 0 276839466.08029175 518024211.58047485 0 0 0 0 1103107.369372841 6705998.8682957739 0 6705998.8682957739 -9050920.4469874986 0 0 0 0 11382732.869979858 16351597.839729309 0 16351597.839729309 13017097.16973114 0 0 0 0 360359225.95082474 473048939.67005825 0 473048939.67005825 299081273.52239418 0 0 0 0 -176680923.45510101 -7244914.8902406693 0 -7244914.8902406693 654134381.59007168 0 0 0 0 21189120.755496979 75696120.271243095 0 75696120.271243095 20716619.486615181 0 0 0 0 -435468949.07369995 -218300490.96248245 0 -218300490.96248245 628640976.59000778 0 0 0 0 8746340.1194763184 21840412.072372437 0 21840412.072372437 22923897.405620575 0 0 0 0 3974914.6522104684 10151529.891818652 0 10151529.891818652 -11317815.679517794 0 0 0 0 -1897650.1434707642 8773321.8655738831 0 8773321.8655738831 29599795.483424187 0 0 0 0 1835226.4827914629 673111.48727814062 0 673111.48727814062 -1597694.851288273 0 0 0 0 227487119.48303223 209875694.51953506 0 209875694.51953506 309922814.53301072 0 0 0 0 -2446939.8879138399 9467244.2560678013 0 9467244.2560678013 12176416.537186874 0 0 0 0 654593304.83210373 436629107.33862305 0 436629107.33862305 -35127647.951446533 0 0 0 0 2500453.1706930697 9869573.8267612569 0 9869573.8267612569 -7658969.0034510083 0 0 0 0 346617310.20447636 234703119.98575234 0 234703119.98575234 106181916.88588715 0 0 0 0 609323896.1888504 290827584.83894348 0 290827584.83894348 85664955.410873413 0 0 0 0 19269531.46161747 -1630515.7699987888 0 -1630515.7699987888 -6462107.8507919312 0 0 0 0 24089536.948425293 4083997.7254142761 0 4083997.7254142761 -8083074.0699653625 0 0 0 0 -21388391.387458801 16967541.278982162 0 16967541.278982162 17298703.975622177 0 0 0 0 554696529.58465958 158907948.80130768 0 158907948.80130768 105383621.40870667 0 0 0 0 4980560.2873986475 7582972.5656345291 0 7582972.5656345291 -12339555.77234409 0 0 0 0 10138464.461425781 -26003723.627895355 0 -26003723.627895355 -25578000.436317444 0 0 0 0 42391459.264907837 22839636.521789551 0 22839636.521789551 -18537009.719867706 0 0 0 0 681060.72594845109 212867.21728952508 0 212867.21728952508 -603461.31040072348 0 0 0 0 41322530.848068237 -11625079.378675461 0 -11625079.378675461 -40195966.203860283 0 0 0 0 21842159.435791016 209656821.62138367 0 209656821.62138367 1862647304.9296951 0 0 0 0 1002194212.0541229 223762654.46562195 0 223762654.46562195 -116332109.93928528 0 0 0 0 537809606.51060867 402941041.49268723 0 402941041.49268723 642988119.88050842 0 0 0 0 349972.35397636145 352982.02797871642 0 352982.02797871642 -1134241.7407827973 0 0 0 0 569472214.65462112 -120226153.81873703 0 -120226153.81873703 630036113.81486511 0 0 0 0 695245770.57441711 72573854.160293579 0 72573854.160293579 480047803.52614594 0 0 0 0 1085822008.3565979 396576452.93691254 0 396576452.93691254 648830610.62768555 0 0 0 0 581695998.75255585 661278353.6394577 0 661278353.6394577 1450178883.9640503 0 0 0 0 297484158.31036377 240077381.45956421 0 240077381.45956421 885128943.5431366 0 0 0 0 -95428177.91960907 -48361374.930915833 0 -48361374.930915833 1295491319.4741211 0 0 0 0 246374448.87983704 273803941.89182281 0 273803941.89182281 970765750.9432373 0 0 0 0 295943706.09284973 187367138.02130127 0 187367138.02130127 573480622.23648071 0 0 0 0 482032485.80792236 401398845.15390015 0 401398845.15390015 817569484.00360107 0 0 0 0 198572151.59382629 211497067.08145905 0 211497067.08145905 640385847.95808411 0 0 0 0 230571678.74002075 249458079.76159668 0 249458079.76159668 672697194.29971075 0 0 0 0 8799076.9431762695 -91043912.72177124 0 -91043912.72177124 839204175.28973389 0 0 0 0 131020620.31045532 88976852.962890625 0 88976852.962890625 675959305.05746984 0 0 0 0 92710217.24912262 136413680.91444397 0 136413680.91444397 418955126.14363098 0 0 0 0 354999260.84307861 91913325.348632812 0 91913325.348632812 138907638.38937378 0 0 0 0 260514897.31282043 69913748.009552002 0 69913748.009552002 546625213.74229431 0 0 0 0 212602040.91024017 -56752539.033927917 0 -56752539.033927917 251093007.10436249 0 0 0 0 50599787.703849792 24931414.418367386 0 24931414.418367386 123843011.55026245 0 0 0 0 -265613341.85913467 9717192.9070472717 0 9717192.9070472717 273473143.07286453 0 0 0 0 -310258985.54706955 245744139.44461441 0 245744139.44461441 59839014.706391811 0 0 0 0 -197726025.07828522 61927827.137943268 0 61927827.137943268 35114416.03523159 0 0 0 0 -2377764.0578927603 5545350.5263458202 0 5545350.5263458202 21399543.148614161 0 0 0 0 -136464206.24248505 169963927.28558636 0 169963927.28558636 -172749475.04551697 0 0 0 0 -1563600.2506761886 1064284.595336142 0 1064284.595336142 2770134.3719219901 0 0 0 0 363107100.88267851 137366776.72521448 0 137366776.72521448 -317189961.32766724 0 0 0 0 -350747072.99976349 -34687470.647697449 0 -34687470.647697449 152512448.17206192 0 0 0 0 -7995347.7569503784 -66778334.533683777 0 -66778334.533683777 85748640.898628235 0 0 0 0 8906429.2269210815 -116375297.42240524 0 -116375297.42240524 54415738.456001282 0 0 0 0 -67770152.800170898 -75904745.6860466 0 -75904745.6860466 34438017.491188049 0 0 0 0 -114860963.91175079 -55583499.59810257 0 -55583499.59810257 51331826.388324738 0 0 0 0 -310642580.33329391 48878193.03785038 0 48878193.03785038 131309822.5305481 0 0 0 0 -160431333.69086075 17663296.788202286 0 17663296.788202286 29994776.588764191 0 0 0 0 -136954786.43286991 -99168308.316877365 0 -99168308.316877365 195199248.49684906 0 0 0 0 -22641808.365608215 -66213355.797229767 0 -66213355.797229767 147974101.06132126 0 0 0 0 171883148.47367859 -110681414.83049011 0 -110681414.83049011 188638927.33800507 0 0 0 0 -27189451.134335518 -69846564.369364738 0 -69846564.369364738 332799525.3706665 0 0 0 0 390607276.84132385 -156457938.05955505 0 -156457938.05955505 335211515.19649506 0 0 0 0 168781869.46238708 -74491852.774993896 0 -74491852.774993896 309498693.72527313 0 0 0 0 192694064.17437744 -96175172.806350708 0 -96175172.806350708 163826532.21615601 0 0 0 0 345421957.71510315 -79560459.391311646 0 -79560459.391311646 159200261.10192108 0 0 0 0 5649214.3111076355 -116601857.34270191 0 -116601857.34270191 192697898.25880432 0 0 0 0 220883984.08410645 144063124.17514038 0 144063124.17514038 574667815.2158494 0 0 0 0 513442258.01444244 140260317.58192444 0 140260317.58192444 314030603.67724609 0 0 0 0 304656626.90943909 112671115.44641113 0 112671115.44641113 313577160.56686139 0 0 0 0 404119174.13389587 101950646.06822205 0 101950646.06822205 492648001.18144226 0 0 0 0 530704806.35335159 34564386.780170441 0 34564386.780170441 276968408.56652832 0 0 0 0 299431587.00340271 -38807273.704330444 0 -38807273.704330444 272845550.00790644 0 0 0 0 301339440.03173065 -8256853.9712219238 0 -8256853.9712219238 66112528.528137207 0 0 0 0 252210188.58395386 -14787528.279144287 0 -14787528.279144287 155530214.70040512 0 0 0 0 419404673.26112366 38679153.508964539 0 38679153.508964539 171191815.68034363 0 0 0 0 250637183.56612015 37278059.310516357 0 37278059.310516357 81199447.046569824 0 0 0 0 282111735.57457733 52336485.022621155 0 52336485.022621155 215641777.74455261 0 0 0 0 284734509.64156342 104720811.17312622 0 104720811.17312622 176090575.65835571 0 0 0 0 187096881.55467606 122620739.52944565 0 122620739.52944565 229262882.07910156 0 0 0 0 278119523.58680654 148831253.50475097 0 148831253.50475097 234276913.40420532 0 0 0 0 175401183.27579021 30366913.226213932 0 30366913.226213932 80689676.738983154 0 0 0 0 204048047.58150482 67179419.683391571 0 67179419.683391571 -7232971.1372833252 0 0 0 0 216715056.40350342 -25821156.576053619 0 -25821156.576053619 -16931204.72505188 0 0 0 0 174574983.50447845 -13513914.715858459 0 -13513914.715858459 66200501.376190186 0 0 0 0 174331759.06999207 11248651.147716522 0 11248651.147716522 -110182137.90985107 0 0 0 0 129798804.16539001 11091363.155509949 0 11091363.155509949 -31078371.876525879 0 0 0 0 128324887.51306152 19880633.769973755 0 19880633.769973755 -34222773.586158752 0 0 0 0 155386996.79672241 81854741.068819046 0 81854741.068819046 -84880299.680007935 0 0 0 0 17112756.642448425 -67661781.610879898 0 -67661781.610879898 52157859.241348267 0 0 0 0 142822320.20920563 -128547615.69893265 0 -128547615.69893265 80679108.92036438 0 0 0 0 204075688.06050873 -80325086.533584595 0 -80325086.533584595 9215826.1146125793 0 0 0 0 160388349.04757595 -48285986.93085289 0 -48285986.93085289 93743166.44619751 0 0 0 0 164788198.77581787 -17982159.875392914 0 -17982159.875392914 -85147859.184585571 0 0 0 0 88346755.481147766 -43913882.629711151 0 -43913882.629711151 -1531935.5937461853 0 0 0 0 108292514.06450653 -85073306.976577759 0 -85073306.976577759 -18778598.790267944 0 0 0 0 12416897.745452881 -38412304.320201874 0 -38412304.320201874 -39169916.178863525 0 0 0 0 60887687.691619873 -46600047.99385643 0 -46600047.99385643 -76732778.708023071 0 0 0 0 80796711.258248329 18342246.381973743 0 18342246.381973743 -138655505.59951782 0 0 0 0 17944100.270942688 37716091.315933228 0 37716091.315933228 -128297775.29484367 0 0 0 0 -8114765.6031799316 2511629.590637207 0 2511629.590637207 -105582201.24529266 0 0 0 0 96148887.595985413 -15290206.263813019 0 -15290206.263813019 -83853478.462594032 0 0 0 0 104484020.965065 64430124.704784393 0 64430124.704784393 -128383952.48097038 0 0 0 0 65585821.03626442 113809229.58860111 0 113809229.58860111 -232858781.24448395 0 0 0 0 113634271.51959991 34545930.627239227 0 34545930.627239227 -190160461.05725098 0 0 0 0 79075291.479763031 135204602.8802681 0 135204602.8802681 -213875410.09668732 0 0 0 0 81487266.215644836 67541562.018157005 0 67541562.018157005 -185067557.51864624 0 0 0 0 -12825798.9152565 192399998.47130775 0 192399998.47130775 -227081251.02516174 0 0 0 0 -299576.61170335114 270061.84620206617 0 270061.84620206617 242493.59820430353 0 0 0 0 -56873472.964286804 86924834.330406189 0 86924834.330406189 -170926127.57594109 0 0 0 0 -12959765.151123047 54264957.793533325 0 54264957.793533325 -159998394.51601028 0 0 0 0 33312659.856216431 8284616.0136451721 0 8284616.0136451721 -130130525.71282959 0 0 0 0 -5453883.7957801819 54382960.877946854 0 54382960.877946854 -200826975.15271759 0 0 0 0 -21602000.187892914 49962818.777462006 0 49962818.777462006 -162095065.49545288 0 0 0 0 -67377687.664546967 49055084.000402451 0 49055084.000402451 -126045375.70827484 0 0 0 0 -72309735.058635712 15205025.612613678 0 15205025.612613678 -16240490.781463623 0 0 0 0 -32018296.043678284 13869315.436897278 0 13869315.436897278 -91037180.029846191 0 0 0 0 -58566028.168094635 -29252202.766220093 0 -29252202.766220093 -48501669.784339905 0 0 0 0 943292.61949920654 -17437512.63885498 0 -17437512.63885498 -92682064.091022491 0 0 0 0 -56458111.827612162 -55646220.804041505 0 -55646220.804041505 -5268215.8933868408 0 0 0 0 19339819.924782753 -75092300.377928734 0 -75092300.377928734 -23175183.211540222 0 0 0 0 -77434037.378697395 -46498959.462866306 0 -46498959.462866306 -2057991.6316452026 0 0 0 0 -104392416.55245209 -47321067.698455811 0 -47321067.698455811 -4178563.2611131668 0 0 0 0 -110420087.06647873 -13617603.251296997 0 -13617603.251296997 -37912444.308479309 0 0 0 0 -114319047.02096939 4173892.4718341827 0 4173892.4718341827 -57470012.900279999 0 0 0 0 -117078920.90616608 115433949.99402046 0 115433949.99402046 -97934183.600038528 0 0 0 0 -121314545.35970688 133051069.14695072 0 133051069.14695072 -271650713.83876038 0 0 0 0 -69742843.052850723 108889260.72025108 0 108889260.72025108 -130297790.57232666 0 0 0 0 -37293267.291999817 59905044.879615784 0 59905044.879615784 -123413020.8186264 0 0 0 0 -65276643.341356277 112069677.44271755 0 112069677.44271755 -180077778.48387146 0 0 0 0 -237355424.28440857 273031055.14022827 0 273031055.14022827 -238765639.73579502 0 0 0 0 3845882.2233886719 5927613.1709289551 0 5927613.1709289551 -3121070.5277252197 0 0 0 0 372875.38915967941 207208.66403726116 0 207208.66403726116 -175019.36819256656 0 0 0 0 -210998450.41821671 167599989.53029251 0 167599989.53029251 -257102890.88617945 0 0 0 0 -5153906.035949707 36868210.369747162 0 36868210.369747162 -206074304.91597557 0 0 0 0 -15369301.703132629 -2171288.0137634277 0 -2171288.0137634277 -144605.79228210449 0 0 0 0 -255111.91942425258 993254.87469619513 0 993254.87469619513 549607.84078717604 0 0 0 0 -286973116.19978333 348359504.81502914 0 348359504.81502914 -254947250.03711987 0 0 0 0 72441.852689201012 -7961.3322862759233 0 -7961.3322862759233 -287425.55928273313 0 0 0 0 -254578444.72560883 244071237.57503128 0 244071237.57503128 -392200090.74918556 0 0 0 0 -90308862.484046936 217987690.52220535 0 217987690.52220535 -405999877.9886322 0 0 0 0 -97212178.014507294 301432475.9036026 0 301432475.9036026 -323569662.57658386 0 0 0 0 -46658018.261611938 238639007.45835495 0 238639007.45835495 -401825654.50857544 0 0 0 0 -218696109.2882309 300705720.43265533 0 300705720.43265533 -388381160.15050507 0 0 0 0 -237959129.38892365 248469403.92658997 0 248469403.92658997 -343404825.17242813 0 0 0 0 -276512146.96992111 320556471.11318922 0 320556471.11318922 -386206062.45716858 0 0 0 0 -255473599.29297638 215996434.21798325 0 215996434.21798325 -323882726.61044312 0 0 0 0 -316835406.42767084 370602922.43649209 0 370602922.43649209 -475140265.63747406 0 0 0 0 -317854388.76383972 272574132.06282425 0 272574132.06282425 -395331381.4226265 0 0 0 0 -374240249.54261684 293270801.13396645 0 293270801.13396645 -475230029.79418182 0 0 0 0 -195748705.24042511 300707753.18897629 0 300707753.18897629 -489060713.5895195 0 0 0 0 -265918647.74085236 368174169.65748978 0 368174169.65748978 -600575019.4489212 0 0 0 0 -186924134.94620895 336210184.94190598 0 336210184.94190598 -469919711.47584915 0 0 0 0 -150494345.50480652 217981756.44543076 0 217981756.44543076 -452155843.71858215 0 0 0 0 -354412921.55181503 567667346.5978775 0 567667346.5978775 -652524130.86679649 0 0 0 0 -361395789.64972687 630617303.97933197 0 630617303.97933197 -598584608.98929024 0 0 0 0 -557054199.70855141 488677556.5509119 0 488677556.5509119 -458991348.06723022 0 0 0 0 -335293825.59653473 390651349.47956562 0 390651349.47956562 -628002903.97156143 0 0 0 0 -430660863.14608765 314564525.97653198 0 314564525.97653198 -502697890.35969543 0 0 0 0 -355045622.99266815 299061605.71273422 0 299061605.71273422 -388930042.7046814 0 0 0 0 -304260786.24477196 457974548.22264194 0 457974548.22264194 -478684101.71315002 0 0 0 0 -232085076.23653793 590222072.78403091 0 590222072.78403091 -556896693.89234161 0 0 0 0 -283796794.0687027 426217267.61087799 0 426217267.61087799 -445197264.36476898 0 0 0 0 -361486828.18875504 609673292.01070595 0 609673292.01070595 -556170217.5811615 0 0 0 0 -289145804.25532532 563671012.17160416 0 563671012.17160416 -553100463.4436264 0 0 0 0 -118471576.97433472 462499583.72711945 0 462499583.72711945 -522925226.77176094 0 0 0 0 -206817361.0545311 370511591.78146172 0 370511591.78146172 -427051360.48857117 0 0 0 0 -186415051.81811523 366602205.54937744 0 366602205.54937744 -434089687.95155716 0 0 0 0 -207714716.20941162 251950647.43580627 0 251950647.43580627 -348619521.81172562 0 0 0 0 -269656050.30022812 359697769.04266357 0 359697769.04266357 -385966042.61225891 0 0 0 0 -205488734.30502319 397879937.96541595 0 397879937.96541595 -464686265.21381378 0 0 0 0 -170124040.61552334 292114957.50647354 0 292114957.50647354 -369868051.59254456 0 0 0 0 -151507498.44741058 316606471.74782944 0 316606471.74782944 -340270515.26564026 0 0 0 0 -107916063.15317535 243559783.90636063 0 243559783.90636063 -382876986.8079834 0 0 0 0 -5334568.6728820801 985676.10990905762 0 985676.10990905762 -4667227.7631587982 0 0 0 0 -7660527.5957107544 74521527.720554352 0 74521527.720554352 -211740047.00498199 0 0 0 0 -110360999.73074341 201670211.97077942 0 201670211.97077942 -337915406.36096191 0 0 0 0 -199937398.61172485 286057888.24014282 0 286057888.24014282 -306769274.7345047 0 0 0 0 -1266631.6134406663 426586.13524487987 0 426586.13524487987 468689.29987951554 0 0 0 0 -28205582.385391235 116549584.63517761 0 116549584.63517761 -202659012.33896637 0 0 0 0 878792.64401875436 455487.01252688468 0 455487.01252688468 -7448.4622726198286 0 0 0 0 -39575449.381523132 82470765.668045044 0 82470765.668045044 -178890552.54320526 0 0 0 0 -63080568.47192955 408699749.14114761 0 408699749.14114761 -538258672.81191254 0 0 0 0 -123497334.96720123 284377253.39507294 0 284377253.39507294 -387201756.98853302 0 0 0 0 -107389386.19516754 280269448.38541412 0 280269448.38541412 -408091548.24567223 0 0 0 0 -99720960.785957336 148483394.76992798 0 148483394.76992798 -251538700.31278992 0 0 0 0 45072752.616002083 312934652.53238678 0 312934652.53238678 -501496792.66379547 0 0 0 0 56194797.456886292 219701921.90369415 0 219701921.90369415 -469253479.42497253 0 0 0 0 -129934229.56374741 480903132.04251862 0 480903132.04251862 -591089392.77735329 0 0 0 0 -3192648.5156402588 304582081.69628906 0 304582081.69628906 -670328337.54052639 0 0 0 0 -216586286.8032608 472137272.88009644 0 472137272.88009644 -727882700.85412598 0 0 0 0 -82616584.126865387 452857153.23403645 0 452857153.23403645 -910884056.50784302 0 0 0 0 -289491452.26126862 802678953.18952751 0 802678953.18952751 -798979531.85072708 0 0 0 0 -61229165.474967957 388030399.64721489 0 388030399.64721489 -571567324.61526108 0 0 0 0 -172773877.23665619 549587304.65603447 0 549587304.65603447 -652762547.9072876 0 0 0 0 -195547702.71379757 662414222.72669268 0 662414222.72669268 -597845855.99098587 0 0 0 0 -226449772.10624313 598810714.14679337 0 598810714.14679337 -582270872.25293732 0 0 0 0 -219436821.10849762 655218330.61750603 0 655218330.61750603 -598353981.10362983 0 0 0 0 -329132247.50076294 580151231.2322588 0 580151231.2322588 -408292150.75098801 0 0 0 0 -226083667.00884247 660317691.62033653 0 660317691.62033653 -594265093.84547043 0 0 0 0 -359399191.39585114 660613833.24657059 0 660613833.24657059 -573993478.82600403 0 0 0 0 -602238972.04985046 306354762.55075073 0 306354762.55075073 -85051138.97550106 0 0 0 0 -345468008.79822922 614677600.01146698 0 614677600.01146698 -473572457.52988052 0 0 0 0 -411375553.89755249 698445180.00588036 0 698445180.00588036 -462459127.86685824 0 0 0 0 -1379736947.6401072 434625860.73806477 0 434625860.73806477 -71101236.441730499 0 0 0 0 -234530639.03174973 -48687213.288034439 0 -48687213.288034439 24444763.746910095 0 0 0 0 54324.715443924069 1522466.7882787986 0 1522466.7882787986 -2906193.6180616058 0 0 0 0 -771190539.26486015 1163013911.5774412 0 1163013911.5774412 -1051258186.8990746 0 0 0 0 -153539157.77557564 414326489.1496191 0 414326489.1496191 -1585413796.542347 0 0 0 0 -700796010.05961609 299440671.13825798 0 299440671.13825798 -681877920.74880791 0 0 0 0 -245174631.6189537 483220006.25886536 0 483220006.25886536 -611290188.78100014 0 0 0 0 -120583675.06149292 317561727.24052811 0 317561727.24052811 -343568985.12099075 0 0 0 0 -88605109.830316544 241307449.3230114 0 241307449.3230114 -454786589.78020859 0 0 0 0 -118238161.39459991 266106754.59350586 0 266106754.59350586 -384995194.98381805 0 0 0 0 -210856289.95098305 197215860.60771179 0 197215860.60771179 -98486951.882453918 0 0 0 0 -124311904.46283722 121876031.51325989 0 121876031.51325989 -242230534.2612114 0 0 0 0 -370731869.75461769 136524996.73906326 0 136524996.73906326 -451026484.27870178 0 0 0 0 -119971482.65390968 259796988.75386715 0 259796988.75386715 -432893927.09718323 0 0 0 0 -68832319.423789978 276709671.80983734 0 276709671.80983734 -858772723.38629532 0 0 0 0 12573731.136062622 179949592.21895218 0 179949592.21895218 -495870624.73103142 0 0 0 0 -20647329.515510559 122493309.05201912 0 122493309.05201912 -250738411.22657776 0 0 0 0 -40428457.180648804 288696302.19629478 0 288696302.19629478 -328013678.68110275 0 0 0 0 88580187.654594421 119163660.24908066 0 119163660.24908066 -372184106.81215382 0 0 0 0 99298466.651412964 106992683.265625 0 106992683.265625 -279015676.91960526 0 0 0 0 24932621.339729309 41920963.548685074 0 41920963.548685074 -179167398.84292603 0 0 0 0 -30635813.8295784 115019173.16628456 0 115019173.16628456 -86534763.437988281 0 0 0 0 69527515.544837952 106429465.32072258 0 106429465.32072258 -163636944.79386902 0 0 0 0 99681837.925468445 33038438.411636353 0 33038438.411636353 -125308627.735569 0 0 0 0 85428237.552780151 112166818.02220154 0 112166818.02220154 -104598550.92282104 0 0 0 0 -164682369.42736435 118641216.04600334 0 118641216.04600334 -232993624.43045807 0 0 0 0 15675214.06728363 140336130.36307526 0 140336130.36307526 -234056347.49763107 0 0 0 0 -75201906.217650414 193754684.63484347 0 193754684.63484347 -151616510.22459412 0 0 0 0 -81955506.298202515 80699375.212337494 0 80699375.212337494 -45399164.584976196 0 0 0 0 -13971282.624072075 72496182.159937739 0 72496182.159937739 31784734.637649536 0 0 0 0 -10192860.486755371 159109966.3353796 0 159109966.3353796 34918450.931724548 0 0 0 0 -31125573.796287537 61263838.533721924 0 61263838.533721924 89703860.510005951 0 0 0 0 111354097.43566895 46671667.549667358 0 46671667.549667358 3254708.475112915 0 0 0 0 109965163.79360199 118440234.99637604 0 118440234.99637604 1999834.2135467529 0 0 0 0 63649907.281723022 133256897.34931183 0 133256897.34931183 -85524911.447422028 0 0 0 0 52199828.948402405 63534615.51309967 0 63534615.51309967 -46464821.346984863 0 0 0 0 53698550.906478882 151671012.75686646 0 151671012.75686646 111804882.19639587 0 0 0 0 77085843.670936584 60381159.921432495 0 60381159.921432495 70589572.856872559 0 0 0 0 183024056.59846497 107075502.28405952 0 107075502.28405952 50041498.774703979 0 0 0 0 155602038.01514435 62295663.358421326 0 62295663.358421326 120760269.06813812 0 0 0 0 136563814.86065292 133510504.13127136 0 133510504.13127136 148906693.69610596 0 0 0 0 59321100.597389221 77515912.391304016 0 77515912.391304016 263909928.86988831 0 0 0 0 55323617.340552807 143778433.25043273 0 143778433.25043273 289761285.02192688 0 0 0 0 33332173.423152924 37315831.961639404 0 37315831.961639404 290231193.90870667 0 0 0 0 30008185.617832184 76888233.44575882 0 76888233.44575882 467092330.57569885 0 0 0 0 135136369.44509888 120164215.25241852 0 120164215.25241852 283437908.64834213 0 0 0 0 136589744.11173248 94323389.796855927 0 94323389.796855927 423901555.59413147 0 0 0 0 132060635.37424469 133883401.49182129 0 133883401.49182129 432414292.49771118 0 0 0 0 -73244109.229631424 141491845.60138798 0 141491845.60138798 156515668.27567291 0 0 0 0 -17214548.012928963 80464007.858659267 0 80464007.858659267 160032189.42292023 0 0 0 0 5562660.286781311 132232643.26895523 0 132232643.26895523 182166729.7425766 0 0 0 0 15915570.095664978 58518296.272968292 0 58518296.272968292 169121848.68354034 0 0 0 0 -20292718.627380371 87833608.445005417 0 87833608.445005417 377091997.1497879 0 0 0 0 -29865594.41317749 21701571.346168518 0 21701571.346168518 281667297.562603 0 0 0 0 -27391518.248060226 127255843.04394245 0 127255843.04394245 132277565.00417328 0 0 0 0 -68660672.725364685 44438580.347240448 0 44438580.347240448 304478514.5740242 0 0 0 0 -101171555.80812836 109566887.21849442 0 109566887.21849442 128081817.24674606 0 0 0 0 -99327440.125713348 208481413.71560287 0 208481413.71560287 21255737.000259399 0 0 0 0 -39907645.397315979 193818277.86897659 0 193818277.86897659 -111504066.03926849 0 0 0 0 -111112811.67043304 203395877.97988224 0 203395877.97988224 -104573366.92346191 0 0 0 0 -79841608.619827271 95248908.69916153 0 95248908.69916153 71167042.748168945 0 0 0 0 -72454623.962081909 196966347.92863274 0 196966347.92863274 -116978455.02809143 0 0 0 0 97064614.058929443 45814539.61847496 0 45814539.61847496 -346389172.33100891 0 0 0 0 14507088.960090637 121811533.09314919 0 121811533.09314919 -58249450.057163239 0 0 0 0 33809849.242355347 230280618.98701096 0 230280618.98701096 -353315099.52597618 0 0 0 0 19985551.749610901 134448928.0756855 0 134448928.0756855 -157228691.81206512 0 0 0 0 -33388915.660648346 288353664.10029411 0 288353664.10029411 -376891964.83305359 0 0 0 0 8034161.1038513184 69289360.1205616 0 69289360.1205616 91747940.536296844 0 0 0 0 -58627886.563514709 169128201.56080723 0 169128201.56080723 149044157.14390564 0 0 0 0 62157492.090110779 133264049.0059967 0 133264049.0059967 -60624904.391735077 0 0 0 0 19638351.177497864 89828875.655727386 0 89828875.655727386 115367034.3699131 0 0 0 0 140414037.17541695 172567685.376688 0 172567685.376688 -21091026.379356384 0 0 0 0 1802847.4700024538 9286600.4029430076 0 9286600.4029430076 -13024952.151211921 0 0 0 0 25915213.225654602 6338706.1612691879 0 6338706.1612691879 -11167517.880950451 0 0 0 0 35272896.261627197 4418838.5560150146 0 4418838.5560150146 -23793052.361289978 0 0 0 0 94779115.07361567 113878901.27453625 0 113878901.27453625 -394338652.32239532 0 0 0 0 33782180.272186279 -46132929.113334656 0 -46132929.113334656 44531592.519123077 0 0 0 0 366975416.27784729 -36306017.624774933 0 -36306017.624774933 -1329769365.7896347 0 0 0 0 48502455.477905273 -417983836.81167412 0 -417983836.81167412 -595909524.9365139 0 0 0 0 -55544426.584825516 -170345768.1244297 0 -170345768.1244297 142916747.48514938 0 0 0 0 1951146.1920536458 3777880.5514781047 0 3777880.5514781047 -11245998.212051624 0 0 0 0 238601573.13953018 45328677.457925797 0 45328677.457925797 -251617951.45425415 0 0 0 0 -102175877.19501495 -534879518.84093666 0 -534879518.84093666 -2165384386.2921906 0 0 0 0 -615977.31604737788 148823.08169231005 0 148823.08169231005 -1435748.3864078755 0 0 0 0 200721873.1399765 -177615013.12573242 0 -177615013.12573242 -1591735140.8655548 0 0 0 0 269858780.15740204 -101775988.73509407 0 -101775988.73509407 -2818121861.8493843 0 0 0 0 523222428.40383148 140851876.55093575 0 140851876.55093575 -1295764596.1876945 0 0 0 0 494453299.16706085 302692759.97348404 0 302692759.97348404 -1191016356.0126476 0 0 0 0 500434175.09972382 190994476.70353889 0 190994476.70353889 -1403542825.6981201 0 0 0 0 207067516.17533875 198566771.11782837 0 198566771.11782837 -394777823.62587357 0 0 0 0 201289359.68864059 160870303.63962364 0 160870303.63962364 -636035407.84365845 0 0 0 0 369139572.47186172 27213686.379419804 0 27213686.379419804 -866449417.98232269 0 0 0 0 -149860660.92140961 321694447.46798897 0 321694447.46798897 -352698303.36579132 0 0 0 0 61195773.591438293 449592481.8261385 0 449592481.8261385 -819429699.34033203 0 0 0 0 478502711.88474274 477761835.14037132 0 477761835.14037132 -854402761.733181 0 0 0 0 865259840.57445145 881381968.13139153 0 881381968.13139153 -1384346489.8395977 0 0 0 0 -164993747.26318359 902485849.54442215 0 902485849.54442215 -1133983372.1205559 0 0 0 0 653965257.61116409 339450784.25799036 0 339450784.25799036 -1007408901.1818237 0 0 0 0 735360622.44468307 442190504.93174362 0 442190504.93174362 -1433335052.7954941 0 0 0 0 880054656.25175476 715678342.35541916 0 715678342.35541916 -789900361.54058838 0 0 0 0 1093513089.4514275 331036957.20179272 0 331036957.20179272 -1046893398.0121927 0 0 0 0 626498222.83781052 360960415.11331749 0 360960415.11331749 224782487.6450634 0 0 0 0 660664884.40272713 1012811431.9577632 0 1012811431.9577632 1229416960.5392246 0 0 0 0 569435501.07299805 709541469.00726032 0 709541469.00726032 310511267.39809108 0 0 0 0 -691039.72076614387 4999599.4274394736 0 4999599.4274394736 -5459048.8324647658 0 0 0 0 45356260.898519516 65266517.699847221 0 65266517.699847221 -107326210.48688507 0 0 0 0 520813172.83360672 -81279816.579353333 0 -81279816.579353333 716641473.96343803 0 0 0 0 1400342389.162056 446835641.81006527 0 446835641.81006527 -280083727.94642639 0 0 0 0 453118090.52477264 629596983.60892105 0 629596983.60892105 -312539523.68561935 0 0 0 0 335182156.72480965 -2658089.1932237148 0 -2658089.1932237148 -399643002.99171066 0 0 0 0 88598258.897888184 436873679.66541576 0 436873679.66541576 104049052.99071121 0 0 0 0 811283641.07996368 315767597.50161934 0 315767597.50161934 -1025380164.7448559 0 0 0 0 490641147.15991974 262580031.72878647 0 262580031.72878647 -1003279361.1516204 0 0 0 0 255319856.02828407 115139554.56652212 0 115139554.56652212 -1772495929.9582214 0 0 0 0 405975422.72413635 561282887.45992279 0 561282887.45992279 -1662654694.6293602 0 0 0 0 -213136464.88899994 141695592.19970512 0 141695592.19970512 -1745672526.6000214 0 0 0 0 -1154942235.656311 56955040.500640869 0 56955040.500640869 -1614783591.3263001 0 0 0 0 -121607611.88043976 -7702763.5420036316 0 -7702763.5420036316 -1616907951.4429481 0 0 0 0 -449898162.03755569 -203172139.21718502 0 -203172139.21718502 -1064909516.9022865 0 0 0 0 39972460.423316956 148464815.55993843 0 148464815.55993843 -1700373386.2288322 0 0 0 0 -279862128.787323 -316691091.17051315 0 -316691091.17051315 -2170223986.6401596 0 0 0 0 -91261964.232097626 13982374.198736668 0 13982374.198736668 -997640626.89214706 0 0 0 0 -510732837.09264374 287090307.64591408 0 287090307.64591408 -958036159.28143311 0 0 0 0 180485159.04748535 324415634.55058861 0 324415634.55058861 -958730172.23138034 0 0 0 0 66018824.135223389 116803689.45317459 0 116803689.45317459 -182420508.43924809 0 0 0 0 -361517933.41747284 180899063.81856346 0 180899063.81856346 -181990420.37424469 0 0 0 0 -250133610.15567207 182118224.08959126 0 182118224.08959126 263890126.87220001 0 0 0 0 -200911548.82730389 347377505.11798 0 347377505.11798 425540726.64044189 0 0 0 0 -191608753.62963486 157476428.59464836 0 157476428.59464836 -31029008.209617615 0 0 0 0 -101530658.22780609 254734328.39293766 0 254734328.39293766 -344064816.81082177 0 0 0 0 -238650360.16706085 73920420.19981575 0 73920420.19981575 -371520112.73404002 0 0 0 0 -136755.83742141724 318767889.20414162 0 318767889.20414162 -507544302.35704422 0 0 0 0 110497953.99866486 -37911620.939443588 0 -37911620.939443588 -1631337179.8052387 0 0 0 0 73792.264137268066 278221814.51940346 0 278221814.51940346 -1255541382.2055397 0 0 0 0 -87049597.951190948 -102069448.59663486 0 -102069448.59663486 -858089800.81392574 0 0 0 0 90844115.707237244 323827216.91937733 0 323827216.91937733 -1696324545.5262508 0 0 0 0 132147.32777574344 346290067.84191871 0 346290067.84191871 -1673016488.8289986 0 0 0 0 -11896.338389020413 251151.42671464849 0 251151.42671464849 -3236538.0789868343 0 0 0 0 -30216490.138832092 -7746327.2724924088 0 -7746327.2724924088 132524866.51558018 0 0 0 0 102262889.62672901 319247393.21370602 0 319247393.21370602 -2395661505.0442657 0 0 0 0 -621423943.72611237 877270759.64292145 0 877270759.64292145 -1234848076.3589058 0 0 0 0 -385961277.41280365 728187252.61184311 0 728187252.61184311 -3423887627.7554779 0 0 0 0 -322463.20083749853 954622.937089663 0 954622.937089663 -1381188.3349218927 0 0 0 0 -297158494.74485779 -1012736188.6302948 0 -1012736188.6302948 -3295363383.6952 0 0 0 0 -181730.74539500847 1346158.9078194499 0 1346158.9078194499 -4085816.0295467265 0 0 0 0 -6893688.9052047729 12752504.340600014 0 12752504.340600014 44331494.741689682 0 0 0 0 -2192297.0930786133 48022852.712400436 0 48022852.712400436 -10584977.210680008 0 0 0 0 -31584012.897521973 26061958.67382431 0 26061958.67382431 -13357758.909734011 0 0 0 0 -8132111.2257499695 -3240884.1812319756 0 -3240884.1812319756 7325274.6092586517 0 0 0 0 19155972.783676147 31457562.395833969 0 31457562.395833969 -19375820.219661713 0 0 0 0 14570238.663970947 37931280.561120987 0 37931280.561120987 -64263291.352974892 0 0 0 0 138624.71107377857 -589468.17970184889 0 -589468.17970184889 -250393.5136036803 0 0 0 0 1648141.171131134 -8388030.6566381454 0 -8388030.6566381454 4665035.0192699432 0 0 0 0 3255543.438117981 -2792786.4431476593 0 -2792786.4431476593 -7068059.6743059158 0 0 0 0 174971.92623616755 -1253786.4891123027 0 -1253786.4891123027 -627078.46506870468 0 0 0 0 -472646.72496032715 -1546779.2795801163 0 -1546779.2795801163 -2014044.3566741943 0 0 0 0 37980618.589828491 28860015.14577198 0 28860015.14577198 -125316713.58860254 0 0 0 0 -279481.47596300021 68318.251383161172 0 68318.251383161172 1375877.9116382562 0 0 0 0 -245991.18411994353 -629217.42815306853 0 -629217.42815306853 773062.65554207354 0 0 0 0 3906634.6564025879 733556.72158622742 0 733556.72158622742 -4737072.0092601776 0 0 0 0 310529.73205753788 -1005711.6536512338 0 -1005711.6536512338 -366636.25676501892 0 0 0 0 1346.5070495605469 2050981.9266319275 0 2050981.9266319275 119293.24989318848 0 0 0 0 -641353.53167724609 71129285.541404724 0 71129285.541404724 37591785.722984314 0 0 0 0 -9220959.4854431152 -8017030.7875366211 0 -8017030.7875366211 -253582888.21584511 0 0 0 0 -805472.3064488098 -588939.49068654468 0 -588939.49068654468 1170056.6436793846 0 0 0 0 135476.44225510483 95557752.790129647 0 95557752.790129647 -72615514.554473877 0 0 0 0 -35710381.469432831 107365859.36512375 0 107365859.36512375 -1459441.7976341248 0 0 0 0 -13711499.659921169 24918225.815942407 0 24918225.815942407 -45450936.937561035 0 0 0 0 17878704.468070984 23265073.853841305 0 23265073.853841305 -37071429.968719482 0 0 0 0 -17425858.594261169 -2169828.9869837761 0 -2169828.9869837761 -45800109.300319672 0 0 0 0 -220002650.34883881 649344982.30578232 0 649344982.30578232 -213230629.63160324 0 0 0 0 -177879219.10106659 586132026.03591537 0 586132026.03591537 -121879801.47728395 0 0 0 0 -69800270.281547546 682401092.69570923 0 682401092.69570923 -125513292.33388901 0 0 0 0 101520.34283447266 652878731.36345291 0 652878731.36345291 -138529943.64056015 0 0 0 0 -113677887.94629669 586580752.9018116 0 586580752.9018116 -142352751.74590492 0 0 0 0 -193375656.04452133 671357265.48081398 0 671357265.48081398 -30798970.104881287 0 0 0 0 -412964294.88613129 465649364.62358856 0 465649364.62358856 -175762329.78336096 0 0 0 0 -507850633.66091156 559525893.42527771 0 559525893.42527771 -168120687.31882477 0 0 0 0 -857074507.2244873 349557772.39509201 0 349557772.39509201 -188520307.1651783 0 0 0 0 -855409207.07442856 328403889.60744476 0 328403889.60744476 14305565.59910965 0 0 0 0 690624.68310418352 349955.00190751255 0 349955.00190751255 -787646.26786831766 0 0 0 0 -936147445.75665665 136986415.55919361 0 136986415.55919361 -9093989.9605941772 0 0 0 0 -398622784.29756165 500957195.12044144 0 500957195.12044144 -392140860.19804382 0 0 0 0 -696076101.1270752 624796330.50658798 0 624796330.50658798 -209115860.87928772 0 0 0 0 -430968466.90631104 507016242.17181587 0 507016242.17181587 -197456575.94356537 0 0 0 0 -269229337.89909363 682507388.73623657 0 682507388.73623657 -183912266.41892409 0 0 0 0 -303244278.02532578 627259449.33471298 0 627259449.33471298 166173094.88372803 0 0 0 0 -149313870.44792175 557789403.81310081 0 557789403.81310081 -54754696.359603882 0 0 0 0 -349701640.44232559 189801713.72792244 0 189801713.72792244 -80647783.171089172 0 0 0 0 -841508.06873613968 686614.37188539654 0 686614.37188539654 -73241.937356745824 0 0 0 0 -99284845.396057129 34722232.859710693 0 34722232.859710693 2778282.9761810303 0 0 0 0 -434254229.74235916 434453771.80561161 0 434453771.80561161 -107240599.29096222 0 0 0 0 -138588972.4280014 591123112.92142105 0 591123112.92142105 -70795548.002674103 0 0 0 0 418321250.30078506 265157191.32217312 0 265157191.32217312 156560215.19632339 0 0 0 0 -40288867.616121292 558641200.9550066 0 558641200.9550066 430179452.00721359 0 0 0 0 -11823362.441963196 565086042.46833229 0 565086042.46833229 172068223.40319324 0 0 0 0 -144080821.9822216 624161943.90395093 0 624161943.90395093 233465324.18292999 0 0 0 0 -111323477.37497711 719916940.55854416 0 719916940.55854416 -118545004.4287408 0 0 0 0 -109695255.86501694 666926250.9617157 0 666926250.9617157 34238479.331989288 0 0 0 0 -29009472.073150635 627685762.1264801 0 627685762.1264801 48390578.620907784 0 0 0 0 -176950.71393302749 562196967.28145778 0 562196967.28145778 169259141.9417305 0 0 0 0 -76963452.573448181 582293918.53413963 0 582293918.53413963 201047106.11092949 0 0 0 0 -92318725.257522583 530807520.74234962 0 530807520.74234962 352708943.94491577 0 0 0 0 -74311043.037139893 492453202.87337303 0 492453202.87337303 299916453.26043892 0 0 0 0 -59697.661262512207 509838712.01810074 0 509838712.01810074 269296212.42527771 0 0 0 0 -97782599.182891846 401666230.47943878 0 401666230.47943878 283591329.15142119 0 0 0 0 -56762676.262145996 486260732.55280113 0 486260732.55280113 286371185.89007378 0 0 0 0 -121720020.6774826 334112314.04346228 0 334112314.04346228 164265523.13314819 0 0 0 0 -9505467.1279373169 381403430.65732193 0 381403430.65732193 31803609.046772003 0 0 0 0 -218790.49348449707 428546643.81332207 0 428546643.81332207 128758706.74568558 0 0 0 0 53820700.273490906 556771060.86626434 0 556771060.86626434 340726197.04381275 0 0 0 0 105876503.30076218 476292677.07404232 0 476292677.07404232 455411368.06437683 0 0 0 0 -13007984.183654785 391931197.70281029 0 391931197.70281029 190815758.33251572 0 0 0 0 -147519842.29067516 460768083.25412416 0 460768083.25412416 381700559.77017975 0 0 0 0 132583798.27825928 517102216.40356064 0 517102216.40356064 311830877.18735218 0 0 0 0 132891585.11908102 517106843.16906643 0 517106843.16906643 241990908.88541412 0 0 0 0 460186446.22086334 461518485.45441723 0 461518485.45441723 251341123.73442841 0 0 0 0 -73960655.58198452 499084677.73336458 0 499084677.73336458 368236558.00014496 0 0 0 0 -131522691.87293291 527300499.74515533 0 527300499.74515533 365650960.72319031 0 0 0 0 35325920.305015564 518966517.32070351 0 518966517.32070351 307285564.03802299 0 0 0 0 83366690.001993179 342151644.43367648 0 342151644.43367648 504260599.8775177 0 0 0 0 448985235.25039673 477786037.31990433 0 477786037.31990433 267588433.88811731 0 0 0 0 35085580.767959595 12432793.75553894 0 12432793.75553894 -18527334.69225502 0 0 0 0 25169275.826293945 16432807.107536316 0 16432807.107536316 32039624.959533691 0 0 0 0 25310760.896011353 42584934.726474762 0 42584934.726474762 -24307402.732093811 0 0 0 0 6525584.7911987305 -22900227.880462646 0 -22900227.880462646 19001964.938949585 0 0 0 0 -3061263.5805518832 7044539.271285316 0 7044539.271285316 -3822505.0743164793 0 0 0 0 -31360814.752853394 -19322356.559391022 0 -19322356.559391022 46588368.400115967 0 0 0 0 281928387.06936455 274738092.36443615 0 274738092.36443615 64092680.107030869 0 0 0 0 1137284103.4957275 758043960.08954239 0 758043960.08954239 182311986.7604599 0 0 0 0 497405178.11565781 780872464.02484322 0 780872464.02484322 404106037.76304626 0 0 0 0 635943259.99659348 452583433.24895215 0 452583433.24895215 226950.57314872742 0 0 0 0 376732776.10488892 889409646.39180374 0 889409646.39180374 1032922294.5946445 0 0 0 0 635394710.39914703 -160213545.85896301 0 -160213545.85896301 35321119.144798279 0 0 0 0 -477969.28640848398 5409609.8342211396 0 5409609.8342211396 -1748420.5858991826 0 0 0 0 4748524.9136734009 9312302.9719905853 0 9312302.9719905853 -33680772.476020813 0 0 0 0 -38986811.390193939 -64268627.696937561 0 -64268627.696937561 35736422.535324097 0 0 0 0 1252369.9001621343 3648339.1278650956 0 3648339.1278650956 -891924.15014783898 0 0 0 0 17369458.341880798 9508110.4834518433 0 9508110.4834518433 -32233244.560646057 0 0 0 0 -2304027.7805324681 7781811.9015155286 0 7781811.9015155286 -6009142.6760629732 0 0 0 0 -15893520.684223175 -11486712.541412354 0 -11486712.541412354 -12000430.027706146 0 0 0 0 15189600.680984497 11842393.159282684 0 11842393.159282684 -6091959.4685134888 0 0 0 0 -3646591.5437812805 14510696.922489166 0 14510696.922489166 24260015.515598297 0 0 0 0 -4820290.844291687 38885609.532617569 0 38885609.532617569 55516603.269277573 0 0 0 0 30121073.0246315 14496323.735296249 0 14496323.735296249 22552784.647506714 0 0 0 0 -3721328.9889297485 52428422.020713806 0 52428422.020713806 5942220.0661201477 0 0 0 0 16039036.374755859 29581962.807563782 0 29581962.807563782 26633277.090591431 0 0 0 0 -32837152.911254883 28155103.807682037 0 28155103.807682037 41286405.540603638 0 0 0 0 13730663.86479187 2179473.356918335 0 2179473.356918335 55770389.714103699 0 0 0 0 23199209.633888245 41056653.962881088 0 41056653.962881088 115975800.86026001 0 0 0 0 11867214.860637665 28981118.84188652 0 28981118.84188652 132456597.60125732 0 0 0 0 -4002.0833951570094 60838.317911028862 0 60838.317911028862 -5890.1424711758737 0 0 0 0 147820.99175364524 192025.47990032658 0 192025.47990032658 -134750.28201492503 0 0 0 0 17787265.905822754 -12938062.275634766 0 -12938062.275634766 -16337425.017776489 0 0 0 0 20025959.696289062 50813761.856567383 0 50813761.856567383 107669108.16601562 0 0 0 0 1054932.2431357205 674407.03770998679 0 674407.03770998679 -386689.44034130243 0 0 0 0 527648.56255340576 7713797.4314250946 0 7713797.4314250946 -47508.850952148438 0 0 0 0 1928578.8154754639 3925391.4012184143 0 3925391.4012184143 890208.43910312653 0 0 0 0 1230154.3513302803 583742.02117577195 0 583742.02117577195 -903280.71765278652 0 0 0 0 1466405.3784397561 437108.70551612321 0 437108.70551612321 -1072841.8459145185 0 0 0 0 13627597.513097763 6445284.5598163605 0 6445284.5598163605 -353576.92163848877 0 0 0 0 16927706.883880615 162612.45307159424 0 162612.45307159424 -11904172.248031616 0 0 0 0 39904896.295860291 4348845.2865333557 0 4348845.2865333557 -5212448.4499359131 0 0 0 0 21408230.651046753 -7669792.8347854614 0 -7669792.8347854614 9650413.9882965088 0 0 0 0 -673484.08453790471 730589.48003609106 0 730589.48003609106 -117517.9533247333 0 0 0 0 199580.85241699219 797103.91426086426 0 797103.91426086426 941320.92639160156 0 0 0 0 2369735.8583031967 5800139.0382174514 0 5800139.0382174514 -2620848.2920805952 0 0 0 0 9218277.9588108063 20876692.655283868 0 20876692.655283868 -1142003.7658081055 0 0 0 0 18579.687484741211 5506065.4505500793 0 5506065.4505500793 5563200.6556930542 0 0 0 0 -1929724.7180577777 515139.22517325729 0 515139.22517325729 394142.59863280505 0 0 0 0 982872.48858642578 1894006.1372070312 0 1894006.1372070312 2476411.3159179688 0 0 0 0 -26464.798290513456 286185.8833227409 0 286185.8833227409 188216.10351322964 0 0 0 0 1337052.3615625985 2490388.3994693365 0 2490388.3994693365 -1347682.1412456369 0 0 0 0 10071107.038094401 -16158577.258985639 0 -16158577.258985639 19825871.875762939 0 0 0 0 -5218061.2551707849 6122596.7950664638 0 6122596.7950664638 -395832.65258988924 0 0 0 0 -11825829.629798889 4146858.6588020325 0 4146858.6588020325 -6140930.0254402161 0 0 0 0 3534483.6866969131 4130921.3508077636 0 4130921.3508077636 -2804018.4250935093 0 0 0 0 -23504640.772352219 10647381.998960495 0 10647381.998960495 2023793.0914001465 0 0 0 0 16481421.910049438 -3697051.98341465 0 -3697051.98341465 -8206847.0105323792 0 0 0 0 5523297.2950363159 6914021.7686538696 0 6914021.7686538696 -5622590.9941911697 0 0 0 0 2305336.2479629517 18159471.396930695 0 18159471.396930695 -13571947.12041235 0 0 0 0 -12620546.072265625 25955313.541637421 0 25955313.541637421 -14995287.678375244 0 0 0 0 41183007.251831055 22960065.158108711 0 22960065.158108711 -61435461.147407532 0 0 0 0 24350865.926620483 -15010147.60635376 0 -15010147.60635376 4129096.6458892822 0 0 0 0 1552666.5577193312 782675.55431447178 0 782675.55431447178 -1400009.753372157 0 0 0 0 -41864490.308242798 77224560.98286438 0 77224560.98286438 -11863096.937297821 0 0 0 0 422973.85402184352 126942.86268553231 0 126942.86268553231 -288679.11431073584 0 0 0 0 -6754863.4211158752 15265272.136362076 0 15265272.136362076 14509174.578395844 0 0 0 0 78996824.003013611 -85755173.143545151 0 -85755173.143545151 43047049.81111145 0 0 0 0 18795966.424980164 9213056.6407165527 0 9213056.6407165527 -42833327.715080261 0 0 0 0 15120803.474380493 56548256.656341553 0 56548256.656341553 20871522.460319519 0 0 0 0 -6251913.4910850525 22277928.925897598 0 22277928.925897598 1824120.3252258301 0 0 0 0 343765.16076193005 166328.41328251828 0 166328.41328251828 -240960.43091251701 0 0 0 0 17712899.190551758 63535023.494197845 0 63535023.494197845 -8781963.9978218079 0 0 0 0 1276187.4578094482 17753388.300037384 0 17753388.300037384 -16525917.15045929 0 0 0 0 15145124.269561768 15408630.429534912 0 15408630.429534912 1249163.1408081055 0 0 0 0 -2205676.3727244474 7040464.0629272163 0 7040464.0629272163 -2459950.4468260445 0 0 0 0 -11381583.010410309 -3296378.2500782013 0 -3296378.2500782013 145897378.66852093 0 0 0 0 -5730302.8021583557 18366698.701231003 0 18366698.701231003 -4086241.44090271 0 0 0 0 -881188.40313756187 2002668.5166983642 0 2002668.5166983642 454829.9498816058 0 0 0 0 -1091885.2130737305 1817865.8527374268 0 1817865.8527374268 250715.87266540527 0 0 0 0 -4053243.304914128 2877184.8825513888 0 2877184.8825513888 398457.61831404641 0 0 0 0 -10700409.044960022 -3435735.9230823517 0 -3435735.9230823517 1163113.3115386963 0 0 0 0 2498634.6485496033 4144670.5139631387 0 4144670.5139631387 -4208988.4285619631 0 0 0 0 -72602.905473882332 3413907.2859761827 0 3413907.2859761827 -1213520.4951444529 0 0 0 0 -3277834.2352828979 8215833.0069007874 0 8215833.0069007874 -3465782.5713386536 0 0 0 0 -5578581.6535797119 16824547.349788666 0 16824547.349788666 -2513192.8076629639 0 0 0 0 3576008.1567969099 7645404.1431662906 0 7645404.1431662906 372061.45270987228 0 0 0 0 -9653097.3572387695 11809747.740989685 0 11809747.740989685 -8130465.2269439697 0 0 0 0 16490354.032119751 19679811.642204285 0 19679811.642204285 1345901.1023406982 0 0 0 0 -5708613.9817886353 -712894.93274116516 0 -712894.93274116516 -16466160.877075195 0 0 0 0 -27015295.904006958 11274379.32529068 0 11274379.32529068 1487326.6378296018 0 0 0 0 -253937607.10378647 324059106.29592705 0 324059106.29592705 -396874140.63522339 0 0 0 0 40136237.16179657 25053926.414558411 0 25053926.414558411 -11053808.957687378 0 0 0 0 1133038.5267926147 2046593.1529443376 0 2046593.1529443376 -5488547.7402395755 0 0 0 0 22874944.788368225 46707225.362108231 0 46707225.362108231 4509742.3422698975 0 0 0 0 -52301493.080039978 15652745.304988861 0 15652745.304988861 27627572.450372696 0 0 0 0 -74946548.811737061 -56198020.449184418 0 -56198020.449184418 -30242336.014813423 0 0 0 0 51188468.441579819 -13180001.322392464 0 -13180001.322392464 -197216407.09957886 0 0 0 0 4124779.0828552246 12637548.199748993 0 12637548.199748993 1620795.7009429932 0 0 0 0 37165454.06521225 24898106.209413528 0 24898106.209413528 -215175421.57707977 0 0 0 0 306216.14241790771 41073297.018604279 0 41073297.018604279 -73877946.455486059 0 0 0 0 47249868.867225647 -5046794.5340461731 0 -5046794.5340461731 -130581402.40736544 0 0 0 0 4750272.5642702058 6755268.1431219205 0 6755268.1431219205 -843975.93314427009 0 0 0 0 -11022.169618777931 1506021.295637561 0 1506021.295637561 567220.63624122902 0 0 0 0 9166532.2469100952 6490331.6325063705 0 6490331.6325063705 -8243869.6654529572 0 0 0 0 1658085.275015831 4299856.6714625359 0 4299856.6714625359 -7277238.4128417969 0 0 0 0 12613655.576999664 10036972.831087112 0 10036972.831087112 -10830576.974590302 0 0 0 0 3440865.7329195812 5708710.7270147912 0 5708710.7270147912 923196.03813095391 0 0 0 0 6555394.6969909668 13551910.633300781 0 13551910.633300781 -11192710.920288086 0 0 0 0 4932434.9379253387 31959226.965093613 0 31959226.965093613 -53079545.979351044 0 0 0 0 7133621.781835556 50472729.632944107 0 50472729.632944107 5484520.8042907715 0 0 0 0 -12763805.303188324 28895997.483493805 0 28895997.483493805 1687359.0745544434 0 0 0 0 7062752.0360409832 4210491.0797170009 0 4210491.0797170009 -4823871.2688330933 0 0 0 0 11266426.995509282 4205782.5197573863 0 4205782.5197573863 -2844870.4715746115 0 0 0 0 114474616.03272247 66707257.584589005 0 66707257.584589005 30835155.021232247 0 0 0 0 7443888.4086687285 2335457.7393408623 0 2335457.7393408623 -1230824.2277777223 0 0 0 0 33460248.109481812 15637101.875125885 0 15637101.875125885 -128862556.755808 0 0 0 0 151243204.23317719 338704358.49756241 0 338704358.49756241 319225458.83438146 0 0 0 0 342472947.91981888 854207445.63780212 0 854207445.63780212 1617760869.2651949 0 0 0 0 2687319.3487499896 905658.19692440517 0 905658.19692440517 -261685.73528590251 0 0 0 0 35333933.625520706 -101957261.57119107 0 -101957261.57119107 124060279.64498901 0 0 0 0 53305695.632614136 85281542.884531021 0 85281542.884531021 -7189480.8745384216 0 0 0 0 1960339.0344696045 -4402325.229259491 0 -4402325.229259491 63858631.744857788 0 0 0 0 169822312.88893127 18721315.735179901 0 18721315.735179901 20865827.980579376 0 0 0 0 565205790.91701508 -48172302.229507446 0 -48172302.229507446 -39045326.591539383 0 0 0 0 170956294.00295877 18512159.479184628 0 18512159.479184628 -32878873.205337524 0 0 0 0 19084653.975364685 -18775023.640857697 0 -18775023.640857697 14381752.12311554 0 0 0 0 13152484.907276154 23964395.267971039 0 23964395.267971039 49330310.525283813 0 0 0 0 23630014.392303467 5473105.8827142715 0 5473105.8827142715 1407669.7516098022 0 0 0 0 1017822.9054317474 -10904337.140611649 0 -10904337.140611649 15255325.778915405 0 0 0 0 -13042553.413711548 428795.03690338135 0 428795.03690338135 6189487.449836731 0 0 0 0 7940582.2871284485 25278612.309268951 0 25278612.309268951 1529493.387005806 0 0 0 0 -12498966.293426514 22491074.183637619 0 22491074.183637619 40375024.932029724 0 0 0 0 -12774686.856595993 16427748.173997879 0 16427748.173997879 -9548054.751039505 0 0 0 0 -21837778.425712585 5839198.1429901123 0 5839198.1429901123 14257069.027397156 0 0 0 0 -13360482.146923065 -2304792.2239227295 0 -2304792.2239227295 -823940.67813873291 0 0 0 0 1207017.6677436437 3797734.0550045744 0 3797734.0550045744 -663936.8533861381 0 0 0 0 -11918187.225849152 793790.55606460571 0 793790.55606460571 -4838581.0430221558 0 0 0 0 -5892730.3600845337 -3667220.552532196 0 -3667220.552532196 -19312431.137756348 0 0 0 0 14054217.822914124 32318174.139053345 0 32318174.139053345 -9133024.6875891685 0 0 0 0 -9731732.3553009033 3224660.0805969238 0 3224660.0805969238 2504489.8685712814 0 0 0 0 -8323737.1569480896 -11807172.152843475 0 -11807172.152843475 -4853980.990978241 0 0 0 0 206862.4925403595 7947877.1993427277 0 7947877.1993427277 15189781.474060059 0 0 0 0 -1623967.6041093655 2681914.9886662588 0 2681914.9886662588 -420430.51055626012 0 0 0 0 -26108269.897590637 11053423.713756561 0 11053423.713756561 23698309.122535706 0 0 0 0 -6341763.9834456276 706871.32876793109 0 706871.32876793109 1538846.3754550405 0 0 0 0 -10979565.196702003 -13126166.852892876 0 -13126166.852892876 15089281.559158325 0 0 0 0 16507686.014122009 -15301986.691005707 0 -15301986.691005707 -4498553.0633411407 0 0 0 0 -10310825.322616577 4959211.8905410767 0 4959211.8905410767 11739637.787017822 0 0 0 0 -1895826.3769285008 2142596.2416874217 0 2142596.2416874217 -236387.05405148119 0 0 0 0 -5214198.4764915612 3068652.4049664745 0 3068652.4049664745 -471827.71619188972 0 0 0 0 -579832.95645523071 6509626.3599338531 0 6509626.3599338531 8399914.6503410339 0 0 0 0 945892.13217163086 5781404.9230728149 0 5781404.9230728149 8359733.2141494751 0 0 0 0 -420618.88631898165 -261515.99616487604 0 -261515.99616487604 331455.1469684951 0 0 0 0 12896563.102752686 14580250.667266846 0 14580250.667266846 49624474.657806396 0 0 0 0 -553059.74347840622 -162249.6808023015 0 -162249.6808023015 252512.63955385983 0 0 0 0 14046450.680267334 38780472.79860878 0 38780472.79860878 37505613.029701233 0 0 0 0 -13950609.851821899 -7035329.0447998047 0 -7035329.0447998047 10587833.749588013 0 0 0 0 9673463.944152832 21156121.045936584 0 21156121.045936584 39495889.277374268 0 0 0 0 38478688.572685242 16751769.850334167 0 16751769.850334167 4728264.2648773193 0 0 0 0 6678049.1176528931 -11244905.288677216 0 -11244905.288677216 -4829787.2886815071 0 0 0 0 31323749.396606445 7167910.3809204102 0 7167910.3809204102 38299657.866455078 0 0 0 0 19015443.83996582 23794176.965003967 0 23794176.965003967 17911701.99609375 0 0 0 0 -28801956.499229431 21209294.364196777 0 21209294.364196777 6235133.2885169983 0 0 0 0 5141703.9123306274 52580709.64264679 0 52580709.64264679 1862519.7481193542 0 0 0 0 19827665.663711548 51981077.334926605 0 51981077.334926605 1408478.4851531982 0 0 0 0 41945287.299865723 9842919.3394584656 0 9842919.3394584656 14837686.50919342 0 0 0 0 8796566.002456665 10426360.413072586 0 10426360.413072586 -11129917.860954285 0 0 0 0 -36156.895205084234 -37601.745649397839 0 -37601.745649397839 -60523.573580823839 0 0 0 0 -12951.526973254979 -26345.301620158367 0 -26345.301620158367 -15912.904170364141 0 0 0 0 12507136.071380615 18170952.407279968 0 18170952.407279968 -31793537.736122131 0 0 0 0 -29968446.907653809 -10488828.968383789 0 -10488828.968383789 11583216.849227905 0 0 0 0 -23209564.303947449 16666341.826332092 0 16666341.826332092 13709882.631866455 0 0 0 0 -18408663.584327698 -1068127.0560798645 0 -1068127.0560798645 9156242.2168045044 0 0 0 0 -9047461.9809837341 15202236.412952423 0 15202236.412952423 -31412499.731704712 0 0 0 0 409360.30589770526 3627077.3006694429 0 3627077.3006694429 -1092819.6374676162 0 0 0 0 -193722301.88990784 106207047.52593803 0 106207047.52593803 -3197660.1143302917 0 0 0 0 -54511090.802436829 111658632.84959984 0 111658632.84959984 -146897379.52249002 0 0 0 0 -55889290.233470917 493864414.82003498 0 493864414.82003498 -724430106.43045807 0 0 0 0 -227128729.72325134 602900194.97524643 0 602900194.97524643 -791287380.51612473 0 0 0 0 -135728483.22841263 426411661.54963541 0 426411661.54963541 -509182159.01741028 0 0 0 0 -26960028.618476868 297949589.71293259 0 297949589.71293259 -399914308.60183793 0 0 0 0 -90110861.81521225 27457818.26199913 0 27457818.26199913 -180642540.23829079 0 0 0 0 556557.33443141729 4187214.6625604257 0 4187214.6625604257 -768075.32364530861 0 0 0 0 2734872.6503295898 11199155.055934906 0 11199155.055934906 -4425038.3013763428 0 0 0 0 -15686076.836302757 12625224.697165966 0 12625224.697165966 9156764.5357666016 0 0 0 0 30625431.710205078 13450154.899673462 0 13450154.899673462 8610487.5802078247 0 0 0 0 -471585.52634350955 -298786.29012283403 0 -298786.29012283403 340222.5253543295 0 0 0 0 -9385028.5057830811 1387624.9738388062 0 1387624.9738388062 542382.27784729004 0 0 0 0 -6879043.5855261851 1364517.6116926186 0 1364517.6116926186 2010115.3494547699 0 0 0 0 81096955.512069702 73943298.469200134 0 73943298.469200134 -1057404143.838295 0 0 0 0 304547930.28887177 241665792.65157318 0 241665792.65157318 162811318.36690903 0 0 0 0 -169642.88511090167 393077.97848446667 0 393077.97848446667 132488.00794398598 0 0 0 0 61742047.558616638 66957807.357250214 0 66957807.357250214 86639750.261787415 0 0 0 0 121797795.92841148 25742636.352106094 0 25742636.352106094 -28270498.830940247 0 0 0 0 145071059.05001831 937310.49945831299 0 937310.49945831299 -11028348.212673187 0 0 0 0 35689109.475921631 -45026804.292022705 0 -45026804.292022705 -25344499.813583374 0 0 0 0 -10635740.835662842 49536943.504699707 0 49536943.504699707 39338809.917491913 0 0 0 0 16790721.60766983 9562059.2054023743 0 9562059.2054023743 23524509.479469299 0 0 0 0 -22707350.888980865 45690270.047428131 0 45690270.047428131 4038367.0551280975 0 0 0 0 22706850.037670135 26734237.408094406 0 26734237.408094406 -74962333.790084839 0 0 0 0 26440992.222126007 2013490.0571784973 0 2013490.0571784973 -39357653.446456909 0 0 0 0 1164865.398566097 417008.99673269317 0 417008.99673269317 -464451.2067953567 0 0 0 0 145567100.64911652 -56106178.126022339 0 -56106178.126022339 -64278316.42634964 0 0 0 0 149760607.24300575 157721209.46788692 0 157721209.46788692 92439610.008453369 0 0 0 0 510714.03525474109 -199262.47059760429 0 -199262.47059760429 -168612.79561751569 0 0 0 0 37637702.67181015 110899552.63941383 0 110899552.63941383 171863880.91100693 0 0 0 0 85748391.081085205 301228680.18203354 0 301228680.18203354 -4223314.5959205627 0 0 0 0 50948929.737636566 351199158.23196411 0 351199158.23196411 1902388.7283504009 0 0 0 0 -512397396.70453358 601563525.21926403 0 601563525.21926403 -22221111.039428711 0 0 0 0 -242355578.4158535 181090973.27815723 0 181090973.27815723 36232319.357780457 0 0 0 0 251957732.66656494 7505428.8221263885 0 7505428.8221263885 -81209079.757385254 0 0 0 0 138024525.81893063 24014928.599377632 0 24014928.599377632 -80078646.055099487 0 0 0 0 -158297274.44258118 203060368.16944504 0 203060368.16944504 -22535298.114273071 0 0 0 0 -129585393.68451691 -11307063.830509186 0 -11307063.830509186 8160472.7896652222 0 0 0 0 140473821.44010353 -82641887.388672829 0 -82641887.388672829 20584090.503692627 0 0 0 0 -377199388.02942276 112301391.11890411 0 112301391.11890411 201759201.0594368 0 0 0 0 -1653222.5344983879 1765612.3079966968 0 1765612.3079966968 -356163.65870344732 0 0 0 0 -21926079.23059082 312950215.0633316 0 312950215.0633316 -1578170796.1160583 0 0 0 0 19477997.661556244 69711140.835105896 0 69711140.835105896 175300166.70583534 0 0 0 0 -527471449.86155128 1039163926.0644398 0 1039163926.0644398 -1458858693.6523361 0 0 0 0 -909877586.31502914 494860076.69719315 0 494860076.69719315 43858867.473842144 0 0 0 0 -843005417.79678798 174370985.52357715 0 174370985.52357715 -764515390.56651306 0 0 0 0 -504834097.32381821 440850224.21109772 0 440850224.21109772 -607666519.647048 0 0 0 0 -226287711.37575531 709050554.26899338 0 709050554.26899338 -1424439627.5279007 0 0 0 0 -824403917.69743705 851160585.70330358 0 851160585.70330358 -781519326.28903961 0 0 0 0 -200765962.82672119 508033312.49441528 0 508033312.49441528 -609760377.69641447 0 0 0 0 -221513150.58382034 274867396.4013176 0 274867396.4013176 -568289635.39739227 0 0 0 0 -206214049.71920776 465145695.99027634 0 465145695.99027634 -946202855.84627151 0 0 0 0 -407661620.69113541 263635851.17889977 0 263635851.17889977 -676996527.96593094 0 0 0 0 -464556783.27066612 733681660.19107056 0 733681660.19107056 -503074810.09123993 0 0 0 0 -199236273.81719971 461465734.64302063 0 461465734.64302063 -482857938.94673538 0 0 0 0 -333637583.25761032 642833532.33283043 0 642833532.33283043 -436577397.11058044 0 0 0 0 -372446184.55980492 632978015.62578011 0 632978015.62578011 -165627660.96866989 0 0 0 0 -300174514.80648422 635002861.93283463 0 635002861.93283463 -449272550.00198746 0 0 0 0 -217717267.17028999 546508131.04701614 0 546508131.04701614 -157579684.38223982 0 0 0 0 -400120033.77470398 675890001.65103722 0 675890001.65103722 -5491033.5256271362 0 0 0 0 -531353729.19608307 275876435.53092384 0 275876435.53092384 -163081979.43786621 0 0 0 0 -1104295769.0866418 532367670.62243605 0 532367670.62243605 -24517924.821395874 0 0 0 0 507010511.51672554 502394175.72486305 0 502394175.72486305 61331229.797657013 0 0 0 0 -66072.334769425914 702378.38717910461 0 702378.38717910461 79483.739513806999 0 0 0 0 -249635708.86807632 541579427.31265259 0 541579427.31265259 46250211.764125824 0 0 0 0 265965898.50654984 141427410.9221344 0 141427410.9221344 -30997074.286819458 0 0 0 0 387554058.6373558 148951013.95940018 0 148951013.95940018 -32132179.638140202 0 0 0 0 359408545.3102932 182294534.15150261 0 182294534.15150261 -71420973.721359253 0 0 0 0 457100922.3620224 540465928.84423447 0 540465928.84423447 38018699.999190331 0 0 0 0 1318019217.8005981 261353726.38156509 0 261353726.38156509 -178970758.04758072 0 0 0 0 515899751.9053154 213024995.0718956 0 213024995.0718956 -79528639.122127533 0 0 0 0 599374547.35502625 -315181870.09480476 0 -315181870.09480476 -52550926.661903381 0 0 0 0 1009570479.606987 -320385138.87479782 0 -320385138.87479782 302306540.48550987 0 0 0 0 412887518.50755692 658057692.22834587 0 658057692.22834587 1074425186.7272758 0 0 0 0 -327590077.00835037 396384660.88399696 0 396384660.88399696 295911342.12310123 0 0 0 0 -182148.44027851988 1213962.3508805074 0 1213962.3508805074 -219135.27839503065 0 0 0 0 -686867826.75502682 275142943.1846478 0 275142943.1846478 -162039354.02545547 0 0 0 0 210809714.75622654 132624473.87204933 0 132624473.87204933 -18701128.785381317 0 0 0 0 -76380907.006465912 -117721192.0278511 0 -117721192.0278511 -52434795.816039085 0 0 0 0 -59001121.312232018 -187332992.25785351 0 -187332992.25785351 83605422.173812866 0 0 0 0 -54558.707734058145 1058397.7206694912 0 1058397.7206694912 -1974169.4902323112 0 0 0 0 -481097943.75224686 -140648564.57177114 0 -140648564.57177114 178876225.66659546 0 0 0 0 -731530032.13649893 25943393.832517147 0 25943393.832517147 101027161.62296295 0 0 0 0 -64173748.233665466 -347326660.24262238 0 -347326660.24262238 157524532.66358042 0 0 0 0 229674564.69706726 -113803951.82264328 0 -113803951.82264328 3958255.021484375 0 0 0 0 176744226.28929138 -67376080.989543915 0 -67376080.989543915 322658769.58244705 0 0 0 0 330378165.93297958 265519497.45063782 0 265519497.45063782 219416185.15311432 0 0 0 0 1375173711.7673283 625187221.32197189 0 625187221.32197189 250935736.1552124 0 0 0 0 686725788.41932106 -86427172.91119957 0 -86427172.91119957 -132504550.28621674 0 0 0 0 167196840.54724503 66564439.534317017 0 66564439.534317017 -151382359.42264938 0 0 0 0 272346252.25154495 -199717586.42208099 0 -199717586.42208099 -180689686.12202454 0 0 0 0 149076855.71573257 -136541926.54205799 0 -136541926.54205799 -522879227.25390625 0 0 0 0 20382.30629843846 1059736.8797240462 0 1059736.8797240462 -175837.27024641167 0 0 0 0 95374970.720664978 143879293.40564919 0 143879293.40564919 -317032854.64218521 0 0 0 0 287445508.90681458 162239781.78653526 0 162239781.78653526 -296012069.53492737 0 0 0 0 -100666186.78766632 -25437837.466667175 0 -25437837.466667175 -206215764.03183746 0 0 0 0 129313669.9309845 -31547188.82951355 0 -31547188.82951355 -226089896.71047974 0 0 0 0 47180457.893039703 166335958.53333473 0 166335958.53333473 -278375213.09148407 0 0 0 0 -497145.4213023372 2427483.6151719801 0 2427483.6151719801 -135328.86745818378 0 0 0 0 -803283.98256969452 29226816.645095825 0 29226816.645095825 43179639.279777527 0 0 0 0 -762434.77184485644 953653.72439491237 0 953653.72439491237 1624549.8403169028 0 0 0 0 11073031.067420959 31346470.178394318 0 31346470.178394318 42378287.855644226 0 0 0 0 -17518181.151355743 26481455.431777954 0 26481455.431777954 90995259.332214355 0 0 0 0 638225.05167007446 25190542.269361496 0 25190542.269361496 38165355.305237293 0 0 0 0 13498440.925134659 -10880048.643963814 0 -10880048.643963814 45881498.762245178 0 0 0 0 -1814465.8268938065 33674756.565019608 0 33674756.565019608 -8300061.7620239258 0 0 0 0 -7381310.6866340637 5914331.9633865356 0 5914331.9633865356 19262460.983158112 0 0 0 0 -686688.30282974243 43292171.621417999 0 43292171.621417999 50236044.576713562 0 0 0 0 7232898.5249938965 14655624.851398468 0 14655624.851398468 -307405746.06688499 0 0 0 0 -45093416.474464417 -95966961.183860779 0 -95966961.183860779 -55973032.917521954 0 0 0 0 624345.83502815245 1169048.4920352455 0 1169048.4920352455 -5338524.0260083303 0 0 0 0 -14365298.355363846 -84031765.750511169 0 -84031765.750511169 -122386884.98622131 0 0 0 0 -645037175.82274818 257098295.92199326 0 257098295.92199326 295336259.99580383 0 0 0 0 2115856.2421187591 2230125.7141993996 0 2230125.7141993996 -9401678.52542473 0 0 0 0 17605839.615401268 198971826.03203011 0 198971826.03203011 -888939938.50250244 0 0 0 0 17711625.202955246 20468615.341386795 0 20468615.341386795 308924.98146820068 0 0 0 0 270276.25869597681 7034586.7364841849 0 7034586.7364841849 286934.02895917743 0 0 0 0 10161882.893985748 9955734.054479599 0 9955734.054479599 -13481774.4139328 0 0 0 0 15840723.434364319 37137661.094581604 0 37137661.094581604 12356900.688064575 0 0 0 0 24476380.636692047 -1591855.8525543213 0 -1591855.8525543213 -75593576.853273392 0 0 0 0 -86385219.643642426 46943852.32721138 0 46943852.32721138 104212850.07841492 0 0 0 0 -268136.22570801689 1992228.9802800585 0 1992228.9802800585 308862.11755913123 0 0 0 0 7879372.9455156326 145213618.17539835 0 145213618.17539835 206475608.61592102 0 0 0 0 49867563.646757126 -6456840.3349547386 0 -6456840.3349547386 44594793.978034973 0 0 0 0 35543017.510311127 67424559.959197998 0 67424559.959197998 131683801.47553253 0 0 0 0 112075184.89230347 63241781.108524323 0 63241781.108524323 224628.53077697754 0 0 0 0 326590319.07200718 347492728.27529144 0 347492728.27529144 188467314.54368591 0 0 0 0 215792851.73320007 123558903.29709244 0 123558903.29709244 34913604.100318909 0 0 0 0 9953054.1988372803 25307371.226119995 0 25307371.226119995 -153.02342224121094 0 0 0 0 -331496.5790309906 26445991.633867264 0 26445991.633867264 17098731.734008789 0 0 0 0 -1320871.3603229523 19982591.949548721 0 19982591.949548721 -16211479.38533783 0 0 0 0 45064091.233436584 66654716.248573303 0 66654716.248573303 51114365.676490784 0 0 0 0 20185934.688049316 25830749.513233185 0 25830749.513233185 -131805.73698616028 0 0 0 0 35186488.148960486 20360076.668280333 0 20360076.668280333 36029863.72644043 0 0 0 0 1567344.5655174255 22511926.819385529 0 22511926.819385529 44691519.105007172 0 0 0 0 8866672.8083152771 3859758.0212478638 0 3859758.0212478638 5378246.5785598755 0 0 0 0 -4348091.6240386963 263122.66114044189 0 263122.66114044189 14658007.692501545 0 0 0 0 -4784210.3933238983 3448715.4956645966 0 3448715.4956645966 -2249854.2284851074 0 0 0 0 -3568040.1251459122 -6968391.9420547485 0 -6968391.9420547485 -10038615.507659912 0 0 0 0 -6764706.8325557709 -2745695.8108310699 0 -2745695.8108310699 -11214930.483337402 0 0 0 0 -7295076.0255489349 -2861810.0622701645 0 -2861810.0622701645 10387872.520530701 0 0 0 0 6974932.1006965637 -16143861.847690582 0 -16143861.847690582 -23785852.500144958 0 0 0 0 -4569000.3721551895 -13024902.3700037 0 -13024902.3700037 13219177.473907471 0 0 0 0 396942.63625004888 7616637.4250944704 0 7616637.4250944704 357323.80075613223 0 0 0 0 -3777895.8061828613 7112873.7019481659 0 7112873.7019481659 8820526.4180984497 0 0 0 0 6511987.2164535522 2209898.6436195374 0 2209898.6436195374 -42742751.531219482 0 0 0 0 1198093.521681238 4594430.8445715141 0 4594430.8445715141 -2658715.9432883672 0 0 0 0 2667211.3078956604 4544891.5015087128 0 4544891.5015087128 -265272.98620319366 0 0 0 0 1034621.7041269764 3490184.7319705375 0 3490184.7319705375 -1139423.0065658558 0 0 0 0 1977686.2327957153 15958051.918254852 0 15958051.918254852 49192285.433507919 0 0 0 0 2297337.3461074829 2418782.1140594482 0 2418782.1140594482 -3049721.2365226746 0 0 0 0 1611201.4871253967 2569944.7634811401 0 2569944.7634811401 -1011093.8864212036 0 0 0 0 2477817.8765897751 2713683.1767063141 0 2713683.1767063141 -1963637.5264892578 0 0 0 0 2074621.2367544174 3824103.9579601288 0 3824103.9579601288 637368.16493225098 0 0 0 0 -8294805.6989059448 3544676.8762283325 0 3544676.8762283325 -6569059.5009269714 0 0 0 0 -9084681.8316173553 -814399.26094722748 0 -814399.26094722748 -4205239.1825180054 0 0 0 0 -8912360.7077178955 114936.27382659912 0 114936.27382659912 267682.06224060059 0 0 0 0 -7823062.1678390503 1732042.3236198425 0 1732042.3236198425 -2962160.0578308105 0 0 0 0 2650584.1169824116 2574606.3577493178 0 2574606.3577493178 -3501627.5304656811 0 0 0 0 3151811.256020546 3488879.388923645 0 3488879.388923645 -260157.39630889893 0 0 0 0 3477779.4723014832 4797997.6878471375 0 4797997.6878471375 165745.29754257202 0 0 0 0 600911.54619016871 3346830.0370879732 0 3346830.0370879732 -2923756.1429143604 0 0 0 0 -493228.53384105861 747784.2802724205 0 747784.2802724205 -1090185.9840520434 0 0 0 0 928772.5920095332 2121729.1474424964 0 2121729.1474424964 -185749.72831551358 0 0 0 0 -1684557.6640081406 2605427.2620744705 0 2605427.2620744705 15531.824321746826 0 0 0 0 1164923.1118774414 2698079.528717041 0 2698079.528717041 17649.127861022949 0 0 0 0 457297.4527130127 3286832.3950920105 0 3286832.3950920105 -734711.52751922607 0 0 0 0 -375359.18990531191 388244.30021847039 0 388244.30021847039 -111002.91319978237 0 0 0 0 -909980.62841033936 5504651.9840240479 0 5504651.9840240479 10866705.937782288 0 0 0 0 -8101582.373336792 12128428.166996002 0 12128428.166996002 2874.568717956543 0 0 0 0 -2975174.0053634644 9016527.529302597 0 9016527.529302597 697895.18385314941 0 0 0 0 492859.80085372925 2274295.3403148651 0 2274295.3403148651 -251169.66452026367 0 0 0 0 -13332695.137023926 10117975.140907288 0 10117975.140907288 3653153.8769416809 0 0 0 0 -24502418.42980957 5713171.2778320312 0 5713171.2778320312 5649957.3074951172 0 0 0 0 -39425.268371505197 2180190.0368802696 0 2180190.0368802696 1926274.5374134853 0 0 0 0 1759559.7646228652 3065570.2445136681 0 3065570.2445136681 -103735.47812759504 0 0 0 0 -6752001.0807991028 7366391.7140846252 0 7366391.7140846252 2043753.2959518433 0 0 0 0 -286473.06769245118 7053779.3314693086 0 7053779.3314693086 1464164.9966152702 0 0 0 0 -1006306.0742797852 10414912.100128174 0 10414912.100128174 -639118.74388122559 0 0 0 0 -5200677.6633930206 11341419.878703117 0 11341419.878703117 2164008.1276321411 0 0 0 0 -690611.8553119041 8522734.0216823071 0 8522734.0216823071 2116248.9221774042 0 0 0 0 -2390427.8113441467 11542642.543469429 0 11542642.543469429 7499667.8994827271 0 0 0 0 2687524.0727615356 3708469.8900375366 0 3708469.8900375366 -261697.89792633057 0 0 0 0 2562142.3085974073 3235873.1941954792 0 3235873.1941954792 -4703571.9798928276 0 0 0 0 13996722.079124451 15797225.938243866 0 15797225.938243866 -7486686.6934165955 0 0 0 0 -3785261.1256599426 17484948.669111252 0 17484948.669111252 127185.12091827393 0 0 0 0 1723631.2668151855 2528637.633441925 0 2528637.633441925 -1825217.6035556793 0 0 0 0 62108314.668487549 13192753.12815094 0 13192753.12815094 -34389876.059608459 0 0 0 0 2206348.9851725837 1104541.3813167382 0 1104541.3813167382 -4326876.1990916133 0 0 0 0 38497451.811973572 5170730.2117958069 0 5170730.2117958069 -695517.02526974678 0 0 0 0 55852845.174438477 25174393.913948059 0 25174393.913948059 -33290846.615999222 0 0 0 0 85046727.303497314 -18238097.806259155 0 -18238097.806259155 8481640.7860717773 0 0 0 0 -22379508.721529961 13593837.069928646 0 13593837.069928646 7575840.4546127319 0 0 0 0 -4172945.4302339032 4771719.0143122245 0 4771719.0143122245 3154877.3337568901 0 0 0 0 -5657202.2357215881 44918685.188014984 0 44918685.188014984 -24756142.524765015 0 0 0 0 306868618.77404785 598439205.51023865 0 598439205.51023865 906715588.63929367 0 0 0 0 439605646.9009738 818391032.24511743 0 818391032.24511743 694479160.38304901 0 0 0 0 536761804.0964489 49202571.944317818 0 49202571.944317818 -1531604.9861297607 0 0 0 0 908817003.26980591 421100907.12627506 0 421100907.12627506 489155362.31789398 0 0 0 0 272688199.95981598 501097611.5853157 0 501097611.5853157 514734641.36814499 0 0 0 0 194561247.80819702 202217904.96672058 0 202217904.96672058 214363468.90153503 0 0 0 0 433515781.80377769 758469277.63114691 0 758469277.63114691 660260258.31446838 0 0 0 0 505663281.51721954 765093004.46681595 0 765093004.46681595 109082940.98498535 0 0 0 0 388211388.37201691 625642428.03173828 0 625642428.03173828 636891011.41096497 0 0 0 0 550383519.1122818 652417254.64550018 0 652417254.64550018 632428980.24761772 0 0 0 0 -195929.6234466508 912362.27936562337 0 912362.27936562337 -266963.7270534113 0 0 0 0 535696068.69778776 777669739.22502303 0 777669739.22502303 647747064.48312378 0 0 0 0 442501952.79445648 933801855.94584465 0 933801855.94584465 1434371182.3405228 0 0 0 0 1253276.9295763522 1592425.1367146224 0 1592425.1367146224 -474785.87244816963 0 0 0 0 -91077013.971481323 -100533646.6704483 0 -100533646.6704483 157439330.77719116 0 0 0 0 -2828565.856059663 4022525.0778708449 0 4022525.0778708449 1141659.1536557712 0 0 0 0 -54883.439108137449 434383.96060457267 0 434383.96060457267 104042.40050560981 0 0 0 0 -120304054.10067749 188041892.40146637 0 188041892.40146637 863232471.43688965 0 0 0 0 213365297.64742661 123713005.95255136 0 123713005.95255136 63344102.66607666 0 0 0 0 -8462.6291028596461 52127.084373727441 0 52127.084373727441 -106669.29416046292 0 0 0 0 -1387450.1866197959 3711384.3274313454 0 3711384.3274313454 324084.94562976202 0 0 0 0 -155790.9541490525 2783710.4419412445 0 2783710.4419412445 -284300.09341476113 0 0 0 0 6947177.7832794189 -18853578.526763916 0 -18853578.526763916 58454671.231384277 0 0 0 0 114333308.92627811 212326994.27115536 0 212326994.27115536 -79837741.301727295 0 0 0 0 -7384231.4640426636 -16161416.539413452 0 -16161416.539413452 62930778.9500103 0 0 0 0 -28078801.855789185 21896054.910114288 0 21896054.910114288 50212109.862457275 0 0 0 0 2365273.2848205566 26624475.917892456 0 26624475.917892456 45304825.183361053 0 0 0 0 146614446.67866898 293468994.94770241 0 293468994.94770241 -139685060.33773041 0 0 0 0 -122910421.19734192 147126212.91818237 0 147126212.91818237 -196582580.45726776 0 0 0 0 -3446633.9129257202 3001459.8954391479 0 3001459.8954391479 9758294.843585968 0 0 0 0 -82137770.613016129 -32485366.294457912 0 -32485366.294457912 6288185.8595046997 0 0 0 0 -280209246.45366669 51522524.54989624 0 51522524.54989624 -13205039.645058632 0 0 0 0 435262.09554745443 357393.40695867036 0 357393.40695867036 -679088.50555897132 0 0 0 0 622554321.96392059 518947728.68250275 0 518947728.68250275 370475830.89737701 0 0 0 0 704659607.69134426 765613703.45217752 0 765613703.45217752 269845352.6921463 0 0 0 0 -208974157.5899353 336571916.7271843 0 336571916.7271843 -73744094.559215546 0 0 0 0 493167995.61946106 433298045.44161987 0 433298045.44161987 -60469093.571399689 0 0 0 0 119638093.93444443 355327894.48207283 0 355327894.48207283 557785711.86680603 0 0 0 0 64605460.825996399 550866852.71897697 0 550866852.71897697 589236173.35199738 0 0 0 0 95108898.428173065 605489341.51937485 0 605489341.51937485 266037235.5242157 0 0 0 0 284062871.70046711 444850660.66179419 0 444850660.66179419 400514619.51809692 0 0 0 0 176572292.14962482 32129756.790527821 0 32129756.790527821 -125750.65172576904 0 0 0 0 3647595.8166691195 576395.18216215447 0 576395.18216215447 -2144371.6642162539 0 0 0 0 83647068.685852051 117281789.10031891 0 117281789.10031891 -251606293.18518829 0 0 0 0 -86306859.118740082 141457199.36225891 0 141457199.36225891 -184576743.9070282 0 0 0 0 249255161.70038319 337138711.41549659 0 337138711.41549659 -10386167.222587585 0 0 0 0 -153478796.44829559 72153768.066726685 0 72153768.066726685 -165477536.24096298 0 0 0 0 939030060.7841835 360135508.61450958 0 360135508.61450958 129970586.78474045 0 0 0 0 621956.02699419856 -328864.81188951991 0 -328864.81188951991 -42677.583174392581 0 0 0 0 -491798721.36029434 622825165.62348175 0 622825165.62348175 136146638.18143463 0 0 0 0 -66017092.321456909 110642776.22772408 0 110642776.22772408 -164731288.58553505 0 0 0 0 209955879.03576946 34977201.069429159 0 34977201.069429159 -193803611.50361633 0 0 0 0 144721986.22145081 71350209.624494553 0 71350209.624494553 -213418838.77353096 0 0 0 0 75907189.520291805 39349846.428437352 0 39349846.428437352 -222045615.68321228 0 0 0 0 136912597.26306915 -24995042.269035339 0 -24995042.269035339 -336746715.4500618 0 0 0 0 -10046565.607322693 -44978742.457838058 0 -44978742.457838058 -204408179.35403824 0 0 0 0 54761535.438461304 -58623648.77880764 0 -58623648.77880764 -521715202.1796608 0 0 0 0 -1337494849.1551218 590352061.86720562 0 590352061.86720562 -105689565.0151062 0 0 0 0 -42908036.146251678 -126826951.4751091 0 -126826951.4751091 -181228266.12133789 0 0 0 0 45349.116232793778 180256.92799700797 0 180256.92799700797 -1831714.2981901243 0 0 0 0 -951133578.86660671 -22836232.479243636 0 -22836232.479243636 -230871712.45088959 0 0 0 0 -786820885.59915543 419914377.27252769 0 419914377.27252769 -672414653.18002701 0 0 0 0 -966231773.40174103 188911616.7940712 0 188911616.7940712 -26276379.745925903 0 0 0 0 -118899275.64788055 320263697.87691879 0 320263697.87691879 -574543275.73970413 0 0 0 0 -634647238.87883759 296576851.31309128 0 296576851.31309128 -26489338.903336778 0 0 0 0 -832624295.57387543 -28073854.522781372 0 -28073854.522781372 64611410.368679047 0 0 0 0 -1016336871.1596413 118219820.36134148 0 118219820.36134148 -32770469.456825256 0 0 0 0 -738934893.71536255 314769513.23040771 0 314769513.23040771 -226162208.75064087 0 0 0 0 -1152343468.4643679 129016466.53626251 0 129016466.53626251 200848520.51325226 0 0 0 0 -1125897599.6295033 202422714.19617271 0 202422714.19617271 -131713078.59703064 0 0 0 0 -66584044.300853729 -75503260.720096588 0 -75503260.720096588 24011289.592811584 0 0 0 0 -739619468.96759033 246459592.32214355 0 246459592.32214355 534227104.06215668 0 0 0 0 191988996.1864357 326351708.20943832 0 326351708.20943832 233561569.01646423 0 0 0 0 53648790.248448372 417067450.87920594 0 417067450.87920594 180651314.59739685 0 0 0 0 174049541.81833649 62285808.330537796 0 62285808.330537796 -194619022.64448929 0 0 0 0 210337176.01472473 275016541.75533104 0 275016541.75533104 94949728.18819809 0 0 0 0 386401269.34900665 117622505.19569016 0 117622505.19569016 232243712.59534454 0 0 0 0 392474483.70816803 586751973.58787155 0 586751973.58787155 398108174.53376579 0 0 0 0 125782966.85211563 390595015.27898979 0 390595015.27898979 386832841.03874397 0 0 0 0 142997444.82584763 546682825.34551048 0 546682825.34551048 1319708732.4272308 0 0 0 0 969430382.07951355 831847887.62854385 0 831847887.62854385 286572711.66841698 0 0 0 0 -222019201.71218491 40813283.332507133 0 40813283.332507133 1234944583.9033813 0 0 0 0 375155952.77578163 905053938.47163367 0 905053938.47163367 270862751.18284607 0 0 0 0 477727183.13747406 43619521.426795959 0 43619521.426795959 516010.51310920715 0 0 0 0 -3267209.1628511436 6933463.8738907315 0 6933463.8738907315 -1353688.9535347782 0 0 0 0 -255836.97846470028 2555645.5466482379 0 2555645.5466482379 839519.92174358293 0 0 0 0 -811853.80411195755 12431624.735543132 0 12431624.735543132 2710014.1943511963 0 0 0 0 5694811.2988262177 10898365.064754486 0 10898365.064754486 14240.185592651367 0 0 0 0 4588651.81615448 7954924.5044441223 0 7954924.5044441223 1468504.1648616791 0 0 0 0 -1027751.2759895325 11702739.23315239 0 11702739.23315239 -2351.1564674377441 0 0 0 0 -1157099865.2808914 1838466873.3576736 0 1838466873.3576736 526744111.35456848 0 0 0 0 16255734.887207031 1906761873.4681206 0 1906761873.4681206 -182574.08728790283 0 0 0 0 -2039138947.8132782 1046896295.3977951 0 1046896295.3977951 677217708.98648071 0 0 0 0 -2047858644.7651062 49160317.597238541 0 49160317.597238541 361478547.73871231 0 0 0 0 -1752911.1458763778 2926752.237015089 0 2926752.237015089 808735.41211659461 0 0 0 0 -695972558.01558685 304392491.35232925 0 304392491.35232925 406833053.2841301 0 0 0 0 -969303711.82566833 1191212066.9998627 0 1191212066.9998627 512822037.63794708 0 0 0 0 -97994562.621337891 338865029.03030396 0 338865029.03030396 213843309.03362274 0 0 0 0 -1010274938.0838616 581905849.50528431 0 581905849.50528431 253845246.8104248 0 0 0 0 -1271753027.6915398 1139306749.4761276 0 1139306749.4761276 539367526.4500351 0 0 0 0 -1870160198.7881966 725571412.52947044 0 725571412.52947044 610634016.30379486 0 0 0 0 -884446246.52007294 1084410204.9152584 0 1084410204.9152584 351083877.39388275 0 0 0 0 -598583883.94413376 708999464.1956768 0 708999464.1956768 111822985.66674805 0 0 0 0 -882212279.07014465 552007251.38873672 0 552007251.38873672 485434695.87016201 0 0 0 0 -1167477382.4758148 1013730906.7461815 0 1013730906.7461815 -173221050.09410858 0 0 0 0 -1096422683.1627274 339687139.33361053 0 339687139.33361053 38564644.980255127 0 0 0 0 -3651155973.9421997 520625832.75793457 0 520625832.75793457 -32197557.139465332 0 0 0 0 -1053873714.0086021 464574942.24019814 0 464574942.24019814 -1127540521.4655457 0 0 0 0 -66204630.499511719 632635929.08225822 0 632635929.08225822 -1064320208.1840515 0 0 0 0 158471546.04489136 1347136144.0549774 0 1347136144.0549774 -1421552706.653224 0 0 0 0 -220566773.60517883 911082177.16108704 0 911082177.16108704 -776545648.8656311 0 0 0 0 -767483.58223099634 583199.9363268353 0 583199.9363268353 314712.76803551801 0 0 0 0 425978447.37759399 145512382.53038406 0 145512382.53038406 111693474.72061157 0 0 0 0 150987470.2984314 1236749888.6200867 0 1236749888.6200867 -1410970062.3808231 0 0 0 0 -1130562555.6109154 210556370.4740324 0 210556370.4740324 -85101652.827033997 0 0 0 0 -10881521.995597839 180322554.29108047 0 180322554.29108047 28470438.002223015 0 0 0 0 -674148.20268627629 5180526.5275593763 0 5180526.5275593763 -6091176.6689189151 0 0 0 0 -208311946.13506317 197359904.56273651 0 197359904.56273651 38491028.617794991 0 0 0 0 -102223894.10375977 -24565929.033851624 0 -24565929.033851624 409975401.01820374 0 0 0 0 -19317306.636722565 13451982.685306549 0 13451982.685306549 15735266.571193695 0 0 0 0 -2193045.9292066442 1544792.4915938098 0 1544792.4915938098 7280132.8039181307 0 0 0 0 -260533.34614403825 1440169.1500203963 0 1440169.1500203963 309935.64157841355 0 0 0 0 -634672051.12121582 749931955.67216682 0 749931955.67216682 496634430.0997963 0 0 0 0 1321983200.7849808 276248075.92456055 0 276248075.92456055 -495652565.22960663 0 0 0 0 345137855.30638885 368538695.05874252 0 368538695.05874252 16985440.42578125 0 0 0 0 -62879871.354198456 9829861.9894943237 0 9829861.9894943237 15065737.133209229 0 0 0 0 4444700.6480674744 13094709.806489944 0 13094709.806489944 -4190297.3151054382 0 0 0 0 -8143557.826622963 37240446.825569153 0 37240446.825569153 -63932.82315826416 0 0 0 0 -199369.78882527258 2489595.3104069307 0 2489595.3104069307 540350.90878343582 0 0 0 0 -700146104.28533936 1967592029.4100533 0 1967592029.4100533 8879279.8923187256 0 0 0 0 -896674.85164878354 1045061.1511819791 0 1045061.1511819791 2392688.9445452802 0 0 0 0 1566114363.5548134 1294922739.6718159 0 1294922739.6718159 -405334451.38902283 0 0 0 0 -1112407698.5709572 861689416.67395782 0 861689416.67395782 -407286614.18312073 0 0 0 0 256503.54356384277 1053453528.2363701 0 1053453528.2363701 -679123787.61642456 0 0 0 0 -657769.5986885936 1951082.0108507723 0 1951082.0108507723 -1235467.7630674094 0 0 0 0 -677424128.03842163 1345493782.6574936 0 1345493782.6574936 431528.57786560059 0 0 0 0 46088888.605262756 24185804.617052078 0 24185804.617052078 -16098186.668457031 0 0 0 0 -5963458.7476158142 17830516.982629776 0 17830516.982629776 2728418.3622589111 0 0 0 0 19074819.204841614 36362406.36340332 0 36362406.36340332 52173.952105560369 0 0 0 0 3677703.2981281281 20081464.031619549 0 20081464.031619549 13664743.816596985 0 0 0 0 31339378.416358948 9666414.7387161255 0 9666414.7387161255 -8383217.5999259949 0 0 0 0 -46177.34704208374 284342.23117256165 0 284342.23117256165 -642371.60739135742 0 0 0 0 -713817564.4930954 577783354.46525955 0 577783354.46525955 -991093822.49595642 0 0 0 0 563305.58484000713 1400166.0992021542 0 1400166.0992021542 1288522.9623655081 0 0 0 0 2915628.7753982544 11155172.446008682 0 11155172.446008682 13048187.758642197 0 0 0 0 -945917.40772714838 5588213.587876779 0 5588213.587876779 -5630420.3119933642 0 0 0 0 -1379672.3932037577 2571581.5451609474 0 2571581.5451609474 5634316.1346645355 0 0 0 0 7466239.3470039368 -13817509.411178589 0 -13817509.411178589 51941762.216012955 0 0 0 0 -222764307.04236603 3127514.6570472717 0 3127514.6570472717 68648518.68520546 0 0 0 0 -34009649.644551277 -24563947.035341263 0 -24563947.035341263 65846461.821113586 0 0 0 0 177114.8812789917 2858434.1196994781 0 2858434.1196994781 32128452.472736359 0 0 0 0 311442212.77304459 251139955.11925888 0 251139955.11925888 97873062.084373474 0 0 0 0 -15415931.588409424 109951649.67650986 0 109951649.67650986 191171012.11196136 0 0 0 0 191962905.12145996 103643148.25161743 0 103643148.25161743 78874141.573009491 0 0 0 0 -156173.60955331792 99905175.858685285 0 99905175.858685285 170453312.52879333 0 0 0 0 -86382696.332954407 -267838530.73303986 0 -267838530.73303986 -205330922.68692017 0 0 0 0 102186626.61000061 385442546.93141079 0 385442546.93141079 328639218.06278229 0 0 0 0 -855201691.98077393 -236207232.77693939 0 -236207232.77693939 1063662422.7239075 0 0 0 0 -300839460.4444046 207211547.64448357 0 207211547.64448357 -199966652.24859703 0 0 0 0 19456.053782165051 901153.05565227196 0 901153.05565227196 1198402.3709890768 0 0 0 0 -65706606.959251404 671655186.69739342 0 671655186.69739342 770674205.72894287 0 0 0 0 -232718548.15556335 226602531.10202026 0 226602531.10202026 -200888857.73587608 0 0 0 0 -315867.11767816078 386220.7861307282 0 386220.7861307282 1774107.75805768 0 0 0 0 -33618706.442676544 99309622.739711285 0 99309622.739711285 -310771863.89004517 0 0 0 0 -364239.59290201217 299915.94319007173 0 299915.94319007173 741970.70365325361 0 0 0 0 -256207264.66853333 134141259.47873497 0 134141259.47873497 -354446585.29008484 0 0 0 0 -557244540.79147339 483916242.39947128 0 483916242.39947128 -154744079.52046585 0 0 0 0 -2198687545.8634357 1228577545.1547766 0 1228577545.1547766 -500106632.42285156 0 0 0 0 -1920549288.0418549 -60037545.233310699 0 -60037545.233310699 -204386893.83744812 0 0 0 0 -891527252.88374329 426870532.25796509 0 426870532.25796509 -146208751.8010605 0 0 0 0 -912497416.59197235 549249551.91836166 0 549249551.91836166 -145893579.52644533 0 0 0 0 -1270362140.3109856 223455439.63410759 0 223455439.63410759 74426430.260353088 0 0 0 0 -845283302.9744873 164735841.43897629 0 164735841.43897629 -188310141.22880173 0 0 0 0 -968987305.2647934 220070862.96761894 0 220070862.96761894 32104050.888124466 0 0 0 0 -271355574.74399948 298759147.49050999 0 298759147.49050999 -233379539.48088074 0 0 0 0 -756435278.54597092 290318265.14897346 0 290318265.14897346 -106084355.11058807 0 0 0 0 -608396007.23342896 371429339.07832336 0 371429339.07832336 -112802745.20734334 0 0 0 0 -568317670.9749527 244304788.69781876 0 244304788.69781876 -116960796.68847656 0 0 0 0 -407443773.25463867 253603124.85571671 0 253603124.85571671 -163865092.83275604 0 0 0 0 -629069115.68848801 315219937.61161137 0 315219937.61161137 -18461083.445610046 0 0 0 0 -640116145.51953888 368382574.592453 0 368382574.592453 -238076907.60548306 0 0 0 0 -821413225.84322548 397116007.40983295 0 397116007.40983295 -93562612.850875854 0 0 0 0 -636099583.88138962 329357918.74853897 0 329357918.74853897 -160674722.99373245 0 0 0 0 -429156810.21630859 452141642.59849739 0 452141642.59849739 -117600288.52109146 0 0 0 0 -411703524.73465729 395330444.33026886 0 395330444.33026886 65420461.42986393 0 0 0 0 -314365695.43622589 461483577.74436951 0 461483577.74436951 87695863.406829834 0 0 0 0 -215872.34811401367 755352283.56365776 0 755352283.56365776 101472654.66539001 0 0 0 0 -315437344.039711 458896204.76533127 0 458896204.76533127 587123861.91959763 0 0 0 0 406179.09397358447 700829.34483212605 0 700829.34483212605 264266.92662457377 0 0 0 0 -177591949.75896454 54557617.286895752 0 54557617.286895752 333916296.84314728 0 0 0 0 34177.203876495361 64299418.013572693 0 64299418.013572693 -401809872.63144016 0 0 0 0 -176807416.41127777 145840253.45919418 0 145840253.45919418 -90294804.36782074 0 0 0 0 -409672738.8279953 260474279.53809357 0 260474279.53809357 -18895342.011650085 0 0 0 0 -344457184.78908539 153354306.49541473 0 153354306.49541473 156943843.30605316 0 0 0 0 -3943027.396389035 9202155.882663874 0 9202155.882663874 -4177601.3049104474 0 0 0 0 17422426.278090954 163339598.31998682 0 163339598.31998682 -106514171.19883728 0 0 0 0 119223771.04747772 37345385.338352203 0 37345385.338352203 -23211941.473175049 0 0 0 0 18117125.28964901 27872185.291160583 0 27872185.291160583 -3309703.1263160706 0 0 0 0 20819420.206355195 1544026.3829695284 0 1544026.3829695284 -26489124.278572083 0 0 0 0 -25335115.542035103 19046097.116653442 0 19046097.116653442 15458298.015454292 0 0 0 0 76860097.470804214 20083574.659561157 0 20083574.659561157 -30997619.825592041 0 0 0 0 33614115.22299242 44581593.404495239 0 44581593.404495239 13004594.666557312 0 0 0 0 90609410.042449951 43577633.973686218 0 43577633.973686218 -4332480.3587417603 0 0 0 0 -32931056.634284973 27397940.191638947 0 27397940.191638947 39463780.835746765 0 0 0 0 7591825.9960403442 -69043379.911289215 0 -69043379.911289215 -33374185.332801819 0 0 0 0 1714156.6192877181 1432101.6057888339 0 1432101.6057888339 551032.86108416691 0 0 0 0 80530387.829086304 58775826.159160614 0 58775826.159160614 2559734.0179367065 0 0 0 0 62342283.087328434 -9735343.6106643677 0 -9735343.6106643677 -67589504.346511841 0 0 0 0 -102405422.53825951 94067386.682889938 0 94067386.682889938 67187982.952308655 0 0 0 0 19612.42317635566 468740.35657117702 0 468740.35657117702 557619.97461671755 0 0 0 0 -36196256.489284515 31209505.233055115 0 31209505.233055115 14198256.35219574 0 0 0 0 95418923.655006409 -12613426.722658157 0 -12613426.722658157 21515291.409484863 0 0 0 0 30189324.049568176 -8740048.1439628601 0 -8740048.1439628601 -11296555.594207764 0 0 0 0 87660478.852600098 12060477.713317871 0 12060477.713317871 -41488473.075462341 0 0 0 0 62123282.68598938 -29562300.339248657 0 -29562300.339248657 -79743992.217750549 0 0 0 0 50398053.767501831 45265339.081008911 0 45265339.081008911 -62401775.456908226 0 0 0 0 47868000.642925262 39622598.631755829 0 39622598.631755829 41222863.731781006 0 0 0 0 45637938.021652222 31235296.254592896 0 31235296.254592896 64106124.379302979 0 0 0 0 185217537.85822296 -2373752.1013031006 0 -2373752.1013031006 -109707763.88907242 0 0 0 0 199763406.52425003 125012662.14616585 0 125012662.14616585 -37939746.305156708 0 0 0 0 -23616854.012623787 -110904760.35011721 0 -110904760.35011721 92324246.996162415 0 0 0 0 -3793545.1121501103 984556.66060224082 0 984556.66060224082 1281494.1356402151 0 0 0 0 -3527908.418267657 8305221.4474811973 0 8305221.4474811973 -2750523.0650523268 0 0 0 0 -34549885.947045177 -101343080.85024089 0 -101343080.85024089 -107868270.44463348 0 0 0 0 6746810.2696723938 64751555.726053238 0 64751555.726053238 -139582309.06273651 0 0 0 0 43030480.35641098 -18674230.768579483 0 -18674230.768579483 45792799.18069458 0 0 0 0 -72048293.963443756 99524440.112545013 0 99524440.112545013 -21779298.69018364 0 0 0 0 229705005.87162018 140089494.3940506 0 140089494.3940506 -1050407.4223604202 0 0 0 0 -10482632.086876424 10036588.938514957 0 10036588.938514957 1679524.7176634893 0 0 0 0 22638648.792085648 22065975.997119904 0 22065975.997119904 12278989.821609497 0 0 0 0 23965904.31926918 17250865.640533447 0 17250865.640533447 -501028.79124450684 0 0 0 0 23171032.694755554 18622306.291770935 0 18622306.291770935 4980612.0098495483 0 0 0 0 4207343.3213442843 3322921.4026563503 0 3322921.4026563503 -6662044.3663712144 0 0 0 0 25893354.554818988 20419660.517994881 0 20419660.517994881 -1009301.1947555542 0 0 0 0 26494056.407591343 21852729.366952896 0 21852729.366952896 950746.04403686523 0 0 0 0 20327256.743411541 20048291.981941223 0 20048291.981941223 1313045.0340194702 0 0 0 0 11446066.553836823 39751639.998840332 0 39751639.998840332 29688423.983955383 0 0 0 0 12908754.534467697 12681833.484851837 0 12681833.484851837 -4855274.127746582 0 0 0 0 -45312858.802938461 -8298891.9165611267 0 -8298891.9165611267 17469188.026077271 0 0 0 0 362423836.85458183 4122598.1519393921 0 4122598.1519393921 39228606.750747681 0 0 0 0 89461853.203486323 187220146.59679031 0 187220146.59679031 1007808.5485687256 0 0 0 0 -342475630.56090879 83131318.258243561 0 83131318.258243561 12338939.153190613 0 0 0 0 -33202710.364618301 180215557.92739868 0 180215557.92739868 -412611027.79907227 0 0 0 0 -71312.703528968617 73157.74567158334 0 73157.74567158334 -169954.70520824939 0 0 0 0 166806746.17404604 122354404.98282623 0 122354404.98282623 -30240584.980010986 0 0 0 0 148908887.70706892 164172747.65853119 0 164172747.65853119 -108179116.35079956 0 0 0 0 54196689.506858349 99456693.038398743 0 99456693.038398743 145397902.83742905 0 0 0 0 -70863604.635772705 167929785.19658661 0 167929785.19658661 38194574.600296021 0 0 0 0 90441627.970328093 40812618.106920242 0 40812618.106920242 62634122.200454712 0 0 0 0 -8475748.7640991211 -15125698.952880859 0 -15125698.952880859 72073924.066894531 0 0 0 0 -34004649.256966829 119641.75672054291 0 119641.75672054291 75795878.797912598 0 0 0 0 -167726.34344599448 -770001.29850048223 0 -770001.29850048223 -34206.486857034266 0 0 0 0 2939715.0429009488 3199148.3086000849 0 3199148.3086000849 -6285960.5824486054 0 0 0 0 7081529.7128915787 19461594.596641541 0 19461594.596641541 9080914.8374824524 0 0 0 0 -763437.61779416853 2601813.8729344159 0 2601813.8729344159 4705670.8557944521 0 0 0 0 314815102.45596719 86558118.775226593 0 86558118.775226593 -48189648.673843384 0 0 0 0 193675542.27527571 207485301.69330597 0 207485301.69330597 -65102624.457260132 0 0 0 0 -33627837.697559357 807437.260181427 0 807437.260181427 -26246630.690170288 0 0 0 0 84721948.247208118 15418110.989663124 0 15418110.989663124 -1491469.242149353 0 0 0 0 -442019.18237144023 734543.29544142075 0 734543.29544142075 -424831.55325032398 0 0 0 0 -321306887.38773346 -76516312.787986755 0 -76516312.787986755 -6428148.245973587 0 0 0 0 42705275.085891366 166479946.954175 0 166479946.954175 -53711637.10068512 0 0 0 0 -78816514.846481323 -50520123.674304962 0 -50520123.674304962 -40534488.701076508 0 0 0 0 -161283398.40917897 2680893.0645294189 0 2680893.0645294189 47809635.796890259 0 0 0 0 -55743417.215867043 -10456116.000717163 0 -10456116.000717163 1097231.0514678955 0 0 0 0 -1092510.3915705956 2205548.0588678233 0 2205548.0588678233 -1104101.6851210184 0 0 0 0 -49602080.533886194 14101706.036493301 0 14101706.036493301 -12090816.044639587 0 0 0 0 -17626096.345222712 73056159.450881958 0 73056159.450881958 53556055.111000061 0 0 0 0 -28126608.70973587 86798889.197914124 0 86798889.197914124 36095768.048500061 0 0 0 0 5804925.6750154495 96386123.870288849 0 96386123.870288849 1972810.7741775513 0 0 0 0 -8183833.0410423279 68455750.237941742 0 68455750.237941742 -4958439.2033004761 0 0 0 0 -24943321.59529686 105661361.44626617 0 105661361.44626617 28120790.107946396 0 0 0 0 36129122.199948788 44523207.681915283 0 44523207.681915283 -1417575.0402603149 0 0 0 0 42855143.366324425 19900969.412651062 0 19900969.412651062 -20828022.462787628 0 0 0 0 48439036.966743231 6385267.7392730713 0 6385267.7392730713 309919.6316986084 0 0 0 0 163903556.19903564 95520338.575897217 0 95520338.575897217 152435074.60028076 0 0 0 0 216148.37793293328 62871.373960502446 0 62871.373960502446 -106918.21580893546 0 0 0 0 64803463.308038235 99662741.14572525 0 99662741.14572525 25497061.802276611 0 0 0 0 116654725.22677994 24146824.978885651 0 24146824.978885651 61370837.288208008 0 0 0 0 -13965622.763074875 111236125.6600647 0 111236125.6600647 58799091.208457947 0 0 0 0 27415613.068645477 75246366.992355347 0 75246366.992355347 58440055.878855705 0 0 0 0 27143009.997692108 84427415.400558472 0 84427415.400558472 41964045.865814209 0 0 0 0 32119185.008684874 81315590.256429672 0 81315590.256429672 33302070.201675415 0 0 0 0 42780994.643284559 75010505.169948578 0 75010505.169948578 5471726.6268920898 0 0 0 0 28712926.295511723 93524008.77287674 0 93524008.77287674 24235366.315765381 0 0 0 0 -24222953.640292168 71448829.181118011 0 71448829.181118011 18768183.882995605 0 0 0 0 22387833.968373299 54100130.16337204 0 54100130.16337204 -4651738.5349121094 0 0 0 0 1416858.7197242775 2140536.8859847207 0 2140536.8859847207 -2239523.558262229 0 0 0 0 -54178938.14543128 -19045046.673833847 0 -19045046.673833847 31112612.6927948 0 0 0 0 41097689.82712698 -84566790.551609039 0 -84566790.551609039 44958578.793319702 0 0 0 0 115051756.05474901 85067736.302894592 0 85067736.302894592 -36946456.475032806 0 0 0 0 209745712.42665315 -87302015.469299316 0 -87302015.469299316 -2844101.751449585 0 0 0 0 -74561400.668469906 -11121371.616327286 0 -11121371.616327286 4105188.3575592041 0 0 0 0 64707454.59113884 -12983512.116783142 0 -12983512.116783142 -26021572.179046631 0 0 0 0 -239866982.22305703 77969585.339817047 0 77969585.339817047 24577390.369781494 0 0 0 0 409011.93369910016 521956.67989760917 0 521956.67989760917 -722967.50893178582 0 0 0 0 3208878.0714523792 27798563.992927551 0 27798563.992927551 -55722616.261741638 0 0 0 0 -109325927.15356112 16074271.328586578 0 16074271.328586578 -7110663.4187202454 0 0 0 0 -79439260.614815116 130091589.96784782 0 130091589.96784782 11001249.405090332 0 0 0 0 -55084845.389881134 -184010706.1108284 0 -184010706.1108284 216432418.05861282 0 0 0 0 -57087604.219497681 150716506.22216797 0 150716506.22216797 -216723765.35286713 0 0 0 0 133975358.88251972 -157097083.84830475 0 -157097083.84830475 -9642613.0319023132 0 0 0 0 -140276917.86262035 -189315113.35899353 0 -189315113.35899353 -6815898.8060302734 0 0 0 0 -110816981.38803101 171950044.7797699 0 171950044.7797699 129212683.21469116 0 0 0 0 -341502603.19932461 158755001.92220879 0 158755001.92220879 133268418.03334045 0 0 0 0 35611580.589106083 149960514.78956223 0 149960514.78956223 -212152910.41632843 0 0 0 0 62039731.747659683 75762261.75340271 0 75762261.75340271 -6462507.0836181641 0 0 0 0 76356336.978412628 57015523.47946167 0 57015523.47946167 10032910.439407349 0 0 0 0 103405380.17792034 61532357.121086121 0 61532357.121086121 -114441672.97065735 0 0 0 0 64864221.218924522 -15369931.034202576 0 -15369931.034202576 -150143446.0745697 0 0 0 0 74408834.015766621 85719977.197734833 0 85719977.197734833 118865877.3314743 0 0 0 0 92032958.082983971 53745152.044082642 0 53745152.044082642 -17263243.67742157 0 0 0 0 84986975.225772858 31634233.993759155 0 31634233.993759155 67344395.111183167 0 0 0 0 -9375076.7410356998 40161188.634563446 0 40161188.634563446 103826016.50385284 0 0 0 0 26053331.71686554 -15229105.150617599 0 -15229105.150617599 221737071.45767212 0 0 0 0 60268183.207063675 -10607359.144180298 0 -10607359.144180298 -47543636.46628952 0 0 0 0 342456.22203919431 46870.083188032731 0 46870.083188032731 -760753.55775458366 0 0 0 0 98176467.791639328 24615148.327688217 0 24615148.327688217 -40793335.757072449 0 0 0 0 35340469.270302176 19028768.265578661 0 19028768.265578661 -6896757.2436676025 0 0 0 0 35342047.215713501 1982007.676109314 0 1982007.676109314 -13660671.868614197 0 0 0 0 563754.01168887573 924408.32902546786 0 924408.32902546786 -2086611.866593197 0 0 0 0 -11886608.325789452 -13896836.538215637 0 -13896836.538215637 -15588933.975456238 0 0 0 0 -17602412.586523473 26924092.25113368 0 26924092.25113368 -16085633.684333801 0 0 0 0 14739012.620864868 12309626.410217285 0 12309626.410217285 -10329557.226299286 0 0 0 0 12850120.378594398 13389434.673583984 0 13389434.673583984 -9504710.2616004944 0 0 0 0 13385629.770216703 11813001.884222031 0 11813001.884222031 -8422051.1202697754 0 0 0 0 13908864.14869678 6693737.1746511459 0 6693737.1746511459 -1361706.8292236328 0 0 0 0 12744412.047324121 12094974.861717224 0 12094974.861717224 -3242357.67578125 0 0 0 0 4815362.9046664238 10850855.925289154 0 10850855.925289154 -3259986.4245529175 0 0 0 0 10048040.965121031 727632.01682090759 0 727632.01682090759 -6905917.0290679932 0 0 0 0 24125923.088378429 11839860.415821075 0 11839860.415821075 -2144399.9323730469 0 0 0 0 23943094.139902115 13793675.64496994 0 13793675.64496994 -8952694.2589111328 0 0 0 0 -74670076.66634202 24382666.954479218 0 24382666.954479218 229994453.40342712 0 0 0 0 4625280.5673466921 8952482.7910499573 0 8952482.7910499573 -22032511.025093079 0 0 0 0 205171.314901451 3390052.6432292797 0 3390052.6432292797 -3411682.47219125 0 0 0 0 1476238.9663887024 2529917.2173156738 0 2529917.2173156738 -749968.23867034912 0 0 0 0 2434265.499837501 4944339.5359622668 0 4944339.5359622668 -6815863.4012683304 0 0 0 0 4890524.7068215581 3124490.0535169072 0 3124490.0535169072 -1165999.1392678581 0 0 0 0 1028530.3973283768 1466726.0656013489 0 1466726.0656013489 -367212.77117919922 0 0 0 0 -711622.90822251327 5054649.8264861945 0 5054649.8264861945 -5388560.0871240478 0 0 0 0 2419909.0895159934 5501951.7399932519 0 5501951.7399932519 -3187318.2791710421 0 0 0 0 57558449.34613058 64227813.577986002 0 64227813.577986002 43811420.090454102 0 0 0 0 57167011.801712036 73726781.472663879 0 73726781.472663879 26744956.915588379 0 0 0 0 61008016.798376083 27735859.976608276 0 27735859.976608276 -66023284.830932617 0 0 0 0 -38796325.966202259 8994556.2312316895 0 8994556.2312316895 -7970631.9210128784 0 0 0 0 13201868.028800964 6898397.7689361572 0 6898397.7689361572 -12071223.06949234 0 0 0 0 -640374.94394219806 1724458.1719218865 0 1724458.1719218865 -959796.0836755503 0 0 0 0 16313368.519377708 11005588.269165039 0 11005588.269165039 -9757895.0886535645 0 0 0 0 16103130.142951965 9475202.496673584 0 9475202.496673584 -9800863.8677215576 0 0 0 0 13970367.660894394 9282155.1269760132 0 9282155.1269760132 -5290884.5523605347 0 0 0 0 13655419.669725895 8023711.7579803467 0 8023711.7579803467 -10039981.412172318 0 0 0 0 9177428.8828039169 9495608.8383331299 0 9495608.8383331299 4867840.3526964188 0 0 0 0 8677738.5570636988 5926283.4919281006 0 5926283.4919281006 -3839747.8430938721 0 0 0 0 9570659.7897331715 3827306.752784729 0 3827306.752784729 -9521809.4626922607 0 0 0 0 2278603.5430536428 1192230.2054130509 0 1192230.2054130509 -2796966.3802366331 0 0 0 0 21635581.370938301 -6619354.4472522736 0 -6619354.4472522736 -18807374.029567719 0 0 0 0 7437555.9805803299 7743368.6822452545 0 7743368.6822452545 -1326277.6210727692 0 0 0 0 2631491.7037609057 4265132.6400610246 0 4265132.6400610246 -4202885.7002638802 0 0 0 0 13921015.765523911 9358331.8920211792 0 9358331.8920211792 -2158571.4812011719 0 0 0 0 8604801.9340245724 8183666.3706655502 0 8183666.3706655502 -3493560.4624443054 0 0 0 0 2307472.2276217472 5778228.0724691274 0 5778228.0724691274 -5136196.7609716039 0 0 0 0 -1540118.3223724365 4906180.4165344238 0 4906180.4165344238 -7294656.5104866028 0 0 0 0 5144791.0201568604 8338220.1277694702 0 8338220.1277694702 -8799.9115929603577 0 0 0 0 2936153.6865868103 5844872.4644511538 0 5844872.4644511538 -1494619.3293100782 0 0 0 0 1644418.3885154724 4340923.4589862823 0 4340923.4589862823 -2535201.6701965332 0 0 0 0 1585802.2344207764 4486431.4182224274 0 4486431.4182224274 -2618814.7063598633 0 0 0 0 7894790.1976961084 6476636.8088869881 0 6476636.8088869881 1327834.8396774344 0 0 0 0 4443914.0177305182 3217926.5823661145 0 3217926.5823661145 -4992650.4168328531 0 0 0 0 -1168929.2703297287 5731984.2098086197 0 5731984.2098086197 -3012518.9642503522 0 0 0 0 -2640813.989548821 5613467.6271227747 0 5613467.6271227747 -3381573.5338427816 0 0 0 0 -2644386.0445404053 7028673.8822631836 0 7028673.8822631836 -6910345.4183287621 0 0 0 0 -2585471.2599430084 7117246.6475963593 0 7117246.6475963593 -6908368.3832550049 0 0 0 0 3826957.2366153793 2721494.8697382752 0 2721494.8697382752 -5150147.6679869965 0 0 0 0 1649111.5083750896 2545791.8306425828 0 2545791.8306425828 -2231012.5485373996 0 0 0 0 -2508155.1651880741 3792968.4789357185 0 3792968.4789357185 -3108746.6814880371 0 0 0 0 20460342.167423248 3389489.0141906738 0 3389489.0141906738 -7515089.1296157837 0 0 0 0 6280546.1826812252 5699365.4289387446 0 5699365.4289387446 -3145168.5451592356 0 0 0 0 -2817893.700630188 6268838.0459022522 0 6268838.0459022522 -3073115.8896064758 0 0 0 0 23022181.032455444 4376624.1182861328 0 4376624.1182861328 -7508136.6464538574 0 0 0 0 -444587.29080818221 4455024.5938928612 0 4455024.5938928612 -5385797.117985772 0 0 0 0 -1461134.363571167 4812137.1170196533 0 4812137.1170196533 -7317809.8019866943 0 0 0 0 2998205.2173347473 3691804.1570281982 0 3691804.1570281982 -3349479.3075752258 0 0 0 0 2187883.7772979736 3643006.5478210449 0 3643006.5478210449 -2977918.1518211365 0 0 0 0 4000423.5275382996 1799400.7036895752 0 1799400.7036895752 -381016.13362884521 0 0 0 0 4149520.2051139656 3392274.8696790738 0 3392274.8696790738 -875932.79569256306 0 0 0 0 3477947.0553809889 5785048.7518130587 0 5785048.7518130587 -3531880.2668828443 0 0 0 0 6698242.4630509447 2932876.1483664252 0 2932876.1483664252 -1903904.6414236575 0 0 0 0 4195490.3871125374 4406652.4371251259 0 4406652.4371251259 -5153964.7827401273 0 0 0 0 80499165.632593155 46284864.355690002 0 46284864.355690002 26543057.39453125 0 0 0 0 97414711.220472813 61092429.492898941 0 61092429.492898941 -23498469.760864258 0 0 0 0 112440463.0758276 26761573.159790039 0 26761573.159790039 13982166.546424866 0 0 0 0 4577457.5439258991 -745936.74039378669 0 -745936.74039378669 -964590.61677191406 0 0 0 0 3629793.2074317932 -442752.40077209473 0 -442752.40077209473 -1239219.665435791 0 0 0 0 -2791604.2148490427 3055472.6069281641 0 3055472.6069281641 -2046653.9187308289 0 0 0 0 4285513.7666625977 -289607.11184692383 0 -289607.11184692383 -1361914.2626953125 0 0 0 0 -2216612.6426552758 9204596.7675796542 0 9204596.7675796542 -4095740.0676917955 0 0 0 0 8077001.4655399323 2447782.5714607239 0 2447782.5714607239 -1083379.5729064941 0 0 0 0 11132448.238412594 3998474.042316013 0 3998474.042316013 -3141226.3973221369 0 0 0 0 2612654.9862996917 5573236.8443487268 0 5573236.8443487268 -3121898.0375808887 0 0 0 0 -2592416.9655990601 3972775.8673553467 0 3972775.8673553467 -2569018.9329223633 0 0 0 0 14917827.574195862 16464978.905284882 0 16464978.905284882 -69019.98503112793 0 0 0 0 18462223.492652893 6432791.4894828796 0 6432791.4894828796 -7144957.5275878906 0 0 0 0 26452512.942848206 10293897.971443176 0 10293897.971443176 -5280463.5353469849 0 0 0 0 34416342.713230133 12113682.333415985 0 12113682.333415985 -7949876.6323547363 0 0 0 0 24716408.934989929 21098728.978263855 0 21098728.978263855 989994.62033462524 0 0 0 0 22956421.82466507 -619853.87013912201 0 -619853.87013912201 344467.82646179199 0 0 0 0 8693829.1171411686 2614115.7379622227 0 2614115.7379622227 -3003986.467595242 0 0 0 0 39220030.317077637 21987888.188648224 0 21987888.188648224 -3669164.0222969055 0 0 0 0 68648718.591276169 3939215.8814258575 0 3939215.8814258575 -31120664.39440155 0 0 0 0 -3329972.6130711194 10574475.235150523 0 10574475.235150523 -5161719.4564772695 0 0 0 0 -1477403.7707781792 18936837.784297943 0 18936837.784297943 -4217733.1538848877 0 0 0 0 -1220635.4742556871 1016955.9876625165 0 1016955.9876625165 -532901.42534429953 0 0 0 0 160722610.57252026 -25271320.586750031 0 -25271320.586750031 -51927783.038589478 0 0 0 0 124310210.81558323 15207577.101409912 0 15207577.101409912 -24401538.00756073 0 0 0 0 1174929.6013611457 3019208.896711125 0 3019208.896711125 -4899621.8480659276 0 0 0 0 -4744378.3190924004 728319.22533763014 0 728319.22533763014 2655419.7671730965 0 0 0 0 2210236.1067409515 -136243.81240081787 0 -136243.81240081787 -529963.1009979248 0 0 0 0 21218098.903621674 6095407.7008361816 0 6095407.7008361816 -2431268.2573699951 0 0 0 0 -21828037.693778992 -12568257.520029068 0 -12568257.520029068 -2846258.7185020447 0 0 0 0 19326072.323516846 -4168795.096944809 0 -4168795.096944809 -29192749.083343506 0 0 0 0 23881239.479637146 1424836.5125198364 0 1424836.5125198364 4757079.2297170162 0 0 0 0 38999442.742115021 1168333.1271018982 0 1168333.1271018982 -2301509.885848999 0 0 0 0 31138897.778800964 12304636.762001038 0 12304636.762001038 -5710773.2092514038 0 0 0 0 46872886.855434418 9921086.5919094086 0 9921086.5919094086 -7520551.5694732666 0 0 0 0 23886788.646530151 3681610.8157424927 0 3681610.8157424927 -2701877.7651777267 0 0 0 0 25043222.859603882 2297736.3471755981 0 2297736.3471755981 -11075389.166962385 0 0 0 0 34614712.055915833 6531601.3440055847 0 6531601.3440055847 -11206938.476364136 0 0 0 0 30192853.053291321 5252530.3684253693 0 5252530.3684253693 -11746250.685577393 0 0 0 0 24021210.905105591 3843527.683807373 0 3843527.683807373 -10552071.836608887 0 0 0 0 22331104.106958389 -2916909.8354897499 0 -2916909.8354897499 -16937656.379211426 0 0 0 0 23190312.54940033 3280351.0122680664 0 3280351.0122680664 -11080019.934936523 0 0 0 0 24239813.986618042 1150241.6060028076 0 1150241.6060028076 -13931457.37902832 0 0 0 0 8641441.9695739746 -4034306.2301635742 0 -4034306.2301635742 -10956021.93334198 0 0 0 0 1760932.7333805673 1320403.3695177133 0 1320403.3695177133 756186.22512096912 0 0 0 0 -1718224.6614379883 -7616393.979850769 0 -7616393.979850769 -8627830.1712341309 0 0 0 0 32407175.375827789 80721709.504631042 0 80721709.504631042 43821863.832313538 0 0 0 0 2450897.0045928955 -19805634.066431046 0 -19805634.066431046 -14495683.197593689 0 0 0 0 5533164.7506713867 1209454.2361240387 0 1209454.2361240387 -7504696.281829834 0 0 0 0 24789984.897679329 2262216.0276899338 0 2262216.0276899338 -15310887.432151794 0 0 0 0 13041029.559341431 -7818296.2326316833 0 -7818296.2326316833 -17405952.576271057 0 0 0 0 37776826.015815735 17104959.458175659 0 17104959.458175659 -432440.84689331055 0 0 0 0 -13524398.910820007 -106950127.39933205 0 -106950127.39933205 76623390.806106567 0 0 0 0 30800431.7787323 32384431.041496277 0 32384431.041496277 -32530825.591453552 0 0 0 0 10816905.847991943 2342843.9081878662 0 2342843.9081878662 -8516860.4975891113 0 0 0 0 127758942.33220673 40387676.859552383 0 40387676.859552383 -209200857.24388885 0 0 0 0 1305281.8766784668 24694262.08618927 0 24694262.08618927 -13191940.345626831 0 0 0 0 20486202.532131195 33214772.232727051 0 33214772.232727051 -32059212.113899231 0 0 0 0 16259340.246471405 15397361.374214172 0 15397361.374214172 -7968304.1080932617 0 0 0 0 40188127.552635193 24559684.062156677 0 24559684.062156677 -28258380.497024536 0 0 0 0 12090090.12802124 24558054.18687439 0 24558054.18687439 -17913613.975997925 0 0 0 0 79438226.63130188 58461173.387298584 0 58461173.387298584 -14515843.911697388 0 0 0 0 6926648.1390440203 2073231.6016365839 0 2073231.6016365839 -773964.93897468969 0 0 0 0 16870171.797462463 -232965.12395477295 0 -232965.12395477295 -6639780.6966285706 0 0 0 0 22936549.959187031 2864480.6543266773 0 2864480.6543266773 -11372790.006622314 0 0 0 0 21139509.904541016 1975891.0463943481 0 1975891.0463943481 -8599322.7862701416 0 0 0 0 15616567.638534546 1667946.2812957764 0 1667946.2812957764 -8428361.6512451172 0 0 0 0 18012983.998519897 -526437.17664337158 0 -526437.17664337158 -9065324.6435928345 0 0 0 0 18008443.672264099 -761693.56452178955 0 -761693.56452178955 -11381701.884155273 0 0 0 0 21011025.824630737 881490.35666799545 0 881490.35666799545 -10485341.791778564 0 0 0 0 17722463.217025757 -1833999.4649505615 0 -1833999.4649505615 -11245869.521362305 0 0 0 0 20652033.251079559 2493210.6868343353 0 2493210.6868343353 -5051907.534576416 0 0 0 0 17044758.601654053 -1006001.881313324 0 -1006001.881313324 -3692908.0458450317 0 0 0 0 20295541.700195312 1588915.0634689331 0 1588915.0634689331 -7133510.916809082 0 0 0 0 20639867.218002319 1392896.6733169556 0 1392896.6733169556 -8823254.8972473145 0 0 0 0 17192746.202667236 60973.354557037354 0 60973.354557037354 3999853.1969070435 0 0 0 0 -2593954.0747566223 6255716.8920059204 0 6255716.8920059204 -8948788.8924102783 0 0 0 0 5660947.9298385233 5596312.9513938352 0 5596312.9513938352 -4850361.9781388883 0 0 0 0 -701444.17310549878 4403549.3967800103 0 4403549.3967800103 -3805383.595474272 0 0 0 0 1351683.9098739624 3417917.4381561279 0 3417917.4381561279 -2328125.3488769531 0 0 0 0 39761738.570983887 26161830.653076172 0 26161830.653076172 51423553.166625977 0 0 0 0 33809443.787734985 34801889.81703949 0 34801889.81703949 39294361.02835083 0 0 0 0 57354860.5831604 5226091.9792480469 0 5226091.9792480469 60671997.053646088 0 0 0 0 -382233.15115819126 1525415.8302822728 0 1525415.8302822728 299872.21979692532 0 0 0 0 39389194.678260803 33080787.001068115 0 33080787.001068115 18423737.238479614 0 0 0 0 7263163.5178832132 3882264.5325439069 0 3882264.5325439069 -5810551.5133550037 0 0 0 0 2895272.1131896973 1888389.5245513916 0 1888389.5245513916 -1578440.5600700378 0 0 0 0 3800648.197098732 2301249.0627441406 0 2301249.0627441406 -1721329.2939910889 0 0 0 0 47853773.146362305 7332472.36328125 0 7332472.36328125 -406911.49896240234 0 0 0 0 8782891.745880574 6251349.1905008145 0 6251349.1905008145 1018136.648268532 0 0 0 0 1965268.5712792696 3536926.3170061987 0 3536926.3170061987 -3067152.5522276722 0 0 0 0 4749741.1484222412 12728317.336959839 0 12728317.336959839 -1696730.7816772461 0 0 0 0 2359082.1438112743 405717.94457063917 0 405717.94457063917 -310825.27390358225 0 0 0 0 16137015.989212036 4475456.3131523132 0 4475456.3131523132 1869456.3408660889 0 0 0 0 9949467.7185821533 8703601.1708984375 0 8703601.1708984375 2527499.9605712891 0 0 0 0 9633411.8174133301 9451191.4322814941 0 9451191.4322814941 2198143.1658477783 0 0 0 0 43475158.20475769 2481815.6734161377 0 2481815.6734161377 -9710241.8135375977 0 0 0 0 21900846.478397369 15380492.438405991 0 15380492.438405991 -16716336.174102783 0 0 0 0 17226751.020835876 7325153.7784500122 0 7325153.7784500122 -2486772.2446899414 0 0 0 0 6265170.4379410744 9833705.8313398361 0 9833705.8313398361 3799011.3080444336 0 0 0 0 7088875.358215332 8463734.6852722168 0 8463734.6852722168 5810797.2691650391 0 0 0 0 12678117.843200684 12058149.644775391 0 12058149.644775391 -7410824.4167175293 0 0 0 0 6193514.7600178719 12612535.845484734 0 12612535.845484734 -49536.142883300781 0 0 0 0 9576609.8277282715 9696941.1177825928 0 9696941.1177825928 2276623.8896484375 0 0 0 0 6666223.9135131836 9706727.208770752 0 9706727.208770752 3803319.4414978027 0 0 0 0 6894999.7427368164 8605566.7172546387 0 8605566.7172546387 5735277.8358764648 0 0 0 0 7412019.4831848145 7400116.2483978271 0 7400116.2483978271 6792367.3865814209 0 0 0 0 7444065.1742858887 7627680.793258667 0 7627680.793258667 4617574.5070495605 0 0 0 0 9008845.9036407471 8063939.0249557495 0 8063939.0249557495 4512044.2182006836 0 0 0 0 7182910.3977499008 3421183.894701004 0 3421183.894701004 204470.39682006836 0 0 0 0 7768835.4309387207 6486766.7053222656 0 6486766.7053222656 4996047.4032821655 0 0 0 0 7668626.504119873 6385064.6647338867 0 6385064.6647338867 5784616.9847564697 0 0 0 0 7068228.40084696 5875158.3013859503 0 5875158.3013859503 -3165131.8567757485 0 0 0 0 6924589.1716003418 7006648.4564666748 0 7006648.4564666748 8299039.1442108154 0 0 0 0 -980262.43361438438 2161749.8728577327 0 2161749.8728577327 1043360.6940990817 0 0 0 0 39412615.654022217 28711932.326141357 0 28711932.326141357 15261073.105155945 0 0 0 0 31799701.006134033 -5942980.2950820923 0 -5942980.2950820923 6437359.6675033569 0 0 0 0 11733030.276603699 4695461.0451393127 0 4695461.0451393127 1876362.6692352295 0 0 0 0 61155959.013160706 17318532.437238693 0 17318532.437238693 -26072598.58322525 0 0 0 0 1152470.6615275629 1038856.5089424248 0 1038856.5089424248 546174.0433209762 0 0 0 0 -38368194.333148956 -16124918.794855118 0 -16124918.794855118 -4022551.0977067947 0 0 0 0 36118758.440022469 17398278.147933483 0 17398278.147933483 15335054.992164612 0 0 0 0 44538053.040007234 27805826.416142106 0 27805826.416142106 -32664656.690223694 0 0 0 0 28872650.473075867 35969727.082626343 0 35969727.082626343 -33745192.484382629 0 0 0 0 32935941.71837616 35125765.142032623 0 35125765.142032623 -34810251.202033997 0 0 0 0 -56915488.266345978 11433311.572223663 0 11433311.572223663 7386768.8215637207 0 0 0 0 -81506358.49671936 45698225.281505585 0 45698225.281505585 -30896195.870140076 0 0 0 0 -6677459.421257019 58208685.537788391 0 58208685.537788391 -29137476.940422058 0 0 0 0 -45575949.722788334 82282019.631802917 0 82282019.631802917 72251958.187149048 0 0 0 0 -26833729.032936096 15338587.969963074 0 15338587.969963074 72138338.353237152 0 0 0 0 -12169755.356105804 91609902.079566956 0 91609902.079566956 -25694085.765491486 0 0 0 0 -89547689.611386299 113405761.79146481 0 113405761.79146481 -7484214.6693153381 0 0 0 0 -121187244.58551788 151656193.38001633 0 151656193.38001633 -44151203.17382431 0 0 0 0 -86049176.379720211 52019223.138858318 0 52019223.138858318 -9558735.9240875244 0 0 0 0 -138175320.03295135 140352663.47418213 0 140352663.47418213 -49875958.179294586 0 0 0 0 -221578166.67895126 220212019.31787872 0 220212019.31787872 -87435341.212630272 0 0 0 0 -258660553.05664062 207885205.9786396 0 207885205.9786396 -78008653.171886444 0 0 0 0 -229814279.3379631 103800167.12496567 0 103800167.12496567 -13096302.207927704 0 0 0 0 -143956097.40621185 102464275.02371597 0 102464275.02371597 -71621059.686412811 0 0 0 0 -162513006.55716705 102280131.48906326 0 102280131.48906326 17965651.920650482 0 0 0 0 186091.78948760405 469666.09740373213 0 469666.09740373213 481461.02273737267 0 0 0 0 -21248440.618850112 27351797.57903257 0 27351797.57903257 -103999013.82915497 0 0 0 0 33734815.292981744 21522249.73109442 0 21522249.73109442 -4716196.6372032166 0 0 0 0 -102557822.64350128 12995979.670799255 0 12995979.670799255 43262497.649914742 0 0 0 0 -141503925.8138504 109159562.88630676 0 109159562.88630676 -37546012.817737579 0 0 0 0 -211584606.29611206 393982411.4315443 0 393982411.4315443 -344132870.9630127 0 0 0 0 -226145188.7551651 435233333.52736092 0 435233333.52736092 -460295583.22870636 0 0 0 0 -154273751.99758148 321363654.19906235 0 321363654.19906235 -467901540.72383881 0 0 0 0 -173132640.63191986 305241920.8536911 0 305241920.8536911 -361330019.17812347 0 0 0 0 -211352615.54905319 350563720.52709579 0 350563720.52709579 -410037068.12493134 0 0 0 0 -256769496.60416222 306060080.14294434 0 306060080.14294434 -304738487.70336914 0 0 0 0 -306878990.79841232 410218863.30356216 0 410218863.30356216 -336392582.59080887 0 0 0 0 -300996163.83253002 436279723.69826651 0 436279723.69826651 -224174976.80988693 0 0 0 0 -393852528.20830345 373112096.64222527 0 373112096.64222527 -257306738.03373718 0 0 0 0 99483089.695598602 8549500.3442726135 0 8549500.3442726135 -142137430.76572609 0 0 0 0 464580.53010908328 308760.77439270727 0 308760.77439270727 -343908.77919084951 0 0 0 0 -24524699.18135643 74880979.869720459 0 74880979.869720459 -131284575.36932373 0 0 0 0 133262996.9621315 165654336.46975327 0 165654336.46975327 -90099820.295043945 0 0 0 0 -54422151.468855381 222713694.49162006 0 222713694.49162006 -62374810.538131714 0 0 0 0 -145379448.38310623 259412128.96753979 0 259412128.96753979 -114495495.15202332 0 0 0 0 -197398447.02217484 236302917.63885307 0 236302917.63885307 -49680582.857040405 0 0 0 0 -348945471.36595154 376654574.83456802 0 376654574.83456802 -144133180.34763527 0 0 0 0 -355156409.91417027 378655795.38683128 0 378655795.38683128 -128727059.63884354 0 0 0 0 -256643814.11693573 446240015.54710197 0 446240015.54710197 -237331937.85357857 0 0 0 0 -335594583.17211533 438496741.46628189 0 438496741.46628189 -138097596.24816132 0 0 0 0 -376518612.43199921 510386181.29554749 0 510386181.29554749 -260082943.58543205 0 0 0 0 -442288870.47003555 484270988.33467484 0 484270988.33467484 -133359625.16204739 0 0 0 0 -485572987.74180412 542825766.64134407 0 542825766.64134407 -147837137.61857989 0 0 0 0 -339063787.42519379 575998663.80522156 0 575998663.80522156 -148560522.72973633 0 0 0 0 -523602031.63713646 451459105.02367592 0 451459105.02367592 -237352125.58319473 0 0 0 0 -496133172.38613319 507478663.03883553 0 507478663.03883553 -168879567.93605042 0 0 0 0 -432075802.01104355 481766786.89645958 0 481766786.89645958 -161306125.85886383 0 0 0 0 -439944053.5035162 477445651.72697735 0 477445651.72697735 -235748052.37966537 0 0 0 0 -526605752.45412445 448761149.68208122 0 448761149.68208122 -138477364.02540493 0 0 0 0 -414003684.94227028 303817565.34459591 0 303817565.34459591 -114756063.46171188 0 0 0 0 -604561168.08261108 417725030.89710236 0 417725030.89710236 -164041563.09937668 0 0 0 0 -749750707.58622527 338221225.39850438 0 338221225.39850438 -202466025.6619873 0 0 0 0 -386924206.30941582 653721142.82483673 0 653721142.82483673 -555575519.94549942 0 0 0 0 -714403503.23337817 669826831.0641495 0 669826831.0641495 -300997710.8150177 0 0 0 0 -457057137.61420441 517785665.93983459 0 517785665.93983459 -225432850.50690556 0 0 0 0 -447799942.8873167 494909047.14291859 0 494909047.14291859 -356540984.69142914 0 0 0 0 -51383746.391366959 384634270.64308167 0 384634270.64308167 -397671996.97943878 0 0 0 0 -461874299.81493378 131769827.15318108 0 131769827.15318108 -164579957.03308678 0 0 0 0 -102859609.75220108 116186628.41243935 0 116186628.41243935 -98533844.06851387 0 0 0 0 -285078205.6194315 145286938.81078243 0 145286938.81078243 -62955959.687580109 0 0 0 0 -225231948.90167999 48556893.384971619 0 48556893.384971619 -318341.87452316284 0 0 0 0 -281035173.02847862 140823636.84911346 0 140823636.84911346 -84606498.038181305 0 0 0 0 -426250287.95999146 301415969.30587387 0 301415969.30587387 -107029586.29603577 0 0 0 0 -448034141.92963028 235656672.71046829 0 235656672.71046829 -70937748.368042469 0 0 0 0 -621000923.15790558 410647928.0602932 0 410647928.0602932 -213717460.18282986 0 0 0 0 -464359477.97708321 205415348.66649628 0 205415348.66649628 -122804749.46181107 0 0 0 0 -571274549.27210426 391692181.36178398 0 391692181.36178398 -467607358.53883362 0 0 0 0 -694519697.43394089 407078866.92801285 0 407078866.92801285 -133963355.48029709 0 0 0 0 -510944527.32005024 222828811.72224045 0 222828811.72224045 -11255373.374664307 0 0 0 0 -500223211.12014389 157168948.97353363 0 157168948.97353363 34078362.892591476 0 0 0 0 -351569432.62561798 68291956.076094747 0 68291956.076094747 -4916924.5667114258 0 0 0 0 -333644190.65164566 220583647.36857033 0 220583647.36857033 -167593117.92432404 0 0 0 0 -217255928.62611008 16988847.348934174 0 16988847.348934174 15520239.287506104 0 0 0 0 -239537295.75666046 90437076.347251892 0 90437076.347251892 -50817237.667133331 0 0 0 0 -282134092.8384552 123134498.52619743 0 123134498.52619743 23490265.413528442 0 0 0 0 -274090658.30792236 -10645961.187479019 0 -10645961.187479019 37565925.424087524 0 0 0 0 -218411836.72579122 148632069.5719893 0 148632069.5719893 62159785.690071106 0 0 0 0 -196878922.11436462 -17627264.274616241 0 -17627264.274616241 -63328488.295253754 0 0 0 0 -624726894.28630066 -90386023.711444855 0 -90386023.711444855 53931139.480300903 0 0 0 0 -526101381.91086197 144502729.11685944 0 144502729.11685944 103013048.68845367 0 0 0 0 -1011990755.4068928 296818238.04890633 0 296818238.04890633 73630132.906684875 0 0 0 0 -887459428.87988281 481479644.73456573 0 481479644.73456573 93261218.153495789 0 0 0 0 -935891453.19604874 716984433.77708936 0 716984433.77708936 64541740.036087036 0 0 0 0 -1537116998.2809525 520261927.832901 0 520261927.832901 187801019.94870043 0 0 0 0 -899981938.16349888 439100340.55193996 0 439100340.55193996 172931138.53922272 0 0 0 0 -1979013334.5850163 848480564.69028854 0 848480564.69028854 -46163428.254562378 0 0 0 0 -815570591.35463333 726001926.45575905 0 726001926.45575905 -492728837.81848907 0 0 0 0 -935729937.53527069 -68983408.487491608 0 -68983408.487491608 -980462638.47157764 0 0 0 0 -1296206496.5747986 1046245187.2172031 0 1046245187.2172031 -703674264.06898117 0 0 0 0 -1074700564.723423 1132176212.9226494 0 1132176212.9226494 -742468121.33695149 0 0 0 0 70281062.700523376 76640105.012248993 0 76640105.012248993 -804780393.37122726 0 0 0 0 -169421228.78556156 1039122.5965633392 0 1039122.5965633392 19673888.150871277 0 0 0 0 -1753200206.4467986 -409453754.66441631 0 -409453754.66441631 55438872.7784729 0 0 0 0 -1939057.2431751937 2381199.1138396272 0 2381199.1138396272 -1668844.9175111838 0 0 0 0 -277725989.34037399 240369726.03924942 0 240369726.03924942 -158773953.25199127 0 0 0 0 -231775930.78879166 91003999.039922714 0 91003999.039922714 -157396657.27543259 0 0 0 0 -213635780.74743652 7631825.1885576248 0 7631825.1885576248 146589277.68148422 0 0 0 0 -1865131.8815888576 2356603.8868799573 0 2356603.8868799573 -1252418.2666253075 0 0 0 0 277393333.81213951 468627274.84877014 0 468627274.84877014 148374990.15058497 0 0 0 0 -254659450.21417046 44719127.552618027 0 44719127.552618027 386479499.41655827 0 0 0 0 -1127427.1585834716 1284979.557082809 0 1284979.557082809 -576725.14757419005 0 0 0 0 -1062342679.539793 632426471.55641365 0 632426471.55641365 213682485.15621185 0 0 0 0 509440094.81970024 353592560.43609238 0 353592560.43609238 -549867593.05923271 0 0 0 0 -884632975.57252502 940894850.46106339 0 940894850.46106339 -322863727.16055012 0 0 0 0 -651504542.43406296 659696614.73980904 0 659696614.73980904 -63689021.990711212 0 0 0 0 -773051740.75340509 559310028.36417627 0 559310028.36417627 85532371.122455597 0 0 0 0 -622607783.92222595 195524706.46958923 0 195524706.46958923 -114516752.05284882 0 0 0 0 -26674577.887081146 223139279.05642509 0 223139279.05642509 -412990906.30843925 0 0 0 0 -22709291.175735474 383554578.96438408 0 383554578.96438408 -143582429.80607986 0 0 0 0 459241849.43555164 615385520.36975002 0 615385520.36975002 -24295858.444267273 0 0 0 0 415572551.43930244 55973692.92754364 0 55973692.92754364 69239752.377285004 0 0 0 0 -262440744.03271866 225634500.30209351 0 225634500.30209351 198771116.07976532 0 0 0 0 -972754.79024491925 1148490.5431163716 0 1148490.5431163716 -470023.32920277864 0 0 0 0 542801137.43996429 259628453.15174675 0 259628453.15174675 -450088994.15884399 0 0 0 0 -102002188.2744236 -59994743.723838806 0 -59994743.723838806 160063323.25524139 0 0 0 0 -527427263.15469742 144673322.69396973 0 144673322.69396973 312656561.87327957 0 0 0 0 713161611.99707603 297678043.93131065 0 297678043.93131065 114733052.98041058 0 0 0 0 197678.91037888825 1053401.4660195932 0 1053401.4660195932 -621193.46213176474 0 0 0 0 862956356.23802567 378998275.3341713 0 378998275.3341713 -498258027.95185471 0 0 0 0 -401071712.25392723 648730251.15055847 0 648730251.15055847 -53005270.193473816 0 0 0 0 639633991.95175552 -56702385.946144104 0 -56702385.946144104 383835390.66834831 0 0 0 0 474823640.37670159 663062139.55351496 0 663062139.55351496 75499632.836418152 0 0 0 0 435447281.51124954 380645819.96834373 0 380645819.96834373 -201630643.04867172 0 0 0 0 390403504.1822052 58969777.399921417 0 58969777.399921417 146310529.35950565 0 0 0 0 -75887917.154960632 76087879.322761536 0 76087879.322761536 -87752500.878371239 0 0 0 0 -174745523.67749786 294502724.27262497 0 294502724.27262497 10221830.921440125 0 0 0 0 276224908.35345745 207688352.76998329 0 207688352.76998329 -204672775.05810547 0 0 0 0 -385570781.04506111 70711085.997816086 0 70711085.997816086 -170259532.66941071 0 0 0 0 -487272782.43054819 221059724.24995327 0 221059724.24995327 62558106.568778992 0 0 0 0 -339542199.29638863 -1388199.8033618927 0 -1388199.8033618927 -1237785.576789856 0 0 0 0 -86432740.870392799 241659741.71882343 0 241659741.71882343 166097.26287460327 0 0 0 0 306083878.69450951 42474867.484237671 0 42474867.484237671 -60595065.622811317 0 0 0 0 118916889.74602509 334324720.4104557 0 334324720.4104557 69487573.723014832 0 0 0 0 564458073.40661621 158346943.88944244 0 158346943.88944244 -190462.10548170577 0 0 0 0 322505517.73902583 171836203.8395865 0 171836203.8395865 208263245.43800354 0 0 0 0 689700495.70038414 348054846.15749836 0 348054846.15749836 8532289.5061035156 0 0 0 0 -1164966305.4208717 325243385.61563301 0 325243385.61563301 -12307126.903610229 0 0 0 0 -912838830.47609711 437645388.93421936 0 437645388.93421936 -34070209.543418407 0 0 0 0 -1295433749.0833359 414370564.34804153 0 414370564.34804153 -35328070.851237297 0 0 0 0 -541494546.98197174 595439795.19966316 0 595439795.19966316 -215954232.25540161 0 0 0 0 -992333098.9614172 760852041.26161766 0 760852041.26161766 -262322392.96131897 0 0 0 0 -193144778.09775734 576211707.5179882 0 576211707.5179882 -493851134.23442459 0 0 0 0 -2040266234.0480652 294507698.88005638 0 294507698.88005638 -5332351.563041687 0 0 0 0 -707948533.95103264 357020122.76167107 0 357020122.76167107 -184286370.15720367 0 0 0 0 -496463539.34781647 252184023.30937576 0 252184023.30937576 -275108775.16645813 0 0 0 0 -831838003.34143066 59206540.463943481 0 59206540.463943481 -42343031.646562576 0 0 0 0 -1265353936.7710361 294875567.10194016 0 294875567.10194016 14887154.849006653 0 0 0 0 -477464.85081343143 -330900.93831217103 0 -330900.93831217103 116023.86819490045 0 0 0 0 -1110582392.3716011 236413945.26006699 0 236413945.26006699 -13330010.129623413 0 0 0 0 -508339602.63183403 153162885.05974913 0 153162885.05974913 -48428271.789932251 0 0 0 0 -1077489060.8783836 51269913.466341019 0 51269913.466341019 64130404.868366241 0 0 0 0 -582945089.74672699 240764267.45461464 0 240764267.45461464 -176185.44842147827 0 0 0 0 -950107.73838722031 -661498.57048618328 0 -661498.57048618328 130364.09379156306 0 0 0 0 -626586760.45229173 268170507.48984182 0 268170507.48984182 -17908523.864891052 0 0 0 0 -831303990.37040901 364502846.73638535 0 364502846.73638535 252908.09380401467 0 0 0 0 -938640216.33294392 448622147.08660889 0 448622147.08660889 2763628.0689544678 0 0 0 0 -687014518.49519253 366931037.59815407 0 366931037.59815407 -87461.221092224121 0 0 0 0 -805272150.0643189 439798126.18745279 0 439798126.18745279 3326923.8090438843 0 0 0 0 -636561860.42239761 442965109.2325964 0 442965109.2325964 -73536631.642173767 0 0 0 0 -450486914.20886803 326997746.03509903 0 326997746.03509903 -94576894.120857239 0 0 0 0 -505791497.07960606 328493709.44636154 0 328493709.44636154 -33245.500915527344 0 0 0 0 -414088011.16547775 287355797.57656479 0 287355797.57656479 -73126067.751455307 0 0 0 0 -414334447.49755287 383749217.10286331 0 383749217.10286331 -143030034.32039261 0 0 0 0 268610.13234237744 -879498.1020921478 0 -879498.1020921478 -523509.56278586388 0 0 0 0 -431699606.71912766 278635848.603302 0 278635848.603302 -117813.08151576738 0 0 0 0 -543012839.50897884 197408438.37901306 0 197408438.37901306 -39562149.052879333 0 0 0 0 323597.87777742045 -661782.22928363737 0 -661782.22928363737 -789448.47807533666 0 0 0 0 -120432935.5276165 106026590.69221497 0 106026590.69221497 -69677953.740276337 0 0 0 0 -250252264.05879784 73256230.412651062 0 73256230.412651062 6845448.6659421921 0 0 0 0 -61728105.397217751 -23168950.7397995 0 -23168950.7397995 -21922316.143163681 0 0 0 0 -238654421.11731148 362729081.21893311 0 362729081.21893311 -344287546.63473892 0 0 0 0 -514743791.9589076 438858394.47069955 0 438858394.47069955 -170896519.17280579 0 0 0 0 -259363830.06477737 220208386.96556854 0 220208386.96556854 -109759748.88017273 0 0 0 0 -260137286.26605609 270001844.0738405 0 270001844.0738405 -190633195.38121796 0 0 0 0 -55704105.486484528 101600839.37575531 0 101600839.37575531 -158167778.09614372 0 0 0 0 -206761914.03234345 227742703.19295478 0 227742703.19295478 -188331625.01426697 0 0 0 0 -181306318.3591156 243233507.76093292 0 243233507.76093292 -183522070.52813721 0 0 0 0 65755164.865867615 131439431.94136047 0 131439431.94136047 -178341625.29820251 0 0 0 0 175044299.10403442 21910641.762125015 0 21910641.762125015 -72737424.874633789 0 0 0 0 79634.617489758413 -172249.66483251331 0 -172249.66483251331 340925.15444018319 0 0 0 0 12122730.515930176 109408395.33181 0 109408395.33181 57757482.986961365 0 0 0 0 28828588.240913391 142241901.90252686 0 142241901.90252686 7393395.1693115234 0 0 0 0 -74096243.219354153 20755324.201921463 0 20755324.201921463 31032882.778831482 0 0 0 0 6788501.9548721313 25098405.063339233 0 25098405.063339233 14992406.534000397 0 0 0 0 -14063882.961790085 49326199.23049736 0 49326199.23049736 43687035.313293457 0 0 0 0 -130160317.71933937 70069439.730871201 0 70069439.730871201 -55643651.897026062 0 0 0 0 -30453786.693649292 -7356638.1353721619 0 -7356638.1353721619 -36370905.459062576 0 0 0 0 -3399812.4961228371 4886238.0583553314 0 4886238.0583553314 -34960009.583740234 0 0 0 0 346427.84229343571 -488973.12237111013 0 -488973.12237111013 -563648.58070086688 0 0 0 0 -33811006.086227417 -24122363.696083069 0 -24122363.696083069 -526031.58222961426 0 0 0 0 -50228326.066141129 -2553182.6180324554 0 -2553182.6180324554 18096433.167694092 0 0 0 0 -12827570.217001915 3605777.0936164856 0 3605777.0936164856 21832755.81716156 0 0 0 0 -12049723.43658638 5719013.743637085 0 5719013.743637085 14760711.534690857 0 0 0 0 -26637459.08241272 -14354530.919265747 0 -14354530.919265747 10410373.807495117 0 0 0 0 -25001964.711899757 -14927822.971563339 0 -14927822.971563339 9815671.843208313 0 0 0 0 -3857362.5668034554 13590693.358510971 0 13590693.358510971 3430607.6048736572 0 0 0 0 30471566.544398308 32491641.458805084 0 32491641.458805084 25875318.300598145 0 0 0 0 -2036427.8014221191 6884671.5852813721 0 6884671.5852813721 24559689.866043091 0 0 0 0 24018638.736829758 48039937.713508606 0 48039937.713508606 38801620.31905365 0 0 0 0 6489985.4409643281 3929806.9554681405 0 3929806.9554681405 -7107544.8003723547 0 0 0 0 25991882.74202919 22659822.180412292 0 22659822.180412292 11480211.719898224 0 0 0 0 -7109979.6510254303 5002942.2223134423 0 5002942.2223134423 6026177.5600056797 0 0 0 0 185594177.50577164 139139714.52967834 0 139139714.52967834 12935550.357413292 0 0 0 0 -14036793.345882416 12697028.751218796 0 12697028.751218796 43602571.228378296 0 0 0 0 -94094235.208797455 -25949564.305498123 0 -25949564.305498123 61157872.221725464 0 0 0 0 -6107674.5587912025 6719982.1379509866 0 6719982.1379509866 -335968.55168805271 0 0 0 0 10666304.130172729 8789230.96534729 0 8789230.96534729 4723057.1578979492 0 0 0 0 94966253.965909958 107837263.23016357 0 107837263.23016357 23723069.266662598 0 0 0 0 -58861715.826118469 -16817164.121994019 0 -16817164.121994019 8555915.5631103516 0 0 0 0 -1408039.6738762581 1478904.2723390544 0 1478904.2723390544 2658597.0743641928 0 0 0 0 76245.913482666016 43124231.455764771 0 43124231.455764771 57970474.587558746 0 0 0 0 -3907359.4421346262 6964967.0141966958 0 6964967.0141966958 -4755851.5469267033 0 0 0 0 -99753995.917395592 43835814.657623291 0 43835814.657623291 136354420.62593079 0 0 0 0 4500615.103703497 5133992.358088769 0 5133992.358088769 -5602756.731472075 0 0 0 0 -1592245.5647274572 1616882.6752439491 0 1616882.6752439491 1719964.0236925334 0 0 0 0 31760818.736845016 24733272.79510498 0 24733272.79510498 39970631.99005127 0 0 0 0 87338547.468637466 62207824.050173759 0 62207824.050173759 27796506.245925903 0 0 0 0 -2434388.286075592 47438045.877140045 0 47438045.877140045 44119204.793106079 0 0 0 0 -285395270.63537359 188160986.79784393 0 188160986.79784393 20807109.761428833 0 0 0 0 -73456252.109875202 153105275.67578506 0 153105275.67578506 -131420018.81036377 0 0 0 0 -594288.57227551215 -21304.870524851605 0 -21304.870524851605 315185.59703402221 0 0 0 0 -219424005.06300187 59789043.412315369 0 59789043.412315369 4342900.3897628784 0 0 0 0 -102289215.02922451 34028659.334156036 0 34028659.334156036 -30873521.204376221 0 0 0 0 -84134638.596695781 83070499.334877014 0 83070499.334877014 -3911635.1001205444 0 0 0 0 -27015392.420618296 72068718.904499054 0 72068718.904499054 -27627283.20463562 0 0 0 0 -53735955.310698032 81825032.7292099 0 81825032.7292099 -7731549.2863769531 0 0 0 0 -306884308.59585381 154560718.31776428 0 154560718.31776428 164847158.85848999 0 0 0 0 -219808268.76474661 115253854.72514033 0 115253854.72514033 76527314.923171997 0 0 0 0 -177143328.62889385 279158123.48167419 0 279158123.48167419 -86151542.364868164 0 0 0 0 -126452465.54474783 225588683.40200043 0 225588683.40200043 -40947836.759422302 0 0 0 0 -264012151.14733642 -59769325.034887314 0 -59769325.034887314 -7902403.875213623 0 0 0 0 -1033614537.294735 458867049.8135376 0 458867049.8135376 206797164.79127502 0 0 0 0 113678394.67837524 108349563.49304199 0 108349563.49304199 -175150437.90026855 0 0 0 0 51209634.455846786 7792185.1587524414 0 7792185.1587524414 -247974888.85932922 0 0 0 0 -36941283.7115345 -99776673.984283447 0 -99776673.984283447 -233723808.53333282 0 0 0 0 -15037512.434919357 -22799903.099578857 0 -22799903.099578857 -117066409.50261688 0 0 0 0 122275015.89803314 79311072.088592529 0 79311072.088592529 -188057959.85420227 0 0 0 0 119175690.7574439 71753287.05909729 0 71753287.05909729 -89357288.565856934 0 0 0 0 277573331.64767981 21670434.98651886 0 21670434.98651886 -69600393.398834229 0 0 0 0 214407245.07525158 102622907.87187958 0 102622907.87187958 -121550519.06546021 0 0 0 0 81133973.924769402 18874370.603881836 0 18874370.603881836 -55579413.947937012 0 0 0 0 249043765.21783257 63380720.22454834 0 63380720.22454834 -85728369.016143799 0 0 0 0 -180084414.1557703 62508060.788703918 0 62508060.788703918 34253098.465988159 0 0 0 0 78736453.047469139 771377.3616065979 0 771377.3616065979 -143815107.08395386 0 0 0 0 -664510.32575784298 -1709183.565369294 0 -1709183.565369294 -55286.607682339847 0 0 0 0 512602786.80641353 99260116.839727402 0 99260116.839727402 -110265483.52783966 0 0 0 0 -33658609.645905495 4682600.782585144 0 4682600.782585144 18735704.832267761 0 0 0 0 51583.18337637579 1162700.2023773601 0 1162700.2023773601 2088488.5864270926 0 0 0 0 417298924.92741609 152383576.57792091 0 152383576.57792091 -59205862.837272644 0 0 0 0 252721915.73343086 88331100.086334229 0 88331100.086334229 56009517.066093445 0 0 0 0 587000975.82593298 13631831.564258575 0 13631831.564258575 -50146663.280342102 0 0 0 0 -604093.76198560908 -721452.04300628998 0 -721452.04300628998 419240.04161796719 0 0 0 0 99343988.66924572 29680803.661712646 0 29680803.661712646 6945781.3697509766 0 0 0 0 304829.56865574198 -254846.4214654651 0 -254846.4214654651 -34112.981852471828 0 0 0 0 348574171.53361511 -46102751.687263489 0 -46102751.687263489 44755285.484832764 0 0 0 0 349952204.02161908 74044685.077360153 0 74044685.077360153 31774057.398849487 0 0 0 0 23194815.481398582 98692969.465705872 0 98692969.465705872 -33802722.247772217 0 0 0 0 202626351.72014236 80598297.044807434 0 80598297.044807434 -6904301.2047786713 0 0 0 0 69184855.475331068 -15237727.351131439 0 -15237727.351131439 -5238955.3365783691 0 0 0 0 247538133.15923977 -38188596.136543274 0 -38188596.136543274 24160509.606206894 0 0 0 0 -28589212.263128757 18852685.886627197 0 18852685.886627197 31423017.123245239 0 0 0 0 108304900.55173397 95543713.843780518 0 95543713.843780518 -18108249.280906677 0 0 0 0 156869764.63407755 -35130769.967147827 0 -35130769.967147827 136477.59354114532 0 0 0 0 231479830.26088381 70981510.729434967 0 70981510.729434967 30980495.179534912 0 0 0 0 4291075.372364521 80417446.032623291 0 80417446.032623291 747917.66884613037 0 0 0 0 598336285.15956306 48281333.192375183 0 48281333.192375183 -46996415.045539856 0 0 0 0 -135048.36639758019 -325574.13788221311 0 -325574.13788221311 85224.320592977107 0 0 0 0 171892560.61691952 -102096462.66060257 0 -102096462.66060257 11362657.476287842 0 0 0 0 378607497.73185921 -40446799.247817993 0 -40446799.247817993 35130086.423655033 0 0 0 0 345137706.17346382 -14133928.716178894 0 -14133928.716178894 -11812927.337440491 0 0 0 0 357391174.74228024 38972155.55853653 0 38972155.55853653 -15701912.710067749 0 0 0 0 289240007.73716593 156975389.00825882 0 156975389.00825882 21997094.33972168 0 0 0 0 301245535.87320328 19905046.69947052 0 19905046.69947052 56524362.723640442 0 0 0 0 348160509.61816311 109325613.88921356 0 109325613.88921356 67878402.986999512 0 0 0 0 304220560.38907814 24288091.319458008 0 24288091.319458008 -19755062.104736328 0 0 0 0 69691977.339125872 -36731760.590164185 0 -36731760.590164185 12566311.739135742 0 0 0 0 174599220.41881013 27648930.774759293 0 27648930.774759293 -26552673.859008789 0 0 0 0 188175438.7364006 -9120852.568031311 0 -9120852.568031311 48990202.523132324 0 0 0 0 75440020.316854 -18724070.437580109 0 -18724070.437580109 26457849.128376007 0 0 0 0 75543490.492996693 -17599799.182384491 0 -17599799.182384491 -26261854.423997879 0 0 0 0 -136340689.67319679 82607055.050754547 0 82607055.050754547 -6918048.9279022217 0 0 0 0 -65534248.739076138 27550277.316165924 0 27550277.316165924 -30028348.083023071 0 0 0 0 -48404246.813919067 56247276.630973816 0 56247276.630973816 1132624.6807289124 0 0 0 0 -242506912.71574602 71648121.967481732 0 71648121.967481732 25169806.44229126 0 0 0 0 -84891436.615278244 -22718739.3384552 0 -22718739.3384552 -57174825.026643753 0 0 0 0 -155372920.24171627 81716041.077072144 0 81716041.077072144 -31489581.169036865 0 0 0 0 -997882.37943971355 -184116.27027491853 0 -184116.27027491853 744344.66784906015 0 0 0 0 -383112575.22169125 108133401.06456757 0 108133401.06456757 63290912.765853882 0 0 0 0 -239106152.17937639 163093498.44284093 0 163093498.44284093 -28416596.043228149 0 0 0 0 -325111198.0785079 38194281.151794434 0 38194281.151794434 -286098467.78448486 0 0 0 0 -118047889.82257891 16531191.844165802 0 16531191.844165802 -52506975.39239502 0 0 0 0 -120920125.31201077 88445348.454307556 0 88445348.454307556 -113703505.30589294 0 0 0 0 -122441892.10350657 -4076798.2437820435 0 -4076798.2437820435 -7581819.5905642807 0 0 0 0 -195304245.95149538 103563976.26895332 0 103563976.26895332 -5566741.8224258423 0 0 0 0 -59986596.084546089 48179028.36848259 0 48179028.36848259 1878023.6830291748 0 0 0 0 43264949.244850397 -26553815.100517273 0 -26553815.100517273 -13883133.557100773 0 0 0 0 -78225412.865950704 48376443.696721077 0 48376443.696721077 21958418.980583191 0 0 0 0 -84853922.61753577 27407701.92743969 0 27407701.92743969 -44369817.531646729 0 0 0 0 211021726.63876629 1532044.9201622009 0 1532044.9201622009 10644475.850235701 0 0 0 0 289103575.90781021 47706991.195011139 0 47706991.195011139 13632258.913169861 0 0 0 0 214450900.7583704 -22848745.157653809 0 -22848745.157653809 1253818.211725235 0 0 0 0 212517302.84939671 -29745688.656742096 0 -29745688.656742096 -22122360.118901253 0 0 0 0 192623507.95490563 15976456.803497314 0 15976456.803497314 -25799471.059196472 0 0 0 0 71981822.162366867 28073617.619819641 0 28073617.619819641 16053601.279003143 0 0 0 0 339018771.66877449 39154239.360739231 0 39154239.360739231 -32208747.707359314 0 0 0 0 189763863.06720972 39224391.714607239 0 39224391.714607239 11720324.333442688 0 0 0 0 172761385.8833003 -3773835.6559734344 0 -3773835.6559734344 -16946734.899490356 0 0 0 0 158746607.61933383 38813257.947598696 0 38813257.947598696 -111021.98836517334 0 0 0 0 288103328.92501616 7687939.811467886 0 7687939.811467886 -18385566.273994446 0 0 0 0 158754169.59846926 38757955.551071167 0 38757955.551071167 114702.50266265869 0 0 0 0 26433208.277662158 8283961.3835449219 0 8283961.3835449219 32176582.635932922 0 0 0 0 17841101.588358998 -14931856.446422577 0 -14931856.446422577 -11431187.699463844 0 0 0 0 -66833265.389336973 50895031.791790009 0 50895031.791790009 94509.802387237549 0 0 0 0 -89046154.99743557 21446026.811750412 0 21446026.811750412 -13197571.858169556 0 0 0 0 -1365352.319066318 -611523.78100408241 0 -611523.78100408241 1187476.7338418365 0 0 0 0 -120145381.63819706 44392388.000440598 0 44392388.000440598 -53647.091625213623 0 0 0 0 19275248.421600103 65640259.726755142 0 65640259.726755142 -44663684.088790894 0 0 0 0 -37366519.61998415 113142623.1305542 0 113142623.1305542 -54890.764384458009 0 0 0 0 -117537354.48109484 100870843.70061302 0 100870843.70061302 -21850.672561645508 0 0 0 0 -80197875.017071962 69654529.557180405 0 69654529.557180405 -22533856.248031616 0 0 0 0 -50630900.467119217 83059366.852285385 0 83059366.852285385 -21955332.29888916 0 0 0 0 -87101027.981843472 58683350.270252228 0 58683350.270252228 -19226851.45652771 0 0 0 0 -47515733.213616848 54749839.412132263 0 54749839.412132263 -43908654.561435699 0 0 0 0 -32591478.470912933 74556746.142044067 0 74556746.142044067 -40845569.752189636 0 0 0 0 -27518017.792019844 43090230.089710236 0 43090230.089710236 -32625685.126464844 0 0 0 0 -35357196.240624428 68382339.85508728 0 68382339.85508728 -46751994.924571991 0 0 0 0 -6304567.6427745819 42614552.364894867 0 42614552.364894867 -26362762.27431488 0 0 0 0 -36440833.663191855 45188897.587366104 0 45188897.587366104 -19045673.81439209 0 0 0 0 -32931239.911117077 48080577.059158325 0 48080577.059158325 -12259697.589881897 0 0 0 0 14344525.237388611 19707511.051719666 0 19707511.051719666 -13447573.862468362 0 0 0 0 -53985997.559081316 75315779.929750443 0 75315779.929750443 -38380810.713989258 0 0 0 0 -10118403.702083588 31243534.376831055 0 31243534.376831055 -51604582.506671906 0 0 0 0 -58661839.43167311 64661157.98503685 0 64661157.98503685 -62516475.245513916 0 0 0 0 -1297694.9660722124 -422031.07123802975 0 -422031.07123802975 1042312.6579392701 0 0 0 0 -155884590.99591804 73010933.808021545 0 73010933.808021545 -39458672.757026672 0 0 0 0 -178306972.03026474 133967494.63381195 0 133967494.63381195 -68706746.777130127 0 0 0 0 -151927283.05388784 77763413.107746124 0 77763413.107746124 -3930768.0100188255 0 0 0 0 -1341503.0186168868 -495319.70131816156 0 -495319.70131816156 1258537.67541131 0 0 0 0 -104916567.4655081 87474416.964735031 0 87474416.964735031 -39008944.757656097 0 0 0 0 6419449.8583116531 18594824.445865631 0 18594824.445865631 10813875.710388184 0 0 0 0 -19390359.774549007 -7666291.4419288635 0 -7666291.4419288635 13865057.982727051 0 0 0 0 3191700.6597037399 353259.22929636203 0 353259.22929636203 -647441.95410283655 0 0 0 0 677806.95516490808 -1295722.6670053946 0 -1295722.6670053946 122220.70473321155 0 0 0 0 -43567828.699241817 5846471.5584857464 0 5846471.5584857464 15075505.60118866 0 0 0 0 85655732.325868607 71272766.651550293 0 71272766.651550293 -286054.91144895036 0 0 0 0 5983598.4123544693 -9358445.8517951965 0 -9358445.8517951965 1320331.4112930298 0 0 0 0 4777835.8127498627 23960413.938400269 0 23960413.938400269 4299338.0279116631 0 0 0 0 7699154.6980657578 20657610.0878582 0 20657610.0878582 -154.98792266845703 0 0 0 0 1379673.9207661184 -833967.93362875655 0 -833967.93362875655 -728320.60472251102 0 0 0 0 51041830.050824165 14831239.071937561 0 14831239.071937561 -14464253.14850235 0 0 0 0 -206209176.2726655 28376082.658948898 0 28376082.658948898 11371922.321968079 0 0 0 0 -63058087.846513748 6240551.0460662842 0 6240551.0460662842 -3556255.2841682434 0 0 0 0 -48813135.04534626 7371989.6808738708 0 7371989.6808738708 -17665962.376873016 0 0 0 0 -23572112.284617662 -525783.00105333328 0 -525783.00105333328 -17971036.200538635 0 0 0 0 12961758.177874565 35573022.539264679 0 35573022.539264679 -3172063.8517780304 0 0 0 0 132141.47455406189 14064925.97435379 0 14064925.97435379 5426137.3838090897 0 0 0 0 2346875.4006012473 733927.20534467977 0 733927.20534467977 -199128.99058098346 0 0 0 0 1703966.3710388374 -449626.27118610777 0 -449626.27118610777 -706650.99819640443 0 0 0 0 36090219.687147141 18915261.739908218 0 18915261.739908218 -9736220.08543396 0 0 0 0 12051114.603673935 -11992266.876911163 0 -11992266.876911163 -2071959.9392242432 0 0 0 0 35434244.888230681 9584562.4716677666 0 9584562.4716677666 -474882.0380859375 0 0 0 0 1056616.1739616042 -928088.62971640192 0 -928088.62971640192 176460.70721697435 0 0 0 0 -26965606.158165932 8819254.002281189 0 8819254.002281189 13675177.022674561 0 0 0 0 2043044.7847890044 537196.56416718755 0 537196.56416718755 126941.66383377463 0 0 0 0 10173922.996543884 7375211.005191803 0 7375211.005191803 -4038785.5520362854 0 0 0 0 3311310.2179336548 6088753.5856742859 0 6088753.5856742859 492699.72299575806 0 0 0 0 5293792.6157599241 4426083.7799388319 0 4426083.7799388319 3418186.7191162109 0 0 0 0 5287497.9230384827 5103157.6113777161 0 5103157.6113777161 4824241.3138427734 0 0 0 0 4171558.1182155609 3571978.8590607643 0 3571978.8590607643 3151330.9595947266 0 0 0 0 4552678.0039076805 5064094.6529493332 0 5064094.6529493332 4246341.782585144 0 0 0 0 4087544.9103965117 4920629.0698783044 0 4920629.0698783044 2751149.2697768826 0 0 0 0 54450.297372767702 2849163.3804627359 0 2849163.3804627359 2803633.6791242845 0 0 0 0 67258.48153924942 114807.86232733727 0 114807.86232733727 273243.04287719727 0 0 0 0 7060758.9321918488 5047632.4425964355 0 5047632.4425964355 3840485.7609214783 0 0 0 0 716126.50468251039 2485704.3474629014 0 2485704.3474629014 2491847.5495173112 0 0 0 0 1293085.524255953 1411143.2556483392 0 1411143.2556483392 2155047.6129807904 0 0 0 0 -45614758.100509644 13750860.468856812 0 13750860.468856812 4282549.860534668 0 0 0 0 -37067502.504724503 8507648.3080978394 0 8507648.3080978394 4270642.0458946228 0 0 0 0 12165855.72200489 17304479.710414886 0 17304479.710414886 -10814338.461242676 0 0 0 0 3752062.1049957275 19881694.182189941 0 19881694.182189941 -11177086.767381668 0 0 0 0 -2467362.1078195572 37436977.769767761 0 37436977.769767761 -14957325.903411865 0 0 0 0 -12328277.046920776 42780696.693634033 0 42780696.693634033 -16906766.314956665 0 0 0 0 -53463529.561178207 72087990.120227814 0 72087990.120227814 -21418305.381225586 0 0 0 0 -99413612.306243896 76656516.676101685 0 76656516.676101685 -29957287.961784363 0 0 0 0 -46923161.424702644 -61089497.396299362 0 -61089497.396299362 70443493.234420776 0 0 0 0 13235397.898521423 5689165.0375862122 0 5689165.0375862122 -1805204.2728729248 0 0 0 0 -224791.38467072882 159395.03536767513 0 159395.03536767513 246124.10403084755 0 0 0 0 -125757515.48982239 -51905309.840240479 0 -51905309.840240479 38486268.772521973 0 0 0 0 60302992.921954632 30958272.679415703 0 30958272.679415703 -47937155.012695312 0 0 0 0 24784021.483131409 56777233.48878479 0 56777233.48878479 -48427706.275588989 0 0 0 0 42528337.957744598 -16083344.467849731 0 -16083344.467849731 -6352895.044052124 0 0 0 0 20339417.297915459 -12881164.769874573 0 -12881164.769874573 9843779.1429214478 0 0 0 0 -24729448.642290115 6690304.7113723755 0 6690304.7113723755 75290385.23418045 0 0 0 0 100593.15074761864 673759.57266961969 0 673759.57266961969 82614.32248922484 0 0 0 0 65346287.763719797 1228600.2291049957 0 1228600.2291049957 -30962302.907241821 0 0 0 0 18343468.036727905 1238150.5612716675 0 1238150.5612716675 -12762049.683444977 0 0 0 0 23769488.90729475 6035338.9650707245 0 6035338.9650707245 -10989688.815246582 0 0 0 0 19721425.022836685 20008791.772872925 0 20008791.772872925 -24097528.973747253 0 0 0 0 13815883.820440292 9723542.9945755005 0 9723542.9945755005 -12267702.472877502 0 0 0 0 15382670.528874397 3488810.852558136 0 3488810.852558136 -7790820.6510314941 0 0 0 0 14358284.005157948 6466767.425658226 0 6466767.425658226 -1511471.0436401367 0 0 0 0 10949051.62126112 10297890.955422401 0 10297890.955422401 -2519597.6709899902 0 0 0 0 10593069.928222209 14592878.776444852 0 14592878.776444852 -8459981.2767333984 0 0 0 0 10830274.598060608 10775490.39365387 0 10775490.39365387 -2466347.7473220825 0 0 0 0 10619106.976833344 11475201.683372498 0 11475201.683372498 -3529548.9218139648 0 0 0 0 7376549.8968439102 6543379.2100791931 0 6543379.2100791931 6270830.9342346191 0 0 0 0 2515513.8961868286 7352033.6208190918 0 7352033.6208190918 11408978.511322021 0 0 0 0 -29238463.867018223 5909631.7138900757 0 5909631.7138900757 7501241.8556060791 0 0 0 0 -14852131.327027142 10544293.808863163 0 10544293.808863163 7708246.8529205322 0 0 0 0 -7002563.7044620514 1461096.3229217529 0 1461096.3229217529 3504445.8486480713 0 0 0 0 -15814311.96397914 -5477490.0554800034 0 -5477490.0554800034 -625002.50065612793 0 0 0 0 1006347.4220871301 822389.34103405103 0 822389.34103405103 19215.900705993176 0 0 0 0 -22425007.237902284 -8647628.4866275787 0 -8647628.4866275787 133209.98721313477 0 0 0 0 133805933.56693935 11311142.617385864 0 11311142.617385864 38899149.843948364 0 0 0 0 1527306.9086666107 11422705.707622528 0 11422705.707622528 7272428.9446258545 0 0 0 0 -1138809.4379196167 11459950.912521362 0 11459950.912521362 13040272.392929077 0 0 0 0 334613.8993361094 3492213.4216594659 0 3492213.4216594659 973925.03741358221 0 0 0 0 2693093.8017463684 13908553.628036499 0 13908553.628036499 10773089.8956604 0 0 0 0 17921812.161504745 50404580.161315918 0 50404580.161315918 62500439.639556885 0 0 0 0 3351875.9320978634 2689248.6221030727 0 2689248.6221030727 -57685.677713610232 0 0 0 0 8175841.7219085693 11645036.583137512 0 11645036.583137512 6740476.2707595825 0 0 0 0 4794354.7598276138 5222791.3913002014 0 5222791.3913002014 3237825.2783203125 0 0 0 0 865806.44777679443 11343249.772743225 0 11343249.772743225 8984698.1634140015 0 0 0 0 -4533324.5052127838 6909126.9140777588 0 6909126.9140777588 6989533.3729777336 0 0 0 0 -1626837.9306583405 11586683.901313782 0 11586683.901313782 7096704.6818237305 0 0 0 0 -1109779.5988769531 13085770.464904785 0 13085770.464904785 1454276.9253997803 0 0 0 0 4568458.4506912231 10175405.385276794 0 10175405.385276794 1945918.9070281982 0 0 0 0 -7981529.6846122742 18784560.684127808 0 18784560.684127808 -1667868.0739746094 0 0 0 0 -4665563.422334671 8148847.7349319458 0 8148847.7349319458 4234834.0864105225 0 0 0 0 -9318251.4271354675 6299360.480178833 0 6299360.480178833 3515683.8879737854 0 0 0 0 625169.94847679138 459247.75776672363 0 459247.75776672363 1612289.334564209 0 0 0 0 1317200.4233948765 2785601.8600136079 0 2785601.8600136079 2832968.9572021104 0 0 0 0 -9731558.3394899368 4536327.8009757996 0 4536327.8009757996 6617449.498260498 0 0 0 0 -1257521.5803660215 858988.699695969 0 858988.699695969 2965278.5491620935 0 0 0 0 8666698.580748558 6003802.6610736847 0 6003802.6610736847 4151422.4022827148 0 0 0 0 -740861.91940617422 2256904.278762856 0 2256904.278762856 3667475.0952854604 0 0 0 0 1430786.9814014435 968915.70799255371 0 968915.70799255371 601092.62364959717 0 0 0 0 6570104.1798868179 7797648.7360305786 0 7797648.7360305786 6942284.3320617676 0 0 0 0 13275497.008283615 -183704.17178344727 0 -183704.17178344727 5117853.9653320312 0 0 0 0 6571120.3301076889 6099997.8651781082 0 6099997.8651781082 3713802.7667999268 0 0 0 0 9538805.9907798767 5535436.4098701477 0 5535436.4098701477 5650509.5964775085 0 0 0 0 6334531.345085144 6024452.0660858154 0 6024452.0660858154 5796134.386882782 0 0 0 0 6659540.0453109741 6399342.2741203308 0 6399342.2741203308 4747796.8289489746 0 0 0 0 5559202.9238710403 4273138.7635774612 0 4273138.7635774612 4000870.5162811279 0 0 0 0 -10705814.988743871 21976825.97315979 0 21976825.97315979 77365951.612861633 0 0 0 0 11911747.982214987 11752395.940048218 0 11752395.940048218 33020800.194190979 0 0 0 0 8756450.753188014 13748505.899822235 0 13748505.899822235 3378275.4683418274 0 0 0 0 2921292.5844969451 31106210.018730164 0 31106210.018730164 16720266.84703064 0 0 0 0 5674637.4787005857 9984117.9488754272 0 9984117.9488754272 11319695.216659546 0 0 0 0 -14590692.71351707 27307189.813598633 0 27307189.813598633 -3268357.1378936768 0 0 0 0 -120018771.48026717 -39377108.568431854 0 -39377108.568431854 112532539.46967316 0 0 0 0 -85931651.177366734 -29449933.41368103 0 -29449933.41368103 11447334.41172266 0 0 0 0 28531855.621212125 -5392760.8184432983 0 -5392760.8184432983 13001930.89917469 0 0 0 0 10051294.503430247 44629801.184791565 0 44629801.184791565 39201262.19947052 0 0 0 0 -122143181.03799546 88138995.538762093 0 88138995.538762093 -57630711.949645996 0 0 0 0 -534732.05446199491 547921.39441812783 0 547921.39441812783 136776.26328740874 0 0 0 0 -106391143.20657542 526535216.27451324 0 526535216.27451324 -439061100.7383194 0 0 0 0 -121599018.51012683 85946702.147964478 0 85946702.147964478 -127069804.09084702 0 0 0 0 -1505053.4793552165 1460638.0048508979 0 1460638.0048508979 415456.78601087863 0 0 0 0 -19265566.412118912 47375973.157745361 0 47375973.157745361 -108672965.96652222 0 0 0 0 -30968209.779381752 69661114.677818298 0 69661114.677818298 -82070470.547035217 0 0 0 0 35130187.172842026 42630465.750484467 0 42630465.750484467 -60498701.904579163 0 0 0 0 27983.737560111796 13916.941251479089 0 13916.941251479089 20879.204879760742 0 0 0 0 -43654405.571100473 39353979.70882988 0 39353979.70882988 -24676271.264282227 0 0 0 0 -27217902.644634247 9742448.4931240082 0 9742448.4931240082 21225349.525939941 0 0 0 0 470374.00271006022 1535348.4148511179 0 1535348.4148511179 61727.035923346877 0 0 0 0 -24594605.999356747 44467133.330249786 0 44467133.330249786 -2177695.1062507629 0 0 0 0 -1368027.610560894 -1605362.3108825684 0 -1605362.3108825684 4000818.8468208313 0 0 0 0 14683480.620131493 2751723.2405700684 0 2751723.2405700684 641312.43035125732 0 0 0 0 840389.61398220062 3814535.9953346252 0 3814535.9953346252 -1140887.5358104706 0 0 0 0 -1173351.1811154678 1564337.7456069253 0 1564337.7456069253 -251723.99564053863 0 0 0 0 7013847.2115712762 22448380.927023888 0 22448380.927023888 20969771.225158691 0 0 0 0 5580756.6245359182 17158904.610977173 0 17158904.610977173 23525963.853775024 0 0 0 0 17121129.199965715 1891354.2577362061 0 1891354.2577362061 6153171.5851402283 0 0 0 0 12976160.33024931 6793398.4471626282 0 6793398.4471626282 1707581.5492782593 0 0 0 0 12506549.222396851 8455092.4885635376 0 8455092.4885635376 -672197.84085083008 0 0 0 0 -61962991.051413298 37816132.975982666 0 37816132.975982666 35843316.91027832 0 0 0 0 20008470.419336677 18243885.941547394 0 18243885.941547394 4590581.9660644531 0 0 0 0 -810039.56841073581 2207220.2624424323 0 2207220.2624424323 66104.260985687375 0 0 0 0 13305520.213069081 11452133.819404602 0 11452133.819404602 428448.40887451172 0 0 0 0 -6275967.8131313324 15061378.409606934 0 15061378.409606934 4438032.5383014679 0 0 0 0 -3643137.2067685127 9568729.6743240356 0 9568729.6743240356 6172933.8753204346 0 0 0 0 -3471303.3273763657 8106462.7051773071 0 8106462.7051773071 6578146.2444915771 0 0 0 0 11512175.680641174 2882905.0634117126 0 2882905.0634117126 -1065366.3217277527 0 0 0 0 8103206.8284330368 -165273.00189971924 0 -165273.00189971924 5561152.0070343018 0 0 0 0 8957010.6177104115 2494806.6385307312 0 2494806.6385307312 375681.55952072144 0 0 0 0 -2118200.885486871 -52680.39582824707 0 -52680.39582824707 20182.564102172852 0 0 0 0 12552897.546227481 2490951.8091990948 0 2490951.8091990948 -13421419.541229248 0 0 0 0 -2224546.8192845881 19341703.460884094 0 19341703.460884094 725605.0330581665 0 0 0 0 -2137931.0024815314 3313334.9715726525 0 3313334.9715726525 -21954648.129753113 0 0 0 0 -62237931.186545968 10738189.091590881 0 10738189.091590881 -9241428.0207519531 0 0 0 0 -71143358.431264162 49648833.381969452 0 49648833.381969452 -29973081.485488892 0 0 0 0 -42942280.495748281 27498774.052833557 0 27498774.052833557 -9881134.6227245331 0 0 0 0 9724132.368612051 1089353.8483428955 0 1089353.8483428955 -2449909.2075271606 0 0 0 0 -912405.52801027894 -453476.05037689209 0 -453476.05037689209 -20894662.922225952 0 0 0 0 -51275610.404033452 18745733.621618271 0 18745733.621618271 -19026467.58682251 0 0 0 0 -698828.89336323738 2609459.5311813354 0 2609459.5311813354 66846622.17514801 0 0 0 0 5893285.4782584906 17674069.299385071 0 17674069.299385071 21983881.804031372 0 0 0 0 1960054.7754909396 9807780.6618919373 0 9807780.6618919373 36813401.165863037 0 0 0 0 127910.08923947811 -5475751.2673530579 0 -5475751.2673530579 16967423.536334991 0 0 0 0 14355577.832209826 22531840.865661621 0 22531840.865661621 29045727.742904663 0 0 0 0 17012970.448403757 19809074.28758812 0 19809074.28758812 29305783.324066162 0 0 0 0 34885019.566130221 56299079.545303345 0 56299079.545303345 68754549.734814048 0 0 0 0 19637181.025702983 32535376.609394073 0 32535376.609394073 33962945.567826271 0 0 0 0 20454781.133458719 26541326.804219246 0 26541326.804219246 20089710.156066895 0 0 0 0 5958250.4837685227 16635570.025108337 0 16635570.025108337 29656546.308479309 0 0 0 0 -21650971.263522625 -9314220.111782074 0 -9314220.111782074 505097.08598327637 0 0 0 0 -15388526.744431496 -39989903.115848541 0 -39989903.115848541 -25713067.511375427 0 0 0 0 -1302359.1335921141 3929798.823297238 0 3929798.823297238 -1385845.4734638706 0 0 0 0 6770952.817820549 18070911.559127808 0 18070911.559127808 13859056.251910567 0 0 0 0 6418262.6260678768 19064374.100391388 0 19064374.100391388 15152979.467834473 0 0 0 0 12284402.799165428 18838160.589889526 0 18838160.589889526 15362788.925018311 0 0 0 0 11115115.399615288 21367994.914325714 0 21367994.914325714 15922816.890335083 0 0 0 0 2139906.0668311119 13634859.624588013 0 13634859.624588013 20530577.364074707 0 0 0 0 3589076.9016547203 19469254.635917664 0 19469254.635917664 22752621.258651733 0 0 0 0 4543440.7822048068 16500055.784405708 0 16500055.784405708 16049808.141067505 0 0 0 0 -1069417.5676848888 12791489.75643158 0 12791489.75643158 17539750.099029541 0 0 0 0 2508190.4532424808 12849423.241719246 0 12849423.241719246 14849036.900238037 0 0 0 0 565002.50358366966 7584384.503578186 0 7584384.503578186 12367108.921043396 0 0 0 0 1508744.8042471409 9692244.71900177 0 9692244.71900177 12963264.575912476 0 0 0 0 -3258769.2566404343 9386652.5073814392 0 9386652.5073814392 16558748.725799561 0 0 0 0 1012340.1119859219 7057716.5294036865 0 7057716.5294036865 22815169.29097271 0 0 0 0 6305610.8488942087 16935895.986675262 0 16935895.986675262 21514108.560966492 0 0 0 0 4812967.9683806896 5992972.211730957 0 5992972.211730957 11018200.793769836 0 0 0 0 3322036.0115994066 3736519.9439072609 0 3736519.9439072609 13905723.818557739 0 0 0 0 4196393.55466187 5129315.864736557 0 5129315.864736557 11496827.528579712 0 0 0 0 -3968490.8012955189 8467775.7763824463 0 8467775.7763824463 12737715.99646759 0 0 0 0 2014134.4200720787 8591420.968460083 0 8591420.968460083 6314534.8924102783 0 0 0 0 -11885459.993590832 7296454.9546203613 0 7296454.9546203613 9376151.8626174927 0 0 0 0 -3578134.7927181721 6695359.3565502167 0 6695359.3565502167 8723315.7731628418 0 0 0 0 -7332093.4891610146 6601712.1800842285 0 6601712.1800842285 11957435.970367432 0 0 0 0 -5845202.094499588 3876458.9318084717 0 3876458.9318084717 6930903.0180702209 0 0 0 0 -8352710.9127745628 2288612.0738945007 0 2288612.0738945007 7802829.3941421509 0 0 0 0 -9779353.6859465837 574179.9704284668 0 574179.9704284668 5815478.895324707 0 0 0 0 -6436940.1580679417 2431235.315032959 0 2431235.315032959 5149823.4801483154 0 0 0 0 -7649492.0238962173 5243047.5292015076 0 5243047.5292015076 7455418.8449668884 0 0 0 0 -6126060.5122634172 1618159.2221269608 0 1618159.2221269608 2680263.4507293701 0 0 0 0 -4512274.5666790009 3083945.5213317871 0 3083945.5213317871 4004563.4776611328 0 0 0 0 -6997047.1751335859 3989989.8215427399 0 3989989.8215427399 9859705.5592041016 0 0 0 0 -5300057.0698213577 6791145.8139076233 0 6791145.8139076233 10197413.465774536 0 0 0 0 -5821453.2612957954 6997226.5195236206 0 6997226.5195236206 12930897.539794922 0 0 0 0 -2363604.0120466948 8761469.5667133331 0 8761469.5667133331 11646708.151657104 0 0 0 0 3648008.1593856812 11686267.395217896 0 11686267.395217896 14376131.66450119 0 0 0 0 5643379.7016735077 4297362.1734294891 0 4297362.1734294891 10832008.040222168 0 0 0 0 10108290.994419098 10746512.719762802 0 10746512.719762802 4038323.3978099823 0 0 0 0 2534997.2254199982 1934089.0899677277 0 1934089.0899677277 599760.67224121094 0 0 0 0 27399.393683116417 1621550.5348984208 0 1621550.5348984208 2251793.934810929 0 0 0 0 8635586.6000921559 3499638.8727750927 0 3499638.8727750927 720566.23678075522 0 0 0 0 6897873.1290849596 8231822.1139283385 0 8231822.1139283385 1298065.0436924845 0 0 0 0 30027589.095005035 23089047.415428162 0 23089047.415428162 -2664064.2690124512 0 0 0 0 15907265.811030388 1896071.9444999695 0 1896071.9444999695 -15219983.468955994 0 0 0 0 1078986.7532098535 6477863.9603462275 0 6477863.9603462275 6359291.2606208101 0 0 0 0 16973559.943252563 -15464311.237663269 0 -15464311.237663269 -38143471.436851501 0 0 0 0 20887908.782623291 12677940.54259491 0 12677940.54259491 12508552.167098999 0 0 0 0 14602929.092666626 22632667.435676575 0 22632667.435676575 5704840.1955833435 0 0 0 0 1464316.4192035031 1091897.1330221351 0 1091897.1330221351 752780.223249387 0 0 0 0 10841603.842074394 12062481.023197174 0 12062481.023197174 11218560.863296509 0 0 0 0 1039324.8502077647 667166.55163592473 0 667166.55163592473 245206.46134921908 0 0 0 0 4655399.4629592896 -12644424.14484787 0 -12644424.14484787 -7719437.6906738281 0 0 0 0 22484623.642133713 20436333.019737244 0 20436333.019737244 -24107653.637481689 0 0 0 0 23383678.728716135 10109079.889141798 0 10109079.889141798 7079061.793838501 0 0 0 0 19506535.733448029 37576949.966751099 0 37576949.966751099 41898232.027038574 0 0 0 0 8481060.2057885528 641854.77612456679 0 641854.77612456679 1925745.7928161621 0 0 0 0 184482.31216962449 373529.54013256729 0 373529.54013256729 411806.75194338802 0 0 0 0 15812351.354217529 26592285.520965576 0 26592285.520965576 16261827.912307739 0 0 0 0 8795031.2972376943 19303494.587531388 0 19303494.587531388 21495081.869537354 0 0 0 0 17792756.56212616 21763923.986732483 0 21763923.986732483 12568767.329292297 0 0 0 0 6102214.5428771973 19657244.521499634 0 19657244.521499634 17051746.24766922 0 0 0 0 53463334.030647278 25989858.349464417 0 25989858.349464417 3505591.4034729004 0 0 0 0 47460388.167108059 -21343707.875668049 0 -21343707.875668049 -14645397.631652832 0 0 0 0 -984849.4556427002 -15622197.92805481 0 -15622197.92805481 13486225.281951904 0 0 0 0 774739.38558534998 6798359.8293071166 0 6798359.8293071166 8011674.7187924944 0 0 0 0 -21730543.905626297 11347806.749292374 0 11347806.749292374 22980575.736000061 0 0 0 0 -4516189.2326393127 27258113.214784622 0 27258113.214784622 4666922.0977096558 0 0 0 0 2095229.3771743774 17893235.215015411 0 17893235.215015411 15330726.319992065 0 0 0 0 21607526.714553833 26835551.557998657 0 26835551.557998657 12881871.536056519 0 0 0 0 12950665.064907074 27533877.182064056 0 27533877.182064056 17230650.098419189 0 0 0 0 10467616.528514862 8445731.9241905212 0 8445731.9241905212 13127348.636385918 0 0 0 0 -505687.21295714378 13632675.046398163 0 13632675.046398163 15479094.185050964 0 0 0 0 -823787.01839232445 10931626.222412109 0 10931626.222412109 10820457.735971451 0 0 0 0 -1584687.4183666706 9665626.4699478149 0 9665626.4699478149 8210193.3829879761 0 0 0 0 -4116516.9925887585 11228458.677408218 0 11228458.677408218 13633261.209102631 0 0 0 0 477050.33470821381 13346038.690906525 0 13346038.690906525 13969526.215232849 0 0 0 0 5008025.7937783599 12188637.756977558 0 12188637.756977558 11418091.008033752 0 0 0 0 7141420.0626258254 18195588.586573601 0 18195588.586573601 13806134.719665527 0 0 0 0 6492759.804674387 15438769.18812561 0 15438769.18812561 16030850.136517525 0 0 0 0 5669795.9455687208 9386089.8826862331 0 9386089.8826862331 409033.47456524149 0 0 0 0 47658414.63867569 -10496458.486206055 0 -10496458.486206055 -14324068.89824295 0 0 0 0 -839750.11794090271 16596180.961395264 0 16596180.961395264 23314855.283367157 0 0 0 0 30953912.254785538 9642093.1985931396 0 9642093.1985931396 -13584410.000610352 0 0 0 0 339500.25639125705 2125086.5564256366 0 2125086.5564256366 775764.57915047836 0 0 0 0 3479213.1186637878 -7413677.1878433228 0 -7413677.1878433228 11026303.619197845 0 0 0 0 935277.41715977062 9588908.8039859105 0 9588908.8039859105 9364067.7045197338 0 0 0 0 10214354.516963005 11093266.732357025 0 11093266.732357025 -11231028.17755127 0 0 0 0 -15286271.038275003 9451772.7323120832 0 9451772.7323120832 9488944.5752182007 0 0 0 0 5623634.8528900146 6582350.1080589294 0 6582350.1080589294 -4262567.5036506653 0 0 0 0 7655367.1685285568 20253519.235362291 0 20253519.235362291 7147693.9822692871 0 0 0 0 687719.19737243652 7533697.3810348511 0 7533697.3810348511 5903233.6891717911 0 0 0 0 3028779.6406121254 11514746.265404701 0 11514746.265404701 3928255.4873390198 0 0 0 0 4813690.1625432968 11765536.55354023 0 11765536.55354023 2384486.9923553467 0 0 0 0 8338941.7258319855 11212948.209665298 0 11212948.209665298 6221525.8969841003 0 0 0 0 2569042.1571020223 8391751.6872818656 0 8391751.6872818656 4851151.7012159582 0 0 0 0 2463024.791721344 10215410.181816101 0 10215410.181816101 4910814.1392083168 0 0 0 0 4213825.9797482491 8340279.201359272 0 8340279.201359272 4528764.2480506897 0 0 0 0 -23939293.27519989 15533859.940969467 0 15533859.940969467 19180477.180519104 0 0 0 0 -9872709.4148240685 82601.222299456596 0 82601.222299456596 23755672.715286255 0 0 0 0 -563202.89225292206 8556683.2978382111 0 8556683.2978382111 12182236.52678299 0 0 0 0 33111589.047973633 -1296765.2139816284 0 -1296765.2139816284 -1976868.3792381287 0 0 0 0 62355877.719148636 -3921458.9990921021 0 -3921458.9990921021 -5478623.9152793884 0 0 0 0 -121608.49549772014 186009.1895548827 0 186009.1895548827 -14154.466437987983 0 0 0 0 -15751251.973556519 -2867302.9273147583 0 -2867302.9273147583 45307107.172363281 0 0 0 0 -159231.67605924606 177519.9225797127 0 177519.9225797127 -77600.490194965154 0 0 0 0 4973409.6507720947 -11500974.361984253 0 -11500974.361984253 20928863.542541504 0 0 0 0 1903988.009617764 7850493.2321783435 0 7850493.2321783435 3186884.6803508773 0 0 0 0 -26152021.322912216 19611792.323757172 0 19611792.323757172 17950758.139530182 0 0 0 0 10233650.110214233 36203189.645889282 0 36203189.645889282 6792500.6148643494 0 0 0 0 21831730.447742462 22399099.639717102 0 22399099.639717102 -3465421.0027401447 0 0 0 0 56832286.394582748 15074008.918772697 0 15074008.918772697 -3121283.1514892578 0 0 0 0 18617002.427402496 12856928.407657623 0 12856928.407657623 -10345864.571723938 0 0 0 0 4635476.2972054482 3915253.2194843292 0 3915253.2194843292 -2314718.9355545044 0 0 0 0 -8153746.4124760628 5086926.3473129272 0 5086926.3473129272 1446822.5011291504 0 0 0 0 18391817.31069088 13170764.632545471 0 13170764.632545471 1974111.7679157257 0 0 0 0 6257739.3652254026 4179937.008388415 0 4179937.008388415 17912.204086221755 0 0 0 0 23253382.587558746 5175575.7349815369 0 5175575.7349815369 -5724344.6170806885 0 0 0 0 -982603.30047607422 953595.41433334351 0 953595.41433334351 610805.14326477051 0 0 0 0 1600768.6489941007 1366077.6151911179 0 1366077.6151911179 -823644.80605586618 0 0 0 0 -2804095.8309526234 273782.07991744578 0 273782.07991744578 1160996.3966999613 0 0 0 0 4697654.4750261782 6214244.2182494663 0 6214244.2182494663 3511959.3869329356 0 0 0 0 -6678247.723897934 15471757.465244293 0 15471757.465244293 8825363.7063560486 0 0 0 0 -966801.18302125158 6566011.9095477499 0 6566011.9095477499 4713763.1752365492 0 0 0 0 -10378392.380064011 13060244.023597717 0 13060244.023597717 8444677.3957519531 0 0 0 0 -3427388.5574115263 6931678.6260414626 0 6931678.6260414626 5634773.6824423335 0 0 0 0 -9627145.896951437 15556867.175415039 0 15556867.175415039 16691833.969360352 0 0 0 0 -26584654.70989418 8006063.1973800659 0 8006063.1973800659 13414897.15026474 0 0 0 0 -4772491.6528844833 19597028.643486023 0 19597028.643486023 9243402.3597450256 0 0 0 0 -6048698.4163589478 15478098.930440903 0 15478098.930440903 4228740.0736999512 0 0 0 0 12368352.591471195 29551895.300052643 0 29551895.300052643 -1251455.7702713013 0 0 0 0 -5334224.9512428641 30716754.063964248 0 30716754.063964248 10533104.961967468 0 0 0 0 33491888.515405655 23808173.83190155 0 23808173.83190155 -8698284.5005264282 0 0 0 0 19724723.189350128 38752971.351623535 0 38752971.351623535 4243178.4089164734 0 0 0 0 8644438.694144249 41027212.787254333 0 41027212.787254333 3870484.6830539703 0 0 0 0 63463784.672659874 89631430.393462181 0 89631430.393462181 46365378.462745667 0 0 0 0 8365358.1877756119 42339333.459651947 0 42339333.459651947 18992889.868236542 0 0 0 0 -27033770.639415741 38100919.975479126 0 38100919.975479126 47454266.716110229 0 0 0 0 -64752192.835429192 13345225.768650055 0 13345225.768650055 41421580.427124023 0 0 0 0 -10370521.675950527 25608535.713502884 0 25608535.713502884 3333304.8853378296 0 0 0 0 -8755195.9918165207 4400854.5532569885 0 4400854.5532569885 118631341.2339859 0 0 0 0 125999484.51433659 319226.16522979736 0 319226.16522979736 9101054.0751876831 0 0 0 0 5720420.2264404297 21105365.170909882 0 21105365.170909882 17048989.604804993 0 0 0 0 23736757.598790169 -10403777.597084045 0 -10403777.597084045 -27786329.189023495 0 0 0 0 -49296454.943784237 -25981673.227725983 0 -25981673.227725983 35869289.402816772 0 0 0 0 10706385.892500639 20601828.965557098 0 20601828.965557098 14815109.732210159 0 0 0 0 -60229192.857025146 -4627434.8872680664 0 -4627434.8872680664 -614063.5391998291 0 0 0 0 -1261275.0365652349 6638735.5194225963 0 6638735.5194225963 -397548.75815525278 0 0 0 0 10699765.227563262 20364560.020423889 0 20364560.020423889 13346024.073722839 0 0 0 0 9263097.0628786087 16270102.263822556 0 16270102.263822556 309452.29305648804 0 0 0 0 5746679.1738875648 7899927.7355180383 0 7899927.7355180383 -1999348.480721863 0 0 0 0 -5480645.3114932934 5617086.7885093559 0 5617086.7885093559 7044813.4208475463 0 0 0 0 8343707.2903043032 18116015.576646805 0 18116015.576646805 11237611.039978027 0 0 0 0 -22544427.769119263 1817221.340171814 0 1817221.340171814 17001554.785987854 0 0 0 0 -45049979.30555582 -23758312.770833969 0 -23758312.770833969 -11331792.066452026 0 0 0 0 816514.85701102763 1951378.5690914858 0 1951378.5690914858 -261784.26991117653 0 0 0 0 -2881533.7404594421 -2888401.4656238556 0 -2888401.4656238556 -27201507.788166046 0 0 0 0 13485912.099029541 501396.684009552 0 501396.684009552 -34653341.702445984 0 0 0 0 16649274.902107239 -7322214.3510093689 0 -7322214.3510093689 -32325681.89188385 0 0 0 0 -784338.58842468262 -31761.03736114502 0 -31761.03736114502 -31940555.163330078 0 0 0 0 -1143583.5795097351 -574883.54296875 0 -574883.54296875 -31012123.330562592 0 0 0 0 -2669196.589630127 133863.85046005249 0 133863.85046005249 -31026263.942344666 0 0 0 0 22705217.140155792 4903898.5765609741 0 4903898.5765609741 23648790.822338104 0 0 0 0 630466.58555403352 620563.38702504896 0 620563.38702504896 214440.20721052121 0 0 0 0 9111259.9298553467 2494973.7559165955 0 2494973.7559165955 42066204.450850487 0 0 0 0 229349.40987091511 268209.79459894821 0 268209.79459894821 54303.919872277882 0 0 0 0 -9390372.6960792542 14135599.256269455 0 14135599.256269455 -11791041.598724365 0 0 0 0 -10026977.417541504 63154242.939594269 0 63154242.939594269 114966689.61235428 0 0 0 0 28909906.815898895 38264142.152217865 0 38264142.152217865 87011575.169586182 0 0 0 0 51366959.654434204 59534443.609668732 0 59534443.609668732 62836316.611949921 0 0 0 0 33264.473920432851 206940.4700772427 0 206940.4700772427 198716.11079470813 0 0 0 0 32930712.067932129 -28348711.676753998 0 -28348711.676753998 1285667.6876621246 0 0 0 0 50044548.197769165 78677697.753875732 0 78677697.753875732 52815133.670578003 0 0 0 0 4669291.7549469508 4335471.5795528144 0 4335471.5795528144 -398307.15230182372 0 0 0 0 -6287811.4713516235 21944833.005773544 0 21944833.005773544 54145232.162780762 0 0 0 0 59202774.822036743 48650884.198432922 0 48650884.198432922 5670905.9408035278 0 0 0 0 -4188774.5701980591 13656949.220401764 0 13656949.220401764 -4403090.7656269073 0 0 0 0 43872533.884521484 -3514649.0219726562 0 -3514649.0219726562 -37461499.43624115 0 0 0 0 34776029.5353508 -8794980.4074697495 0 -8794980.4074697495 -41614151.658088684 0 0 0 0 3518472.2558403015 -2214646.6924743652 0 -2214646.6924743652 -17349939.980916977 0 0 0 0 13058410.80853653 21525657.510163307 0 21525657.510163307 -12377191.902988434 0 0 0 0 8332163.4955870621 7212633.0975748803 0 7212633.0975748803 -1519738.7481977027 0 0 0 0 4633250.6206893921 -5034411.4807720184 0 -5034411.4807720184 -11840731.723804474 0 0 0 0 6591835.3695869446 6689809.4503564835 0 6689809.4503564835 -10395857.1466465 0 0 0 0 7956532.4900140427 5615260.9587308783 0 5615260.9587308783 -1451144.7320414479 0 0 0 0 -10455194.406272888 -14080477.656769753 0 -14080477.656769753 -32103269.320417404 0 0 0 0 18453406.58852005 79646839.615214348 0 79646839.615214348 19497694.968845367 0 0 0 0 -47225357.672840118 24692901.704197884 0 24692901.704197884 14011129.178165436 0 0 0 0 7895564.0209169388 5588842.2069736011 0 5588842.2069736011 -1298119.5409883186 0 0 0 0 25062458.769142151 40723792.602823257 0 40723792.602823257 5829517.3432197571 0 0 0 0 27655772.076950073 38570719.722614288 0 38570719.722614288 -10062255.216091156 0 0 0 0 98322517.862846375 26050489.504304886 0 26050489.504304886 -23320000.165250778 0 0 0 0 57767337.230377197 53001982.272567749 0 53001982.272567749 -17653061.915092468 0 0 0 0 63356374.28016758 18465892.358666182 0 18465892.358666182 -19884350.285446167 0 0 0 0 73322811.147605896 -3281119.2728462219 0 -3281119.2728462219 -12986037.141924381 0 0 0 0 96279349.956604004 53356306.874254227 0 53356306.874254227 -18614085.050357819 0 0 0 0 21044373.289749146 -9798248.1704597473 0 -9798248.1704597473 24231994.166442871 0 0 0 0 19712124.329418182 7164579.5215411186 0 7164579.5215411186 11872553.39012146 0 0 0 0 -738396.30276924744 609387.40072164871 0 609387.40072164871 749958.10050408542 0 0 0 0 -40647664.149681091 87655936.503892899 0 87655936.503892899 -23368333.605203629 0 0 0 0 -38493329.668987274 -63650787.854045868 0 -63650787.854045868 136248940.14945984 0 0 0 0 -9481023.8363342285 8892296.9201698303 0 8892296.9201698303 45663278.551099777 0 0 0 0 -143462803.55854797 63838473.802459717 0 63838473.802459717 156655629.78028345 0 0 0 0 203542469.07809448 -109383190.64975548 0 -109383190.64975548 -83159809.886232376 0 0 0 0 -1518396.1654891968 10128637.057378769 0 10128637.057378769 4663565.1897468567 0 0 0 0 2255133.339872296 6707893.4644802809 0 6707893.4644802809 1221682.2585923113 0 0 0 0 1829035.8284416199 5395467.0294513702 0 5395467.0294513702 1346375.8514413834 0 0 0 0 -42193875.25894165 15513214.781892776 0 15513214.781892776 29713197.039810181 0 0 0 0 4130165.3008572799 8666514.2291191164 0 8666514.2291191164 5537131.3636078797 0 0 0 0 -8428657.6399383545 26006643.558292389 0 26006643.558292389 15839816.939004183 0 0 0 0 -38942216.473869324 19000675.652898788 0 19000675.652898788 28283806.175048828 0 0 0 0 -7766419.254776001 20188476.662200928 0 20188476.662200928 -9090814.5148849487 0 0 0 0 1148801.8547372818 6591099.5445690155 0 6591099.5445690155 1077433.2869644165 0 0 0 0 -5795038.7151894923 3387339.4725972954 0 3387339.4725972954 11440182.393181272 0 0 0 0 -2150113.1249198914 1268947.5936546326 0 1268947.5936546326 13612488.93761158 0 0 0 0 -20837313.087005615 24413744.382232666 0 24413744.382232666 26415152.493368149 0 0 0 0 -32824355.432907104 9504537.2370643616 0 9504537.2370643616 16837630.13269043 0 0 0 0 -10281526.058761597 4517758.6732788086 0 4517758.6732788086 33156593.662567139 0 0 0 0 -15055396.6953125 20636060.72530365 0 20636060.72530365 22525955.275653839 0 0 0 0 -18902138.697618484 28161753.933802605 0 28161753.933802605 10260982.271080017 0 0 0 0 2112454.5198548362 7986492.8079314167 0 7986492.8079314167 4733623.0659214314 0 0 0 0 2654907.1864437573 10578340.510576649 0 10578340.510576649 7113268.7344016628 0 0 0 0 1686939.6427813242 6268724.8617272582 0 6268724.8617272582 2678090.4859965853 0 0 0 0 3221150.1170902252 9312147.9713573456 0 9312147.9713573456 10781958.069339752 0 0 0 0 17350838.40178299 19699135.613540649 0 19699135.613540649 -19833321.374229431 0 0 0 0 -2165118.3433456421 1680861.2823524475 0 1680861.2823524475 8889985.7202911377 0 0 0 0 950862.00316010136 1632190.4211126547 0 1632190.4211126547 -539591.92550920695 0 0 0 0 -35705219.811569214 31147160.33291626 0 31147160.33291626 -10094278.816015244 0 0 0 0 146675.81514885277 457418.45820321329 0 457418.45820321329 320626.85133012105 0 0 0 0 -21643635.149409294 -10301287.084558487 0 -10301287.084558487 -24977970.310562134 0 0 0 0 1670379.142250333 3148032.604398502 0 3148032.604398502 831163.15605303878 0 0 0 0 -61219152.984771729 23393509.774841309 0 23393509.774841309 -10219093.494094849 0 0 0 0 497192.10022735596 6975255.0295143127 0 6975255.0295143127 7315707.3722467422 0 0 0 0 38836222.315048218 -27317411.48348999 0 -27317411.48348999 -25566682.005661011 0 0 0 0 2806533.0394347906 6748883.9441394806 0 6748883.9441394806 5411697.6615371704 0 0 0 0 -7262212.1750793457 48066116.292345047 0 48066116.292345047 -24479275.116477966 0 0 0 0 -1803445.5827668607 5296074.6756102145 0 5296074.6756102145 6098557.6471252441 0 0 0 0 1325690.0721802833 3948047.8193036718 0 3948047.8193036718 3392626.8733394481 0 0 0 0 930800.4719543457 -1009550.2114219666 0 -1009550.2114219666 -31704122.169944763 0 0 0 0 3352463.8029327393 3343969.3575706482 0 3343969.3575706482 -25741236.375473022 0 0 0 0 3307597.1477737427 28413237.686831474 0 28413237.686831474 -51046441.239728928 0 0 0 0 7493385.194782339 6250084.7640208378 0 6250084.7640208378 -589970.22534891404 0 0 0 0 18005447.709136963 -5908544.0891723633 0 -5908544.0891723633 -27892211.778326035 0 0 0 0 28534659.096755981 2935874.4917602539 0 2935874.4917602539 -30363615.0431633 0 0 0 0 8655905.550567627 -532626.64196777344 0 -532626.64196777344 -30919148.160606384 0 0 0 0 1021791.8207064979 1168367.954973761 0 1168367.954973761 481375.19803741225 0 0 0 0 -8826334.4660224915 5898757.5016479492 0 5898757.5016479492 22344604.074234009 0 0 0 0 10367243.978439331 4548896.5773353577 0 4548896.5773353577 -25910990.001235962 0 0 0 0 2657344.2447814941 3380063.5041885376 0 3380063.5041885376 12768343.41563797 0 0 0 0 -5990693.2911834717 4776442.1077947617 0 4776442.1077947617 21499566.263725281 0 0 0 0 -9758449.7329025269 8787853.8874740601 0 8787853.8874740601 19134467.683387756 0 0 0 0 -7301214.1722564697 3443406.7692832947 0 3443406.7692832947 37766301.469650269 0 0 0 0 2539721.0867614746 16344290.465143204 0 16344290.465143204 -21500565.253978729 0 0 0 0 -14460599.366623402 28407578.044956088 0 28407578.044956088 18911125.711906433 0 0 0 0 1451938.2110481262 7167174.8957710266 0 7167174.8957710266 4617815.9578878284 0 0 0 0 -2470793.832698822 10372731.59813118 0 10372731.59813118 4663091.365486145 0 0 0 0 -4702494.6534996033 21782027.85352993 0 21782027.85352993 12638013.580867767 0 0 0 0 2942159.3463745117 11190959.146598816 0 11190959.146598816 19323906.386472702 0 0 0 0 195502.7699537836 790023.85097409412 0 790023.85097409412 505762.25222805515 0 0 0 0 -13721463.006072998 12977381.875930786 0 12977381.875930786 15197722.780281067 0 0 0 0 5098270.7093429565 6258797.5044784546 0 6258797.5044784546 2980629.690486908 0 0 0 0 -9269035.970249176 -6820477.6862068176 0 -6820477.6862068176 12027931.323065758 0 0 0 0 -1758868.5358759202 -110311.3798121158 0 -110311.3798121158 1455531.330720067 0 0 0 0 1623591.9191350937 8342524.6174120903 0 8342524.6174120903 4027796.5296401978 0 0 0 0 1747226.2754135132 6383745.4882164001 0 6383745.4882164001 3332135.4687919617 0 0 0 0 1755012.755645752 7105373.4389953613 0 7105373.4389953613 5679055.4702377319 0 0 0 0 -3946934.9856262207 4058964.8277435303 0 4058964.8277435303 11191575.913925171 0 0 0 0 3475913.351474762 7582728.4876422882 0 7582728.4876422882 2067886.9109840393 0 0 0 0 909456.63763837889 3203021.7122352831 0 3203021.7122352831 1608830.3237015838 0 0 0 0 1128036.3034800556 3847150.7922474304 0 3847150.7922474304 4192776.8182253167 0 0 0 0 -11782951.78235364 2812381.6181319952 0 2812381.6181319952 3691373.0700073242 0 0 0 0 13724788.981719971 2741381.5378570557 0 2741381.5378570557 -34888290.568511963 0 0 0 0 785626.35894289799 1806548.714679651 0 1806548.714679651 1078887.0042773522 0 0 0 0 -1316933.434087038 1597896.4216729403 0 1597896.4216729403 338756.18685913086 0 0 0 0 -753867.46836879198 2925726.0011481941 0 2925726.0011481941 2766658.9590467848 0 0 0 0 2826347.9778680392 2279782.0507295998 0 2279782.0507295998 2410498.8547762558 0 0 0 0 -1705832.381427912 4427368.4525053725 0 4427368.4525053725 4269873.7033116873 0 0 0 0 -4402602.2736663818 10707827.836982727 0 10707827.836982727 -24273429.392852783 0 0 0 0 -2425886.3366165161 9767073.7778511047 0 9767073.7778511047 7097104.9697208405 0 0 0 0 2403869.7749443054 21537889.744148254 0 21537889.744148254 8280714.5579223633 0 0 0 0 544257.18243650813 738018.46304829232 0 738018.46304829232 -74932.527543056756 0 0 0 0 61191048.015052795 -21010542.434150696 0 -21010542.434150696 -74330053.237426758 0 0 0 0 -69878529.319404602 110298793.08865356 0 110298793.08865356 98653812.729187012 0 0 0 0 -4976620.679725647 2015960.718460083 0 2015960.718460083 -15959075.239044189 0 0 0 0 -10913346.655269623 3208210.4723358154 0 3208210.4723358154 1893727.4236068726 0 0 0 0 -7619121.2987060547 15290420.944496155 0 15290420.944496155 -790047.26641082764 0 0 0 0 3460350.9931845367 5181757.075059602 0 5181757.075059602 3802394.9319354631 0 0 0 0 -1239807.3006227314 14928140.543499455 0 14928140.543499455 -5235092.0515899658 0 0 0 0 -1408654.2522544861 9358858.5327339172 0 9358858.5327339172 -682936.93805670738 0 0 0 0 4375521.8660564423 7277490.1144523621 0 7277490.1144523621 5029766.445930481 0 0 0 0 -1595843.8306770325 6087185.3339881897 0 6087185.3339881897 6846388.7021369934 0 0 0 0 5131749.666759491 10985194.678390503 0 10985194.678390503 2232537.2894592285 0 0 0 0 -1266391.8552207947 5729522.2799620628 0 5729522.2799620628 13146416.399749756 0 0 0 0 23251193.205589294 23082914.009677887 0 23082914.009677887 11030270.702915192 0 0 0 0 10279218.056110382 7826145.3085918427 0 7826145.3085918427 1829462.3040084839 0 0 0 0 6868970.5536193848 13856379.529848099 0 13856379.529848099 2076109.6172863245 0 0 0 0 754534.82573699951 4730952.0205459595 0 4730952.0205459595 5775817.8821563721 0 0 0 0 24496301.073364258 5509520.7752494812 0 5509520.7752494812 -7571868.5693397522 0 0 0 0 18290127.691551208 14347391.627475739 0 14347391.627475739 12057669.945510864 0 0 0 0 81421.046019218862 -3037.667210675776 0 -3037.667210675776 -54725.492347039282 0 0 0 0 -15123382.652511597 -9176339.8218460083 0 -9176339.8218460083 -5194946.0189819336 0 0 0 0 -9183489.1817626953 -14947172.210365295 0 -14947172.210365295 -13363155.913054228 0 0 0 0 12503515.515480042 -5167818.7645339966 0 -5167818.7645339966 -10288158.093276978 0 0 0 0 3934382.9396972656 2000218.2965393066 0 2000218.2965393066 13990684.569145203 0 0 0 0 -430777.11868286133 -5011559.9552154541 0 -5011559.9552154541 6152593.6103439331 0 0 0 0 15993195.146923065 -601315.02489089966 0 -601315.02489089966 958605.88304901123 0 0 0 0 2822487.3184496611 1322312.4747466594 0 1322312.4747466594 -4007938.7436805628 0 0 0 0 16818714.534351349 1856484.3921203613 0 1856484.3921203613 -1687454.9289245605 0 0 0 0 48446239.005958557 41349572.322212219 0 41349572.322212219 -4817079.3341674805 0 0 0 0 2757511.4561048336 1455659.3530247528 0 1455659.3530247528 -3352280.3095062189 0 0 0 0 16067325.409801483 17270828.911905289 0 17270828.911905289 -10512424.387110382 0 0 0 0 16165389.781949043 19860610.145143032 0 19860610.145143032 15190752.902557373 0 0 0 0 75481.970045115799 -7556.7602193653584 0 -7556.7602193653584 -239933.51400441304 0 0 0 0 46972269.110887527 45463098.252457619 0 45463098.252457619 47119483.914466858 0 0 0 0 60532080.717140198 37032301.584289551 0 37032301.584289551 39632989.322705984 0 0 0 0 52014148.053562164 2902872.2061576843 0 2902872.2061576843 -3216509.2179260254 0 0 0 0 37239242.923347473 638579.73327636719 0 638579.73327636719 19284189.407787323 0 0 0 0 -11904990.021550179 -4831246.8506858349 0 -4831246.8506858349 28869306.809013367 0 0 0 0 3159918.8141494654 2937959.0649594627 0 2937959.0649594627 2466052.033883106 0 0 0 0 14018994.138233185 -10603994.872480392 0 -10603994.872480392 -24290497.975662231 0 0 0 0 16524362.485481262 19003719.693870544 0 19003719.693870544 14802628.290046692 0 0 0 0 3218366.7067014761 2753562.1141762231 0 2753562.1141762231 -1056551.3063796647 0 0 0 0 11805842.169807434 5412288.0199623108 0 5412288.0199623108 9139926.7265701294 0 0 0 0 936311.48112727702 834647.04260782152 0 834647.04260782152 649427.54645730928 0 0 0 0 -6980857.7587585449 -21026590.398389816 0 -21026590.398389816 -22043885.82749939 0 0 0 0 139555.70190470293 -6059.6734093092382 0 -6059.6734093092382 -86805.812158457935 0 0 0 0 -4088859.4762639999 -17440033.179374695 0 -17440033.179374695 -23868721.546295166 0 0 0 0 93187474.642654419 26793241.299827576 0 26793241.299827576 -15871549.514335632 0 0 0 0 101524821.68287659 19747621.724411011 0 19747621.724411011 -14387544.511077881 0 0 0 0 -15271362.530334473 -3430244.8489608765 0 -3430244.8489608765 25358014.371330261 0 0 0 0 84956791.237380981 23950696.673847198 0 23950696.673847198 366779.83559799194 0 0 0 0 79723171.727479935 18914013.790590286 0 18914013.790590286 82261635.187454224 0 0 0 0 191603.45743188076 -15934.257930908352 0 -15934.257930908352 -114751.45752358437 0 0 0 0 1312746.2846603394 -29490012.758022308 0 -29490012.758022308 -9867380.1018066406 0 0 0 0 5568340.5303254128 10623365.650541782 0 10623365.650541782 -28816373.607131958 0 0 0 0 6058511.2052211761 -6544670.1389160156 0 -6544670.1389160156 -6362281.1831512451 0 0 0 0 -3443484.8532447815 4758831.5089874268 0 4758831.5089874268 -13869557.069928646 0 0 0 0 -84031.702885594219 123636.7700503245 0 123636.7700503245 -12240.251204239205 0 0 0 0 155245575.27149582 38925887.987781525 0 38925887.987781525 98423519.069927216 0 0 0 0 93664932.734941483 100104931.03810883 0 100104931.03810883 226181087.21421051 0 0 0 0 444015643.8479538 181559729.7651329 0 181559729.7651329 89440572.057060242 0 0 0 0 994426905.05070114 297817739.51038361 0 297817739.51038361 -195057459.83018112 0 0 0 0 586374426.51933479 749517857.25177956 0 749517857.25177956 448900910.55504608 0 0 0 0 183207680.33454132 92145894.236724854 0 92145894.236724854 118295450.21229172 0 0 0 0 8206340.3936882019 9104812.5812988281 0 9104812.5812988281 -90201335.182661057 0 0 0 0 99641125.169755936 64376543.622716904 0 64376543.622716904 -71333224.491149902 0 0 0 0 136357814.35478592 154034518.468853 0 154034518.468853 56699388.471176147 0 0 0 0 43849521.463928223 47256077.063358307 0 47256077.063358307 151759935.4712677 0 0 0 0 -99440.313884217292 477592.46134861559 0 477592.46134861559 -200650.40211771429 0 0 0 0 -7267006.7668762207 -3917371.4455833435 0 -3917371.4455833435 -4839709.6189618111 0 0 0 0 -205027887.17486572 102871791.27734375 0 102871791.27734375 162469352.06532288 0 0 0 0 43616198.629112244 41827218.93119967 0 41827218.93119967 28727070.203414917 0 0 0 0 129277043.57250214 -136611142.20985413 0 -136611142.20985413 -34760405.791046143 0 0 0 0 5416288.3230514526 -873870.10961151123 0 -873870.10961151123 -8708112.8657898903 0 0 0 0 708682.07754677907 1075570.0254650004 0 1075570.0254650004 -826115.75203058682 0 0 0 0 3571417.9667816162 2260590.7312393188 0 2260590.7312393188 -4468727.020980835 0 0 0 0 12852936.084396362 3081555.9365997314 0 3081555.9365997314 -8469454.5473861694 0 0 0 0 12231545.812665939 6752290.7145786285 0 6752290.7145786285 -3588209.0176239014 0 0 0 0 2568265.1693649292 -8527100.1824989319 0 -8527100.1824989319 -12871883.674639702 0 0 0 0 13088522.642648697 3958388.5183315277 0 3958388.5183315277 -7472497.3480072021 0 0 0 0 44168789.231407166 78448456.469718933 0 78448456.469718933 80661254.463027954 0 0 0 0 30478533.965774536 22788986.314117432 0 22788986.314117432 23493112.25882946 0 0 0 0 101681233.11256409 78545666.926612854 0 78545666.926612854 23424380.361495972 0 0 0 0 170920764.20968628 -9414063.2066955566 0 -9414063.2066955566 -37765383.95098877 0 0 0 0 -3106313.072845459 8559534.2044754028 0 8559534.2044754028 19999864.881851196 0 0 0 0 35153346.95066452 13256561.178602219 0 13256561.178602219 -16933879.760070801 0 0 0 0 17423174.216712952 28076862.314884186 0 28076862.314884186 -27898148.95173645 0 0 0 0 29164901.836154938 28689527.579069138 0 28689527.579069138 14621201.953643799 0 0 0 0 37676126.568183899 29887287.410423279 0 29887287.410423279 149078.01745605469 0 0 0 0 40382944.523605347 22387843.155662537 0 22387843.155662537 8745836.6922912598 0 0 0 0 506691.15923547698 360781.37005252577 0 360781.37005252577 -270964.88778610528 0 0 0 0 -74441143.742881775 44332639.764167786 0 44332639.764167786 -12330792.434539795 0 0 0 0 -59197421.124927521 -82545667.458282471 0 -82545667.458282471 34766927.232223511 0 0 0 0 -5021034.5798416138 121466092.6423645 0 121466092.6423645 31650914.09153986 0 0 0 0 -12898208.834346771 25766893.272445679 0 25766893.272445679 3904814.9593811035 0 0 0 0 9299547.0414085388 5414409.1788330078 0 5414409.1788330078 -2671349.0376014709 0 0 0 0 1664910.3570807115 1352114.2026192937 0 1352114.2026192937 -775297.37146027386 0 0 0 0 8006272.0372066498 5957330.0708312988 0 5957330.0708312988 -844073.05307006836 0 0 0 0 1345201.2989313938 1317522.2660500482 0 1317522.2660500482 -731445.53470341861 0 0 0 0 -4500533.7123527527 -9281393.4037742615 0 -9281393.4037742615 -8348872.2417526245 0 0 0 0 21356885.172555923 9043412.4045035839 0 9043412.4045035839 -7719918.8292541504 0 0 0 0 30679709.85900116 5984467.2984390259 0 5984467.2984390259 -9822856.5320224762 0 0 0 0 20839062.097717285 -8803101.2287216187 0 -8803101.2287216187 -32752572.734784126 0 0 0 0 17503260.300880432 -107532.29726409912 0 -107532.29726409912 -11133088.956031799 0 0 0 0 4597371.0569507089 446883.32798972726 0 446883.32798972726 -2301455.8227974884 0 0 0 0 13569442.310520172 1561413.9908676147 0 1561413.9908676147 -4374734.3337271214 0 0 0 0 8998933.2929000854 2427583.4740562439 0 2427583.4740562439 -4270988.0128631592 0 0 0 0 20686537.071559906 -1469993.134349823 0 -1469993.134349823 -20134630.430473328 0 0 0 0 8842743.5165176392 32028456.735080719 0 32028456.735080719 3890516.2115631104 0 0 0 0 1221907881.4947166 1169241757.9820061 0 1169241757.9820061 730741934.42487001 0 0 0 0 1706697.7991973683 -365544.87342827395 0 -365544.87342827395 364735.09708251804 0 0 0 0 1464632017.7178049 698657925.8883009 0 698657925.8883009 296266075.63654327 0 0 0 0 883942381.14186478 471043644.48421097 0 471043644.48421097 369595300.53628922 0 0 0 0 33722411.950416565 -58355895.32755661 0 -58355895.32755661 -19154701.068397522 0 0 0 0 -10289141.932884216 -1795542.8560409546 0 -1795542.8560409546 14731157.81539917 0 0 0 0 103866941.87354279 -34462678.05594635 0 -34462678.05594635 -21927062.805732727 0 0 0 0 143765.1412184108 431205.99008239806 0 431205.99008239806 12938.8322237432 0 0 0 0 90406529.463096619 35508807.997077942 0 35508807.997077942 23782172.381217957 0 0 0 0 3465874.3111114502 4921795.3586120605 0 4921795.3586120605 2385663.9678421021 0 0 0 0 3468225.7651309967 5103173.3103466034 0 5103173.3103466034 4294235.0440673828 0 0 0 0 408186.5609703064 7534779.2732963562 0 7534779.2732963562 3178807.9982757568 0 0 0 0 2493139.4169578552 4596737.1327724457 0 4596737.1327724457 5600491.7354507446 0 0 0 0 -2320472.4532051086 6820830.6421928406 0 6820830.6421928406 3856521.3107223511 0 0 0 0 391058.11842346191 5698347.7289810181 0 5698347.7289810181 4446278.3196563721 0 0 0 0 -1143350.3198032379 7700536.6280498505 0 7700536.6280498505 3511168.8234481812 0 0 0 0 -3383527.4745292664 8051111.2702102661 0 8051111.2702102661 3468354.9433174133 0 0 0 0 -717182.0434513092 5843494.8121299744 0 5843494.8121299744 2860897.6015777588 0 0 0 0 1192112.7974473601 3394303.6033228375 0 3394303.6033228375 1077440.6950703412 0 0 0 0 -3304600.0286445618 6548272.9209594727 0 6548272.9209594727 4946012.0344543457 0 0 0 0 1002466.1525243614 836753.80793666653 0 836753.80793666653 -517071.72717565484 0 0 0 0 -1359837.4683742523 6985469.4000072479 0 6985469.4000072479 1748900.9848022461 0 0 0 0 3914803.768204337 6229734.2978086174 0 6229734.2978086174 3195835.1571114399 0 0 0 0 -3539549.3235569 9749599.5553970337 0 9749599.5553970337 1949767.0796585083 0 0 0 0 456996.99063873291 2150141.5946083069 0 2150141.5946083069 -231752.93074035645 0 0 0 0 3141204.5585698597 2312978.0094765369 0 2312978.0094765369 -3527992.5311479382 0 0 0 0 -216079.23348236084 1892262.0721359253 0 1892262.0721359253 -1927877.2594890594 0 0 0 0 47928.729995727539 882838.62417602539 0 882838.62417602539 -2689012.9016571045 0 0 0 0 1016551.2024383545 3208702.780456543 0 3208702.780456543 -1720647.1006469727 0 0 0 0 3639275.0682144165 2220189.53972435 0 2220189.53972435 -5216684.112411499 0 0 0 0 2231659.1015167236 1545886.9232597351 0 1545886.9232597351 -382064.83563232422 0 0 0 0 19314364.244445801 22224407.936889648 0 22224407.936889648 56661131.877586365 0 0 0 0 19314364.244415283 22224407.937072754 0 22224407.937072754 56661131.877622604 0 0 0 0 19314364.244400024 22224407.937088013 0 22224407.937088013 56661131.877700806 0 0 0 0 913141.81600007415 1621537.4794160938 0 1621537.4794160938 -1117143.5886655115 0 0 0 0 19889943.279129028 18750434.360588074 0 18750434.360588074 11985182.902809143 0 0 0 0 418435.2790133208 2392290.995860368 0 2392290.995860368 16464.383677210659 0 0 0 0 34591510.289764404 22946019.49772644 0 22946019.49772644 6891192.789024353 0 0 0 0 20614217.529243469 14840015.017295837 0 14840015.017295837 29803660.124359131 0 0 0 0 34352298.741321564 35000435.160369873 0 35000435.160369873 33828395.855285645 0 0 0 0 21101253.377047539 10814128.852153778 0 10814128.852153778 -572938.90684509277 0 0 0 0 22891718.87052536 13074636.291912079 0 13074636.291912079 -3251157.0441474915 0 0 0 0 27255271.472427368 20625633.357467651 0 20625633.357467651 7618559.0642337799 0 0 0 0 15038787.425410271 8013312.2279787064 0 8013312.2279787064 225246.05907440186 0 0 0 0 12346331.045009613 5109852.5863876343 0 5109852.5863876343 -2458268.9449672699 0 0 0 0 13210012.306434631 10378645.856182098 0 10378645.856182098 5267164.28606987 0 0 0 0 4952493.4840126038 9520102.7994880676 0 9520102.7994880676 1297783.1184768677 0 0 0 0 513634.45271102339 4054478.4403901827 0 4054478.4403901827 1428435.0348239467 0 0 0 0 14188403.127836227 13514879.702332497 0 13514879.702332497 3864394.6517410278 0 0 0 0 16078117.60666275 18243288.004070282 0 18243288.004070282 11944248.239959717 0 0 0 0 4522628.1498165131 4249608.1031570435 0 4249608.1031570435 3299989.3471603394 0 0 0 0 6167225.0261192322 5826288.9238166809 0 5826288.9238166809 1508007.0554389954 0 0 0 0 3569220.6286621094 7746766.6433944702 0 7746766.6433944702 290600.93209838867 0 0 0 0 2277829.0610466003 5725346.3953876495 0 5725346.3953876495 2891029.3480224609 0 0 0 0 3769718.0076198578 4080370.9688949585 0 4080370.9688949585 3206919.9323215485 0 0 0 0 3773823.4541053772 3965409.7043151855 0 3965409.7043151855 3267529.0209026337 0 0 0 0 3765967.5777778625 4114833.8541183472 0 4114833.8541183472 3884932.9639358521 0 0 0 0 -9617551.2876014709 5184443.6591758728 0 5184443.6591758728 7834283.0319423676 0 0 0 0 4300580.5037934771 1523413.8852352835 0 1523413.8852352835 -25206.685922652483 0 0 0 0 8606209.8425756693 4482800.2509651184 0 4482800.2509651184 -3535581.9065322876 0 0 0 0 3978854.28865242 4279911.0236968994 0 4279911.0236968994 2473176.664024353 0 0 0 0 2118666.2426126003 10997781.531072617 0 10997781.531072617 1772682.7977371216 0 0 0 0 3017677.3849627245 4078494.0551834926 0 4078494.0551834926 2807129.7154712789 0 0 0 0 12577082.074867249 8724296.9933681488 0 8724296.9933681488 2018457.3194961548 0 0 0 0 2077082.5944724958 4066017.7023677845 0 4066017.7023677845 1965181.0979098976 0 0 0 0 6791394.0610401295 5722629.8933683392 0 5722629.8933683392 1500307.0664393995 0 0 0 0 8889012.7898921967 7019631.9734992981 0 7019631.9734992981 931153.99147796631 0 0 0 0 12108674.664131165 8019548.1315231323 0 8019548.1315231323 2540727.8359718323 0 0 0 0 11189171.261770248 4721247.9901919365 0 4721247.9901919365 -668875.77960205078 0 0 0 0 6057580.6881808229 1044509.2185456567 0 1044509.2185456567 -1591156.6019490361 0 0 0 0 11336221.355665207 657776.58359527588 0 657776.58359527588 -3590245.7477798462 0 0 0 0 5012461.06848526 1326968.9331283569 0 1326968.9331283569 -619659.57508850098 0 0 0 0 4484678.5959815979 2094666.5136451721 0 2094666.5136451721 -362736.20609283447 0 0 0 0 4980446.7312965002 861247.1781693399 0 861247.1781693399 -1023989.3012460601 0 0 0 0 412803.11202152818 -359242.50968393683 0 -359242.50968393683 -441719.84033161961 0 0 0 0 -10653957.358652115 28800806.776638031 0 28800806.776638031 104771574.54953003 0 0 0 0 47521315.979972839 30108017.230735779 0 30108017.230735779 -140753045.15543365 0 0 0 0 166573464.1956749 32514737.381668091 0 32514737.381668091 64283271.349197388 0 0 0 0 334017742.80797577 138257979.78122711 0 138257979.78122711 241041.13677597046 0 0 0 0 43603615.508358002 66863875.94912529 0 66863875.94912529 197627122.59339523 0 0 0 0 45251450.112037659 240792173.68626022 0 240792173.68626022 407516271.71682739 0 0 0 0 59988329.825457573 97879296.804168701 0 97879296.804168701 33517512.335914612 0 0 0 0 38838203.950283051 -66257863.763578415 0 -66257863.763578415 23319200.926773071 0 0 0 0 10811744.874526978 8945188.9368534088 0 8945188.9368534088 2628130.8227901459 0 0 0 0 20688961.412456512 3649416.178565979 0 3649416.178565979 -17907358.417327881 0 0 0 0 3421509.2286450695 1661437.0722819548 0 1661437.0722819548 -1012194.2439026944 0 0 0 0 1904248.5965437293 661387.52175317332 0 661387.52175317332 -576943.93068860471 0 0 0 0 2988156.8347015381 10291138.270065308 0 10291138.270065308 -573550.94027709961 0 0 0 0 -5027919.7843389511 -2015865.7764396667 0 -2015865.7764396667 18729152.643486023 0 0 0 0 18117828.079397202 12350910.665927887 0 12350910.665927887 -3662861.2312202454 0 0 0 0 20104486.876890182 23817461.053730011 0 23817461.053730011 15233771.997108459 0 0 0 0 -4597436.9128117561 15643760.011474609 0 15643760.011474609 95037.795875549316 0 0 0 0 2412087.3709231187 1080909.7951429561 0 1080909.7951429561 -866120.97528664023 0 0 0 0 27267660.456766129 -1126251.9355926514 0 -1126251.9355926514 34092.723807619652 0 0 0 0 9263504.8635444641 1482055.3846588135 0 1482055.3846588135 3523071.4996643066 0 0 0 0 21799680.50731945 2473929.4988632202 0 2473929.4988632202 -3468971.1649856567 0 0 0 0 894798050.81331253 545968188.93432307 0 545968188.93432307 154509294.98303986 0 0 0 0 899241910.07424545 501598541.97127151 0 501598541.97127151 132123865.32264519 0 0 0 0 891000547.01706266 582269046.28372002 0 582269046.28372002 238496628.37582397 0 0 0 0 1178720781.7969532 598626062.11188316 0 598626062.11188316 199382748.28787994 0 0 0 0 945227955.50667095 422917495.43198109 0 422917495.43198109 85398553.260986328 0 0 0 0 800669415.34763336 714204079.2131691 0 714204079.2131691 750915221.68330455 0 0 0 0 694763095.65979958 480870598.13914394 0 480870598.13914394 295585341.22275925 0 0 0 0 5642914.8661234491 -1187795.4760738611 0 -1187795.4760738611 184957.80405164883 0 0 0 0 4809154.1622619629 3005165.0879898071 0 3005165.0879898071 869982.28276824951 0 0 0 0 2710389.0274120006 3300016.5894892942 0 3300016.5894892942 -554662.0197750926 0 0 0 0 5661054.191603126 1717643.1452998742 0 1717643.1452998742 -1676222.082518395 0 0 0 0 2136051.9441226027 220906.7447696086 0 220906.7447696086 1713950.6389654428 0 0 0 0 8593715.4696617126 9101751.8389320374 0 9101751.8389320374 -22890183.660140991 0 0 0 0 591988852.04262638 325601888.49210072 0 325601888.49210072 169825558.33578491 0 0 0 0 804208031.95727158 516956904.98572922 0 516956904.98572922 295045490.30466038 0 0 0 0 902688361.05727386 501494837.27511215 0 501494837.27511215 144715511.54493332 0 0 0 0 905092697.75089836 523046265.63267517 0 523046265.63267517 236453549.97766113 0 0 0 0 937983413.30946732 397599130.17611694 0 397599130.17611694 188429196.21486092 0 0 0 0 1314977442.2304153 594277937.04501343 0 594277937.04501343 178072356.57730865 0 0 0 0 -84013485.739368439 25806850.601512909 0 25806850.601512909 152427280.57357788 0 0 0 0 792513.50238095457 -127027.09978759475 0 -127027.09978759475 519713.71844191104 0 0 0 0 39182497.481708527 60511873.476010323 0 60511873.476010323 -48818370.674606323 0 0 0 0 1043589790.6412888 404601895.4022522 0 404601895.4022522 129471096.41586685 0 0 0 0 968347829.73499298 546751223.42355728 0 546751223.42355728 393070254.37002563 0 0 0 0 824998207.34403992 432201672.91827774 0 432201672.91827774 121267321.35163498 0 0 0 0 820907851.82978034 280244902.87510079 0 280244902.87510079 264794522.62750244 0 0 0 0 988978039.79925346 348796771.16991043 0 348796771.16991043 132815.37005233765 0 0 0 0 907563659.03972244 426478033.06535912 0 426478033.06535912 161998871.53776932 0 0 0 0 847716842.16344643 495451664.36870575 0 495451664.36870575 -156914.53840255737 0 0 0 0 905315251.13953924 415602014.39153337 0 415602014.39153337 109407797.66625977 0 0 0 0 816540813.68581009 495904367.44186401 0 495904367.44186401 145141085.16318512 0 0 0 0 885982739.80104828 525628164.16473961 0 525628164.16473961 109855109.00894928 0 0 0 0 852965105.3911047 465013999.27513599 0 465013999.27513599 64820071.811058044 0 0 0 0 718180795.55650902 413655880.19217682 0 413655880.19217682 96736132.022708893 0 0 0 0 605496021.11068726 548162643.10328674 0 548162643.10328674 902991.4329021672 0 0 0 0 342534980.60804749 370790866.75504875 0 370790866.75504875 206947907.50224304 0 0 0 0 455356589.23841095 338088638.8968277 0 338088638.8968277 201216943.71900654 0 0 0 0 675465755.93244553 440614685.02614212 0 440614685.02614212 139887871.02109909 0 0 0 0 683486321.52827072 310374016.48674393 0 310374016.48674393 81621728.967609406 0 0 0 0 578136656.88895559 363179776.17919302 0 363179776.17919302 150347725.32389069 0 0 0 0 822020223.8715744 552494573.99628448 0 552494573.99628448 266724472.62030792 0 0 0 0 810087607.71126938 432862800.39937973 0 432862800.39937973 8751690.6688194275 0 0 0 0 89814261.639762878 348913331.36377335 0 348913331.36377335 -72270652.956232071 0 0 0 0 -178451150.3754932 97773007.850682735 0 97773007.850682735 -302585268.10483551 0 0 0 0 551840795.62084007 241760008.71797037 0 241760008.71797037 -97008371.591934204 0 0 0 0 569478116.94861603 450243235.98406601 0 450243235.98406601 6293384.1088619232 0 0 0 0 425276979.80388641 225818929.4361639 0 225818929.4361639 126523144.45891571 0 0 0 0 317518142.68109894 215095642.62426376 0 215095642.62426376 130817415.81835175 0 0 0 0 317667152.10028362 182231259.42556572 0 182231259.42556572 -125117081.04142761 0 0 0 0 92499353.569255829 59012673.819484711 0 59012673.819484711 179796043.26255989 0 0 0 0 657772.68357510492 1163280.6778270267 0 1163280.6778270267 -1016360.9599423036 0 0 0 0 164906033.41812897 142823732.38307571 0 142823732.38307571 204704.37692642212 0 0 0 0 207836612.55201149 224851675.27763617 0 224851675.27763617 280630824.39115143 0 0 0 0 208509957.72053909 214274017.88689041 0 214274017.88689041 245993110.10042191 0 0 0 0 335534428.30768871 363165127.08734322 0 363165127.08734322 387645140.92030334 0 0 0 0 1197537.1015306935 988836.04619346932 0 988836.04619346932 -855646.23521897197 0 0 0 0 163984146.45703316 248179801.22099113 0 248179801.22099113 246862875.12896347 0 0 0 0 -103885683.9950695 359653161.46866226 0 359653161.46866226 189697.25289535522 0 0 0 0 268026845.77483749 99897753.033004761 0 99897753.033004761 171789161.52062988 0 0 0 0 -122863291.64752007 295415016.60453987 0 295415016.60453987 -152928705.54130173 0 0 0 0 -234772323.72096443 426775781.72250271 0 426775781.72250271 73269103.608482361 0 0 0 0 -134575281.68239975 435611078.46961021 0 435611078.46961021 -171150927.96905518 0 0 0 0 -353898085.42648315 214669145.8077774 0 214669145.8077774 1047250708.9134827 0 0 0 0 -301481528.66393661 900886310.33045578 0 900886310.33045578 -647011524.79413223 0 0 0 0 -155697.77861259878 1282571.7705270275 0 1282571.7705270275 480295.98108458892 0 0 0 0 -35463834.132240295 485032330.25968933 0 485032330.25968933 -73491843.979913712 0 0 0 0 -253716325.21063995 481433943.855896 0 481433943.855896 410303478.86494446 0 0 0 0 -233141682.35362244 783963166.11532593 0 783963166.11532593 328018489.71855164 0 0 0 0 -10093438.608436584 264399016.55455399 0 264399016.55455399 4501545.0771789551 0 0 0 0 -13123803.768821716 403319245.09004974 0 403319245.09004974 -308945757.94406891 0 0 0 0 85931943.616939545 64989750.759801865 0 64989750.759801865 133379380.9098587 0 0 0 0 121579130.15354156 358069052.92268753 0 358069052.92268753 -287019856.69630432 0 0 0 0 -12312169.906330109 477784454.66835022 0 477784454.66835022 -330587456.72792816 0 0 0 0 263898.41495994478 637511.28989447281 0 637511.28989447281 -591081.15181022137 0 0 0 0 -194293844.80711365 583906913.85932159 0 583906913.85932159 -222057825.19432831 0 0 0 0 -197699778.00382233 582395840.07437134 0 582395840.07437134 -251619056.63189697 0 0 0 0 -204977087.36458588 630370604.28006744 0 630370604.28006744 330641048.19054508 0 0 0 0 -70729327.045890808 714010337.00334167 0 714010337.00334167 -93409985.221710205 0 0 0 0 -475128828.81182861 522208576.56092834 0 522208576.56092834 -111410254.37324524 0 0 0 0 -257065496.30377197 708889345.23416138 0 708889345.23416138 -337072969.83785677 0 0 0 0 -312505902.47366333 678087015.76846313 0 678087015.76846313 -139270372.97285843 0 0 0 0 -455084233.74826241 782780604.39779234 0 782780604.39779234 -133173413.72979736 0 0 0 0 -346837305.15490913 584556774.37576199 0 584556774.37576199 -76879673.159439087 0 0 0 0 -358094546.47961807 619727274.83418274 0 619727274.83418274 -42084432.027008057 0 0 0 0 -306674742.93154907 715085562.86793518 0 715085562.86793518 46080153.961273193 0 0 0 0 -316457470.14970398 571869189.31161499 0 571869189.31161499 111857615.23686218 0 0 0 0 -336469051.09418488 632746213.07330322 0 632746213.07330322 -49126915.685272217 0 0 0 0 -215879142.11333466 558314366.62480164 0 558314366.62480164 6719174.1792907715 0 0 0 0 -303417176.39136505 539955993.07223511 0 539955993.07223511 30955545.065315247 0 0 0 0 -309056683.08864594 495563102.3564682 0 495563102.3564682 -21424286.513912201 0 0 0 0 -329571336.32666779 574734845.20610809 0 574734845.20610809 -231863202.96539307 0 0 0 0 -403944766.14790726 547452321.8834877 0 547452321.8834877 -76305389.667388916 0 0 0 0 -272633825.42455101 393850420.64981461 0 393850420.64981461 -363059022.70024872 0 0 0 0 -199960699.05295014 368168309.35196352 0 368168309.35196352 -74720860.348419189 0 0 0 0 -182919999.91184998 521913297.07477951 0 521913297.07477951 -184111618.90338898 0 0 0 0 -348807576.75510406 777699902.66913795 0 777699902.66913795 -1149080983.7026215 0 0 0 0 -715623897.61122513 620596062.91768265 0 620596062.91768265 -288195853.38017845 0 0 0 0 -267692900.22399902 437054519.6068573 0 437054519.6068573 -257083939.60862064 0 0 0 0 -202556346.16686344 569711996.85324478 0 569711996.85324478 -370953360.1727829 0 0 0 0 -47517191.942512512 -11042588.142990112 0 -11042588.142990112 53714633.632593155 0 0 0 0 -1471616.4453932643 1604530.6756048426 0 1604530.6756048426 241055.1318865139 0 0 0 0 41581338.558929443 198414771.16190624 0 198414771.16190624 -1773150245.2481232 0 0 0 0 12190105.005800247 49990639.212955475 0 49990639.212955475 -577523032.62957764 0 0 0 0 17090100.426911831 332733621.92353177 0 332733621.92353177 -322446222.3270874 0 0 0 0 -231105976.71564865 282421605.75669861 0 282421605.75669861 -230201767.31737137 0 0 0 0 13525884.501541138 287320842.1454277 0 287320842.1454277 -724847357.75274658 0 0 0 0 -26503634.145835876 152975973.49827576 0 152975973.49827576 -443410249.93354416 0 0 0 0 -3601465.3002801575 6123144.0915113501 0 6123144.0915113501 809406.3662071377 0 0 0 0 -34660643.412963867 1775795.4193878174 0 1775795.4193878174 2484234.3069763184 0 0 0 0 1550465.4435745403 5239977.7952699512 0 5239977.7952699512 3586295.0452293046 0 0 0 0 -71858461.047393799 172957766.25718498 0 172957766.25718498 -393615453.20736313 0 0 0 0 6970806.0163593292 4972602.7661790848 0 4972602.7661790848 -11994122.662918091 0 0 0 0 859774.48630161956 3376029.7534055151 0 3376029.7534055151 426545.50417316519 0 0 0 0 8241848.0407171249 11028015.290277004 0 11028015.290277004 -7277280.9446411133 0 0 0 0 12462073.598426819 8329966.5860919952 0 8329966.5860919952 -19510917.731391907 0 0 0 0 4110343.4453878403 9613836.4406051636 0 9613836.4406051636 507556.48260498047 0 0 0 0 6558910.0967339948 6662536.4963446185 0 6662536.4963446185 567701.19176061079 0 0 0 0 -6955554.5794410706 47254049.857368469 0 47254049.857368469 10242459.342447281 0 0 0 0 1217771.6727452986 5980417.7450427487 0 5980417.7450427487 700936.29297941923 0 0 0 0 384606311.68414307 698156930.63008118 0 698156930.63008118 946999138.77249146 0 0 0 0 5476131.5124816895 15745892.727748871 0 15745892.727748871 5015955.7676086426 0 0 0 0 218765341.36241531 488984636.41480827 0 488984636.41480827 887497532.38168335 0 0 0 0 448296.70156046562 157543.45650071278 0 157543.45650071278 -398890.34254543111 0 0 0 0 -151879914.43507385 525028498.21203613 0 525028498.21203613 1896264855.4308777 0 0 0 0 -136360117.53347588 61691705.939738274 0 61691705.939738274 3757373.8876571655 0 0 0 0 7904920.2362518311 16693497.358612061 0 16693497.358612061 -32193123.665088654 0 0 0 0 7317168.3522023447 2511785.1066601072 0 2511785.1066601072 -1388275.2702573258 0 0 0 0 375648556.06749725 618507577.84142685 0 618507577.84142685 1428415995.8077698 0 0 0 0 313289123.70388794 762853780.33351135 0 762853780.33351135 1865958929.2551041 0 0 0 0 355065117.82640839 964605257.79005432 0 964605257.79005432 1695393282.2299843 0 0 0 0 589002249.05642319 801601786.62850666 0 801601786.62850666 1316164784.930748 0 0 0 0 -233324205.32531309 551967742.61882257 0 551967742.61882257 -824381227.83889008 0 0 0 0 415380565.66263008 1370360670.3814869 0 1370360670.3814869 2827093711.7161674 0 0 0 0 2053684.2987466753 840622.95656250417 0 840622.95656250417 -150073.2366402233 0 0 0 0 665165809.20552254 793482676.55359077 0 793482676.55359077 598411030.56816864 0 0 0 0 406324107.53121185 460213821.26351929 0 460213821.26351929 554327313.37312317 0 0 0 0 1028903079.8218079 1241409509.0779724 0 1241409509.0779724 931590156.79366302 0 0 0 0 358471268.89684296 818682066.84444046 0 818682066.84444046 1282812924.2919998 0 0 0 0 418969857.37309265 762073030.22954941 0 762073030.22954941 799236519.10814285 0 0 0 0 345180374.86813736 504347895.02662659 0 504347895.02662659 340970912.66849136 0 0 0 0 329359782.35506058 458797678.18648148 0 458797678.18648148 413104614.19418335 0 0 0 0 630118990.7429924 783946914.80092621 0 783946914.80092621 436971028.35501671 0 0 0 0 513769347.19248199 888778476.1010437 0 888778476.1010437 641846071.0127182 0 0 0 0 510269015.64119506 853624048.16293454 0 853624048.16293454 407248975.22111511 0 0 0 0 733215504.5716095 581011246.30698395 0 581011246.30698395 544983229.85632896 0 0 0 0 741965487.29638672 729488724.03521347 0 729488724.03521347 305180010.97492218 0 0 0 0 747777183.04866409 883533041.87474632 0 883533041.87474632 -28276604.505596161 0 0 0 0 622372756.85834122 385978622.70944595 0 385978622.70944595 75984758.22518158 0 0 0 0 515444634.04554272 286927827.75047398 0 286927827.75047398 -357919425.95889282 0 0 0 0 -503794851.2860384 -71009312.69733572 0 -71009312.69733572 -690537446.75936127 0 0 0 0 181102593.27442932 286928892.60722733 0 286928892.60722733 -196738383.15686035 0 0 0 0 177570931.19810104 456983045.66220474 0 456983045.66220474 -349980609.24467754 0 0 0 0 652778302.90846634 668061882.30705643 0 668061882.30705643 -1146842419.1228104 0 0 0 0 653701506.38238525 1055010381.8969917 0 1055010381.8969917 402175126.05434036 0 0 0 0 820681913.0213089 1010911453.0713177 0 1010911453.0713177 -646395345.62152863 0 0 0 0 60309892.439188004 731495360.26514244 0 731495360.26514244 -213403.29278373718 0 0 0 0 73642.491035461426 851793456.40971613 0 851793456.40971613 741999408.37187958 0 0 0 0 63989067.936103821 482849606.18015242 0 482849606.18015242 350613214.07442474 0 0 0 0 126821430.57907557 171482665.21500635 0 171482665.21500635 -865401841.21387482 0 0 0 0 541661103.10939884 1723210291.720695 0 1723210291.720695 897690032.24800873 0 0 0 0 -345208695.72797394 69522813.837192535 0 69522813.837192535 845544624.23865128 0 0 0 0 827863.04445266351 1146787.0682750745 0 1146787.0682750745 635581.50656712428 0 0 0 0 -654996204.69625664 493739829.47134876 0 493739829.47134876 153292672.89701843 0 0 0 0 2211149.9598572515 2605692.3305884684 0 2605692.3305884684 1280995.0362175927 0 0 0 0 -321744180.3108139 659794873.60034561 0 659794873.60034561 -453576597.09107971 0 0 0 0 147214667.31500834 865029830.69637752 0 865029830.69637752 -699046740.31935883 0 0 0 0 -341906673.44042969 272876959.84679222 0 272876959.84679222 290104751.37768936 0 0 0 0 -377226505.56949234 863307750.38294792 0 863307750.38294792 1061153897.5690155 0 0 0 0 1319591.3307842538 1498898.0309608933 0 1498898.0309608933 722917.1782042291 0 0 0 0 42184078.352905273 1256536653.0815697 0 1256536653.0815697 1285043491.0525246 0 0 0 0 1084480992.2496948 1146635278.1139297 0 1146635278.1139297 -1139234545.0550423 0 0 0 0 1068180021.3979797 1267777118.9451485 0 1267777118.9451485 77959711.365470886 0 0 0 0 972443395.28771973 982455741.55570984 0 982455741.55570984 507714298.82896423 0 0 0 0 739423377.50481415 206220418.25741959 0 206220418.25741959 421980902.39733315 0 0 0 0 1102250119.5776062 906542082.26506042 0 906542082.26506042 -370318496.46341705 0 0 0 0 1218205364.050106 802161012.71004105 0 802161012.71004105 -336097482.55805969 0 0 0 0 971425829.33793259 938919525.24641609 0 938919525.24641609 50467348.185005188 0 0 0 0 541084545.26426697 330208352.65326691 0 330208352.65326691 -800344257.92116547 0 0 0 0 830248410.29674089 1036053056.4505773 0 1036053056.4505773 677014756.74621582 0 0 0 0 425379036.57249069 531266719.73939133 0 531266719.73939133 107486244.01840687 0 0 0 0 892289625.52281189 82930296.400791168 0 82930296.400791168 236398655.42175293 0 0 0 0 125798862.93568039 316793637.90373802 0 316793637.90373802 627733.21433566906 0 0 0 0 577889.66937480122 1300154.6700800713 0 1300154.6700800713 361056.69244039338 0 0 0 0 -397404531.5869751 454442623.07787323 0 454442623.07787323 -124683515.85858154 0 0 0 0 -605762879.05951309 367437339.94074249 0 367437339.94074249 -28104996.558547974 0 0 0 0 460213.02813220397 2495360.3551909979 0 2495360.3551909979 839735.08558988385 0 0 0 0 2129412825.2011871 799920160.2223587 0 799920160.2223587 -1258999112.4891129 0 0 0 0 -597912413.67260361 -144196881.11775017 0 -144196881.11775017 -255086275.18438339 0 0 0 0 442646.87834321335 1151790.884047824 0 1151790.884047824 1128715.1429966427 0 0 0 0 544474392.05890274 330816650.24416924 0 330816650.24416924 -42272019.240509033 0 0 0 0 1425988301.1871147 483004662.56428528 0 483004662.56428528 -56120572.051895142 0 0 0 0 -324673582.02889633 451415149.52192307 0 451415149.52192307 -100430145.62112927 0 0 0 0 -396489822.61060715 296713389.57538795 0 296713389.57538795 -99189470.617866516 0 0 0 0 -107372905.19353867 62637403.816156387 0 62637403.816156387 15938607.91708374 0 0 0 0 1071948.0629979335 3253369.0640870705 0 3253369.0640870705 2891170.8090930283 0 0 0 0 -45948057.112937927 -64828179.639320374 0 -64828179.639320374 113782480.33255959 0 0 0 0 84241847.622428894 -10224474.520179749 0 -10224474.520179749 1873540.6258735657 0 0 0 0 -8015287.6229629517 -61089946.370439529 0 -61089946.370439529 35342271.194869995 0 0 0 0 -14232580.74617672 10450251.078299522 0 10450251.078299522 43919823.312400818 0 0 0 0 -25597502.180915833 -15118536.083572388 0 -15118536.083572388 17738963.595798492 0 0 0 0 -19069845.133644104 -13518401.980743408 0 -13518401.980743408 12035379.116419077 0 0 0 0 48996797.850463867 128270539.02438354 0 128270539.02438354 347148309.95144653 0 0 0 0 4011781.9283676147 27113623.613796234 0 27113623.613796234 18208248.792701721 0 0 0 0 2631517.6473067217 3459091.399170965 0 3459091.399170965 221132.35720509663 0 0 0 0 -5272494.719543457 6894307.8579769135 0 6894307.8579769135 5696111.7952880859 0 0 0 0 1097550.5523752682 1328171.4156212341 0 1328171.4156212341 48150.354578774422 0 0 0 0 -72110583.57484436 72063006.914287567 0 72063006.914287567 44675297.272357941 0 0 0 0 453861.69545555115 1289669.8040034771 0 1289669.8040034771 -13572.944274902344 0 0 0 0 -14825968.063720703 -24759337.929138184 0 -24759337.929138184 71451250.147801399 0 0 0 0 24884789.262966156 5895048.3898792267 0 5895048.3898792267 -61849563.736244202 0 0 0 0 796710.90487289429 -35625705.220777512 0 -35625705.220777512 -54279207.277050018 0 0 0 0 51102.616691030562 634149.56534329802 0 634149.56534329802 295951.94750362448 0 0 0 0 1331313.6509947875 1089527.4741020091 0 1089527.4741020091 -989983.4823314026 0 0 0 0 48146798.519023895 43924159.158613205 0 43924159.158613205 -139846230.41479492 0 0 0 0 -40750282.247062683 6085671.6699943542 0 6085671.6699943542 87489327.506134033 0 0 0 0 1417856.2265323885 1825608.0602333266 0 1825608.0602333266 634768.78705685213 0 0 0 0 9384014.8401412964 4689699.4124641418 0 4689699.4124641418 -8492791.3976802826 0 0 0 0 -146031288.8014679 29011476.958345413 0 29011476.958345413 -2070776.1392726898 0 0 0 0 -110066977.51798439 124876163.1466713 0 124876163.1466713 123224807.02539062 0 0 0 0 2219049.8658369146 2295824.9684210531 0 2295824.9684210531 722181.74115738831 0 0 0 0 63301969.37669754 66923607.2293396 0 66923607.2293396 -49535275.682823181 0 0 0 0 203550459.3204422 -17958658.454875946 0 -17958658.454875946 -11152324.601558685 0 0 0 0 -64014037.610584259 123819728.48165131 0 123819728.48165131 495681363.77493286 0 0 0 0 252120257.90819216 669703381.8645668 0 669703381.8645668 827656030.17640686 0 0 0 0 8766809.3491630554 -47089060.993675232 0 -47089060.993675232 144591669.12629318 0 0 0 0 289585097.75931549 233862120.09165955 0 233862120.09165955 20219109.609304428 0 0 0 0 339072595.24049473 336562540.32993937 0 336562540.32993937 481760683.94886017 0 0 0 0 402168.98022191785 314418.79595625773 0 314418.79595625773 -162610.13030144572 0 0 0 0 671974795.77638245 571677084.2115345 0 571677084.2115345 250736538.19540405 0 0 0 0 484932706.48794556 1114744043.7267742 0 1114744043.7267742 910703600.71076202 0 0 0 0 1437126658.8032875 1053574083.684412 0 1053574083.684412 558286615.41242218 0 0 0 0 182279671.56497192 677217320.66980743 0 677217320.66980743 455066574.422966 0 0 0 0 -14835294.390098572 817199333.50888062 0 817199333.50888062 747271193.1867981 0 0 0 0 260878587.74868011 1076014731.9155769 0 1076014731.9155769 992824898.38045502 0 0 0 0 267009542.532547 991273223.24591827 0 991273223.24591827 767564495.21028137 0 0 0 0 -19499782.074569702 763360458.76837921 0 763360458.76837921 943649510.7420311 0 0 0 0 -84992918.177520752 472686913.84210587 0 472686913.84210587 1805962098.710392 0 0 0 0 88420394.242767334 1031842572.9041786 0 1031842572.9041786 1479004231.944809 0 0 0 0 -1042899932.6820641 -58767402.551744461 0 -58767402.551744461 1663546697.4614029 0 0 0 0 -127186897.43801498 748125109.45754623 0 748125109.45754623 1215553917.5211792 0 0 0 0 -80731364.154514313 547942211.27488136 0 547942211.27488136 1022443790.2451172 0 0 0 0 -71554933.435760498 257104994.11488342 0 257104994.11488342 1236475879.1138153 0 0 0 0 -28378419.91355896 152786105.82336807 0 152786105.82336807 -201552088.32012939 0 0 0 0 236831319.78205872 54491999.806438446 0 54491999.806438446 -169899910.77838516 0 0 0 0 801934.07236867025 904469.92817675415 0 904469.92817675415 473492.04893046431 0 0 0 0 347322772.83193207 509555529.66350174 0 509555529.66350174 130490126.52545929 0 0 0 0 -323105244.80882263 294656987.08339691 0 294656987.08339691 286262387.92243195 0 0 0 0 -308158835.2294693 23402755.353435516 0 23402755.353435516 71322194.076515198 0 0 0 0 -587640612.46307373 292686623.94544983 0 292686623.94544983 560266741.81487656 0 0 0 0 502035111.67553139 190672538.72156525 0 190672538.72156525 -500347682.57860565 0 0 0 0 -74305.684660761384 2421759.8978125043 0 2421759.8978125043 2999502.2114118673 0 0 0 0 91338163.983482361 -187756359.32730865 0 -187756359.32730865 -536333265.89328003 0 0 0 0 -47494.113711435755 968137.56543284655 0 968137.56543284655 1641546.5897928476 0 0 0 0 848318192.4893409 849356201.4737525 0 849356201.4737525 453509151.67091751 0 0 0 0 109193351.50341797 362933127.6621151 0 362933127.6621151 304149574.99224854 0 0 0 0 -7694620.3297595978 127910378.47366166 0 127910378.47366166 1404729287.5227852 0 0 0 0 501858.88529205322 272308393.30946827 0 272308393.30946827 -53830984.102779388 0 0 0 0 -138608447.48501587 204879679.551548 0 204879679.551548 244737191.69851494 0 0 0 0 -144522042.46103287 508927041.26144695 0 508927041.26144695 -19322718.776634216 0 0 0 0 -701967711.276474 101398699.27999306 0 101398699.27999306 74702221.27060318 0 0 0 0 -92773812.775413513 179608631.18339443 0 179608631.18339443 138055602.92879486 0 0 0 0 -108746184.7744751 228038351.83662224 0 228038351.83662224 12604142.269058228 0 0 0 0 491708738.98893851 266583239.02455863 0 266583239.02455863 -95614511.179225922 0 0 0 0 204602543.29734039 -153466211.37300491 0 -153466211.37300491 153290982.1752243 0 0 0 0 747039188.82087708 334955380.99111176 0 334955380.99111176 -240243671.91721344 0 0 0 0 23489.405873415701 2679711.2857301198 0 2679711.2857301198 1817108.4066146798 0 0 0 0 -464431029.38106155 -137272568.78617096 0 -137272568.78617096 -51909166.153106689 0 0 0 0 149210.20030988473 1485075.8942244276 0 1485075.8942244276 1597747.1005984396 0 0 0 0 -364565210.34980774 38383701.570594788 0 38383701.570594788 71501668.299835205 0 0 0 0 -658798512.61578751 72661300.258708954 0 72661300.258708954 170688439.02912903 0 0 0 0 -320754884.88951874 -62744429.882452011 0 -62744429.882452011 -219817938.52694702 0 0 0 0 -293453942.01247406 -228562808.24868011 0 -228562808.24868011 41595784.953961372 0 0 0 0 -455014229.378479 431091844.42397785 0 431091844.42397785 348469124.2848053 0 0 0 0 -814896920.45543385 109585117.70443296 0 109585117.70443296 233250012.32062531 0 0 0 0 143773.75400173804 2691995.6843980029 0 2691995.6843980029 3974138.8805188201 0 0 0 0 47021.478261755081 1276569.8322350848 0 1276569.8322350848 459885.26700241119 0 0 0 0 1297013274.1325722 253008201.24454117 0 253008201.24454117 -322109902.92164993 0 0 0 0 431092827.6938591 760118471.73769951 0 760118471.73769951 -179066115.45251846 0 0 0 0 10209942.092559814 229915838.22657299 0 229915838.22657299 463799938.53317261 0 0 0 0 -122442050.90193939 -93334151.280824661 0 -93334151.280824661 -268307020.07243967 0 0 0 0 626215530.72613525 766363791.10558319 0 766363791.10558319 132817508.47138214 0 0 0 0 536196033.31658936 420699200.04732513 0 420699200.04732513 -231336794.76629639 0 0 0 0 280665142.37902069 923496697.90711975 0 923496697.90711975 797390445.67129517 0 0 0 0 177174838.30160904 708004380.20321083 0 708004380.20321083 460886593.72647858 0 0 0 0 514470396.64801025 1232104475.1432533 0 1232104475.1432533 988964023.94660568 0 0 0 0 216029070.93722534 851123696.21021652 0 851123696.21021652 1043647927.7097702 0 0 0 0 226815020.30545044 918151840.11526871 0 918151840.11526871 1395968693.5638657 0 0 0 0 322754810.8800993 1008570727.1365061 0 1008570727.1365061 1170027574.6664429 0 0 0 0 761806205.05752563 357682608.8420105 0 357682608.8420105 1034820723.5017624 0 0 0 0 185921187.91491699 309460390.92000961 0 309460390.92000961 449933979.12181282 0 0 0 0 260664988.66680145 740311046.11150742 0 740311046.11150742 790867195.60014343 0 0 0 0 627025058.11856079 254494836.85257721 0 254494836.85257721 200939353.89419174 0 0 0 0 -18778912.57460022 398991301.07334137 0 398991301.07334137 434628091.66679001 0 0 0 0 -99778315.98991394 -65531279.820251465 0 -65531279.820251465 157826604.50781631 0 0 0 0 -272989024.14302826 70672270.490333557 0 70672270.490333557 68528155.918205261 0 0 0 0 -221009267.31384277 -90203599.839407921 0 -90203599.839407921 -33029541.762187958 0 0 0 0 -50763244.342720032 59675891.674913406 0 59675891.674913406 -43527187.32963562 0 0 0 0 188979.17926891893 608951.31175859272 0 608951.31175859272 91838.904619822279 0 0 0 0 37776027.424736023 -5371300.6012554169 0 -5371300.6012554169 -19853924.099006653 0 0 0 0 31067505.796208382 151085091.65956306 0 151085091.65956306 557440920.99660492 0 0 0 0 580647.00149751548 755730.09950118139 0 755730.09950118139 -223355.96928283572 0 0 0 0 264617396.37037659 348783305.61855888 0 348783305.61855888 263329985.88922119 0 0 0 0 227458214.63261414 218061881.40891266 0 218061881.40891266 670576934.33542252 0 0 0 0 599969876.63806152 704937820.15106201 0 704937820.15106201 797595723.01017761 0 0 0 0 306362800.00524139 521172972.51989651 0 521172972.51989651 851801334.6631012 0 0 0 0 375195295.2951889 115005261.02513504 0 115005261.02513504 -120115607.75012207 0 0 0 0 1956629.1549004875 1904119.4621613212 0 1904119.4621613212 154446.7066535959 0 0 0 0 137404158.63189697 -152776936.55869293 0 -152776936.55869293 -131696622.24528193 0 0 0 0 20796068.983848572 305202524.346138 0 305202524.346138 559199131.59443665 0 0 0 0 303045331.37210846 276494093.08132935 0 276494093.08132935 210062989.77037811 0 0 0 0 106797132.96153259 463110207.61889648 0 463110207.61889648 404928301.43167114 0 0 0 0 -186168202.07498932 130319853.77275085 0 130319853.77275085 314070931.08650208 0 0 0 0 -169322326.83227539 329965979.6526413 0 329965979.6526413 -318470712.79705811 0 0 0 0 104964.51607975364 -112451.47893109545 0 -112451.47893109545 -204641.17767525092 0 0 0 0 235848882.26708984 356042382.26150513 0 356042382.26150513 366080014.58840752 0 0 0 0 150448616.95108032 508193381.42501831 0 508193381.42501831 562027032.27882385 0 0 0 0 316446813.371521 485614329.71844482 0 485614329.71844482 374621012.36819458 0 0 0 0 345278859.31222534 427078232.41539001 0 427078232.41539001 483759262.13601685 0 0 0 0 233879088.26646423 406948909.65749359 0 406948909.65749359 640409007.45732117 0 0 0 0 308247163.90453148 653824837.70489883 0 653824837.70489883 807018437.90715027 0 0 0 0 384853371.74517822 315833801.63662338 0 315833801.63662338 520810361.39767456 0 0 0 0 321758222.43109131 526378181.640625 0 526378181.640625 962828779.95820427 0 0 0 0 730392793.01820374 714944624.14472198 0 714944624.14472198 1021949096.6203918 0 0 0 0 363259311.40622711 549199832.65960312 0 549199832.65960312 1468088440.1382828 0 0 0 0 623810010.70057678 1336983586.6356773 0 1336983586.6356773 1783281898.2549162 0 0 0 0 1169426822.9488373 920466713.46453094 0 920466713.46453094 683723625.86384201 0 0 0 0 455278917.4002285 548834488.2837162 0 548834488.2837162 1049053717.974762 0 0 0 0 591064937.83268738 418498775.52256775 0 418498775.52256775 637701535.80239868 0 0 0 0 2038818743.7864075 899885530.99370575 0 899885530.99370575 873599447.86151886 0 0 0 0 345191034.15022278 1137193764.9614716 0 1137193764.9614716 1630398096.5032158 0 0 0 0 1139735.040186353 785803.08043100312 0 785803.08043100312 204262.66101639345 0 0 0 0 421371907.12088013 -94487082.981836319 0 -94487082.981836319 -1109910954.5643539 0 0 0 0 -181447838.96006012 1211723564.604332 0 1211723564.604332 3364027054.9556236 0 0 0 0 3018350.5484056771 598187.46033709869 0 598187.46033709869 64679.338683981448 0 0 0 0 3677689.6264801025 60189149.91242218 0 60189149.91242218 175618952.53192139 0 0 0 0 1113782322.4161606 691911203.03205109 0 691911203.03205109 -477578265.15804291 0 0 0 0 995992183.09403229 1424867842.6702385 0 1424867842.6702385 1041345742.3476372 0 0 0 0 696015368.44342041 1032843222.4537067 0 1032843222.4537067 531074683.13573456 0 0 0 0 -1562399.3437674642 -118511.51645980962 0 -118511.51645980962 951240.21448579617 0 0 0 0 292777083.27307892 484369174.94580078 0 484369174.94580078 560573136.73230743 0 0 0 0 525590140.53747177 393838189.38123989 0 393838189.38123989 354936623.16644287 0 0 0 0 60725076.154081821 145773221.05943441 0 145773221.05943441 178752078.98732758 0 0 0 0 35873607.65537262 5119336.1361088753 0 5119336.1361088753 200173302.10613251 0 0 0 0 -90261503.127372742 -12563476.726904869 0 -12563476.726904869 179259369.46247292 0 0 0 0 -406353666.22929382 271062661.29762077 0 271062661.29762077 151492715.62511873 0 0 0 0 -127074056.7472496 233186624.15829277 0 233186624.15829277 384670369.55750656 0 0 0 0 74301904.932113647 340166451.74784851 0 340166451.74784851 -253699490.10165882 0 0 0 0 156979744.73127365 279339185.34087086 0 279339185.34087086 -229336518.63080978 0 0 0 0 -29061296.653877258 490796317.99906731 0 490796317.99906731 -231765606.75595474 0 0 0 0 30604790.591415405 589204144.87574387 0 589204144.87574387 1011100942.1050797 0 0 0 0 -747896.59677664936 -80633.871498541906 0 -80633.871498541906 516466.76834170148 0 0 0 0 181634043.31485367 338041564.10445118 0 338041564.10445118 -543570521.13344574 0 0 0 0 -101929848.37586975 736001893.71354675 0 736001893.71354675 863703336.40357971 0 0 0 0 -60020871.357536316 496639321.54481888 0 496639321.54481888 1032198420.920517 0 0 0 0 -451903133.88542938 852518147.2514534 0 852518147.2514534 1312252395.7464266 0 0 0 0 -30419195.190704346 770533602.35322189 0 770533602.35322189 1795285997.3035355 0 0 0 0 312714674.0716095 894036712.37044144 0 894036712.37044144 1312991450.1891861 0 0 0 0 69670046.137069702 737523290.63177109 0 737523290.63177109 1213296756.7768364 0 0 0 0 4037608.2979431152 621159961.01609421 0 621159961.01609421 1269630766.3340607 0 0 0 0 157177122.0614624 568113299.54256058 0 568113299.54256058 1000655296.8867836 0 0 0 0 272354578.99622345 657464149.60390663 0 657464149.60390663 1054967156.8792801 0 0 0 0 181590848.14281082 813401034.77202415 0 813401034.77202415 897276454.87159729 0 0 0 0 311455888.32397461 1032262962.3947067 0 1032262962.3947067 1053040307.0499878 0 0 0 0 336439520.08014679 1094175851.7137108 0 1094175851.7137108 1205994476.17173 0 0 0 0 210732400.69980621 1069013566.3927078 0 1069013566.3927078 1083986883.4098053 0 0 0 0 200658204.71257782 1071467134.6273785 0 1071467134.6273785 1114133721.2854996 0 0 0 0 202408539.60819244 1055185465.7813301 0 1055185465.7813301 1245830245.6314316 0 0 0 0 267555636.20124412 1158731676.4132156 0 1158731676.4132156 1399624965.8955688 0 0 0 0 170207288.49714375 876765843.52214718 0 876765843.52214718 1391205000.6336823 0 0 0 0 -970313676.17946625 84102811.429709435 0 84102811.429709435 922979835.62597656 0 0 0 0 117537.3616366121 1522073.0799913239 0 1522073.0799913239 2308232.1743778512 0 0 0 0 904140119.77559662 1188622884.5573997 0 1188622884.5573997 770177088.9703598 0 0 0 0 -284469391.80293274 701106555.20823288 0 701106555.20823288 1477766506.9872894 0 0 0 0 269704165.53513718 1237612121.1073327 0 1237612121.1073327 2048229181.710083 0 0 0 0 -108600307.7036972 124296468.19234657 0 124296468.19234657 490867033.82585144 0 0 0 0 -515261783.44546509 215081487.23774719 0 215081487.23774719 1264400188.1204453 0 0 0 0 549086421.16346931 803024676.93361354 0 803024676.93361354 969169793.55973434 0 0 0 0 -197239829.60345459 611499284.96743584 0 611499284.96743584 1318131765.7851181 0 0 0 0 2236976.4186553955 557718432.43619156 0 557718432.43619156 1158154344.4628668 0 0 0 0 405646677.49041748 1234278419.5251541 0 1234278419.5251541 1469309455.4146903 0 0 0 0 229864367.67260361 1160815365.1353846 0 1160815365.1353846 1654684991.748764 0 0 0 0 1174035550.7897644 948469923.16072464 0 948469923.16072464 1481893650.3239975 0 0 0 0 781827445.90481567 410074934.650383 0 410074934.650383 1811042287.9884071 0 0 0 0 -399592.52832475211 1420166.5004075356 0 1420166.5004075356 891790.0065568015 0 0 0 0 -150186417.57510614 255909361.60597301 0 255909361.60597301 -265342057.37029266 0 0 0 0 1424412117.5325356 1199030387.0253525 0 1199030387.0253525 721700771.605896 0 0 0 0 -733979589.79481888 345061813.43552971 0 345061813.43552971 800036673.88459778 0 0 0 0 39809797.378807068 40935592.293214798 0 40935592.293214798 -94619185.294553757 0 0 0 0 -47936707.495082855 168630968.82590866 0 168630968.82590866 204291562.72134566 0 0 0 0 910000788.40583801 527216206.2858696 0 527216206.2858696 282380373.9156189 0 0 0 0 310166346.24952316 861049744.55814934 0 861049744.55814934 1000472275.8531952 0 0 0 0 64996385.443932533 619540069.32139814 0 619540069.32139814 665260337.88208961 0 0 0 0 94409344.1040802 512762550.32142258 0 512762550.32142258 479982325.90951538 0 0 0 0 -561440.05446886714 413426919.34438348 0 413426919.34438348 522853779.31715775 0 0 0 0 -87672196.803424835 409999690.19727325 0 409999690.19727325 844027170.01651764 0 0 0 0 -38834855.680810928 486854275.40701485 0 486854275.40701485 892554195.23883438 0 0 0 0 -70647843.556686401 120618370.94591522 0 120618370.94591522 -200940355.18831635 0 0 0 0 908039.5985724479 2348033.0784789994 0 2348033.0784789994 -188677.68614362739 0 0 0 0 21526071.612889111 977691.10847284272 0 977691.10847284272 -2839520.6389834555 0 0 0 0 403641581.20867157 257941211.80604553 0 257941211.80604553 260473593.16722107 0 0 0 0 32873156.999771118 -33644.617919921875 0 -33644.617919921875 1932683.2043209076 0 0 0 0 45378440.892875671 -5675715.7372245789 0 -5675715.7372245789 -6550644.1219444275 0 0 0 0 38572292.498386383 5305910.3286743164 0 5305910.3286743164 -24266065.542984009 0 0 0 0 35406343.230026245 2442134.6476583481 0 2442134.6476583481 -1653276.9534988403 0 0 0 0 30686789.295829773 2281132.0085964203 0 2281132.0085964203 -395069.44812393188 0 0 0 0 6301043.1078698086 12256353.66585616 0 12256353.66585616 5057913.2968488745 0 0 0 0 -54690754.235574722 26098554.165332794 0 26098554.165332794 7794670.4882507324 0 0 0 0 33265522.554443359 -5323140.187210083 0 -5323140.187210083 -8277405.8153190613 0 0 0 0 44603941.35918045 65053816.504959106 0 65053816.504959106 32005126.151062012 0 0 0 0 72408353.944107056 59891848.378913879 0 59891848.378913879 -15303811.030517578 0 0 0 0 14246040.622886658 42378375.296844482 0 42378375.296844482 -17993142.771575928 0 0 0 0 56317326.900276184 63250117.36447525 0 63250117.36447525 -28199107.410415649 0 0 0 0 5653816.1598052979 54206482.806682587 0 54206482.806682587 -11794258.102203369 0 0 0 0 -43994869.303466797 7816368.3913726807 0 7816368.3913726807 7755574.1519622803 0 0 0 0 50058050.295646667 27322789.440914154 0 27322789.440914154 -7951963.6251373291 0 0 0 0 34793681.843391418 45582761.229667664 0 45582761.229667664 -6030155.801902771 0 0 0 0 64451541.665733337 46556438.997367859 0 46556438.997367859 -8268698.4663925171 0 0 0 0 97699931.754547119 38959357.282051086 0 38959357.282051086 -40072588.295944214 0 0 0 0 85242502.620750427 39477722.680931091 0 39477722.680931091 -31031402.851509094 0 0 0 0 144893953.77684784 16961539.887046814 0 16961539.887046814 -31408169.109062076 0 0 0 0 -91211939.140731812 111754429.62885284 0 111754429.62885284 -24335966.123321533 0 0 0 0 -114678238.87966919 -3618662.5075912476 0 -3618662.5075912476 21564539.366607666 0 0 0 0 3944634.681854248 55517104.419845581 0 55517104.419845581 -10524726.088500977 0 0 0 0 7676386.8958282471 74326740.062721252 0 74326740.062721252 -30509256.995567322 0 0 0 0 96686054.576660156 64413655.219772339 0 64413655.219772339 -74706568.254959106 0 0 0 0 86701006.771820068 67359440.86403656 0 67359440.86403656 11866886.666671753 0 0 0 0 47853770.425136566 28163197.11594677 0 28163197.11594677 -27673688.917144775 0 0 0 0 42032011.90615654 79939565.077103138 0 79939565.077103138 -172687068.94770813 0 0 0 0 -112644941.17760468 -6188941.0736083984 0 -6188941.0736083984 25126649.64667511 0 0 0 0 117952829.79969788 129359046.47055435 0 129359046.47055435 100755393.98856735 0 0 0 0 91933155.041069031 -8147886.4948620796 0 -8147886.4948620796 48965628.788040161 0 0 0 0 -100793758.04833984 220167841.8074379 0 220167841.8074379 339601262.21528625 0 0 0 0 100635823.95143127 8348829.176158905 0 8348829.176158905 26836807.671661377 0 0 0 0 108665021.82450867 107309315.76138306 0 107309315.76138306 248126349.92576599 0 0 0 0 158903096.57250977 29199168.789390564 0 29199168.789390564 10107373.481372833 0 0 0 0 170927656.43983459 207364168.2376442 0 207364168.2376442 342553505.79027367 0 0 0 0 252312868.52148819 166485860.39029312 0 166485860.39029312 60412225.882476807 0 0 0 0 228485915.28467178 195182696.78438091 0 195182696.78438091 192649503.80726624 0 0 0 0 135425289.83087921 394967415.5099988 0 394967415.5099988 675460744.39186859 0 0 0 0 232753133.71329165 597322463.70613909 0 597322463.70613909 728199423.03611755 0 0 0 0 209493404.18215942 200318786.76124573 0 200318786.76124573 331030576.82571411 0 0 0 0 3714880.083592304 2192876.1529744277 0 2192876.1529744277 -1038788.4164527133 0 0 0 0 -138912105.26803589 86644892.317939758 0 86644892.317939758 149303108.18583679 0 0 0 0 144387363.49774933 278473490.45878601 0 278473490.45878601 310786110.8673172 0 0 0 0 341997471.14010596 578514105.33374596 0 578514105.33374596 847427646.01541138 0 0 0 0 288104410.75901794 216251177.36865234 0 216251177.36865234 314377206.27784729 0 0 0 0 475033996.32099915 435171415.53433228 0 435171415.53433228 834889369.74779892 0 0 0 0 703815249.1790266 857560262.8529253 0 857560262.8529253 835253810.95172119 0 0 0 0 404968846.66095734 745764336.40865326 0 745764336.40865326 1316333055.2302203 0 0 0 0 443918532.41063309 960215507.86582756 0 960215507.86582756 918007161.68010712 0 0 0 0 1351935.3676928356 1304872.6127162091 0 1304872.6127162091 -573611.85149065033 0 0 0 0 218134737.7026062 912815363.14632416 0 912815363.14632416 1508513451.6526146 0 0 0 0 519861326.24144363 688348244.06250763 0 688348244.06250763 650206596.8074131 0 0 0 0 97270221.68907547 267157422.64337349 0 267157422.64337349 537606033.31632996 0 0 0 0 459162196.34267807 763758284.72950935 0 763758284.72950935 1035857172.7693329 0 0 0 0 284415243.15318298 584802665.45747375 0 584802665.45747375 935684326.81911087 0 0 0 0 361380458.69781494 713086763.93148804 0 713086763.93148804 768543980.10342598 0 0 0 0 92656743.281024933 307149694.97160912 0 307149694.97160912 638220365.09127808 0 0 0 0 480965206.25380707 693130984.53639221 0 693130984.53639221 838222371.91348267 0 0 0 0 297275459.48678589 610736550.41932678 0 610736550.41932678 859637496.75439072 0 0 0 0 336839618.68255234 568956628.77054787 0 568956628.77054787 995913137.70487213 0 0 0 0 396972244.21418762 911092951.5235672 0 911092951.5235672 1246337504.0534134 0 0 0 0 601934404.78929138 860652757.20995712 0 860652757.20995712 1469813166.7536469 0 0 0 0 2354992.8063568287 1942146.2057672143 0 1942146.2057672143 -440350.98833372444 0 0 0 0 520502536.92167664 1006248412.9875832 0 1006248412.9875832 1233473627.6629715 0 0 0 0 477009696.80773163 772135370.21982193 0 772135370.21982193 1458766707.9375687 0 0 0 0 498417840.16068363 713028270.48462296 0 713028270.48462296 1388486044.1278305 0 0 0 0 387668857.8014183 841918896.47576523 0 841918896.47576523 1709827100.8762665 0 0 0 0 9358437.2093307525 1484802.9644165859 0 1484802.9644165859 -496896.22699164413 0 0 0 0 29653679.660568237 92814512.209201813 0 92814512.209201813 -454179289.01580811 0 0 0 0 15524843.539580546 1029213.2211228199 0 1029213.2211228199 -1249374.8866337147 0 0 0 0 334767319.11343765 334881300.66463852 0 334881300.66463852 649610680.59931183 0 0 0 0 77663214.5365448 633667772.42625427 0 633667772.42625427 1594273228.807518 0 0 0 0 161554125.96786499 101767669.15801048 0 101767669.15801048 -581609314.79157257 0 0 0 0 -177760275.34973907 72676675.280708313 0 72676675.280708313 -4253765.8882026672 0 0 0 0 46474300.97297287 -26863758.064167023 0 -26863758.064167023 -136101097.89497375 0 0 0 0 22995594.919723511 128077379.04360771 0 128077379.04360771 -124724871.97902298 0 0 0 0 -73364146.38092041 168699974.86306715 0 168699974.86306715 92324734.594741821 0 0 0 0 -122534651.19258499 262514369.39930415 0 262514369.39930415 504779824.81210709 0 0 0 0 -1215840.5814427882 -426010.39401079342 0 -426010.39401079342 680858.70907933079 0 0 0 0 -281425684.55314636 218343408.36914635 0 218343408.36914635 159651359.42414093 0 0 0 0 -31912194.308685303 33994805.715639114 0 33994805.715639114 164974704.88886642 0 0 0 0 -170062270.0495224 -57836053.69039917 0 -57836053.69039917 104629003.29487228 0 0 0 0 -222815.65287780762 109749067.68250513 0 109749067.68250513 -112287361.63609695 0 0 0 0 -171475865.97238159 -73963277.483409882 0 -73963277.483409882 -204002383.95234299 0 0 0 0 39914216.517677307 49394437.308956146 0 49394437.308956146 -483996913.73707581 0 0 0 0 79102497.180702209 -2158378.8480262756 0 -2158378.8480262756 -619947583.64950943 0 0 0 0 161902528.77426529 142754154.888587 0 142754154.888587 58496801.156791687 0 0 0 0 -28290795.912651062 10957361.736339569 0 10957361.736339569 317734419.26512527 0 0 0 0 84693389.749488831 195536043.01556206 0 195536043.01556206 435652965.38123894 0 0 0 0 -1947959.8688078783 -373220.59221830219 0 -373220.59221830219 1053392.9286032245 0 0 0 0 101809193.64366913 21349765.553777695 0 21349765.553777695 163663468.10113716 0 0 0 0 92976316.369268417 89552177.276353836 0 89552177.276353836 -300334995.19736481 0 0 0 0 -27380174.858757019 -85997568.289634705 0 -85997568.289634705 383593589.45787811 0 0 0 0 -4841763.4864669144 1076910.2437485643 0 1076910.2437485643 249885.34354740288 0 0 0 0 84051249.36566925 42401638.684633255 0 42401638.684633255 127546849.66347885 0 0 0 0 93969561.98406601 -30215447.473955154 0 -30215447.473955154 99794161.105430603 0 0 0 0 -926372.33063241839 489144.389167035 0 489144.389167035 1033082.8229312152 0 0 0 0 47780625.948570251 -91537348.186885834 0 -91537348.186885834 -184487454.66890335 0 0 0 0 -53139826.684928894 -265351639.81470108 0 -265351639.81470108 10186525.939201355 0 0 0 0 -270026833.82614136 287854685.98019147 0 287854685.98019147 386060793.67412186 0 0 0 0 -38222722.056938171 43383476.074625015 0 43383476.074625015 -30553688.737351418 0 0 0 0 -6989721.7194722593 2207309.9214588925 0 2207309.9214588925 576696.54606970213 0 0 0 0 -38553659.342132568 104788284.16651535 0 104788284.16651535 250370787.86207104 0 0 0 0 -20477749.231460571 20630298.146816254 0 20630298.146816254 27322348.214454651 0 0 0 0 -7777093.0827726275 3570060.9839392845 0 3570060.9839392845 1252421.6343324641 0 0 0 0 4094970.9633712769 6816807.5217065811 0 6816807.5217065811 -472080.884765625 0 0 0 0 16089713.887622833 77277951.45539093 0 77277951.45539093 46850968.432594299 0 0 0 0 43069514.729961395 32599313.098620415 0 32599313.098620415 43714697.095977783 0 0 0 0 35174588.275512695 77443477.608623505 0 77443477.608623505 -8828351.247379303 0 0 0 0 2081169.6632499695 47315591.376761436 0 47315591.376761436 46374449.467834473 0 0 0 0 15371872.075950623 54154720.292732239 0 54154720.292732239 -2085318.8083496094 0 0 0 0 132711103.34204102 165930811.4877429 0 165930811.4877429 -21818857.914299011 0 0 0 0 37398944.902572632 -44009397.834121704 0 -44009397.834121704 -144444901.0023632 0 0 0 0 -1798056.6782198548 2831088.6966319159 0 2831088.6966319159 2458210.3614034597 0 0 0 0 -35887567.192577839 80191081.754251242 0 80191081.754251242 88587926.4361763 0 0 0 0 21612720.744548798 45871314.75047493 0 45871314.75047493 34097138.675788879 0 0 0 0 22281398.555145264 22520373.162534714 0 22520373.162534714 -71003910.455465317 0 0 0 0 -114121.32894550264 8625601.0022710375 0 8625601.0022710375 2556678.2195895482 0 0 0 0 -18334986.692810059 30185230.346054077 0 30185230.346054077 -7393163.1098632812 0 0 0 0 23791133.615013123 25426465.270666122 0 25426465.270666122 3468033.9679527283 0 0 0 0 36969595.941131592 20586419.239151001 0 20586419.239151001 -10311167.941858292 0 0 0 0 40242982.549526215 22968032.035112381 0 22968032.035112381 -34925897.464004517 0 0 0 0 26695495.717693329 48687586.834515572 0 48687586.834515572 -8404227.5894775391 0 0 0 0 25104356.523178101 56189050.183223724 0 56189050.183223724 50790444.431772232 0 0 0 0 28536862.265670776 8647815.1417427063 0 8647815.1417427063 -18964898.29315567 0 0 0 0 10625585.959774375 6299118.4073495809 0 6299118.4073495809 -180487.9174127914 0 0 0 0 54733297.044237137 1105715.3280315399 0 1105715.3280315399 -14924567.771820068 0 0 0 0 3878305.219554767 2754765.3254845142 0 2754765.3254845142 -1613672.8720109276 0 0 0 0 2299335.808303833 26384306.318008423 0 26384306.318008423 17307772.865678787 0 0 0 0 5913831.4734165696 14587246.093084764 0 14587246.093084764 6945630.262856625 0 0 0 0 18065202.382061005 50593439.42906189 0 50593439.42906189 26211889.727006912 0 0 0 0 3520234.3377682874 9066107.3302567359 0 9066107.3302567359 5134767.4501008168 0 0 0 0 23204672.486392736 9014685.0661304183 0 9014685.0661304183 -2762059.5077815447 0 0 0 0 -27193074.214412689 49942387.381669044 0 49942387.381669044 14936125.681549072 0 0 0 0 67304919.029426575 12791934.821638107 0 12791934.821638107 7102720.8971366882 0 0 0 0 23282601.350143433 8513807.4984359741 0 8513807.4984359741 18089759.981969833 0 0 0 0 3693570.5329545364 3504210.9455577619 0 3504210.9455577619 -1192834.4699138105 0 0 0 0 2842762.8140360601 1238195.8820158131 0 1238195.8820158131 -272186.59125220776 0 0 0 0 3637526.7799156159 5947019.0043434836 0 5947019.0043434836 3068043.288793657 0 0 0 0 5882968.4084625244 6251612.3099250793 0 6251612.3099250793 1976504.7016868591 0 0 0 0 -9709521.2912368774 9516225.939101696 0 9516225.939101696 10323708.461856842 0 0 0 0 4868859.551834275 13568485.849751353 0 13568485.849751353 4798124.7581631765 0 0 0 0 5262257.8835449219 16285467.638839722 0 16285467.638839722 9211697.4563894272 0 0 0 0 37501412.920532227 51547877.956535339 0 51547877.956535339 72436895.789730072 0 0 0 0 17994339.414497375 27748176.654979706 0 27748176.654979706 -20557563.647850037 0 0 0 0 -7078609.8951197639 7095210.6138751134 0 7095210.6138751134 2347787.4914544486 0 0 0 0 82261497.073425293 24738214.239685059 0 24738214.239685059 -125987595.86221313 0 0 0 0 -10126552.868881226 73525894.434614182 0 73525894.434614182 46621245.564323425 0 0 0 0 28111686.57019043 154814326.75550842 0 154814326.75550842 131990858.70709229 0 0 0 0 -8820229.4253768921 2698668.9918270111 0 2698668.9918270111 23178993.066236019 0 0 0 0 1574207.2955497941 3329181.8758068159 0 3329181.8758068159 -1533905.3946934696 0 0 0 0 7345172.3036632538 -808565.08004236221 0 -808565.08004236221 7846068.6511535645 0 0 0 0 -2342336.8410491943 1188946.0973243713 0 1188946.0973243713 -10533867.770233154 0 0 0 0 -12194507.716377258 1399818.9483680725 0 1399818.9483680725 10653178.656267166 0 0 0 0 -18966316.178100586 23008146.947128296 0 23008146.947128296 -6265665.0891075134 0 0 0 0 -24353761.005264282 20128105.030349731 0 20128105.030349731 -2693933.298614502 0 0 0 0 13747639.45388031 -21931252.991495132 0 -21931252.991495132 29730926.390909195 0 0 0 0 -78668795.275377274 46365644.960064411 0 46365644.960064411 54537864.097797394 0 0 0 0 -55849770.791851044 85358741.50298214 0 85358741.50298214 -27084948.665374756 0 0 0 0 -49052936.587623596 73380229.550065041 0 73380229.550065041 -8048779.7660713196 0 0 0 0 -47363181.15776825 97506497.660190582 0 97506497.660190582 -17313498.342058182 0 0 0 0 -19103860.814117432 19557108.358417511 0 19557108.358417511 42329167.779773712 0 0 0 0 -122847901.72371674 94117905.839221954 0 94117905.839221954 34770489.13618207 0 0 0 0 -71629322.949192047 86757023.887834549 0 86757023.887834549 -58156279.957813263 0 0 0 0 -49653681.265014648 107473970.4887085 0 107473970.4887085 -53507130.660761356 0 0 0 0 -46817890.838691711 100664536.60136604 0 100664536.60136604 -95242187.049356461 0 0 0 0 -53608577.552202225 95073795.280862331 0 95073795.280862331 -60982328.13495636 0 0 0 0 -37580871.983688354 69248552.923309326 0 69248552.923309326 -45068190.638631344 0 0 0 0 -75559774.944417238 128834914.24036103 0 128834914.24036103 -87171543.66979599 0 0 0 0 -34525550.447635651 54458469.3341856 0 54458469.3341856 -43038161.279937744 0 0 0 0 -21005898.651937485 77770132.805347443 0 77770132.805347443 -117081084.03565979 0 0 0 0 -25162396.935829163 52365042.772460938 0 52365042.772460938 -54504951.613559961 0 0 0 0 -34854915.346694946 37692025.365732193 0 37692025.365732193 -16078521.743537903 0 0 0 0 -18411457.500083923 14134675.015537262 0 14134675.015537262 -174831.92783355713 0 0 0 0 -10735351.42519021 20183664.9834795 0 20183664.9834795 -21196753.225990295 0 0 0 0 -5241623.9756793976 29592240.868356705 0 29592240.868356705 -54492662.421760559 0 0 0 0 -10075681.463760376 -189110.95790672302 0 -189110.95790672302 -2645125.7133045197 0 0 0 0 3170841.12266922 32531269.622454643 0 32531269.622454643 -76833458.339565277 0 0 0 0 177185.73003387451 22011922.373478889 0 22011922.373478889 -118694073.77086449 0 0 0 0 -19668563.467860222 105563407.22873497 0 105563407.22873497 -194972607.91669464 0 0 0 0 -122173168.02666473 161535369.44178581 0 161535369.44178581 -146227302.0416069 0 0 0 0 -37723624.008506775 58217959.679372787 0 58217959.679372787 -63303720.439729691 0 0 0 0 -6856336.4356651306 118394286.39328861 0 118394286.39328861 -255620033.58940697 0 0 0 0 -41821236.472862244 105715921.670784 0 105715921.670784 -244748696.25763226 0 0 0 0 -197960811.74625969 185677689.62936378 0 185677689.62936378 -63955905.909099579 0 0 0 0 -167593554.53757477 244046023.54311943 0 244046023.54311943 -272712818.91038895 0 0 0 0 -78156809.954818726 178006526.98533916 0 178006526.98533916 -247407894.48792458 0 0 0 0 -181303600.86750793 342059199.99263573 0 342059199.99263573 -307399596.43276787 0 0 0 0 -73427163.914386749 69550835.338788986 0 69550835.338788986 257817392.16228485 0 0 0 0 -212844.53183369339 330834.58731864206 0 330834.58731864206 292117.76287331246 0 0 0 0 -102015532.52737427 -15880660.928833008 0 -15880660.928833008 270562137.33741379 0 0 0 0 -60252426.069580078 150628091.35019219 0 150628091.35019219 -162963592.65798187 0 0 0 0 -63808676.314559937 118029906.64031029 0 118029906.64031029 -78159204.431325912 0 0 0 0 -131023253.50604248 214106426.24406433 0 214106426.24406433 -63327151.298648834 0 0 0 0 -129060941.77410126 142085030.92729759 0 142085030.92729759 5512010.4869003296 0 0 0 0 -128678235.16527557 113673335.85154533 0 113673335.85154533 -81581586.673366547 0 0 0 0 -43652906.431945801 125103067.16167259 0 125103067.16167259 -180695492.45806885 0 0 0 0 -224340453.81672668 49160318.923282623 0 49160318.923282623 -65516625.526569366 0 0 0 0 -1406097.2322076 -611410.34556205384 0 -611410.34556205384 -108453.57767668087 0 0 0 0 -261206017.17878914 -72626130.891753674 0 -72626130.891753674 177344303.28417206 0 0 0 0 -63888955.50349617 158381818.19265223 0 158381818.19265223 -90378632.581455231 0 0 0 0 33512162.68145752 -51582789.450668335 0 -51582789.450668335 78862551.291676521 0 0 0 0 -56279978.693771362 -112385281.68761253 0 -112385281.68761253 133868644.19527435 0 0 0 0 -1873809.4821146168 -542222.6262076674 0 -542222.6262076674 557938.75252955174 0 0 0 0 -118394944.93268585 44110908.092357635 0 44110908.092357635 396472974.39543533 0 0 0 0 150829984.42171478 -201272.18640518188 0 -201272.18640518188 -113864612.73710394 0 0 0 0 -607759.19772410393 -128168.35118482541 0 -128168.35118482541 169051.94032615842 0 0 0 0 -122296801.22506905 223368590.41160583 0 223368590.41160583 57095416.588527679 0 0 0 0 -11630237.719421387 91456850.646999359 0 91456850.646999359 69983760.63699913 0 0 0 0 -1143380.2183997706 -572936.01901940256 0 -572936.01901940256 -121705.55321408063 0 0 0 0 -32201368.785209656 21879165.099720001 0 21879165.099720001 122060801.45024967 0 0 0 0 8523414.8136558533 60520098.08929348 0 60520098.08929348 -41405484.865802765 0 0 0 0 -4661257.0383529663 106111137.46942043 0 106111137.46942043 -30347052.929645538 0 0 0 0 18768241.678920746 10186647.195935249 0 10186647.195935249 -99581380.767840385 0 0 0 0 -317604.06216818094 671760.20484406501 0 671760.20484406501 349589.65904459916 0 0 0 0 -161786106.29149246 -20602306.025697708 0 -20602306.025697708 11443308.739236832 0 0 0 0 -2836837.52978158 12999652.269430399 0 12999652.269430399 113285.10715866089 0 0 0 0 14233114.143783569 20844201.698839188 0 20844201.698839188 -24987243.882321835 0 0 0 0 4638617.3546199799 13956142.691758156 0 13956142.691758156 -1267081.0919685364 0 0 0 0 66854475.906331539 -125433847.97978902 0 -125433847.97978902 -9713130.0389976501 0 0 0 0 -623645.55176351592 -275036.82611230947 0 -275036.82611230947 -73462.72452621907 0 0 0 0 46726917.109481812 5002144.6787109375 0 5002144.6787109375 -77398478.856628418 0 0 0 0 -164979903.19190216 -126319005.20853615 0 -126319005.20853615 201056438.76333332 0 0 0 0 -53349201.386533737 -35439008.805727005 0 -35439008.805727005 69287652.662555695 0 0 0 0 -143192983.59220123 69044040.479052544 0 69044040.479052544 -21479431.944155216 0 0 0 0 -53443183.289405823 -64785414.892742157 0 -64785414.892742157 -37094130.624402046 0 0 0 0 -111531592.26170349 207036546.33589745 0 207036546.33589745 117093105.73593903 0 0 0 0 -125525059.76100647 -66315209.795372963 0 -66315209.795372963 97550499.993240356 0 0 0 0 77558024.502845764 -58635713.174200058 0 -58635713.174200058 -140653830.19017398 0 0 0 0 130888918.9406395 173364123.02131271 0 173364123.02131271 -157313906.10074425 0 0 0 0 122182854.37754822 104451290.18016815 0 104451290.18016815 46062815.586286664 0 0 0 0 327452586.76267242 313926194.69575119 0 313926194.69575119 59315230.497291207 0 0 0 0 -59307042.92199707 -80812916.990849495 0 -80812916.990849495 -137363693.94933891 0 0 0 0 287344480.84334564 402385159.1131115 0 402385159.1131115 152850308.27898788 0 0 0 0 -2021424.0771256033 1813926.3288993035 0 1813926.3288993035 -534070.90547112375 0 0 0 0 155905.2467604354 -132757.08616414713 0 -132757.08616414713 -409731.86160831526 0 0 0 0 -90153743.657417297 -211084847.61759186 0 -211084847.61759186 110063065.4716835 0 0 0 0 -678622743.39390564 -93281309.479693413 0 -93281309.479693413 87030876.55324173 0 0 0 0 -448277578.29421997 -236976987.11410999 0 -236976987.11410999 -84385830.609207153 0 0 0 0 -836546.73614297807 726409.84611567669 0 726409.84611567669 -250049.50746314973 0 0 0 0 398361771.7352562 136637643.63930225 0 136637643.63930225 -120723522.82906342 0 0 0 0 106679468.83774567 227172055.30209541 0 227172055.30209541 280944736.00631714 0 0 0 0 168600979.90887451 254723897.91713142 0 254723897.91713142 -179902403.86901855 0 0 0 0 -131009902.26857376 259145574.50066948 0 259145574.50066948 -170005993.19227791 0 0 0 0 -365295562.94464111 150102047.16909504 0 150102047.16909504 -14944946.782073975 0 0 0 0 -96376234.310938835 87199142.740411282 0 87199142.740411282 -4467627.7379455566 0 0 0 0 -132422682.0792551 178973113.49851227 0 178973113.49851227 -69986924.732395172 0 0 0 0 29386957.08215332 165618955.97303009 0 165618955.97303009 -117739433.06544685 0 0 0 0 14272134.202789307 67944038.636320114 0 67944038.636320114 -101067933.52851105 0 0 0 0 -97369894.891868591 134641846.57673454 0 134641846.57673454 -107150579.99339485 0 0 0 0 -100078552.13799286 103754722.19454002 0 103754722.19454002 -90796840.56810379 0 0 0 0 -187995577.10715467 29295045.32103914 0 29295045.32103914 -106985918.58144379 0 0 0 0 -184732607.9009552 179244765.32201576 0 179244765.32201576 -71085302.650245667 0 0 0 0 357983.44685476756 400918098.84824055 0 400918098.84824055 423806684.64912605 0 0 0 0 455649.80175705254 -200521.4114059601 0 -200521.4114059601 855905.59827546938 0 0 0 0 74570037.995071411 46185782.112672806 0 46185782.112672806 -280334129.86804533 0 0 0 0 -117076199.0593884 382042614.97657591 0 382042614.97657591 644313888.23256302 0 0 0 0 -112488504.86415482 124634302.22467232 0 124634302.22467232 1290176451.3192227 0 0 0 0 66168776.689144135 480766629.89862633 0 480766629.89862633 478230700.10894966 0 0 0 0 105011391.23908901 333800228.79630601 0 333800228.79630601 25127678.406734467 0 0 0 0 -650466734.48953247 -61277066.375430107 0 -61277066.375430107 340651908.42308331 0 0 0 0 -297525.69013229199 1006216.341393631 0 1006216.341393631 755581.63522309065 0 0 0 0 159086460.13793182 543680114.33995914 0 543680114.33995914 379358442.52858448 0 0 0 0 567203348.43806839 260704383.83079243 0 260704383.83079243 -167211681.33604431 0 0 0 0 -650900.92148339842 2178154.3102413379 0 2178154.3102413379 1535364.6828974169 0 0 0 0 257301457.35102844 354830196.47908783 0 354830196.47908783 35054195.040622711 0 0 0 0 607112436.64255905 148660276.50875187 0 148660276.50875187 121502861.82363892 0 0 0 0 252968238.7980423 166067625.49168205 0 166067625.49168205 170127522.13747978 0 0 0 0 193401792.51313019 40195017.858539581 0 40195017.858539581 444060755.20849228 0 0 0 0 160254091.82321167 108234964.89951706 0 108234964.89951706 517457570.69979477 0 0 0 0 311592779.12463379 96338201.691741943 0 96338201.691741943 443222739.22441864 0 0 0 0 314486327.47113895 260728761.71971259 0 260728761.71971259 566029810.80426788 0 0 0 0 105535683.04067993 332193619.97232437 0 332193619.97232437 885399676.983284 0 0 0 0 948896846.08446503 601698677.31356812 0 601698677.31356812 380548853.66247177 0 0 0 0 -102100166.62282562 30874001.999355316 0 30874001.999355316 1008417500.8214931 0 0 0 0 1191926.3926243559 486650.30779391853 0 486650.30779391853 1013154.8209564232 0 0 0 0 -36422637.56842041 40155764.609886169 0 40155764.609886169 -172029852.88270569 0 0 0 0 -37528381.561096191 95583048.084394455 0 95583048.084394455 737599214.00004578 0 0 0 0 41040023.542694092 52135155.549758911 0 52135155.549758911 -206158392.59173965 0 0 0 0 41913747.873060703 17592863.56777513 0 17592863.56777513 -68724819.066390991 0 0 0 0 110269966.35919189 32409286.251647949 0 32409286.251647949 455268416.96873856 0 0 0 0 1873283.498753015 1582985.2224671743 0 1582985.2224671743 1333030.9504709938 0 0 0 0 54120.705154418945 26971350.945058823 0 26971350.945058823 -33324880.338834763 0 0 0 0 -10438709.054626465 9245312.5791778564 0 9245312.5791778564 461521904.99103737 0 0 0 0 -92731534.842895508 -66144672.871765137 0 -66144672.871765137 409485517.93081665 0 0 0 0 86378163.727233887 44222028.768268585 0 44222028.768268585 467944726.26219177 0 0 0 0 165604694.94830322 36940666.055610657 0 36940666.055610657 454935891.284729 0 0 0 0 78578881.355819702 1485812.2725334167 0 1485812.2725334167 482566583.24136353 0 0 0 0 -24191555.120605469 -27657770.779708862 0 -27657770.779708862 465029381.98579407 0 0 0 0 164632880.0035553 111859885.86410522 0 111859885.86410522 616166499.19831181 0 0 0 0 118362458.81565094 9546319.2730503082 0 9546319.2730503082 467610877.85623169 0 0 0 0 -6958011.0076141357 -108918834.2586441 0 -108918834.2586441 445474553.15326691 0 0 0 0 -3179996.5808010623 -182815.87374516018 0 -182815.87374516018 2252512.6709180214 0 0 0 0 526631.24562072754 -107476724.01572418 0 -107476724.01572418 389077657.77737427 0 0 0 0 11168171.488327026 -67719854.720748901 0 -67719854.720748901 375559163.44557381 0 0 0 0 10632117.099914551 -68664439.67231369 0 -68664439.67231369 418470007.46448135 0 0 0 0 14772682.317184448 -77753514.48733139 0 -77753514.48733139 434598506.08980179 0 0 0 0 48439408.201019287 10903576.663146973 0 10903576.663146973 482766453.95970154 0 0 0 0 29306139.409374237 -82400666.170436859 0 -82400666.170436859 420125915.95024109 0 0 0 0 18997235.609222412 -88572934.266563416 0 -88572934.266563416 429131678.37994385 0 0 0 0 19890156.420410156 -92065428.45149231 0 -92065428.45149231 409177257.58366776 0 0 0 0 30886179.219345093 -66437059.027297974 0 -66437059.027297974 417785469.72324371 0 0 0 0 -13633771.211914062 -33396421.152496338 0 -33396421.152496338 467722032.50366974 0 0 0 0 -142287927.97174072 -93316912.235687256 0 -93316912.235687256 439963890.21317291 0 0 0 0 -20223127.241943359 -128583211.73449707 0 -128583211.73449707 388339978.70199585 0 0 0 0 85375871.578674316 -60762316.764968872 0 -60762316.764968872 348819230.70986176 0 0 0 0 -34052741.496368408 -195431546.16114044 0 -195431546.16114044 323219128.1385498 0 0 0 0 16892244.313476562 -116133050.10821533 0 -116133050.10821533 392350304.83860016 0 0 0 0 46756.233685865998 38631.683343425393 0 38631.683343425393 -93705.411888672039 0 0 0 0 115225896.35205078 -128406703.76707458 0 -128406703.76707458 276210458.90296173 0 0 0 0 5782514.0809326172 -91853505.868282318 0 -91853505.868282318 419492388.41207886 0 0 0 0 18789123.570098877 -133295062.08740234 0 -133295062.08740234 414742926.88226986 0 0 0 0 -18708017.545288086 -96444408.440673828 0 -96444408.440673828 407926152.79984951 0 0 0 0 82135613.948348999 -3874939.2795944214 0 -3874939.2795944214 353138021.49591446 0 0 0 0 55735211.040786743 -125628085.17971802 0 -125628085.17971802 376858315.43492508 0 0 0 0 20819352.155872345 -28944505.211698532 0 -28944505.211698532 175101682.31989288 0 0 0 0 9224556.1379928589 -94092301.635145187 0 -94092301.635145187 340291388.91638184 0 0 0 0 33199842.227111816 -95819849.445152283 0 -95819849.445152283 348722269.36370087 0 0 0 0 -54954063.212036133 -65428375.711399078 0 -65428375.711399078 362678345.95687103 0 0 0 0 -80332172.051834106 -1785400.4397573471 0 -1785400.4397573471 319921507.61803055 0 0 0 0 -61521036.817250252 106019573.66872001 0 106019573.66872001 171988284.16038513 0 0 0 0 30037746.349456787 -49888766.890565872 0 -49888766.890565872 284584778.77459717 0 0 0 0 155333262.07911682 166114901.46074867 0 166114901.46074867 173798199.2732811 0 0 0 0 65469994.019828796 34660094.86901474 0 34660094.86901474 512230249.21007538 0 0 0 0 82317962.260192871 24902359.176998138 0 24902359.176998138 385961338.67772484 0 0 0 0 151027856.65526581 204066055.91643333 0 204066055.91643333 455066713.58963227 0 0 0 0 227621699.15486193 315521629.91697335 0 315521629.91697335 -133551967.92463303 0 0 0 0 220563444.23726654 266644283.44557571 0 266644283.44557571 -135058013.68231201 0 0 0 0 63053104.826080322 363979932.78536987 0 363979932.78536987 -54983872.681850433 0 0 0 0 -22954565.946975708 52536466.465894699 0 52536466.465894699 101533402.55501366 0 0 0 0 -364115262.33080673 -129189215.24136543 0 -129189215.24136543 165404781.23998833 0 0 0 0 -149178115.33701801 373642206.18620491 0 373642206.18620491 -195742076.44904327 0 0 0 0 -56396.09092662856 111423.76162854768 0 111423.76162854768 8876.4286611713469 0 0 0 0 19104850.686424255 489252120.56285477 0 489252120.56285477 -642078877.4125824 0 0 0 0 -1720019.2422325388 222649.84613943286 0 222649.84613943286 55132.009837230667 0 0 0 0 -14988039.723201752 210458313.33385921 0 210458313.33385921 -899263514.46673203 0 0 0 0 -236401764.49777222 502243517.21545601 0 502243517.21545601 -350137490.4167614 0 0 0 0 -97756201.041267395 226734811.31560898 0 226734811.31560898 -96811310.655693054 0 0 0 0 -298693.5059078373 457084.43232210446 0 457084.43232210446 342215.10962785501 0 0 0 0 11999079.911766052 -22794245.097541809 0 -22794245.097541809 -80878346.092023373 0 0 0 0 -189311161.43716812 -7394389.6784887314 0 -7394389.6784887314 174765629.76987457 0 0 0 0 -19965899.543617249 18416214.111656189 0 18416214.111656189 173768997.0085907 0 0 0 0 -28120876.600692749 -85790819.259635925 0 -85790819.259635925 303796779.94826508 0 0 0 0 -76108190.317470551 -23018205.997340202 0 -23018205.997340202 399264566.12422943 0 0 0 0 -8992098.6238861084 34756007.23443222 0 34756007.23443222 429851958.93195343 0 0 0 0 -26106989.691547394 -24173942.603005409 0 -24173942.603005409 89471938.173233032 0 0 0 0 -1468111.3890075684 96929619.202758789 0 96929619.202758789 233745006.69279289 0 0 0 0 11761366.766441345 -140184838.62874413 0 -140184838.62874413 371130791.80882645 0 0 0 0 -359535.39482131228 -240279.65804536873 0 -240279.65804536873 -76832.628981053829 0 0 0 0 86340775.032432556 1952072.1893081665 0 1952072.1893081665 132903416.35242462 0 0 0 0 -86522299.176834106 92302071.67156601 0 92302071.67156601 -59808467.519498825 0 0 0 0 -104321830.9333725 -73757248.905467987 0 -73757248.905467987 524407296.88622284 0 0 0 0 -2885341.3168049194 -838421.64471040014 0 -838421.64471040014 1110146.9664092693 0 0 0 0 -337452934.69577026 -52391597.978279114 0 -52391597.978279114 135841101.28980017 0 0 0 0 -224920884.44021606 31378299.764781952 0 31378299.764781952 29829604.267379761 0 0 0 0 -112233342.51072693 -218117405.21638393 0 -218117405.21638393 -18876479.17628479 0 0 0 0 -53030418.494644165 -4638866.8560829163 0 -4638866.8560829163 22159973.323296547 0 0 0 0 -26525749.011692047 9382083.8036956787 0 9382083.8036956787 16001332.554105759 0 0 0 0 -80754000.318054199 36100140.892173767 0 36100140.892173767 23856556.831832886 0 0 0 0 -18658802.768806458 44230128.640338898 0 44230128.640338898 -36842745.063739777 0 0 0 0 -5032222.3264312744 14396751.399053574 0 14396751.399053574 25088164.89333725 0 0 0 0 -808193.47066116333 62258970.693611145 0 62258970.693611145 20601205.116119385 0 0 0 0 -24615505.214237213 38895335.157697678 0 38895335.157697678 1295808.2135353088 0 0 0 0 -3397999.6555938721 21275401.097028732 0 21275401.097028732 3118119.9961698055 0 0 0 0 -25135219.279312134 33653886.4348526 0 33653886.4348526 23670115.02464211 0 0 0 0 -15648135.341583252 13944676.512571335 0 13944676.512571335 5787730.5510406494 0 0 0 0 -2912473.4418029785 11503840.401737213 0 11503840.401737213 4233274.2880020142 0 0 0 0 -11742225.516437531 3782494.5885505676 0 3782494.5885505676 19187118.150115073 0 0 0 0 -6457231.6431589127 10270538.48452127 0 10270538.48452127 5268194.4078788757 0 0 0 0 -86699.316208714619 3289995.3883052617 0 3289995.3883052617 6930621.8549928144 0 0 0 0 -39681770.175706863 14461152.46222496 0 14461152.46222496 19814787.012851715 0 0 0 0 -5294335.2404289246 3181899.1931419373 0 3181899.1931419373 13355144.898476601 0 0 0 0 6014047.9216499329 15041992.864029408 0 15041992.864029408 18582152.88127327 0 0 0 0 133979.23109817505 5107117.5340433121 0 5107117.5340433121 3945606.0992059708 0 0 0 0 -2393029.8444900513 11801543.557977676 0 11801543.557977676 6961742.1533179283 0 0 0 0 -1100023.2361753546 4072730.5794926267 0 4072730.5794926267 1033266.7011470022 0 0 0 0 -43591211.277458191 7815255.1108446121 0 7815255.1108446121 9423097.5874519348 0 0 0 0 -27897067.469421387 11189488.658216476 0 11189488.658216476 7814279.0241947174 0 0 0 0 -4003837.6828556061 -58458957.449141502 0 -58458957.449141502 -4767421.2149581909 0 0 0 0 -92246.955116888508 3799435.736427797 0 3799435.736427797 7102880.9484907798 0 0 0 0 12972302.82522583 -13494553.750041962 0 -13494553.750041962 13108290.103233337 0 0 0 0 -72837.80976665765 675458.30177318305 0 675458.30177318305 1138540.3713400774 0 0 0 0 98639785.212753296 71252786.2917099 0 71252786.2917099 49434762.869350433 0 0 0 0 103222624.19232178 35418349.747875214 0 35418349.747875214 1365665.1559877396 0 0 0 0 101014200.91793823 -11821833.527629852 0 -11821833.527629852 -23022330.554954529 0 0 0 0 -31440617.7003479 -85410477.451473236 0 -85410477.451473236 -40068225.376182556 0 0 0 0 98418495.857269287 -186304805.17913818 0 -186304805.17913818 -54515313.461090088 0 0 0 0 233246081.5877533 -66832270.079269409 0 -66832270.079269409 -76540944.591144562 0 0 0 0 1902845.7708103731 4798748.0125941057 0 4798748.0125941057 3294994.0770720094 0 0 0 0 3303698.545173645 5903342.7679901123 0 5903342.7679901123 8999250.9459686279 0 0 0 0 -8321644.2919845581 6800046.0425815582 0 6800046.0425815582 -3689220.3894424438 0 0 0 0 -10638831.55988884 21564054.024672985 0 21564054.024672985 -18512890.932502747 0 0 0 0 -20480863.871582031 39852638.382785797 0 39852638.382785797 -3085668.5722179413 0 0 0 0 -47269023.94859314 54275401.653884888 0 54275401.653884888 7899570.5898675919 0 0 0 0 -46134114.835647583 44353234.509788513 0 44353234.509788513 2674239.7118473053 0 0 0 0 -35977003.992233276 26346105.44927597 0 26346105.44927597 3770604.2219254971 0 0 0 0 -19382405.195281982 24367723.221591949 0 24367723.221591949 3962683.2831015587 0 0 0 0 -9922049.159942627 23082979.963291168 0 23082979.963291168 -24739041.886245728 0 0 0 0 -10412211.550262451 32316486.728435516 0 32316486.728435516 -34639440.155946732 0 0 0 0 -22974111.410903931 33412837.83716774 0 33412837.83716774 -16123115.467628479 0 0 0 0 4482073.2149658203 43429263.341856003 0 43429263.341856003 -26911348.449611664 0 0 0 0 -29530864.897354126 55874307.205125809 0 55874307.205125809 -27349833.025352478 0 0 0 0 -42857577.620071411 122312518.34672546 0 122312518.34672546 -74581986.772155762 0 0 0 0 -14141445.881072998 77284801.579307556 0 77284801.579307556 -70717021.138889551 0 0 0 0 -37274524.700288773 95135533.868049145 0 95135533.868049145 22890648.591972351 0 0 0 0 -22983225.812240601 86335635.067012787 0 86335635.067012787 -15504721.658065796 0 0 0 0 -31513396.195526123 69205478.763111115 0 69205478.763111115 -199601.98109054565 0 0 0 0 -30018059.204940796 66265511.379173279 0 66265511.379173279 4128631.2959442139 0 0 0 0 -46246892.225036621 79689404.689041138 0 79689404.689041138 14790883.51908493 0 0 0 0 -49729483.957550049 65579600.227041245 0 65579600.227041245 39190957.270050049 0 0 0 0 -37037266.967453003 48119552.524536133 0 48119552.524536133 22949948.01399231 0 0 0 0 -62588150.852180481 42172184.099046707 0 42172184.099046707 38254528.391075134 0 0 0 0 -43410703.881759644 10947506.132520676 0 10947506.132520676 28847972.856431961 0 0 0 0 -62845897.217302322 24413806.83358106 0 24413806.83358106 19521926.455165863 0 0 0 0 -36310112.198242188 29220744.680669785 0 29220744.680669785 18458163.356695175 0 0 0 0 -138040691.68364716 -37356836.765522003 0 -37356836.765522003 6929567.4290070534 0 0 0 0 -595135.85106658563 2100127.4642806854 0 2100127.4642806854 160796.03370613325 0 0 0 0 29838912.413356781 32620780.189779282 0 32620780.189779282 2024647.4995956421 0 0 0 0 -9791236.762878418 4746145.5389518738 0 4746145.5389518738 14172253.758574486 0 0 0 0 -223220.3657765463 637794.53783239052 0 637794.53783239052 28897.138440946117 0 0 0 0 -287821869.07255554 -223100482.68141079 0 -223100482.68141079 18533672.725446463 0 0 0 0 -120713416.84812927 2523661.7534532547 0 2523661.7534532547 -6892785.1767938137 0 0 0 0 -117644757.92759514 44561196.961755872 0 44561196.961755872 58160539.894252777 0 0 0 0 77449759.308120728 108521877.38370228 0 108521877.38370228 41370373.726143837 0 0 0 0 -108748804.55786753 100914768.74379742 0 100914768.74379742 146474606.20750618 0 0 0 0 202749671.09434509 -36069380.151520729 0 -36069380.151520729 55887868.342024326 0 0 0 0 227585254.50090027 -268088589.47570515 0 -268088589.47570515 347602691.27411699 0 0 0 0 1099837.9772570282 -96312.062319200486 0 -96312.062319200486 -482001.160320797 0 0 0 0 38246431.548705101 25440898.946407318 0 25440898.946407318 268179750.62043571 0 0 0 0 1293808.3570785522 155821244.64704037 0 155821244.64704037 17016249.117465973 0 0 0 0 65479828.289512634 15178653.600340843 0 15178653.600340843 21749396.564951628 0 0 0 0 89240.025871276855 79748158.485800743 0 79748158.485800743 71413551.238302231 0 0 0 0 -1214576.5948956758 -15911.738457959145 0 -15911.738457959145 1159560.8679934861 0 0 0 0 60732960.891738892 32948617.043222427 0 32948617.043222427 35662770.044815063 0 0 0 0 -38460273.527501583 76676344.757787585 0 76676344.757787585 33997530.914798737 0 0 0 0 -684582.77527455613 20803.020066969097 0 20803.020066969097 582306.93262481596 0 0 0 0 -44117340.825515747 71745313.116580963 0 71745313.116580963 43935312.936443329 0 0 0 0 25757909.380569458 96841744.830127716 0 96841744.830127716 -144183161.49730015 0 0 0 0 48593621.02493763 -24378883.140191078 0 -24378883.140191078 -132236433.58895874 0 0 0 0 -94301.702217102051 70323051.209777832 0 70323051.209777832 -119173101.74332428 0 0 0 0 -18186842.367595673 -15575825.042261124 0 -15575825.042261124 33485994.99555397 0 0 0 0 -6973829.8330230713 -85998654.54834938 0 -85998654.54834938 100839603.77772856 0 0 0 0 1242564.0905986167 -702053.86759274546 0 -702053.86759274546 -1041992.9409890054 0 0 0 0 33476827.784637451 -29832841.592936516 0 -29832841.592936516 83879529.024871826 0 0 0 0 -12364.111953735352 -6960882.7392230034 0 -6960882.7392230034 16826839.52026391 0 0 0 0 -14663849.624343872 905711.07901477814 0 905711.07901477814 19980966.428847313 0 0 0 0 634323.54414726794 74253.436342293397 0 74253.436342293397 -585031.99074538331 0 0 0 0 -10715229.992866516 11059648.180353165 0 11059648.180353165 2418587.1580171585 0 0 0 0 -14122623.205318451 4418853.1668250561 0 4418853.1668250561 -10406344.686433792 0 0 0 0 1785374.0586891174 -25671095.001421452 0 -25671095.001421452 38216924.848852158 0 0 0 0 1202518.6649645381 128336.05540734343 0 128336.05540734343 -1147503.6952002309 0 0 0 0 119269.6647567749 44231566.291881084 0 44231566.291881084 36832596.736456633 0 0 0 0 -18087249.712142944 15773644.586359024 0 15773644.586359024 -33182880.09470892 0 0 0 0 37788.190165075794 47579898.493918628 0 47579898.493918628 12228480.744446754 0 0 0 0 -49370.177920759044 36694733.994549692 0 36694733.994549692 -43554043.015813828 0 0 0 0 -19858673.596956253 55861807.344656259 0 55861807.344656259 -37916034.561923981 0 0 0 0 1021401.1314728223 545639.98255938478 0 545639.98255938478 565563.61580190621 0 0 0 0 77152724.335315526 114186108.38343123 0 114186108.38343123 27674899.190998077 0 0 0 0 64689551.830863953 -509037335.65831852 0 -509037335.65831852 225734242.82877159 0 0 0 0 -176388764.12541199 109989054.73996162 0 109989054.73996162 151094831.37328339 0 0 0 0 -42357351.615364075 52371397.534481049 0 52371397.534481049 -1918394.6781749725 0 0 0 0 -29253489.340694427 -163881636.46403599 0 -163881636.46403599 325180407.37092209 0 0 0 0 1341487.8237587698 1790434.3285750207 0 1790434.3285750207 2071520.9561891165 0 0 0 0 -33436715.520896912 13267582.760336399 0 13267582.760336399 507928.15283298492 0 0 0 0 -32548631.341278076 45425813.841329575 0 45425813.841329575 -24073308.708314896 0 0 0 0 -2718687.2559509277 6553682.9884800911 0 6553682.9884800911 -3741698.4275112152 0 0 0 0 -21206551.586471558 4142415.4842820168 0 4142415.4842820168 20151251.554042816 0 0 0 0 -3386391.6966400146 16426341.078586102 0 16426341.078586102 27549271.458021641 0 0 0 0 -2388637.4795608521 12271205.244207382 0 12271205.244207382 -15872547.756329656 0 0 0 0 -29332676.207714081 26524557.42850852 0 26524557.42850852 5498602.4986019135 0 0 0 0 -1759615.0788421631 -40556529.201058388 0 -40556529.201058388 126573261.18076515 0 0 0 0 2144724.3125129193 3390300.9850235367 0 3390300.9850235367 3459122.6729871342 0 0 0 0 -9883039.891708374 -18997803.591405392 0 -18997803.591405392 70433306.632362366 0 0 0 0 -9684387.6457519531 -3090093.3698139191 0 -3090093.3698139191 118130008.66178656 0 0 0 0 -339896.62016327679 331521.05660487316 0 331521.05660487316 534198.03069763724 0 0 0 0 12498230.902485847 3009961.9333900213 0 3009961.9333900213 64356544.375238419 0 0 0 0 -9848448.0815181732 1988789.2154986858 0 1988789.2154986858 30289072.401275635 0 0 0 0 572019.20763015747 474742.13343334198 0 474742.13343334198 15827866.914739609 0 0 0 0 899474.96462059021 3452628.966125071 0 3452628.966125071 10231227.434118271 0 0 0 0 -959484.856972076 716577.54503505444 0 716577.54503505444 1675487.238639171 0 0 0 0 -3883420.3004875183 273484.23777770996 0 273484.23777770996 21138185.553382874 0 0 0 0 -6113978.8118534088 -11574182.402380466 0 -11574182.402380466 57393155.689594269 0 0 0 0 -5869396.3549804688 3521589.2372999191 0 3521589.2372999191 10074715.403385162 0 0 0 0 24119550.245506287 -11209843.104929924 0 -11209843.104929924 15450699.032362103 0 0 0 0 -1442491.9107724354 1335138.3642881941 0 1335138.3642881941 3310357.8368447614 0 0 0 0 -37401.047855377197 1574612.2881746292 0 1574612.2881746292 10462874.905593872 0 0 0 0 -7141372.0431442261 1087439.7628269196 0 1087439.7628269196 11718039.990067482 0 0 0 0 -1322143.5723495483 8886124.3585529327 0 8886124.3585529327 3006029.5532150269 0 0 0 0 -5791282.0746192932 4419084.3667478561 0 4419084.3667478561 11285727.264572144 0 0 0 0 -472949.72060793452 3117972.3668189645 0 3117972.3668189645 6496853.4281835817 0 0 0 0 -1497065.3417468071 10224549.087259531 0 10224549.087259531 944125.88677978516 0 0 0 0 9913180.2878608704 -2294321.9392786026 0 -2294321.9392786026 4713565.4675140381 0 0 0 0 -5710750.5479125977 17254627.830503464 0 17254627.830503464 -140463867.0166626 0 0 0 0 -3503953.5079422761 1245225.2099738196 0 1245225.2099738196 7121718.1956729982 0 0 0 0 -8764003.9345531464 -585820.81482100487 0 -585820.81482100487 104681188.32283211 0 0 0 0 -466521.30928417668 529952.60355415568 0 529952.60355415568 1247411.0232366361 0 0 0 0 -2542712.3152923584 -17404480.381890416 0 -17404480.381890416 97928293.345489502 0 0 0 0 34418203.544367313 -11029921.962872744 0 -11029921.962872744 85002654.459117889 0 0 0 0 7650645.6294406652 3348683.3705531359 0 3348683.3705531359 97384167.030830383 0 0 0 0 344650.50503158569 -15857308.380740166 0 -15857308.380740166 197588518.1713295 0 0 0 0 42100662.344146729 -60958917.452709198 0 -60958917.452709198 120670018.0580492 0 0 0 0 6160306.491384387 -42101574.223391891 0 -42101574.223391891 124219915.56064606 0 0 0 0 -11647157.490207672 -28347509.434093475 0 -28347509.434093475 117084776.76927757 0 0 0 0 -14844652.389961243 -6175712.2850437164 0 -6175712.2850437164 118352250.98128808 0 0 0 0 1228080.2951936722 -15452141.493168116 0 -15452141.493168116 116108288.26947784 0 0 0 0 15899028.382789612 53941466.325582504 0 53941466.325582504 88788761.073472977 0 0 0 0 475526.55255264416 488985.53563378751 0 488985.53563378751 608296.95029298961 0 0 0 0 -44322906.986713409 -127536205.17538548 0 -127536205.17538548 69862639.328134537 0 0 0 0 14838274.766708374 53113553.019720078 0 53113553.019720078 162205461.50384235 0 0 0 0 15306661.735015869 69357530.448684692 0 69357530.448684692 -6744730.3064746857 0 0 0 0 -45865562.907333374 35207029.307300568 0 35207029.307300568 55263337.869321823 0 0 0 0 -21782635.266532898 50624111.889324188 0 50624111.889324188 65130884.82235527 0 0 0 0 4563766.745426178 2293578.5102481842 0 2293578.5102481842 19255516.573781967 0 0 0 0 -65176339.892204285 2359586.8080883026 0 2359586.8080883026 6423760.2459945679 0 0 0 0 416548.35169950873 2074437.0990997963 0 2074437.0990997963 2980399.3415649571 0 0 0 0 -1099619.8609896004 4562526.7468252983 0 4562526.7468252983 6081158.7202948518 0 0 0 0 -651684.20116424561 6199206.5035624504 0 6199206.5035624504 -291826.90682411194 0 0 0 0 -16399969.078757286 32193161.911474705 0 32193161.911474705 -15527875.466880798 0 0 0 0 -16634759.556648254 33556717.879369736 0 33556717.879369736 9904564.4964139462 0 0 0 0 -2220638.2619762421 6635801.5035022497 0 6635801.5035022497 641310.14616394043 0 0 0 0 -2260732.3667602539 6027997.2494096756 0 6027997.2494096756 723445.19519805908 0 0 0 0 3081422.7737644874 6417226.2662664391 0 6417226.2662664391 1609570.9269019009 0 0 0 0 5026637.7045822144 13281777.056518972 0 13281777.056518972 3071808.304043442 0 0 0 0 -3654934.0262908936 21408741.064132392 0 21408741.064132392 -15952388.932122231 0 0 0 0 7198166.8821792603 16335353.555170357 0 16335353.555170357 -19215938.940045297 0 0 0 0 -230302.84274673462 4213545.9524512291 0 4213545.9524512291 1261268.6890544891 0 0 0 0 510787.7679977417 5026342.8267064095 0 5026342.8267064095 -271547.64392375946 0 0 0 0 3716336.4851701185 3637014.462382976 0 3637014.462382976 -83178.962778295972 0 0 0 0 2161925.8766937256 931697.56561505795 0 931697.56561505795 -9841889.1982264519 0 0 0 0 8541140.3915519714 11382457.4926337 0 11382457.4926337 -34325026.930841446 0 0 0 0 -15028487.472885132 26665446.453493118 0 26665446.453493118 -28950725.330798626 0 0 0 0 -293787.4598974511 595102.20344123896 0 595102.20344123896 1290776.2135330411 0 0 0 0 -15271217.388473511 14756041.387731671 0 14756041.387731671 -3869408.1528642178 0 0 0 0 -32004627.649055481 23501117.611649394 0 23501117.611649394 -6478040.656055212 0 0 0 0 144239.55487520993 659074.93681678735 0 659074.93681678735 788988.14618610276 0 0 0 0 -6872138.7711448669 -1899990.8346056938 0 -1899990.8346056938 15450890.494239807 0 0 0 0 -1026433.6193313599 640459.49301958084 0 640459.49301958084 11610782.337464809 0 0 0 0 441959.55337280408 4673566.1798491962 0 4673566.1798491962 4860381.8575651711 0 0 0 0 -880663.96069049835 5249526.5340844989 0 5249526.5340844989 863052.09718894958 0 0 0 0 -4094039.4375991821 3408242.7534708977 0 3408242.7534708977 8393777.2636489868 0 0 0 0 8154907.5545158386 19039993.558250427 0 19039993.558250427 37063505.337918282 0 0 0 0 2685245.2421519868 5175499.725520975 0 5175499.725520975 4724223.0962605812 0 0 0 0 -14167956.612457275 13042387.086553574 0 13042387.086553574 5837083.324868679 0 0 0 0 -13598001.207689047 1774751.331671223 0 1774751.331671223 15323704.257894516 0 0 0 0 -1210269.1423568726 3283255.2037534714 0 3283255.2037534714 4989763.3829844594 0 0 0 0 -14508248.79901886 7848716.3087134361 0 7848716.3087134361 26468000.16044426 0 0 0 0 8203829.010684967 -29915315.857500076 0 -29915315.857500076 63825116.933630943 0 0 0 0 -15157720.884848595 16106142.664450735 0 16106142.664450735 -11255759.404015541 0 0 0 0 984373.83047365397 -270435.92754628975 0 -270435.92754628975 -345062.97224673443 0 0 0 0 -1224915.192527771 -14762695.862875938 0 -14762695.862875938 33935761.479758739 0 0 0 0 -11963069.647285461 29393972.266313672 0 29393972.266313672 -27289525.085828066 0 0 0 0 -16246536.84426403 21531830.248577788 0 21531830.248577788 -14009526.700078964 0 0 0 0 -6477816.9140777588 22388233.097224355 0 22388233.097224355 -28591652.242801547 0 0 0 0 -2087297.8250541687 14750074.43053627 0 14750074.43053627 -16952805.739069462 0 0 0 0 814846.92314526439 -971926.48133874033 0 -971926.48133874033 -762069.48458187329 0 0 0 0 -8410220.3428535461 7466250.5706748664 0 7466250.5706748664 10507030.622218966 0 0 0 0 -1817030.8777275085 16358348.744254708 0 16358348.744254708 -13104915.743441343 0 0 0 0 -7694621.0423965454 1391502.420945406 0 1391502.420945406 36604146.04705596 0 0 0 0 10186.761199951172 13458192.688505709 0 13458192.688505709 -24165686.124575138 0 0 0 0 8408731.0431365967 17355548.492857814 0 17355548.492857814 -43097961.199577153 0 0 0 0 456969.87089506909 -559400.92301695794 0 -559400.92301695794 -435095.03467446368 0 0 0 0 -10277755.260223389 20970941.45591116 0 20970941.45591116 1292447.8116340637 0 0 0 0 12000.7317237854 3854015.6730332375 0 3854015.6730332375 23078502.805105448 0 0 0 0 3131774.7948284149 26560549.42723459 0 26560549.42723459 -12588153.259523869 0 0 0 0 -7225345.5451622009 12258413.611381531 0 12258413.611381531 -23594002.14336729 0 0 0 0 -4685159.5028800964 30234156.025057316 0 30234156.025057316 -43044871.616950512 0 0 0 0 2176882.3313446045 -20903885.11593914 0 -20903885.11593914 87074138.637220383 0 0 0 0 1233705.3887685798 -554437.33887516707 0 -554437.33887516707 -845531.23421318573 0 0 0 0 -10009.929413966625 22304492.048833363 0 22304492.048833363 -45625474.039319992 0 0 0 0 15136586.060268402 9282898.2589006424 0 9282898.2589006424 -25192648.381131172 0 0 0 0 -31148829.726154327 -4369203.1514201164 0 -4369203.1514201164 2265725.5393009186 0 0 0 0 15465028.287056208 19116046.588705361 0 19116046.588705361 83026.963134765625 0 0 0 0 -2961420.6420513317 2249318.2885137927 0 2249318.2885137927 189903.90297439508 0 0 0 0 2895480.0369720459 -1087776.1062374115 0 -1087776.1062374115 2666175.9096345901 0 0 0 0 5779408.6043167114 -3353420.3134298325 0 -3353420.3134298325 -1328880.5256137848 0 0 0 0 -6971649.0858688354 -4830546.0762062073 0 -4830546.0762062073 8862593.7245769501 0 0 0 0 -3529358.4979858398 -14378163.171329498 0 -14378163.171329498 -14190125.341268539 0 0 0 0 -17771721.95451355 -14894856.569869995 0 -14894856.569869995 1724596.7628288269 0 0 0 0 -393687.60212462023 -228917.39425349236 0 -228917.39425349236 205541.24516133126 0 0 0 0 -10002084.503962517 33947816.580094099 0 33947816.580094099 -62792659.298061371 0 0 0 0 -173883762.61772919 36257494.406420231 0 36257494.406420231 34844345.252658844 0 0 0 0 -112117503.18901825 72442872.04121685 0 72442872.04121685 -24424569.281206131 0 0 0 0 -101637796.92684746 -39261308.109407902 0 -39261308.109407902 10268660.357984543 0 0 0 0 -189643139.62409973 44066239.867046356 0 44066239.867046356 34320383.155860066 0 0 0 0 -290120827.74337435 167423651.58381271 0 167423651.58381271 -66289920.664283752 0 0 0 0 -121498970.59726715 66911680.370727539 0 66911680.370727539 -22242791.851932526 0 0 0 0 -319596963.26281261 -3063714.2781858444 0 -3063714.2781858444 25887582.632148743 0 0 0 0 160849521.56501961 47744440.891701698 0 47744440.891701698 128646923.38484955 0 0 0 0 193563755.58711243 238948232.32422733 0 238948232.32422733 202071055.20200729 0 0 0 0 -2647845.4733135048 2251409.2605625968 0 2251409.2605625968 -341418.41761434264 0 0 0 0 -34435478.392335892 32361626.333583832 0 32361626.333583832 2804792.4138450623 0 0 0 0 149400644.67492676 27169502.394953728 0 27169502.394953728 48562957.907440186 0 0 0 0 -28755184.478988647 69438949.169670105 0 69438949.169670105 148575890.69300938 0 0 0 0 -42115452.651539803 2636017.3368558884 0 2636017.3368558884 35458045.803892136 0 0 0 0 -193178081.06949615 15742081.388329506 0 15742081.388329506 78417374.623392105 0 0 0 0 67671568.845443726 101920501.70607758 0 101920501.70607758 -131546699.72262573 0 0 0 0 23381484.689914703 101941863.56782436 0 101941863.56782436 147145832.80812073 0 0 0 0 -1318935.681082841 2345515.5774589926 0 2345515.5774589926 1940794.343416445 0 0 0 0 -27727380.110534668 6894823.5513381958 0 6894823.5513381958 5270053.6113204956 0 0 0 0 -29269159.090248108 8511074.0991172791 0 8511074.0991172791 14610102.019384384 0 0 0 0 -25326572.340034485 14979376.652762413 0 14979376.652762413 10572622.190284729 0 0 0 0 -114194436.45837402 96300825.495625019 0 96300825.495625019 -51939150.560146332 0 0 0 0 -388807.84222318605 -296754.50306854118 0 -296754.50306854118 461033.56809927244 0 0 0 0 -1430179.6518230885 406844.80403972045 0 406844.80403972045 1959872.057130944 0 0 0 0 -25084581.375091553 11563754.788452148 0 11563754.788452148 2367681.9476299286 0 0 0 0 -20968024.47215271 -104745.88753128052 0 -104745.88753128052 8225055.4228942394 0 0 0 0 232646.02560755797 2429117.1411654884 0 2429117.1411654884 3496028.4505841266 0 0 0 0 -1004672.0323562622 -19057759.085744858 0 -19057759.085744858 -22085260.024747849 0 0 0 0 47899304.167633057 984222.12343025208 0 984222.12343025208 -19808015.046613693 0 0 0 0 -3220693.4004821777 -13825073.902915955 0 -13825073.902915955 -7249939.573135376 0 0 0 0 91458468.900726318 78031402.782049179 0 78031402.782049179 43491283.335189819 0 0 0 0 -75602616.434410095 70859773.705217361 0 70859773.705217361 114425080.38029099 0 0 0 0 48906427.26158905 140798135.41360664 0 140798135.41360664 109204194.70823288 0 0 0 0 83147775.612564087 199350288.39077377 0 199350288.39077377 209255734.10451508 0 0 0 0 221623.23225661553 832112.51586001553 0 832112.51586001553 1157012.4766491055 0 0 0 0 21671214.553039551 -67522161.531446457 0 -67522161.531446457 104142392.83974504 0 0 0 0 105038121.59401512 -242677898.93572903 0 -242677898.93572903 325221776.52092743 0 0 0 0 220509118.67891693 210495309.30554199 0 210495309.30554199 41457082.196485519 0 0 0 0 -307341450.94641876 49535253.701580048 0 49535253.701580048 96849568.324337006 0 0 0 0 -41003572.581970215 87661755.142160416 0 87661755.142160416 89064895.865481853 0 0 0 0 -53956200.892539978 105569016.52292347 0 105569016.52292347 156047719.15124583 0 0 0 0 -100567718.90141296 90340394.835674286 0 90340394.835674286 298342792.5079155 0 0 0 0 -3148262.5460144356 1976041.330757767 0 1976041.330757767 1046637.6640037186 0 0 0 0 -88523960.883243561 81906095.359518051 0 81906095.359518051 158400954.07303047 0 0 0 0 -314925.85703265294 805370.39099720027 0 805370.39099720027 195530.65518713277 0 0 0 0 3374877.8691711426 8801653.9795541763 0 8801653.9795541763 7731559.6402854919 0 0 0 0 8648911.5896224976 3544594.7910661697 0 3544594.7910661697 -626461.92261886597 0 0 0 0 -1144086.5050712675 609503.66259028949 0 609503.66259028949 549493.49242610577 0 0 0 0 -75114179.835140228 72515270.958640575 0 72515270.958640575 146761720.71224976 0 0 0 0 -33301477.150497437 12297239.879770279 0 12297239.879770279 24994239.917247772 0 0 0 0 -189949.26777648926 645552.36898136139 0 645552.36898136139 720948.57051467896 0 0 0 0 -1154051.1894340515 2530104.8431072235 0 2530104.8431072235 2271125.1449794769 0 0 0 0 -446221.52101876214 1151758.6724612187 0 1151758.6724612187 149434.20857723244 0 0 0 0 -4155966.9707107544 784634.0899143219 0 784634.0899143219 6233161.1462001801 0 0 0 0 -1275272.8184067793 1666490.4981702361 0 1666490.4981702361 1092744.0735936444 0 0 0 0 -800026.592628479 7233991.6862754822 0 7233991.6862754822 648818.58043909073 0 0 0 0 5041063.2740707397 -700497.94591283798 0 -700497.94591283798 -4201410.2537498474 0 0 0 0 -168788586.41001892 104356862.4233799 0 104356862.4233799 503388697.11469269 0 0 0 0 -2890044.2291107178 103299496.15328407 0 103299496.15328407 78954667.957766533 0 0 0 0 5406758.6812400818 6890139.7243490219 0 6890139.7243490219 108378754.25278473 0 0 0 0 162799148.57939148 27329256.960306168 0 27329256.960306168 -334289949.08446693 0 0 0 0 153218893.01199341 -342425837.98256302 0 -342425837.98256302 -45193826.862257004 0 0 0 0 310570558.28634644 504401152.43084335 0 504401152.43084335 77997643.88206777 0 0 0 0 -542205749.98664856 15620509.683134079 0 15620509.683134079 115178633.52414322 0 0 0 0 -176398385.34867859 248410161.03179169 0 248410161.03179169 -922361327.43009567 0 0 0 0 -86436.293362401426 -18511.177605092991 0 -18511.177605092991 -25323.465554729104 0 0 0 0 41577600.937744141 518808637.82707596 0 518808637.82707596 78072620.226298809 0 0 0 0 1054166271.1736145 -91693900.272855759 0 -91693900.272855759 119307791.05112457 0 0 0 0 -100607374.45347595 31391784.69708252 0 31391784.69708252 974016068.59073639 0 0 0 0 -90371155.859466553 -28218309.218347549 0 -28218309.218347549 156869613.0131855 0 0 0 0 -30534647.281021118 -81769568.579656601 0 -81769568.579656601 -230683781.68521309 0 0 0 0 -325636.68129342049 583571.77745973738 0 583571.77745973738 -1298298.6389387008 0 0 0 0 -84007.116439819336 263822.12553787231 0 263822.12553787231 -1642336.5895004272 0 0 0 0 -144621.37567138672 514921.56726837158 0 514921.56726837158 -1682239.7425875664 0 0 0 0 379148.74884033203 4249790.4249076843 0 4249790.4249076843 -6616079.4790458679 0 0 0 0 163167.04846288264 3825552.3416250423 0 3825552.3416250423 1357735.0918278899 0 0 0 0 -231141.06716156006 688629.06937599182 0 688629.06937599182 -1998577.5842208862 0 0 0 0 -54733.718824386597 349782.99238681793 0 349782.99238681793 -1920688.0483474731 0 0 0 0 26468746.248718262 11653199.732824326 0 11653199.732824326 -20714856.308832169 0 0 0 0 2258394.4070663452 -1884284.8422355652 0 -1884284.8422355652 -485436.87345123291 0 0 0 0 135824.98883133382 351186.33396964893 0 351186.33396964893 -325862.05558150075 0 0 0 0 16236255.784492493 -5510212.0329284668 0 -5510212.0329284668 -6219189.7735748291 0 0 0 0 5243673.0357894897 3044473.5913524628 0 3044473.5913524628 -12840838.827568054 0 0 0 0 659655.4450372681 5278675.4055546671 0 5278675.4055546671 3324149.2729224134 0 0 0 0 1180706.0600662231 21897315.011144638 0 21897315.011144638 -19799125.329076767 0 0 0 0 11304423.297485352 17556921.51758194 0 17556921.51758194 -22874242.954030991 0 0 0 0 -2191342.6275005341 6624208.4637868404 0 6624208.4637868404 86362.970188140869 0 0 0 0 10206172.42048645 622917.08853149414 0 622917.08853149414 -13453525.88179493 0 0 0 0 -3948447.0005569458 9947908.5272102356 0 9947908.5272102356 -10478327.006038666 0 0 0 0 -1088540.8893778268 3316824.828867387 0 3316824.828867387 2298693.2543899622 0 0 0 0 -6136358.8570899963 4978555.7573127747 0 4978555.7573127747 3363548.8496780396 0 0 0 0 2117430.8010599986 6704201.8393958714 0 6704201.8393958714 3486.7764428835362 0 0 0 0 3849829.9180145264 -735487.40634536743 0 -735487.40634536743 -7938668.4484024048 0 0 0 0 460138.07059951127 699900.75187824108 0 699900.75187824108 -638614.6842833031 0 0 0 0 -2027455.2006288134 2641873.0004359931 0 2641873.0004359931 2639839.3967135008 0 0 0 0 -3562600.8341875076 3289308.8845180273 0 3289308.8845180273 1143865.0884418488 0 0 0 0 -3222030.0943756104 4583211.9082489014 0 4583211.9082489014 1470522.410533905 0 0 0 0 -2204385.8538665771 5867226.7739877701 0 5867226.7739877701 -136489.85188674927 0 0 0 0 -2372987.6573410034 7663260.4258835316 0 7663260.4258835316 -1721313.289658308 0 0 0 0 1899712.6741935052 7920395.7444239948 0 7920395.7444239948 5582250.5091572963 0 0 0 0 326609.55107529089 323069.94478156604 0 323069.94478156604 -374940.97114362754 0 0 0 0 -3215148.0338745117 -2817750.1496148109 0 -2817750.1496148109 18762328.792900085 0 0 0 0 -1237506.0462799072 -1921442.0303201675 0 -1921442.0303201675 11250077.118690491 0 0 0 0 -4406550.6087417603 2997610.571144104 0 2997610.571144104 5081810.8752298355 0 0 0 0 -5001809.9626541138 2951395.0687890053 0 2951395.0687890053 6478627.0710639954 0 0 0 0 -3698690.9637641907 1335651.4698076248 0 1335651.4698076248 3814968.0428161621 0 0 0 0 -5164323.4134979248 8010359.6028213501 0 8010359.6028213501 1823479.0381793976 0 0 0 0 -6019230.0112838745 8510097.4322967529 0 8510097.4322967529 2319356.2354164124 0 0 0 0 -4729972.2853431702 7313131.0184607506 0 7313131.0184607506 2410582.3511352539 0 0 0 0 -2344182.1839122772 764590.85237550735 0 764590.85237550735 14483226.594417572 0 0 0 0 -7592588.9143486023 7350971.4470891953 0 7350971.4470891953 10887690.42408371 0 0 0 0 -2709810.2329978943 -4289250.221487999 0 -4289250.221487999 57733606.239805222 0 0 0 0 2791415.8786621094 2296827.5596942902 0 2296827.5596942902 13631620.295692444 0 0 0 0 77414003.872802734 29599259.294145584 0 29599259.294145584 2814441.6380004883 0 0 0 0 244203.05522307754 24980.792605709285 0 24980.792605709285 -238785.32566001266 0 0 0 0 27067105.182914734 -15299986.924376488 0 -15299986.924376488 -5562788.4131860733 0 0 0 0 12151904.765914917 1775612.4476108551 0 1775612.4476108551 -6416518.0296535492 0 0 0 0 13547105.378362656 4497860.0507507324 0 4497860.0507507324 -4984968.4034423828 0 0 0 0 9784904.4058914185 3088541.3734073639 0 3088541.3734073639 -1630806.4910316467 0 0 0 0 18953614.628076553 983684.48178100586 0 983684.48178100586 -20305879.726238251 0 0 0 0 14625536.551353455 13934270.703229427 0 13934270.703229427 -5124562.3166618347 0 0 0 0 -698250.77070488408 -168043.03416147456 0 -168043.03416147456 379221.60232182732 0 0 0 0 297995.5013860222 379605.70324556716 0 379605.70324556716 -411446.71455480158 0 0 0 0 -68190152.547729492 39507573.206865311 0 39507573.206865311 19430792.907985687 0 0 0 0 9365009.7772407532 14706371.232539177 0 14706371.232539177 25907969.833028793 0 0 0 0 13542450.370918274 4753773.4509792328 0 4753773.4509792328 -1451917.5186567307 0 0 0 0 -179039686.27457428 31938534.772332191 0 31938534.772332191 32395695.400705338 0 0 0 0 -126227431.858284 -23605504.032636642 0 -23605504.032636642 41462986.621684074 0 0 0 0 -76850010.171047211 3538163.3393764496 0 3538163.3393764496 -1154618.875954628 0 0 0 0 105992554.30645752 29049443.51338768 0 29049443.51338768 -31383941.070734978 0 0 0 0 -98466418.696285248 27751528.201294899 0 27751528.201294899 -280937.92527580261 0 0 0 0 -105636206.99940491 28479404.926779747 0 28479404.926779747 26294705.22120285 0 0 0 0 -113011454.42757034 40682618.290251732 0 40682618.290251732 8581736.7422599792 0 0 0 0 -98003983.735752106 44837036.423969984 0 44837036.423969984 4803991.7130851746 0 0 0 0 -22546719.059820175 43982004.065975666 0 43982004.065975666 33646786.319206238 0 0 0 0 -96142959.965660095 41716863.725607872 0 41716863.725607872 -954467.62932911515 0 0 0 0 478086.73789536022 611294.3175904993 0 611294.3175904993 -866704.19843680039 0 0 0 0 11137262.05222702 -33479457.491209984 0 -33479457.491209984 5467765.6432380676 0 0 0 0 -94423887.423019409 53342802.256845474 0 53342802.256845474 -12437924.977509193 0 0 0 0 -50159930.462509155 56764221.115755081 0 56764221.115755081 -12428842.565767288 0 0 0 0 -116820021.60752106 77500202.499081612 0 77500202.499081612 10556393.61255312 0 0 0 0 -122547945.34997177 80841390.752737999 0 80841390.752737999 11898991.733669281 0 0 0 0 -172702500.76556396 67177088.901201248 0 67177088.901201248 30432072.280054092 0 0 0 0 -119279480.7426281 51232162.558797121 0 51232162.558797121 28208934.653423309 0 0 0 0 -105272490.30262756 47143545.007365227 0 47143545.007365227 20299879.275033951 0 0 0 0 -97364289.823097229 41531188.900626183 0 41531188.900626183 24235166.545001984 0 0 0 0 -91986988.614242554 62515769.348526955 0 62515769.348526955 13533810.869066238 0 0 0 0 -98641116.05783844 53693387.571255684 0 53693387.571255684 9717731.1669139862 0 0 0 0 -156160186.6065979 -6435349.7210521698 0 -6435349.7210521698 19542707.687303543 0 0 0 0 -71749113.402626038 9891582.1997079849 0 9891582.1997079849 15437760.582719803 0 0 0 0 -111510381.5085125 25555285.191527605 0 25555285.191527605 19856777.740819931 0 0 0 0 -41126685.024932861 9287178.7249288559 0 9287178.7249288559 11880375.121641159 0 0 0 0 -72019802.869729996 8849753.5143226385 0 8849753.5143226385 14805922.091733932 0 0 0 0 -50136154.893508911 16855523.057486534 0 16855523.057486534 21696118.667491555 0 0 0 0 -64597571.231023788 8914436.090205431 0 8914436.090205431 18168133.021986008 0 0 0 0 -60164716.858680725 21920877.26930809 0 21920877.26930809 16580808.026714325 0 0 0 0 -86169161.167079926 43506278.229172707 0 43506278.229172707 12588206.991146088 0 0 0 0 -31309655.024009705 38056113.085449219 0 38056113.085449219 9245536.150686264 0 0 0 0 -75574728.544216156 27238018.258095741 0 27238018.258095741 20786542.483650208 0 0 0 0 -57826562.980470657 -1460351.4480268955 0 -1460351.4480268955 59491047.883457184 0 0 0 0 -128081730.85667801 73454052.838207245 0 73454052.838207245 -1220123.1787929535 0 0 0 0 -110285472.09947681 58132520.4664464 0 58132520.4664464 13810993.442033768 0 0 0 0 -79864124.499519348 34555885.940449715 0 34555885.940449715 17659697.659134865 0 0 0 0 -81545575.574943542 51239600.347097397 0 51239600.347097397 7521740.7206125259 0 0 0 0 -70244349.649406433 33687976.62154007 0 33687976.62154007 -32714172.688808441 0 0 0 0 -150532949.6608963 3395980.3890781403 0 3395980.3890781403 6245821.3014297485 0 0 0 0 -58512221.465343475 37375470.861467361 0 37375470.861467361 -2292935.7343025208 0 0 0 0 -26445969.637138367 -22568119.991500854 0 -22568119.991500854 25392630.801715374 0 0 0 0 -79222937.095046997 20731242.361444473 0 20731242.361444473 30336109.755239487 0 0 0 0 -19901653.056152344 25311724.147644997 0 25311724.147644997 11316622.441062927 0 0 0 0 277185.5110174641 -63339.07999106124 0 -63339.07999106124 -393064.74177011661 0 0 0 0 15514401.120738029 -56757593.832603455 0 -56757593.832603455 61996458.431573868 0 0 0 0 -108446652.36315155 136432614.4184742 0 136432614.4184742 -121904054.04039669 0 0 0 0 310642.80025193095 -141253.86664062366 0 -141253.86664062366 -627787.72767722979 0 0 0 0 -98807415.089845657 109409535.33339 0 109409535.33339 -60537336.254930496 0 0 0 0 -76509669.52935791 72295623.846122742 0 72295623.846122742 -43480730.173151016 0 0 0 0 -89330785.464584351 57894114.827831268 0 57894114.827831268 -58414127.954293251 0 0 0 0 -35481868.323379517 30229203.960622787 0 30229203.960622787 -21727418.471288681 0 0 0 0 -74072440.712310791 98796587.540179253 0 98796587.540179253 -51195395.133424759 0 0 0 0 -93579579.310539246 85782702.709240913 0 85782702.709240913 -53478282.409303188 0 0 0 0 -90005022.888214111 65539929.7958498 0 65539929.7958498 56456227.845960617 0 0 0 0 177470.54006275162 -208265.35413433705 0 -208265.35413433705 -634343.66556295939 0 0 0 0 -107803175.05279636 27171437.209085941 0 27171437.209085941 5414804.5186920166 0 0 0 0 64704920.653858185 30974279.027478695 0 30974279.027478695 -14368962.726379395 0 0 0 0 90329220.529258728 -24724544.287670135 0 -24724544.287670135 -6396051.6574485898 0 0 0 0 -4284930.2846887074 1549073.2954226937 0 1549073.2954226937 346842.82821913995 0 0 0 0 -37567560.824966431 15430612.819143295 0 15430612.819143295 -25911172.936759949 0 0 0 0 3415115.0683135986 7684562.0343523026 0 7684562.0343523026 1573485.1883659363 0 0 0 0 -12809260.221528824 11298289.203968193 0 11298289.203968193 -1485417.2326609436 0 0 0 0 -7422458.0876464844 -1371781.134929657 0 -1371781.134929657 5914104.9683761597 0 0 0 0 5387842.9987469912 9739219.3188224286 0 9739219.3188224286 -289793.2610206604 0 0 0 0 -8723137.1854858398 44819346.643836975 0 44819346.643836975 -35073119.722824097 0 0 0 0 -5421907.9214590006 14562868.707333168 0 14562868.707333168 -2004024.9159756955 0 0 0 0 1513961.4070728347 -285358.46017741784 0 -285358.46017741784 -814706.23630447313 0 0 0 0 -15641032.879981995 35091211.073405266 0 35091211.073405266 10157829.831759453 0 0 0 0 -1213902.3177185059 6270375.4634170532 0 6270375.4634170532 3704986.9654083252 0 0 0 0 -66167248.601203918 12104986.869033813 0 12104986.869033813 329457.9317779541 0 0 0 0 8415561.2796020508 13397618.873482704 0 13397618.873482704 2005962.869758606 0 0 0 0 -288019.48753745668 5528202.0534108747 0 5528202.0534108747 249560.26156684756 0 0 0 0 -4655799.8303147228 6662379.0109391231 0 6662379.0109391231 -510501.53151194565 0 0 0 0 21894589.526893616 -165742.36705970764 0 -165742.36705970764 22976861.835542679 0 0 0 0 24316067.479026794 -461503.04271125793 0 -461503.04271125793 -22068077.830067635 0 0 0 0 -15907203.485340118 12639379.887106419 0 12639379.887106419 -40838236.087373734 0 0 0 0 -4253005.6018600464 33074882.31423378 0 33074882.31423378 -7534747.1931447983 0 0 0 0 18271823.070796967 3695174.6420526505 0 3695174.6420526505 -11280880.876701355 0 0 0 0 42306408.129631042 31135542.574072838 0 31135542.574072838 -49509671.70697403 0 0 0 0 -18351637.806807518 40287934.539433002 0 40287934.539433002 -13635528.775932312 0 0 0 0 -118081865.8207016 78392407.900190353 0 78392407.900190353 -30599170.681322813 0 0 0 0 -22028107.009555817 20034385.846925735 0 20034385.846925735 -31463104.815608978 0 0 0 0 16471326.565937042 29354448.786912918 0 29354448.786912918 -28051147.7063694 0 0 0 0 16123100.77986145 22739963.506951332 0 22739963.506951332 2992383.5507307053 0 0 0 0 40375452.310386658 12272782.868393898 0 12272782.868393898 -5105653.7158445716 0 0 0 0 57289635.513656616 12055682.437253952 0 12055682.437253952 -29946971.214342117 0 0 0 0 -2272458.8826465607 5984037.4319162369 0 5984037.4319162369 -7388332.9354553223 0 0 0 0 590466.57671801315 8166293.7016597707 0 8166293.7016597707 -6266711.3438282404 0 0 0 0 -2957199.4867539406 10802591.694509685 0 10802591.694509685 -8564290.5162792206 0 0 0 0 -5798066.9433670044 9677811.8961648941 0 9677811.8961648941 -8040229.3481564522 0 0 0 0 -12728.37221056968 -21012.226897177286 0 -21012.226897177286 98015.926816847641 0 0 0 0 1890890.1197891235 4600614.6055498123 0 4600614.6055498123 -4632829.0716705322 0 0 0 0 5948538.72619766 7361048.5490298979 0 7361048.5490298979 -4231300.8293571472 0 0 0 0 27961850.328090668 29099094.85279274 0 29099094.85279274 -16937261.237764359 0 0 0 0 -4284007.4440618344 10530076.826298896 0 10530076.826298896 -7045560.4910468264 0 0 0 0 6343851.7785453796 34048330.856172562 0 34048330.856172562 -8738258.6311187744 0 0 0 0 9447644.7168388367 26927773.233767986 0 26927773.233767986 -72581.865213394165 0 0 0 0 6955382.5656509399 36045304.817790031 0 36045304.817790031 -679460.99814420938 0 0 0 0 539114167.69765985 13676136.571160801 0 13676136.571160801 618962584.31097031 0 0 0 0 -772496.11307282746 1938508.9363858495 0 1938508.9363858495 109502.67729216442 0 0 0 0 -98997851.67697525 -140777923.31445312 0 -140777923.31445312 552148783.480093 0 0 0 0 57871137.824101985 343512344.43632776 0 343512344.43632776 271881561.53723145 0 0 0 0 1743327.8437182698 8486137.8405857123 0 8486137.8405857123 -11904725.365081159 0 0 0 0 40776980.713001251 -3354375.5379428864 0 -3354375.5379428864 165677553.64173317 0 0 0 0 -43960295.606315613 55494008.897377014 0 55494008.897377014 -25422581.098827124 0 0 0 0 -15835718.035575867 30776248.650891304 0 30776248.650891304 -4551150.3949108124 0 0 0 0 -13845473.114433289 38739203.504060745 0 38739203.504060745 -5618157.2164535522 0 0 0 0 -24427749.306861877 37789853.676259995 0 37789853.676259995 -2278306.2397713661 0 0 0 0 -15975646.909591675 27354146.053399086 0 27354146.053399086 986914.48942184448 0 0 0 0 -50336686.169387817 19070435.547797203 0 19070435.547797203 12063716.868000031 0 0 0 0 -32729958.126525879 21828269.046653748 0 21828269.046653748 12364237.945684195 0 0 0 0 -20875696.48935318 17195007.78157711 0 17195007.78157711 8260561.6635990143 0 0 0 0 8203548.0780029297 25074973.123249054 0 25074973.123249054 -1982880.0189857483 0 0 0 0 -6903648.3486413956 30972225.519299269 0 30972225.519299269 7761473.4189987183 0 0 0 0 -8451933.282484699 11343842.371909944 0 11343842.371909944 -10359736.069457125 0 0 0 0 628466399.06651688 616394426.05311298 0 616394426.05311298 -68365477.828497887 0 0 0 0 -22676716.486602783 -2057197.9854774475 0 -2057197.9854774475 -2306204.1614003181 0 0 0 0 -1019110318.1811028 -102005049.22780371 0 -102005049.22780371 328807517.53529596 0 0 0 0 82449286.427097321 222622060.39249516 0 222622060.39249516 402808692.85225296 0 0 0 0 262086308.17892456 -94748696.112606049 0 -94748696.112606049 423594541.05256462 0 0 0 0 -309681484.90739822 -36052635.666080952 0 -36052635.666080952 480581421.73690414 0 0 0 0 374614964.10102844 237493522.16067362 0 237493522.16067362 323329925.08632851 0 0 0 0 -11293354.337641925 14996068.907695077 0 14996068.907695077 -11029694.749982819 0 0 0 0 -720086127.62318802 655424988.36238432 0 655424988.36238432 717098361.97473717 0 0 0 0 -153778507.48907089 775173197.65173149 0 775173197.65173149 624702838.84699059 0 0 0 0 579147464.0992378 -34935267.002714634 0 -34935267.002714634 -670658686.98642349 0 0 0 0 29101116.121061325 -184800164.56516123 0 -184800164.56516123 -660667098.51584101 0 0 0 0 -36831229.076919556 -37022688.549571991 0 -37022688.549571991 -7120451.0430498123 0 0 0 0 156576193.33421516 -51592817.226342201 0 -51592817.226342201 -30862026.665030479 0 0 0 0 -204437016.39620018 -308221373.74884689 0 -308221373.74884689 321217881.24152756 0 0 0 0 -18348959.986616135 -80738610.622356415 0 -80738610.622356415 74373534.442600489 0 0 0 0 -13958303.250778198 -137440297.44918227 0 -137440297.44918227 305683533.49165058 0 0 0 0 -18069177.578130722 -61189371.123867512 0 -61189371.123867512 158438272.41130829 0 0 0 0 36687028.369804382 -41130284.158530712 0 -41130284.158530712 60540968.504667282 0 0 0 0 102253794.19823074 -86774336.493534565 0 -86774336.493534565 -156684384.04964352 0 0 0 0 32338615.497325897 -20770765.703606606 0 -20770765.703606606 -26361636.356746674 0 0 0 0 -10474504.000991821 30889642.657924652 0 30889642.657924652 201196838.90298653 0 0 0 0 -5073482.9187850952 36707693.71485424 0 36707693.71485424 105190050.88568306 0 0 0 0 109673788.17795563 85263922.688515902 0 85263922.688515902 -80000635.803679466 0 0 0 0 -200874722.74230385 -42694651.99813652 0 -42694651.99813652 407041889.28409004 0 0 0 0 226616318.16362286 -20387319.686024904 0 -20387319.686024904 -196188692.15843391 0 0 0 0 -109725.42783234734 1132181.5432738177 0 1132181.5432738177 -325446.99608272128 0 0 0 0 25689491.940750122 -97594422.992265701 0 -97594422.992265701 164108142.2433691 0 0 0 0 -20014236.470695496 -56028108.823047638 0 -56028108.823047638 218352826.96733689 0 0 0 0 -6075609.0619392395 -66518744.588212013 0 -66518744.588212013 117491726.83520329 0 0 0 0 -67243216.699329376 -303627093.49053001 0 -303627093.49053001 -94054709.323320389 0 0 0 0 16403244.292032242 -50741363.281431198 0 -50741363.281431198 62985887.752178192 0 0 0 0 -144705128.63220596 242382794.02409363 0 242382794.02409363 252564224.33731294 0 0 0 0 1244429.4812332026 3366223.3499338683 0 3366223.3499338683 3647456.7513855882 0 0 0 0 -16464778.519636154 53851915.488428831 0 53851915.488428831 -91550835.303183556 0 0 0 0 -496590.61788304709 1421759.3137985822 0 1421759.3137985822 1601947.6019219181 0 0 0 0 -16000423.754600525 8536220.9699497223 0 8536220.9699497223 -11578778.588252544 0 0 0 0 -177130823.53986931 -43109744.018567562 0 -43109744.018567562 59893977.52662468 0 0 0 0 115511284.96263313 89513872.892345428 0 89513872.892345428 -10593102.243364334 0 0 0 0 -14080143.78882575 25446123.05507651 0 25446123.05507651 143568.6928653717 0 0 0 0 -17996851.457880974 -2374070.7067940235 0 -2374070.7067940235 7965646.5166988373 0 0 0 0 -3493011.8643420851 4102268.0815574354 0 4102268.0815574354 4082179.2214792776 0 0 0 0 89387943.403771639 -7186571.4180384278 0 -7186571.4180384278 -5035284.7491064072 0 0 0 0 -48421951.834468842 18112479.591974258 0 18112479.591974258 18721968.398696899 0 0 0 0 -434432.38345501386 4139523.5097548561 0 4139523.5097548561 -1297504.2613705993 0 0 0 0 -2378217.271320343 26177820.996582031 0 26177820.996582031 333473.31644248962 0 0 0 0 9304636.0728187561 -93782.109544754028 0 -93782.109544754028 4692914.1116485596 0 0 0 0 1493780.5958080292 10196658.727233797 0 10196658.727233797 -6555902.7969398499 0 0 0 0 -2723317.7064726893 9982142.0996078365 0 9982142.0996078365 -7779828.4754696246 0 0 0 0 -16093714.30960083 42121043.684350967 0 42121043.684350967 15799233.708331347 0 0 0 0 -40548504.869960785 37117932.064891815 0 37117932.064891815 17182486.407564163 0 0 0 0 -1249281.2391319275 -155300100.31177664 0 -155300100.31177664 188326203.9996233 0 0 0 0 -781701.72074626014 849468.97504773177 0 849468.97504773177 1048411.6979077226 0 0 0 0 25741795.595795631 55979184.814025402 0 55979184.814025402 9469249.319070816 0 0 0 0 -83044499.953952789 -124511472.55209351 0 -124511472.55209351 378012831.12840605 0 0 0 0 15536898.898113251 79806378.663638115 0 79806378.663638115 167472528.38501787 0 0 0 0 5473139.9391326904 23509640.961958885 0 23509640.961958885 70762839.508543015 0 0 0 0 -13082211.254047394 -39716945.381791115 0 -39716945.381791115 173718497.24593735 0 0 0 0 43016351.248523712 17506462.577048302 0 17506462.577048302 -6890997.5333528519 0 0 0 0 7781457.4455595016 17924976.891537309 0 17924976.891537309 13429505.46582222 0 0 0 0 95721655.258853912 19217447.987511396 0 19217447.987511396 24491957.103261232 0 0 0 0 160406594.80298424 187073130.94125813 0 187073130.94125813 163919484.00713015 0 0 0 0 349013687.3000164 142386784.77285624 0 142386784.77285624 39570528.899650514 0 0 0 0 213525345.87107658 210060632.60789144 0 210060632.60789144 116330645.04478395 0 0 0 0 224496621.09872055 56194553.06411612 0 56194553.06411612 -9036108.8260756731 0 0 0 0 28058403.444898605 -29394542.481649637 0 -29394542.481649637 -44077170.000596285 0 0 0 0 25962649.40257746 26385639.593610294 0 26385639.593610294 -14499098.781302452 0 0 0 0 43229.647258238867 -218651.73629182251 0 -218651.73629182251 554631.98153039278 0 0 0 0 182126937.81566811 183401351.87830353 0 183401351.87830353 162072547.98838234 0 0 0 0 266067281.91971588 339025032.46451181 0 339025032.46451181 287738770.99025393 0 0 0 0 -549879.14046859741 7728641.4347219467 0 7728641.4347219467 -27384310.193382978 0 0 0 0 -19944183.126139641 18952637.924582958 0 18952637.924582958 -1016832.930516243 0 0 0 0 553021.34743450489 -326484.4479145573 0 -326484.4479145573 1204792.9168778309 0 0 0 0 960788.7959438574 1895020.6487549488 0 1895020.6487549488 2790713.5296753971 0 0 0 0 -3614632.061123848 33899774.4387182 0 33899774.4387182 10726508.907280684 0 0 0 0 -3425199.1589565277 -11011090.627682179 0 -11011090.627682179 6675993.8397253081 0 0 0 0 -44168388.410824299 1896823.7308939844 0 1896823.7308939844 31603099.877225637 0 0 0 0 -2129872.1157836914 5707479.2961749434 0 5707479.2961749434 -6258450.9009521008 0 0 0 0 40173746.205732346 18202041.361252293 0 18202041.361252293 23093745.791288495 0 0 0 0 15628280.159887314 -20024805.793620467 0 -20024805.793620467 29991021.10893929 0 0 0 0 22544525.546683311 22816147.054494694 0 22816147.054494694 23129701.321323276 0 0 0 0 34805691.334270477 -59778.6042085886 0 -59778.6042085886 63681827.425714731 0 0 0 0 109562103.89053726 4801120.7374029756 0 4801120.7374029756 14394964.656345963 0 0 0 0 88863614.228198051 74959624.229827106 0 74959624.229827106 167764219.27764308 0 0 0 0 138854124.65256882 151169162.37044293 0 151169162.37044293 75673460.936247826 0 0 0 0 40902511.446144104 -9134405.1253441572 0 -9134405.1253441572 1727527.3512573242 0 0 0 0 143569419.21654892 46110107.043981135 0 46110107.043981135 2056470.3327105641 0 0 0 0 1232070.2308692932 59707997.227449536 0 59707997.227449536 13896433.502399385 0 0 0 0 125555141.61718369 -39837952.450220257 0 -39837952.450220257 287854229.5546155 0 0 0 0 377286533.31895065 174048265.1403659 0 174048265.1403659 58639946.089832209 0 0 0 0 510574316.58660889 260696365.11802799 0 260696365.11802799 64158265.925472081 0 0 0 0 170773251.43927383 248251160.11459148 0 248251160.11459148 343180400.41181481 0 0 0 0 16554721.059049606 10827944.153501034 0 10827944.153501034 -820207.32458949089 0 0 0 0 51192.318186603487 589344.93301941734 0 589344.93301941734 141739.23213523626 0 0 0 0 -24274108.887821198 16608197.192245781 0 16608197.192245781 13758314.86826086 0 0 0 0 13837607.19373703 16036749.336832047 0 16036749.336832047 3536458.1560547352 0 0 0 0 13666462.615855396 19963789.889197029 0 19963789.889197029 -11306624.537320137 0 0 0 0 58993761.462526321 29916855.462317228 0 29916855.462317228 -11612256.20377779 0 0 0 0 15327514.720832825 12683622.982706785 0 12683622.982706785 -2178703.5991420746 0 0 0 0 16957895.58927536 12471843.752003908 0 12471843.752003908 -3703279.9432694912 0 0 0 0 12902439.888801336 13558706.996042728 0 13558706.996042728 4494420.9228954315 0 0 0 0 11009069.68841362 -5752338.4512879848 0 -5752338.4512879848 -15350487.789347887 0 0 0 0 897421.86456678435 1871719.1580123883 0 1871719.1580123883 -747819.7367531769 0 0 0 0 15491218.121774673 8657976.0247964859 0 8657976.0247964859 -8541986.7295002937 0 0 0 0 1569991.9839496482 2027525.1531478083 0 2027525.1531478083 564597.46825295268 0 0 0 0 -12890660.226736069 -26720231.731461644 0 -26720231.731461644 -1764388.667612046 0 0 0 0 7389244.9887495041 11565600.401131153 0 11565600.401131153 7052380.5823307037 0 0 0 0 6258353.3675546646 4985858.4932041168 0 4985858.4932041168 4098475.7803916931 0 0 0 0 13347212.882382393 11321489.138012886 0 11321489.138012886 3613443.408536911 0 0 0 0 -1496650.4805498123 9445471.0383682251 0 9445471.0383682251 8384882.5169410706 0 0 0 0 3597222.418027401 10503185.777362585 0 10503185.777362585 5352578.7805671692 0 0 0 0 3273394.1079382896 11613042.554108381 0 11613042.554108381 4996478.0465316772 0 0 0 0 194557.59667634778 1317391.1117249564 0 1317391.1117249564 62402.757804005872 0 0 0 0 11529366.379891396 16401966.692128181 0 16401966.692128181 7809696.5443878174 0 0 0 0 1319842.9101615138 1638765.3344869986 0 1638765.3344869986 1512767.1366324648 0 0 0 0 17143613.589918137 9684531.3299183846 0 9684531.3299183846 5830065.8232288361 0 0 0 0 6613807.7613019943 15467868.335063934 0 15467868.335063934 -19640352.048826218 0 0 0 0 12130231.572889328 9554458.3494005203 0 9554458.3494005203 16717323.436326981 0 0 0 0 14439854.04393959 10414346.3878088 0 10414346.3878088 4483642.2691078186 0 0 0 0 11243844.785238266 14168945.626655579 0 14168945.626655579 4050095.477845192 0 0 0 0 784729.09829143807 2329791.0979695893 0 2329791.0979695893 -1481103.5972166164 0 0 0 0 12785273.259519577 7892287.7725478411 0 7892287.7725478411 -2112947.4695706367 0 0 0 0 11923694.21599102 9039901.4334607124 0 9039901.4334607124 6338158.528755188 0 0 0 0 14048694.110373497 12082811.575521946 0 12082811.575521946 4525052.6804237366 0 0 0 0 9810289.118888855 12987942.943193436 0 12987942.943193436 6204560.6711292267 0 0 0 0 15403528.280282974 11789570.752601862 0 11789570.752601862 2705979.4840126336 0 0 0 0 12366593.047312737 10500739.403301716 0 10500739.403301716 2861893.6289458275 0 0 0 0 -942910.51296771318 1646866.600829877 0 1646866.600829877 1025961.0791898202 0 0 0 0 5202767.7877516747 6579041.6507110596 0 6579041.6507110596 -3434228.6907043457 0 0 0 0 5184858.3440246582 6297168.5620584488 0 6297168.5620584488 -6947689.5645961761 0 0 0 0 3227724.6754837036 4885974.6213502884 0 4885974.6213502884 -2131164.9555463791 0 0 0 0 -3333910.1345672607 11070369.040208578 0 11070369.040208578 -5232085.8167161942 0 0 0 0 3324780.0526618958 5017700.6837797165 0 5017700.6837797165 -4809672.6375517845 0 0 0 0 -2993483.394565396 7501449.3038300518 0 7501449.3038300518 -6116504.763850484 0 0 0 0 -2612669.0837239828 8825820.5600498691 0 8825820.5600498691 -5293151.0830964027 0 0 0 0 594088.25315475464 9964675.0705347061 0 9964675.0705347061 -7732615.0104923248 0 0 0 0 -5445632.1246795654 12899088.281106353 0 12899088.281106353 -5850685.4356937408 0 0 0 0 -3910972.7448348999 6949775.9920444489 0 6949775.9920444489 -3368687.9273633957 0 0 0 0 -5008129.7029362777 10298931.551691774 0 10298931.551691774 -2572739.5292121293 0 0 0 0 -670302.6476435205 6996274.5031486424 0 6996274.5031486424 -1431048.4460867154 0 0 0 0 1340533.4676622972 3690831.5677096592 0 3690831.5677096592 -2179351.8602967276 0 0 0 0 1195548.1219511032 5157006.2786905766 0 5157006.2786905766 -1993760.2943000793 0 0 0 0 3011026.5305843353 4466503.0247912407 0 4466503.0247912407 380612.12627315521 0 0 0 0 11065418.090906143 7941391.6364586353 0 7941391.6364586353 -6576496.1290279627 0 0 0 0 21787391.407407761 17546047.993523479 0 17546047.993523479 -408676.79603004456 0 0 0 0 -383610.04265213013 35702080.837745667 0 35702080.837745667 1443357.347579062 0 0 0 0 -285529.35613486613 6148466.1824829038 0 6148466.1824829038 6157133.303655358 0 0 0 0 -25172687.573629379 18336606.215723455 0 18336606.215723455 4178356.2570092678 0 0 0 0 -2620333.6036949158 18983940.175460815 0 18983940.175460815 -9583505.3592180014 0 0 0 0 9068021.9032154083 11328207.378480943 0 11328207.378480943 4147705.3679079749 0 0 0 0 -804880.62915992737 18601888.779322743 0 18601888.779322743 11123033.918502808 0 0 0 0 9541892.267742157 25500464.093626995 0 25500464.093626995 -1392593.5566887031 0 0 0 0 -257780.55854032934 6565616.3753614128 0 6565616.3753614128 -2059039.9454250943 0 0 0 0 -30397246.057487488 15639425.637408733 0 15639425.637408733 14791347.894011497 0 0 0 0 18871521.714468002 7054738.7332201004 0 7054738.7332201004 11150480.90201664 0 0 0 0 80180402.818252563 71577552.576824188 0 71577552.576824188 -65329170.847183228 0 0 0 0 7631791.3051147461 6645922.7533321381 0 6645922.7533321381 -3880367.0200271606 0 0 0 0 157335.69055394828 5683845.0639962349 0 5683845.0639962349 1438098.196028152 0 0 0 0 -3103391.7673225403 7327340.1906888485 0 7327340.1906888485 10441201.691459656 0 0 0 0 -778116.2179796386 7255649.98313135 0 7255649.98313135 6129635.7698812494 0 0 0 0 4542958.1855421308 5198063.6472874498 0 5198063.6472874498 -6390559.9711900037 0 0 0 0 1300057.7930297852 3730281.7866668701 0 3730281.7866668701 -5008687.4215393066 0 0 0 0 8108159.421094181 7082992.3352262052 0 7082992.3352262052 -4566218.097145576 0 0 0 0 2002672.9503176366 6327412.0919842497 0 6327412.0919842497 -1557192.2042975444 0 0 0 0 6415201.0973510742 7324461.5850868225 0 7324461.5850868225 -4147508.1371841431 0 0 0 0 3241401.9638080597 5829661.0225973129 0 5829661.0225973129 -927631.45840835571 0 0 0 0 9679919.1194210052 6242341.4723510742 0 6242341.4723510742 -4281787.8358154297 0 0 0 0 619760.63143029169 7576813.2358738985 0 7576813.2358738985 -2453087.4738057312 0 0 0 0 7250524.2059502602 4815155.2734661102 0 4815155.2734661102 -1795895.7796974182 0 0 0 0 -9473586.2327156067 6421174.3004512787 0 6421174.3004512787 474672.81055831909 0 0 0 0 -710057.15408325195 6625676.1221418381 0 6625676.1221418381 -4551922.5195045471 0 0 0 0 -2916621.9608503673 6642296.8675418058 0 6642296.8675418058 147211.01393135614 0 0 0 0 3387284.6684837341 5945896.4409341812 0 5945896.4409341812 181048.1821269989 0 0 0 0 -83702028.844512939 31488096.706958771 0 31488096.706958771 -6041918.9217777252 0 0 0 0 4748370.8849716187 7711504.9183254242 0 7711504.9183254242 -1199982.6210212708 0 0 0 0 -541947.60335436091 6973398.9070701282 0 6973398.9070701282 -481074.7814868344 0 0 0 0 -1465466.1998109818 8367259.2393784523 0 8367259.2393784523 1034795.9279136658 0 0 0 0 7646225.5838012695 7482143.2308301926 0 7482143.2308301926 -1952650.1438865662 0 0 0 0 12715909.38104248 15677091.210832596 0 15677091.210832596 -498605.08797073364 0 0 0 0 -1890125.8686930798 4945820.6868258975 0 4945820.6868258975 1065367.0703521762 0 0 0 0 1044754.043548584 10775830.070363998 0 10775830.070363998 5470128.8962192535 0 0 0 0 2681935.5967788696 9043118.2329454422 0 9043118.2329454422 2563451.8330764771 0 0 0 0 747423.61624908447 3814805.1208324432 0 3814805.1208324432 1496104.8534049988 0 0 0 0 9230456.0078086853 2728634.1135654449 0 2728634.1135654449 -15591502.234169006 0 0 0 0 -1515224.3104095459 10432018.443376541 0 10432018.443376541 12041053.927507401 0 0 0 0 2037522.2111740112 14634134.067930222 0 14634134.067930222 9021670.5966367722 0 0 0 0 2083047.4337115288 7216813.8593142033 0 7216813.8593142033 -5938517.8627815247 0 0 0 0 10952149.605156898 7395183.1534910202 0 7395183.1534910202 -2962929.9140586853 0 0 0 0 905094.46915623907 7282912.7122656088 0 7282912.7122656088 -1351770.3377685472 0 0 0 0 -13681612.181064606 8716827.5825939178 0 8716827.5825939178 2390280.0438194275 0 0 0 0 8013124.0532341003 7746768.898639679 0 7746768.898639679 -82388.377637863159 0 0 0 0 6706990.7799949646 4678457.8583579063 0 4678457.8583579063 -3834838.8054924011 0 0 0 0 1637765.8341729844 5367554.5647936761 0 5367554.5647936761 -2213832.60777824 0 0 0 0 8516829.3464126587 7918894.7354736328 0 7918894.7354736328 -1227194.3220939636 0 0 0 0 -74089842.06777823 224524082.04258442 0 224524082.04258442 289579881.95675659 0 0 0 0 8827051.5351104736 7629442.0170059204 0 7629442.0170059204 -2760856.9887571335 0 0 0 0 9026773.6646361351 6843164.0183973312 0 6843164.0183973312 -662231.02923202515 0 0 0 0 87970674.422546387 93349575.963752747 0 93349575.963752747 -41896797.641530991 0 0 0 0 54836746.073204041 41266165.303462982 0 41266165.303462982 49584733.83114624 0 0 0 0 1470210.8074282834 7362624.9497928498 0 7362624.9497928498 -397272.86590783112 0 0 0 0 54852956.744541168 49982721.867866516 0 49982721.867866516 -38980891.249969482 0 0 0 0 5855045.0403194427 8830450.1229410172 0 8830450.1229410172 -1075804.021736145 0 0 0 0 7705851.5569133759 7409338.1841201782 0 7409338.1841201782 -542778.13989305496 0 0 0 0 8045953.9241371155 8110470.6797738075 0 8110470.6797738075 -956228.6854057312 0 0 0 0 10079193.650001526 6321809.2764129639 0 6321809.2764129639 -1287542.0245952606 0 0 0 0 -126988958.34965706 -91716007.100974083 0 -91716007.100974083 -6990828.0578517914 0 0 0 0 2444957.7128201877 6986268.8767874418 0 6986268.8767874418 -3929883.1739002019 0 0 0 0 12448727.17057991 6983295.6470527649 0 6983295.6470527649 -3586133.667842865 0 0 0 0 11382630.378462791 6366811.896282196 0 6366811.896282196 632409.35905456543 0 0 0 0 18811914.124290466 113511735.47766495 0 113511735.47766495 -55387332.689971924 0 0 0 0 -32651326.849960327 140156172.06826019 0 140156172.06826019 -37969488.21350193 0 0 0 0 9214467.5181980133 9192448.2718968391 0 9192448.2718968391 -5529625.7173614502 0 0 0 0 12587383.984287262 8833304.4333534241 0 8833304.4333534241 -3482465.1496658325 0 0 0 0 7590045.8296890259 5136344.8507537842 0 5136344.8507537842 -5587515.2569673657 0 0 0 0 23533039.244979858 51416420.645191193 0 51416420.645191193 2980599.8132505417 0 0 0 0 5616705.0866661072 14647443.393543243 0 14647443.393543243 -81886337.637882233 0 0 0 0 7113784.8566093445 24672880.471422195 0 24672880.471422195 -30112511.461751938 0 0 0 0 -47113768.508348465 48447780.86639595 0 48447780.86639595 3429124.7847900391 0 0 0 0 37417106.8048172 -48277004.666267395 0 -48277004.666267395 -19281746.442939758 0 0 0 0 -105644873.01515198 -110833959.31039429 0 -110833959.31039429 -21699930.681381226 0 0 0 0 -104543659.54787254 35922929.367454529 0 35922929.367454529 4643324.3146972656 0 0 0 0 455515.04432194866 319925.44143617339 0 319925.44143617339 -37174.823619401082 0 0 0 0 3918074.1259765625 18078991.251609802 0 18078991.251609802 -25301090.950403214 0 0 0 0 2788200.1571373716 4735427.6701984759 0 4735427.6701984759 -708391.21235251985 0 0 0 0 -143059.48602509499 5797656.5578902662 0 5797656.5578902662 763758.67608261108 0 0 0 0 4184116.3034000397 7881626.8471198082 0 7881626.8471198082 -1082959.8345947266 0 0 0 0 -222172.02404820919 3898196.8730018735 0 3898196.8730018735 -1570145.5882415771 0 0 0 0 -1824241.5300083384 4453581.8688031714 0 4453581.8688031714 1486591.4281214178 0 0 0 0 29075746.484016418 -2263755.6242923737 0 -2263755.6242923737 -2448533.1652374268 0 0 0 0 -1537988.607837677 14198686.349597931 0 14198686.349597931 50891629.889757156 0 0 0 0 -764869.55277731083 344021.81268345797 0 344021.81268345797 477867.05016716011 0 0 0 0 -28040284.966594696 8595708.8342137337 0 8595708.8342137337 -4296319.3157577515 0 0 0 0 3514537.3410447389 672812.3441315731 0 672812.3441315731 -3099590.4785354598 0 0 0 0 1344687.4341278076 2279167.3483200073 0 2279167.3483200073 17276900.687198639 0 0 0 0 2284407.3931741016 791700.75910602184 0 791700.75910602184 -3359471.9161186041 0 0 0 0 8992692.3571166992 -4216399.7569580078 0 -4216399.7569580078 -15045350.569032192 0 0 0 0 2512567.1621456146 4663926.2516403198 0 4663926.2516403198 -12997055.164756775 0 0 0 0 1855282.0177517897 3287861.5017892234 0 3287861.5017892234 -2195204.1891784649 0 0 0 0 6678743.9775505066 6179389.2675104141 0 6179389.2675104141 -6309503.7106056213 0 0 0 0 18030972.448173523 6008338.8571510315 0 6008338.8571510315 -7078213.2757148743 0 0 0 0 18166314.316814423 8980190.8819389343 0 8980190.8819389343 -29790003.514673233 0 0 0 0 18698199.480463028 22404080.873163223 0 22404080.873163223 -9844019.9288349152 0 0 0 0 1751872.4181365967 15316462.759965897 0 15316462.759965897 -20581558.207515717 0 0 0 0 -24911081.87622261 -16715688.037959099 0 -16715688.037959099 4682514.2495613098 0 0 0 0 2403987.6675016955 43192.467284613755 0 43192.467284613755 -1744709.3863430573 0 0 0 0 16779902.83089447 234111.17630529404 0 234111.17630529404 -1535690.4549026489 0 0 0 0 30092647.892444611 -10552584.131605148 0 -10552584.131605148 -61981153.785135269 0 0 0 0 16961079.831827164 -36756571.900569916 0 -36756571.900569916 -55033834.447509766 0 0 0 0 18710278.865207672 27487625.290597916 0 27487625.290597916 13981608.284119129 0 0 0 0 -274715.75312076136 456430.26391872205 0 456430.26391872205 1067154.5249014776 0 0 0 0 9100288.5848674774 -8950342.3153457642 0 -8950342.3153457642 -53593349.372735977 0 0 0 0 30690993.981050491 -18197891.850839615 0 -18197891.850839615 -51685367.828408241 0 0 0 0 16848682.761396408 -32648842.59956646 0 -32648842.59956646 -13349184.859373093 0 0 0 0 4985928.9947795868 -30823977.266698837 0 -30823977.266698837 30220714.442035675 0 0 0 0 37344633.648645401 112580371.78272629 0 112580371.78272629 134040531.39658928 0 0 0 0 65176285.833645821 107760541.11386395 0 107760541.11386395 58566417.86485672 0 0 0 0 949740.52726659831 -147138.2094521923 0 -147138.2094521923 -650531.91370772105 0 0 0 0 338155102.64609909 -23863946.974840164 0 -23863946.974840164 -424355161.5590477 0 0 0 0 93311050.146385193 143582555.62468719 0 143582555.62468719 104175803.68158913 0 0 0 0 4581621.1025543213 -50468419.599478722 0 -50468419.599478722 51271884.467388153 0 0 0 0 -17872497.721354485 -5096514.8962268829 0 -5096514.8962268829 -40181223.977798462 0 0 0 0 1746886.889673233 95763018.128204346 0 95763018.128204346 99713200.009124756 0 0 0 0 128419760.84850979 -26434157.659929276 0 -26434157.659929276 -62434435.699256897 0 0 0 0 88140525.20530653 91063710.045938015 0 91063710.045938015 15908971.820869446 0 0 0 0 47287554.763519287 36200307.848384857 0 36200307.848384857 -54037855.108085632 0 0 0 0 30887630.626377583 -14482231.523022711 0 -14482231.523022711 -9554833.7244739532 0 0 0 0 21929089.592710495 93634249.591133118 0 93634249.591133118 110952674.27357101 0 0 0 0 534179.20963256434 300012.28213421721 0 300012.28213421721 -749769.08305686712 0 0 0 0 -18724180.419570923 7675053.6199645996 0 7675053.6199645996 137226140.37814331 0 0 0 0 3943156.615398407 -41301835.183433533 0 -41301835.183433533 109240336.89580536 0 0 0 0 1863777.3020200729 19871402.09091568 0 19871402.09091568 29924376.610591888 0 0 0 0 9034930.5102767944 33506515.729457855 0 33506515.729457855 33351030.473640442 0 0 0 0 -4372292.9816884995 98311405.436971664 0 98311405.436971664 -9018346.4193725586 0 0 0 0 749097.6637878418 61555754.340770721 0 61555754.340770721 -603192.38850021362 0 0 0 0 -13146769.725999832 11600279.871585846 0 11600279.871585846 25441890.909818649 0 0 0 0 -7358488.8646240234 25204458.726173401 0 25204458.726173401 4098987.9786396027 0 0 0 0 11563289.729177475 15049731.641000748 0 15049731.641000748 -57668144.278383255 0 0 0 0 -13851716.617315292 4984599.1801681519 0 4984599.1801681519 -10721928.083129883 0 0 0 0 -11627463.353139877 10573959.056247711 0 10573959.056247711 25356690.450065613 0 0 0 0 -13199295.054519653 -1467106.0826091766 0 -1467106.0826091766 44363329.959886551 0 0 0 0 21447194.123827934 -10702106.933861256 0 -10702106.933861256 19808954.357219696 0 0 0 0 -3871684.3312683105 7570518.523223877 0 7570518.523223877 18776285.683929443 0 0 0 0 -2216588.3298616409 6071301.2024722099 0 6071301.2024722099 19944894.666297913 0 0 0 0 54789253.349476814 39936308.475719452 0 39936308.475719452 -108231299.30987549 0 0 0 0 70361937.052296162 -7075122.7473678589 0 -7075122.7473678589 -35160012.996627808 0 0 0 0 10264891.288933635 27313860.501376152 0 27313860.501376152 1939781.3969535828 0 0 0 0 -3815016.3516693115 8491548.4509658813 0 8491548.4509658813 24080581.157928467 0 0 0 0 8637868.1314039379 7815629.8871832872 0 7815629.8871832872 -978349.94801148493 0 0 0 0 2400056.6068746569 2402373.6258574482 0 2402373.6258574482 3322799.308972775 0 0 0 0 26493985.291845322 68082221.072883606 0 68082221.072883606 -81663674.102846146 0 0 0 0 -29492865.041549683 74417349.993553162 0 74417349.993553162 -17523711.748134613 0 0 0 0 19103405.615994453 -3079534.3060760498 0 -3079534.3060760498 10361013.540139198 0 0 0 0 5145992.8790426049 7640178.9546591397 0 7640178.9546591397 1292638.4008455239 0 0 0 0 9384655.1547756195 8866143.5454654694 0 8866143.5454654694 -2215129.7245635986 0 0 0 0 -3616571.8121080399 9542699.6229763031 0 9542699.6229763031 784588.73089122772 0 0 0 0 3245421.0935220979 7587809.3667626772 0 7587809.3667626772 3053282.5724855671 0 0 0 0 64505541.884913445 -2250708.2308473587 0 -2250708.2308473587 -171668733.46107674 0 0 0 0 1014887.6626830101 4863983.7941465378 0 4863983.7941465378 -2746847.0907516479 0 0 0 0 5365514.5715893349 6426509.7475889698 0 6426509.7475889698 234728.57116674632 0 0 0 0 -47320729.836128235 41573.981716156006 0 41573.981716156006 -59358511.45958662 0 0 0 0 -2796777.096862793 23861459.065568924 0 23861459.065568924 -76879324.78109169 0 0 0 0 -513819.23673454765 6383020.4463873766 0 6383020.4463873766 6372125.5221493039 0 0 0 0 -72570.695796966553 4101328.968132019 0 4101328.968132019 2684889.556854248 0 0 0 0 -1131529.7962884903 6795120.2920722961 0 6795120.2920722961 4790604.8281097412 0 0 0 0 889879.59999984037 4361180.1398941269 0 4361180.1398941269 2410839.6686967867 0 0 0 0 1320681.2326247003 7341139.0176875414 0 7341139.0176875414 3675931.1137107974 0 0 0 0 4727618.595975101 -34197051.767685413 0 -34197051.767685413 -74402874.765239716 0 0 0 0 -2079038.9222536087 5217891.1157550812 0 5217891.1157550812 2171185.4880523682 0 0 0 0 -8265992.3398604393 8950216.5413236618 0 8950216.5413236618 2294003.6165847778 0 0 0 0 920869.85283517838 6191051.0465507507 0 6191051.0465507507 -690810.96062088013 0 0 0 0 3031996.2282854933 7121240.6449419595 0 7121240.6449419595 2736644.336982958 0 0 0 0 4994862.4565124512 18036739.080890656 0 18036739.080890656 163590.41801452637 0 0 0 0 4722294.8889961243 19372634.921006203 0 19372634.921006203 -6357157.6856536865 0 0 0 0 7880289.3152456284 11038968.977981567 0 11038968.977981567 -2093212.8694000244 0 0 0 0 717725.18521785736 17010170.050853729 0 17010170.050853729 -2101.6487503051758 0 0 0 0 22553619.788084269 21854581.304938555 0 21854581.304938555 -19841192.206634521 0 0 0 0 21869472.449738503 15804259.327125549 0 15804259.327125549 -5662314.4006118774 0 0 0 0 13272128.237465858 26419913.595115662 0 26419913.595115662 -2382374.1579971313 0 0 0 0 13746095.152025223 26451968.191234589 0 26451968.191234589 -4259982.0105438232 0 0 0 0 16811405.108744144 30442224.028396606 0 30442224.028396606 -12120734.795681 0 0 0 0 24847166.829328537 28466649.452880859 0 28466649.452880859 -29568883.50323391 0 0 0 0 29317680.970397949 37169824.575790405 0 37169824.575790405 -21779901.629966736 0 0 0 0 5331466.8727341481 6211410.3765399829 0 6211410.3765399829 -701029.63380812295 0 0 0 0 4128172.7724868022 6309279.4063923024 0 6309279.4063923024 1928286.9120708294 0 0 0 0 4223300.9038314819 6577751.3801250458 0 6577751.3801250458 1346055.3652329445 0 0 0 0 2094511.3679924011 7112865.7371826172 0 7112865.7371826172 4364387.1813964844 0 0 0 0 -9008173.5139007568 8881936.4299610853 0 8881936.4299610853 14159534.994586945 0 0 0 0 -3017023.971774267 5169464.9209478134 0 5169464.9209478134 3205873.7572235949 0 0 0 0 -5055984.1340255737 8838336.4322090149 0 8838336.4322090149 2874578.3509082794 0 0 0 0 -472381.74857839942 917996.49790940806 0 917996.49790940806 888401.39316606335 0 0 0 0 -11174403.834421277 35544264.146622002 0 35544264.146622002 -6717464.9558563232 0 0 0 0 256086.13555445708 420651.31977554224 0 420651.31977554224 533010.65065433271 0 0 0 0 -11710658.366108894 13105726.835049689 0 13105726.835049689 17318855.267189026 0 0 0 0 6173052.8741340637 14417078.785511017 0 14417078.785511017 13635267.657119751 0 0 0 0 37695199.314956665 -1215577.9513397217 0 -1215577.9513397217 -22561508.188625336 0 0 0 0 -9811608.0977363586 39237625.334886551 0 39237625.334886551 52247972.726131439 0 0 0 0 1467356.1686878204 -8016077.702883482 0 -8016077.702883482 53261083.039779663 0 0 0 0 2280873.6371070649 -108142.28844671836 0 -108142.28844671836 -2129962.9850575477 0 0 0 0 -2348309.2805624008 12118347.450777054 0 12118347.450777054 10804576.4090271 0 0 0 0 44535565.892295837 -25142314.897754669 0 -25142314.897754669 49995898.200386047 0 0 0 0 2622079.5812150687 7926070.908209404 0 7926070.908209404 644132.8525782302 0 0 0 0 -5440285.5230207443 7279500.8907833099 0 7279500.8907833099 7370429.696182251 0 0 0 0 345551.97060746513 6024156.3673264543 0 6024156.3673264543 2293185.4621211807 0 0 0 0 5346779.3168201447 11980254.093055725 0 11980254.093055725 -1681211.3926048279 0 0 0 0 -5603407.2261734009 8267952.1512374878 0 8267952.1512374878 11217194.552736282 0 0 0 0 585463.62464087456 1362995.4264146239 0 1362995.4264146239 -86557.450018364936 0 0 0 0 -518890.2856157315 6343612.8352780882 0 6343612.8352780882 1929821.5861348845 0 0 0 0 1284377.9235881914 4947190.4147510398 0 4947190.4147510398 1858963.3786225393 0 0 0 0 1647921.9329681396 6712155.310344696 0 6712155.310344696 1488808.4934387207 0 0 0 0 1451928.9855546951 7079546.0226154327 0 7079546.0226154327 787705.27248382568 0 0 0 0 3125707.6861610413 7523480.813659668 0 7523480.813659668 1063599.9274101257 0 0 0 0 4569229.0949039459 6710833.7625312805 0 6710833.7625312805 393237.38097763062 0 0 0 0 2461782.5382865686 5878843.3459467068 0 5878843.3459467068 916766.79169308394 0 0 0 0 3427028.4193201065 6208348.9170360565 0 6208348.9170360565 961918.37020492554 0 0 0 0 -2806697.813457489 7584796.7523326874 0 7584796.7523326874 36625.411243438721 0 0 0 0 1138785.4066418908 4832021.1597974319 0 4832021.1597974319 1238190.4227449596 0 0 0 0 6939503.2070561051 6593081.8525557518 0 6593081.8525557518 2119263.0524368286 0 0 0 0 989231.54847565829 7141106.3549408065 0 7141106.3549408065 4092211.874976363 0 0 0 0 7155413.3121242523 6280930.9874839783 0 6280930.9874839783 946375.01093435287 0 0 0 0 4520281.7556518912 13888714.734753013 0 13888714.734753013 7895807.3595352173 0 0 0 0 6286410.1654336099 5178228.2747717164 0 5178228.2747717164 -306102.03179230168 0 0 0 0 5285026.2962872386 9908998.0400221348 0 9908998.0400221348 3562596.8975982666 0 0 0 0 2054689.1205825806 7663206.6672515869 0 7663206.6672515869 3580122.117805481 0 0 0 0 1958958.4466171265 8330098.7484741211 0 8330098.7484741211 2889216.0835895538 0 0 0 0 1698605.719783783 7949615.4437065125 0 7949615.4437065125 4110450.0804176331 0 0 0 0 -575007.49519348145 9905240.922326088 0 9905240.922326088 6975577.4764328003 0 0 0 0 2587408.8387050629 10556785.158027649 0 10556785.158027649 3457329.3254394531 0 0 0 0 -5847147.6414680481 6362450.169713974 0 6362450.169713974 1678081.2902450562 0 0 0 0 1154675.601688385 11480839.957159042 0 11480839.957159042 5209964.7200813293 0 0 0 0 4426094.2921690578 7632621.6641739365 0 7632621.6641739365 3978310.498649992 0 0 0 0 -5510735.1567802429 5497435.1395130157 0 5497435.1395130157 1552006.2561645508 0 0 0 0 2722051.8142263098 6272116.9764540289 0 6272116.9764540289 2122691.5290966853 0 0 0 0 -4111576.1418959573 2183768.7921063993 0 2183768.7921063993 3650367.7626729459 0 0 0 0 -12112517.305198669 28091025.32626152 0 28091025.32626152 -8698527.2108459473 0 0 0 0 -19418066.633407593 -1973542.5865364075 0 -1973542.5865364075 13001242.082750082 0 0 0 0 -13092024.24559021 15373219.439229965 0 15373219.439229965 11187313.248252869 0 0 0 0 -7628819.4090270996 13081404.398735046 0 13081404.398735046 -9862165.8674697876 0 0 0 0 -19111382.851898193 6588286.0681533813 0 6588286.0681533813 -1130818.2657852173 0 0 0 0 2622672.6414455222 1262052.6936228089 0 1262052.6936228089 -360057.81838231534 0 0 0 0 4375179.7687220173 8531036.9161387756 0 8531036.9161387756 2782545.8484628219 0 0 0 0 56837969.655044556 -1255019.5403461456 0 -1255019.5403461456 8280328.9383583069 0 0 0 0 -22963198.400482178 3525074.6350574493 0 3525074.6350574493 1117718.5519561768 0 0 0 0 -32182661.203800201 13849958.827983856 0 13849958.827983856 18776944.25837326 0 0 0 0 -8856531.5324737504 8241154.3672229769 0 8241154.3672229769 8775020.1655193288 0 0 0 0 -6376695.8192167636 5691672.4476835672 0 5691672.4476835672 5678480.2422966231 0 0 0 0 50028732.328552246 -35180137.576782227 0 -35180137.576782227 -158373567.03222656 0 0 0 0 -25874059.935638428 16478604.758527756 0 16478604.758527756 10063774.283029556 0 0 0 0 -8013518.4461135864 -2452768.2755389214 0 -2452768.2755389214 2923853.5029067993 0 0 0 0 -7462279.4861068726 73470771.819656372 0 73470771.819656372 250141340.59759521 0 0 0 0 249320.98412322998 15843930.870176315 0 15843930.870176315 11202393.822547913 0 0 0 0 -24632484.8670578 21294691.349060059 0 21294691.349060059 26054027.527618408 0 0 0 0 -10513164.221954346 22468625.219919205 0 22468625.219919205 26144961.134194851 0 0 0 0 923508.69131350517 14634088.043244004 0 14634088.043244004 -1908802.0864753723 0 0 0 0 -2987644.6705157645 1053138.2567109554 0 1053138.2567109554 1741442.2380407825 0 0 0 0 -8036881.8322467804 5617590.7400016785 0 5617590.7400016785 4533722.0919723511 0 0 0 0 4477619.1176978294 7979717.7932523936 0 7979717.7932523936 1881739.9221122749 0 0 0 0 3239596.1793060303 24539366.877658844 0 24539366.877658844 42459595.025497437 0 0 0 0 590025.64105844498 21032122.132451564 0 21032122.132451564 24517555.722694397 0 0 0 0 918188.73262023926 12953027.420801163 0 12953027.420801163 11747131.412477493 0 0 0 0 -1640402.0050582886 18934204.530477524 0 18934204.530477524 25463864.341071129 0 0 0 0 13822282.453066349 19756936.815292478 0 19756936.815292478 8873814.7462234497 0 0 0 0 13608357.783318996 21393617.780274034 0 21393617.780274034 10043722.589187622 0 0 0 0 31300075.07257843 28823008.326471329 0 28823008.326471329 3518224.3466415405 0 0 0 0 2760858.8439178467 12798730.21600914 0 12798730.21600914 5091682.6990013123 0 0 0 0 17383926.159965515 18387056.586946487 0 18387056.586946487 -1951792.3569736481 0 0 0 0 -1830782.1018981934 21151795.32497406 0 21151795.32497406 549113.04077911377 0 0 0 0 -17619361.534547806 10875321.160951614 0 10875321.160951614 1399716.4324760437 0 0 0 0 25640019.398757935 -7261821.8122520447 0 -7261821.8122520447 -13179618.937395573 0 0 0 0 18378399.849981308 17171719.69204092 0 17171719.69204092 -6984012.4043579102 0 0 0 0 43171845.241691589 21859476.460979462 0 21859476.460979462 -17511886.573770523 0 0 0 0 41342336.750976562 23630704.779039383 0 23630704.779039383 -14060198.329227448 0 0 0 0 38095163.539693832 33703181.2205863 0 33703181.2205863 -8105726.3053703308 0 0 0 0 29339110.864639282 31516724.758245468 0 31516724.758245468 -5494344.53332901 0 0 0 0 30292407.17149353 26840981.729383469 0 26840981.729383469 -1015411.7083721161 0 0 0 0 5850105.6041793823 30181066.900384903 0 30181066.900384903 1690498.6251773834 0 0 0 0 6934241.4475690126 3616415.2423437536 0 3616415.2423437536 -7275076.744354248 0 0 0 0 48075524.993431091 10865290.259004593 0 10865290.259004593 4866200.6397380829 0 0 0 0 31789046.131053925 27179459.188937664 0 27179459.188937664 -1070949.7830963135 0 0 0 0 23656017.796693802 9340717.844845295 0 9340717.844845295 6436659.3175964355 0 0 0 0 30093501.999481201 26161212.610599518 0 26161212.610599518 3698276.6204810143 0 0 0 0 33718356.314735413 26130578.95532608 0 26130578.95532608 -2644579.3701896667 0 0 0 0 14722676.784301758 -5568821.5487194061 0 -5568821.5487194061 -3244809.3617973328 0 0 0 0 -1379766.1804237366 -1416663.0434560776 0 -1416663.0434560776 -4247605.1812095642 0 0 0 0 20437984.2056427 14464927.138652802 0 14464927.138652802 424361.71674728394 0 0 0 0 -3898573.1072540283 9825749.7371006012 0 9825749.7371006012 17477538.701664925 0 0 0 0 131752.1282481933 372620.42156955041 0 372620.42156955041 -99865.341550106183 0 0 0 0 -38221714.832473755 -33324423.764255524 0 -33324423.764255524 111490985.09500885 0 0 0 0 18466170.27306366 -16418270.319274902 0 -16418270.319274902 43917793.206365585 0 0 0 0 60325175.060401917 -47883962.081445694 0 -47883962.081445694 37890918.849769592 0 0 0 0 46385556.709220886 56264870.470720291 0 56264870.470720291 82676307.535679817 0 0 0 0 49852174.373241425 -20209676.811284065 0 -20209676.811284065 -28141991.012058258 0 0 0 0 25968758.678184509 33687408.816394806 0 33687408.816394806 22246974.582777023 0 0 0 0 47003852.746879578 24868323.117557526 0 24868323.117557526 3669902.4999566674 0 0 0 0 36021308.176818848 15068847.880502701 0 15068847.880502701 6635333.5741958618 0 0 0 0 93888801.74495697 26884348.267288208 0 26884348.267288208 9034338.3717050552 0 0 0 0 95067631.336715698 85773253.971918106 0 85773253.971918106 55485438.654541016 0 0 0 0 137172213.30775452 33140564.717456818 0 33140564.717456818 -20855263.704510212 0 0 0 0 32162037.186401367 35424163.969156265 0 35424163.969156265 31048375.437774658 0 0 0 0 29032565.562713623 29821386.124843597 0 29821386.124843597 22042166.951854348 0 0 0 0 31411493.630310059 -112511874.32164001 0 -112511874.32164001 127429949.4855547 0 0 0 0 11835997.456079483 33314561.492433548 0 33314561.492433548 111700881.38728714 0 0 0 0 612679.6479934901 134449.5237134723 0 134449.5237134723 -144517.86756843282 0 0 0 0 105375682.37504911 -230762413.34505582 0 -230762413.34505582 -264788299.4684639 0 0 0 0 44306817.367034912 21659203.983449936 0 21659203.983449936 -15909193.720560074 0 0 0 0 403546.11520754173 428681.65629879013 0 428681.65629879013 -304715.17671116069 0 0 0 0 126181399.88945007 16563920.323485374 0 16563920.323485374 -110926102.25726318 0 0 0 0 57621213.819011688 -2244582.3861317635 0 -2244582.3861317635 -14438825.816545486 0 0 0 0 35914906.09463501 -9459234.8031358719 0 -9459234.8031358719 -13090882.621326447 0 0 0 0 -76471162.276906967 -46058239.388252735 0 -46058239.388252735 14739944.633960724 0 0 0 0 21157848.179290771 48802264.852573395 0 48802264.852573395 -56550439.913376808 0 0 0 0 164428.80211476982 161307.89696234651 0 161307.89696234651 -61204.666474463418 0 0 0 0 173764524.01452255 -76705094.210818291 0 -76705094.210818291 -24946235.094921112 0 0 0 0 44573911.778884888 115348977.15580368 0 115348977.15580368 441466178.91189575 0 0 0 0 -15771896.55241394 -65734877.249353409 0 -65734877.249353409 59789614.438240051 0 0 0 0 -24103129.276222229 30519674.876585007 0 30519674.876585007 -59370169.952674866 0 0 0 0 76625787.559844971 79054340.999035835 0 79054340.999035835 -54183372.009925842 0 0 0 0 -163010881.13715935 -69701334.112645626 0 -69701334.112645626 -132800968.15142059 0 0 0 0 -25526414.83908844 130198744.37531281 0 130198744.37531281 -314302600.38308334 0 0 0 0 -343212298.27705765 300977443.43007135 0 300977443.43007135 -164981509.3842926 0 0 0 0 -76911984.106185913 132308140.61626816 0 132308140.61626816 -63444817.904708862 0 0 0 0 -77789231.658370972 130879490.17635679 0 130879490.17635679 -62893296.128696442 0 0 0 0 74624456.358070374 1067273.662355423 0 1067273.662355423 -98525472.848571777 0 0 0 0 -131800595.49530554 165695194.49559462 0 165695194.49559462 -8755147.0318908691 0 0 0 0 83937626.796440125 -19999107.014105797 0 -19999107.014105797 -9385572.5235881805 0 0 0 0 257202.78158650361 286372.2669885885 0 286372.2669885885 -260148.73718480021 0 0 0 0 -81476407.345077515 127416438.84279156 0 127416438.84279156 -45200929.18305397 0 0 0 0 -5184067.35496521 35385241.319122314 0 35385241.319122314 -25427739.064988136 0 0 0 0 50548789.531822205 14290240.246037483 0 14290240.246037483 -17474201.664838791 0 0 0 0 16916675.176040649 -8373763.3469600677 0 -8373763.3469600677 -650482.02213668823 0 0 0 0 10890051.742841721 -7116611.9977021217 0 -7116611.9977021217 -4804738.9883575439 0 0 0 0 17829922.819076538 -6181405.7588024139 0 -6181405.7588024139 -4916839.1179428101 0 0 0 0 19778237.832707405 6250743.2514258623 0 6250743.2514258623 -11912019.638889313 0 0 0 0 34443643.274330139 1885747.2836647034 0 1885747.2836647034 -10615910.963701248 0 0 0 0 448250.45684051514 1834752.3652057648 0 1834752.3652057648 -4070455.0392875671 0 0 0 0 -1853204.1156313631 5656793.8009908851 0 5656793.8009908851 -534629.54745308496 0 0 0 0 -6092800.9113845825 4685865.049041748 0 4685865.049041748 4068813.5247192383 0 0 0 0 6399460.9186515808 8114967.5649785995 0 8114967.5649785995 -4742158.9029045105 0 0 0 0 1545692.1650602296 3467693.4927228419 0 3467693.4927228419 -209939.77398539335 0 0 0 0 9980355.8604774475 6250716.6633329391 0 6250716.6633329391 -3822821.2345085144 0 0 0 0 -1993986.533203125 5192305.2153968811 0 5192305.2153968811 -1366032.7676544189 0 0 0 0 -3830938.8158416748 7644818.8131008148 0 7644818.8131008148 -413484.24924468994 0 0 0 0 -5183089.6697463989 4043974.7203054428 0 4043974.7203054428 -2154709.2453308105 0 0 0 0 -311872.52669089288 587559.39163875673 0 587559.39163875673 210541.53358441917 0 0 0 0 4113362.9554512557 3997342.0523921028 0 3997342.0523921028 -785270.70885505527 0 0 0 0 955130.39059786126 5586538.1226444691 0 5586538.1226444691 761619.63947200775 0 0 0 0 -2168762.045665741 4840112.0441246033 0 4840112.0441246033 -485765.03161621094 0 0 0 0 -1430625.6918334961 4422225.0659408569 0 4422225.0659408569 -2250835.2495689392 0 0 0 0 -5521068.4485969543 3636911.7425785065 0 3636911.7425785065 2537642.8379282951 0 0 0 0 -4372262.9407043457 5539259.6497459412 0 5539259.6497459412 15502316.113614082 0 0 0 0 4657871.383895874 8413850.6673793793 0 8413850.6673793793 7707937.5587596893 0 0 0 0 1624828.9828707837 803530.48323928891 0 803530.48323928891 -438934.46275966428 0 0 0 0 -3282641.3335342407 -3907825.4071526527 0 -3907825.4071526527 23053140.737743378 0 0 0 0 35322600.856142044 -9572267.7014038563 0 -9572267.7014038563 -1449907.4075183868 0 0 0 0 6022608.7263946533 -1044607.7165813446 0 -1044607.7165813446 2066231.4434490204 0 0 0 0 
</DataArray>
<DataArray type="Float64" Name="cross_section_updated" format="ascii">
1 1 0.050354015510605324 1 1 1 1 0.050354208175743029 1 1 1 1 1 1 1 1 1 1 1 1 0.049093850373517198 1 1 1 1 0.049093139711262564 1 1 1 1 1 1 1 0.049963913599829136 1 1 1 1 1 1 1 1 0.04994761259166923 1 1 1 1 1 1 1 1 1 1 1 0.049906038591047183 0.049958200801926728 1 1 1 1 1 1 1 1 0.046347670803306769 1 1 1 1 1 1 1 1 1 1 1 1 1 1 1 1 1 1 1 1 1 1 0.046941559035941841 1 1 1 1 1 1 1 1 1 1 1 0.046340501807701287 1 1 1 0.048553519043066991 1 1 1 1 1 1 1 1 1 1 1 1 1 1 1 1 1 1 1 1 1 1 1 1 1 1 1 1 1 1 1 1 1 1 1 1 1 1 1 1 1 1 1 1 1 0.050014633716637939 1 0.049054470382081494 1 1 1 1 1 1 1 1 1 1 1 1 1 1 1 1 1 1 1 1 1 1 1 1 1 1 0.044945217762222718 1 1 0.049441887933362183 1 0.048989250242814933 1 1 1 1 1 1 1 1 1 1 1 1 1 1 0.053070080861045685 1 0.053077117901844183 1 1 1 1 1 1 1 0.041852521692506618 1 0.047673352359814736 1 1 1 1 1 1 0.050086881924496562 1 1 0.040056281467018076 1 1 1 1 1 1 0.038212597771107297 0.060577966750504642 1 1 0.050317016311122835 1 0.056044199610963519 1 0.05027060994479024 0.051005436972424642 1 1 1 0.058398426475980134 1 1 1 1 1 1 1 1 1 1 1 1 1 0.062489145449772993 1 1 1 1 1 1 1 0.064318812155442079 1 1 1 1 1 1 1 0.066022538978262768 1 1 1 1 0.050262590861837646 1 1 1 1 1 1 0.050381003542579239 1 1 1 0.050967521709356423 1 1 1 1 1 1 1 0.051957080897197611 1 1 1 1 1 1 0.051633478760008733 1 1 1 1 1 1 0.048247056780732635 1 1 1 1 1 1 1 0.050421703241476386 1 1 1 1 1 1 1 1 1 1 1 1 1 1 1 1 1 1 1 1 1 0.051484198117707727 0.050113308890177358 1 1 1 1 1 0.043277774010014675 1 1 1 1 1 1 1 0.052155981708179894 1 0.043001719250727211 1 1 1 0.053902952358664102 1 1 1 0.04872483160616866 1 0.050021579115271046 1 1 1 1 1 1 1 0.034906733062157899 1 1 1 1 1 1 1 0.067423239135578891 1 1 1 0.049995974935986523 1 1 1 1 1 1 1 1 1 1 1 1 1 1 1 1 1 1 1 1 1 1 1 1 1 1 1 1 1 1 1 1 0.035739158432621265 1 1 1 1 1 1 1 1 1 1 1 1 1 1 1 1 1 1 1 1 1 1 1 1 1 1 1 1 1 1 1 1 0.049540422642350604 1 1 1 1 1 1 1 1 1 1 1 1 1 1 1 1 1 1 1 1 0.049758285996765753 1 1 1 1 1 1 1 0.050200560075248181 1 1 1 1 1 0.050645565181381969 1 1 0.049997785169326042 1 0.046390601122603493 1 1 1 1 0.045222061706148599 1 1 0.044056378860536552 1 1 1 1 1 1 0.048890534898237505 1 1 1 1 1 1 1 1 1 1 1 1 1 1 1 1 1 1 1 0.045640090244590675 1 1 1 1 1 1 1 1 1 1 1 0.050072409280713319 0.044922972965377964 1 1 1 1 1 1 1 1 1 1 1 1 1 1 1 1 1 1 1 1 1 0.049074255020846877 1 0.049686542907599884 0.047899597365159891 1 1 0.050502120262792716 1 1 1 1 1 1 1 1 1 1 1 1 1 0.046909606326150884 1 1 1 1 1 1 1 0.049959526724285303 0.050388501232442845 1 1 1 1 1 1 1 1 0.049365121555539293 0.050665581865190351 1 1 1 0.050799285163902391 1 1 1 1 1 1 1 1 1 1 1 1 1 1 1 1 1 1 1 1 1 1 1 1 1 1 1 1 1 1 1 1 1 1 1 0.050315704203790459 1 1 0.049872209094270176 1 1 1 1 0.049757969774745246 1 1 1 0.04989542143141143 1 1 1 0.049974645149520547 1 1 0.049920657002279857 1 1 1 1 1 1 1 1 1 1 1 1 1 1 1 1 1 1 1 1 1 0.049841814679265475 1 1 1 0.049806717886106099 1 1 1 1 1 0.049459492695072438 1 1 1 1 1 1 0.04993644612237455 1 1 1 1 1 1 1 1 1 1 1 1 1 1 1 1 1 1 0.049971532380056562 1 1 1 1 1 1 1 1 1 1 1 1 1 1 1 1 1 1 1 1 1 0.049885760680475066 1 1 1 1 1 1 1 1 1 1 1 1 1 1 1 0.050269547994772817 1 1 1 1 1 1 1 1 1 1 1 1 1 1 1 1 1 1 0.051592244773388897 1 1 1 1 1 1 1 0.049580654485492787 1 1 1 1 1 1 1 1 1 1 1 1 1 1 1 1 1 1 1 1 1 0.050307340436021857 1 1 1 1 1 1 1 1 1 0.050947365595638776 1 1 1 1 1 1 1 1 0.037132576924288771 1 1 1 1 1 1 1 1 1 1 1 1 1 1 1 1 1 1 1 0.067872379993709986 1 1 1 1 1 0.038973039627567277 1 1 1 0.049934604460810605 1 1 1 1 1 1 0.047196521358721114 1 1 1 1 1 1 1 1 1 1 0.050879855692391021 1 1 1 1 1 1 1 1 1 1 1 1 0.044618772631474089 1 0.052797325392899538 1 1 1 1 1 1 1 0.066281379764666484 1 0.029627388699381581 1 1 1 1 1 1 1 1 1 1 1 1 1 1 1 1 1 1 1 1 1 1 1 1 1 1 1 1 1 1 1 1 1 1 1 1 1 1 1 1 1 1 1 1 1 0.047562591464877513 0.050476288707066289 1 1 0.049995040469600141 1 1 1 1 1 1 1 1 1 1 1 1 1 1 1 1 0.049770846858466722 1 1 1 1 0.06388668677457128 1 1 0.0501985829596827 1 1 1 1 1 1 0.061484384128506098 1 0.059845757539452621 1 1 0.049892825651511735 1 1 1 1 1 1 1 1 1 1 0.053073058293732968 1 1 1 1 1 0.050188403255596467 0.050033963460636044 1 1 1 1 0.055666373644401856 1 1 0.057104442909597028 1 0.042612491485174958 1 1 1 1 1 0.051011805417464334 1 1 0.050007249974716075 1 1 1 1 1 1 1 1 1 1 1 1 0.050063852342068997 1 1 1 1 1 1 1 1 1 1 1 1 1 1 1 0.051994305452912226 1 0.050000475678351863 1 0.049225086241168128 0.048731192977122403 1 0.051989099268171912 1 1 0.050013149095791957 1 1 1 1 1 1 0.04474463118639653 1 0.05009984031905966 1 1 0.042972860977498369 1 1 1 0.052487824103099649 1 1 0.049998291875101131 1 1 1 1 1 0.041771419995827952 1 1 0.050041016601362662 1 1 1 1 1 0.0500202141185737 1 0.053201820264922373 1 1 0.052874703755470834 1 1 0.048524308442645409 1 1 1 1 1 1 1 1 0.049427748221862869 1 1 1 1 1 1 1 1 1 1 0.050276569431324303 1 1 1 1 0.050893802527353885 1 1 0.050591841888444164 1 1 1 1 1 0.049437708563935222 1 1 1 1 1 0.050004749694937956 1 0.050115056708177411 1 1 1 1 1 1 0.050040990998627286 1 1 1 1 1 1 1 1 0.049958016759089958 0.052824688898085004 0.051078009510179712 1 1 1 1 0.04936993913455083 1 0.051317070811178214 1 1 1 0.052868856207865175 0.050009993257756888 1 1 1 0.051145338732030941 1 1 1 0.053062942309675641 1 0.049160182223538303 1 0.051546719402477834 0.05156684414257199 1 0.049995685490158912 1 1 1 1 0.054155745763092449 1 1 1 0.049913235536468294 1 0.054404718501335055 1 0.043418961278254314 1 1 1 1 1 1 1 0.049997942169087477 1 1 1 1 0.046023095413455443 1 1 1 1 1 1 1 1 0.049994961550514354 1 0.049992327759949454 0.049735622259265116 1 1 1 0.049212911655881944 1 1 1 1 0.048227064997438243 0.049394667527304183 1 1 0.047422482406584927 0.050118149717235022 1 1 1 1 1 0.050048460950519708 1 1 1 1 1 1 1 1 0.050030188665519851 1 0.050061049635138175 1 1 1 1 1 1 1 1 1 1 1 1 1 1 1 1 1 0.05004951939109728 1 1 1 1 1 1 1 1 1 1 1 1 1 1 1 1 1 1 1 1 1 1 1 1 1 0.049991230910024845 1 0.050139010697219835 1 1 1 1 1 0.049998406096564016 0.050001637355854181 1 1 1 1 0.049933876781830977 0.04999336871969598 1 0.050246472743922188 1 1 0.049618299040431912 1 1 0.050756017194683145 1 1 1 1 0.049880176376105853 0.049874159579257789 1 1 1 1 1 1 1 1 0.049996905871823163 1 1 0.04998631131424968 1 1 1 0.049884841093773363 1 1 0.049974334415594006 1 1 1 1 1 1 0.050140960703863542 1 1 1 1 1 1 0.048504929802300409 1 1 1 1 1 0.05043971649089013 1 1 0.052460604509411424 0.047750932142538241 1 1 0.048486656578891854 1 1 0.049993162479997633 1 1 1 1 1 1 1 1 1 1 1 1 0.05241840844592012 1 0.049613019936205836 1 1 0.049837985212541479 1 1 1 1 1 1 0.050003056527337213 1 1 1 0.049606833123674032 0.052048662779390208 0.050000235107649199 1 1 1 0.048971631107181217 0.050203602272957629 1 0.049493893962952992 0.052596182968216505 1 1 0.050729623844570464 1 1 0.049736458823974164 1 0.049433906888037567 1 0.05055282547390838 1 1 1 0.049943360767575176 0.049656258943841694 1 1 0.049900495097021193 0.049717187303473104 0.050663256500423526 0.05057393176740585 1 1 1 0.050046058311947209 0.050023781070733242 1 1 0.049262728345495818 0.052257616420446476 0.050516251624185174 1 0.04921329063743949 0.050151588954813225 1 1 0.050890957211876753 1 0.050545007087379766 0.049141660954335087 1 0.051795169783661818 1 1 0.049996938442801252 1 0.051683578268778285 0.05017732588527344 1 1 1 1 0.050103015806639145 0.051471630569266069 1 1 0.049994553473769437 1 1 1 0.049976362898943416 1 1 1 1 1 1 1 1 1 1 1 1 1 1 1 1 1 1 1 1 1 1 1 1 1 1 1 1 1 1 1 1 1 1 1 1 1 1 1 1 1 1 1 1 1 1 1 1 1 1 1 1 1 1 1 1 1 1 0.047177020941591249 1 0.049068641217306148 1 1 1 1 1 1 1 1 1 1 1 1 1 1 0.046640218562267022 1 1 1 1 1 1 1 1 1 1 0.048959134488089986 1 1 1 1 1 1 1 1 1 1 1 1 1 1 1 1 1 1 1 1 1 1 1 1 1 1 1 1 1 1 1 1 1 1 1 1 1 1 1 1 1 1 1 1 1 1 0.049939000369387553 1 1 1 0.049704300669283961 1 0.050436744551426375 1 1 1 1 1 0.051194970316385702 1 0.050155098163362076 1 1 1 1 1 1 1 1 1 1 1 1 1 1 1 1 1 1 1 1 1 1 1 1 1 0.050086598481794496 1 1 1 1 1 1 0.043661025776772631 1 0.04794025443540411 1 1 1 0.039772185656703082 1 1 0.039199260990535362 1 1 1 1 1 1 1 1 1 1 1 1 1 1 1 1 1 1 1 1 1 1 1 1 1 1 1 1 1 1 1 1 1 1 1 1 1 0.05167412363906905 1 0.046539061678586895 1 1 1 1 1 1 1 1 1 1 0.050225819543159883 1 1 1 1 1 1 1 1 1 1 1 1 1 1 1 1 1 0.047627215696836582 1 1 1 0.050015074459742043 0.037132699990878912 1 0.042837156017366373 1 1 1 1 1 1 1 1 0.050369755961371374 1 1 1 1 0.050164216841829909 1 1 1 1 1 1 1 0.049847087171065119 1 1 0.044746339388446618 1 0.040491953952166877 1 1 0.050353934830083213 1 1 0.043566080065082086 0.050024678880718786 1 1 1 1 1 1 1 1 1 1 1 1 1 1 1 0.034703440789929797 1 0.046954826038792002 1 1 1 0.050947728045818569 1 0.049919248228934995 1 1 1 1 1 1 1 1 1 1 1 1 0.050106473285964258 1 0.050237860574584563 1 1 1 1 1 1 1 1 0.050280037735591906 1 1 0.049438579225742088 1 1 1 0.049598502402188327 0.049122338622314722 1 1 1 1 1 1 1 1 1 1 1 1 1 1 1 1 1 1 1 1 1 0.049484577430187686 1 1 1 1 1 0.049999970119029381 1 0.050053291327712517 1 1 1 1 0.050115047024380945 1 1 0.049834197708492269 1 1 1 1 1 0.049231278553163046 1 1 1 1 0.051659814051600271 1 1 1 1 1 1 1 0.049338432996736355 1 1 1 0.050290183220521013 1 1 1 1 1 1 1 1 1 1 1 0.050241013403072049 1 1 1 1 1 1 1 1 0.049946811468124949 1 1 1 1 1 1 0.0499137386175382 1 1 1 1 1 1 0.05003009592930676 1 1 1 1 1 1 1 1 1 1 1 0.049107495256699003 1 1 1 0.049947393895217712 1 1 1 0.050284934338441931 1 0.049869284552693224 1 1 1 1 1 1 0.050063168779893502 1 1 1 1 1 1 1 1 1 1 1 1 1 1 1 0.050361165727392049 1 1 1 1 1 0.052162640391686166 1 1 1 1 1 1 1 1 0.050755084125606018 1 1 1 1 1 1 1 1 1 1 1 1 1 1 1 1 0.049802720227803424 1 1 1 1 0.05041791023151599 1 1 1 1 1 1 1 1 1 1 1 1 1 1 1 1 1 1 1 1 1 1 1 1 1 1 0.047128990383027466 1 1 1 0.049985593478677454 1 0.05029318171957587 1 1 1 1 0.048790780936170515 1 0.050150215210807106 1 1 1 1 1 0.04982085530688464 1 1 1 1 1 1 1 1 1 0.046552673677586566 1 1 1 1 1 1 1 1 1 1 1 1 1 1 1 1 1 1 1 1 1 1 1 1 0.04965961589457888 0.049758083760017238 1 1 1 1 1 0.049699326354101639 1 1 1 0.049035533415979535 1 1 1 0.049417267623665467 1 1 0.051136596659398591 1 0.049668285295431214 1 1 1 1 0.050183132640099548 1 1 1 1 0.050617234667092247 0.050107423956591332 1 1 1 1 1 1 1 1 1 1 1 1 0.0496490286718183 1 1 1 1 0.050029152463721305 1 1 1 1 1 0.050037260510533192 1 1 0.049987460074079823 1 1 1 1 1 1 1 1 1 1 1 1 1 1 1 1 0.050071090950155182 1 1 0.050153096692197557 1 1 1 0.050270835884176648 1 1 1 1 1 1 1 1 1 1 1 0.050117739191979087 1 1 1 1 1 1 1 1 1 1 1 1 1 1 1 1 0.050171654690501999 1 1 0.05326529343112861 1 0.054364502335265553 1 1 0.053018617347331827 1 0.050530784188384865 1 0.053904411132689595 1 1 1 1 1 1 1 1 1 1 1 1 1 0.053499038277445891 1 0.053040976405870174 0.049309993550795204 1 1 0.05430308853047526 0.050054653140364246 1 1 0.049996668723284267 0.047889341396360474 1 1 1 0.054917517211775388 1 0.045337654605094833 1 1 0.053952219535513428 1 1 1 1 0.061979453359855753 0.058722924672655233 1 0.055256792389823547 1 1 0.047921786455709034 0.04999820698585615 1 1 0.047525870340196612 1 1 1 0.045098124010890223 1 1 1 0.052659547823001238 0.051327863963084551 0.045528399199184902 1 1 0.047039706542902807 1 0.046228517536032347 0.049998518553954603 1 1 1 1 1 1 1 1 1 1 1 0.049702459959894363 0.050088790144569698 1 0.043807688468994188 1 0.056649608604577746 1 0.047301351775538743 1 1 1 0.049859244456415028 1 1 1 1 1 0.050056873163991406 1 1 1 1 1 1 1 1 1 1 1 1 1 1 1 1 1 1 1 1 1 1 1 1 0.050733163113050816 1 1 1 1 1 1 1 1 1 1 1 1 1 1 1 1 1 1 0.046962922891110849 1 1 1 1 1 1 1 1 1 1 1 0.060853632020368809 1 1 1 1 1 0.045525974653144383 1 1 1 1 1 1 1 1 1 1 1 1 1 1 0.051135064436002083 1 1 1 1 1 1 1 1 1 1 1 1 1 1 0.046826665621484971 1 0.055217299513134754 1 1 1 1 0.053271636731778871 1 1 1 1 1 1 1 1 1 1 1 1 0.042766138082391214 1 0.050076531261794045 1 1 1 1 0.050010737929866794 1 1 1 1 1 1 1 0.053940193809025982 1 1 1 1 1 1 1 0.05000394497976459 1 1 1 0.042418041728234726 1 0.049996360342998536 1 1 1 1 1 1 1 1 1 0.045753311359677647 1 1 1 1 1 1 1 1 1 1 1 1 1 1 1 1 1 1 1 1 1 1 1 1 1 1 1 1 1 1 1 1 1 1 1 1 1 1 1 1 1 1 1 0.049270243768261585 1 1 0.050205676885752545 1 1 1 1 1 1 1 1 1 1 0.049765532131828639 1 1 1 1 1 0.050777508548250541 1 1 0.05002047566064597 1 1 1 1 1 1 0.043894260985064749 1 1 1 1 0.050031187707362493 1 1 0.045333650505242538 1 0.047837828391807433 1 1 1 1 1 1 1 1 1 1 1 0.048762459622138932 1 0.045565995342059046 1 1 1 1 0.049596038881239785 1 1 1 1 1 1 1 1 1 1 1 1 1 1 1 1 1 1 1 1 1 0.052071512839764328 1 1 1 1 0.050679334907224552 1 1 1 1 1 1 1 0.048236518858266242 1 1 1 1 1 0.053860137693422919 1 1 1 0.046738925833624489 1 1 1 0.052629561240340295 1 1 0.05083576716353861 1 1 1 0.046134081388575172 1 1 0.04858030418004599 1 1 1 1 1 1 1 1 1 1 1 1 1 1 1 1 1 1 1 1 1 1 1 1 1 1 1 1 1 1 1 0.050563251283487369 1 1 1 1 1 1 1 1 1 1 1 0.049566919295261497 1 1 1 1 1 1 1 1 1 1 1 1 1 1 1 0.048704197820635023 0.048971291569255886 1 1 1 0.051658438689659331 1 1 1 1 0.049690317846307917 1 1 0.051575416479841291 1 1 1 1 1 1 1 1 1 1 1 1 1 0.051893462365980032 0.050729570604901367 1 1 1 1 1 1 1 1 1 1 1 0.05530875905848226 1 1 0.052282977781565189 1 1 1 1 1 1 1 1 1 1 1 1 1 1 1 1 1 1 1 0.053910601856546607 1 1 1 0.050021872639090949 1 1 1 1 1 0.04905891070227051 1 1 1 1 1 1 1 1 1 1 1 1 1 1 1 1 1 1 1 1 0.05133994108101269 1 1 0.050683392266589411 1 1 1 1 1 1 1 1 1 1 1 1 1 1 1 1 1 1 1 0.051518774016369534 1 1 1 1 1 1 1 1 1 1 1 1 1 1 1 1 1 1 1 1 1 1 1 1 1 1 1 1 1 1 1 1 0.049894098192118416 1 1 1 1 1 1 0.047046799304797084 1 1 1 1 1 0.04818577093681066 1 1 1 1 0.049310280396215045 1 1 1 1 1 1 1 1 1 1 1 1 1 1 1 1 1 1 1 1 1 1 0.049842303421250921 1 1 1 1 1 1 1 0.049963679576945287 1 1 0.048895877273632218 1 1 0.049882668872020135 1 1 1 1 1 1 0.049637262939782961 1 1 1 1 1 1 1 1 1 1 0.044103161333127028 1 0.05524651620168252 1 1 1 1 1 1 1 1 0.049961553274561553 1 1 0.043898195481290064 1 1 1 0.053519546877611346 1 1 1 0.052353166148982971 1 1 1 0.050000054526529655 0.04996703991875831 1 1 0.049070273996235772 1 1 0.047920468472690027 1 1 0.049991958703110725 1 1 1 1 1 1 1 1 1 0.04999196823828523 1 1 1 0.046778718250028793 1 1 1 0.045643896810772716 1 1 1 0.049989767375509565 1 0.049970597720431276 1 1 0.051630430415844503 1 1 1 1 1 1 1 1 0.046096484591993656 1 1 0.04927798531761006 1 1 1 1 1 1 1 1 1 1 1 1 1 0.046700438677753205 1 0.049990715223565914 1 1 1 0.050516731023962494 0.051912556657300615 1 0.04833088573466509 1 1 1 1 0.049999498783524443 1 0.050386023513681516 1 1 1 1 1 1 1 1 1 0.050076516402492902 1 1 1 1 1 1 1 1 1 1 1 1 1 1 1 1 1 1 1 1 1 1 1 1 1 1 1 1 0.049725845118712947 1 1 1 1 1 1 0.050179392447558299 1 1 1 1 1 1 0.050142984470881183 1 1 1 1 1 1 0.050054998687542734 1 1 1 0.050048331377142194 1 1 1 0.049926342470189261 1 1 0.043122686681694652 1 1 1 1 1 1 0.052703716447901713 1 1 1 0.043278633461652317 0.050005871392845735 1 1 1 1 1 1 1 1 1 1 1 1 1 1 1 1 1 0.050030744646449347 1 1 1 1 1 1 1 0.049973141018019675 1 1 1 1 1 0.047668757976260273 1 1 1 1 1 0.050001977982927395 1 1 0.050258605880705465 1 1 1 1 0.050055410073776396 1 1 1 1 1 1 0.052890763554434145 1 0.042987591977521236 1 0.05309822785025603 0.047539541570694017 1 0.050067824745441303 1 1 1 0.050032173047396281 1 1 1 1 1 0.050066239844971459 1 1 1 0.05001373512445894 1 1 1 1 0.050047285693826001 0.049551190156359767 0.050841567647707003 1 1 1 1 0.050041643345677733 0.047807095385280288 1 0.048173274029921734 1 1 1 1 1 1 0.049999784278397671 1 0.05002250199074354 1 1 0.049822695700498923 1 1 1 0.050179343271279715 1 1 0.048587089513157024 1 1 1 1 1 1 1 1 1 1 1 1 0.049896158858267592 1 1 1 1 0.04878690914826532 1 1 1 1 0.047736277636219362 1 1 1 1 1 1 1 1 1 0.049680935116729136 0.050839267772131755 0.051824401948311886 1 1 1 0.050002020154309164 0.0500224377059824 1 1 0.0494395416840816 1 0.050238467009888224 1 1 1 1 1 1 1 0.046861278289546157 1 1 1 1 1 1 1 1 1 1 1 1 1 1 1 1 0.049924026724984527 1 1 1 1 1 1 1 1 1 0.049766636877983758 1 1 0.048075895587931614 1 0.048135668975468497 1 0.049269317646135014 1 1 0.046228316250377169 1 1 1 0.049999972258166242 0.052553817297751354 1 1 0.050156864126619238 1 1 1 0.046492091006336014 1 1 1 1 0.050059705413581755 1 1 1 1 1 1 1 1 1 1 1 0.047904141078766727 0.049998288963290005 1 1 1 1 1 1 1 1 1 1 1 1 1 1 1 1 1 1 1 1 1 1 1 1 1 1 1 1 1 1 1 1 0.050005345512861628 1 1 1 1 1 1 1 1 1 1 1 1 1 1 1 1 1 1 1 0.051554944440068834 1 1 1 1 1 1 0.049991831301568507 0.048119368415118421 1 1 0.048729167686450164 0.048963592671125281 1 1 1 0.048997015153307844 1 1 1 1 1 1 1 1 1 1 1 1 1 1 1 1 1 1 1 1 1 1 1 0.051611212547057576 1 0.045736179333879023 1 0.050540304340580842 1 1 1 1 1 1 0.049985129322897025 1 0.050908039448905373 0.050235176226104732 1 1 0.06034186233281244 1 1 1 1 1 1 0.0499470342154004 0.058699411694400058 1 1 0.053335604434676921 0.04742868714186857 1 1 0.049069404434937569 0.049983749311242477 1 1 1 1 1 1 1 1 0.049993714150454269 1 1 1 1 1 0.051617254729915824 1 1 0.058871315718554508 1 1 1 0.049973627026502633 1 1 1 1 1 1 1 1 1 1 1 1 1 1 1 1 1 1 1 1 1 1 1 1 1 1 1 1 1 1 1 1 1 1 0.050312834949251449 1 1 0.04720013551409806 1 0.044728213603683571 0.050920691648150461 1 1 1 1 1 1 1 1 1 0.043703887160809876 1 1 1 1 1 0.042823327465457903 1 1 1 1 1 1 1 0.049370978891623597 1 1 1 1 1 1 1 1 0.048135927426541082 1 1 1 1 1 0.046975242995679588 1 1 1 1 1 1 1 1 1 1 1 1 1 1 1 1 1 1 1 1 1 1 1 1 1 1 1 1 1 1 0.049735188128752141 0.049829649784061354 1 1 1 1 1 1 1 0.050161191101433106 1 1 1 0.049137608747423893 1 0.049527688991502755 1 1 1 1 1 1 1 1 1 1 1 1 1 1 1 1 1 1 1 1 1 0.050052867826274293 1 1 1 1 1 1 0.047326101870374275 1 1 1 1 1 1 1 0.05003038953280807 1 1 0.050020188546437576 1 1 1 1 1 1 0.045812820852100186 1 1 1 0.051157073779686341 1 1 0.048082402018797946 0.049609495610639875 1 1 1 1 1 1 1 1 1 1 1 1 1 1 1 1 1 1 1 1 1 1 1 1 1 1 1 1 0.050091406664219865 1 1 1 1 1 1 1 1 1 1 1 1 1 1 1 1 1 1 1 0.049603950487985465 1 1 1 0.048898958344651675 0.05001882815578014 1 1 1 1 1 0.050012488486719672 1 1 1 0.049945554377824941 1 1 1 1 1 0.049836244863902868 1 1 1 1 1 1 1 1 1 1 1 1 1 1 1 1 1 1 1 1 1 0.050303216156187713 1 1 1 1 1 1 0.051243678315544945 1 1 1 1 1 1 1 1 1 1 1 1 0.049684831856620655 1 1 1 1 0.05128002797450372 1 0.049686053529818745 1 1 1 1 1 1 1 1 1 1 1 1 1 0.052890096589008923 1 1 1 1 1 0.054549335837968907 1 1 1 1 1 1 0.051277007916231063 1 1 1 1 1 1 1 1 1 1 1 1 0.050371548356560672 1 1 0.051353665891381149 1 1 0.049052642935616196 1 1 0.049697738796420976 1 1 1 1 1 1 1 1 1 1 0.052091990915866263 1 1 1 1 1 1 1 1 0.050001068006993311 1 1 1 0.050022390005979384 1 1 1 0.052018444970338348 1 1 0.053111936477035451 1 1 1 0.048676701668116766 1 1 1 1 1 0.052838001126060366 1 0.050000206039329254 1 1 1 1 0.04997147151240254 0.053058895390906302 1 1 1 0.0600923357867056 1 1 1 1 0.050061120982183148 1 1 1 1 1 1 1 1 1 1 1 1 1 1 1 0.050099065117360217 1 1 0.051808939920112575 0.047730073013934116 1 1 1 1 0.047887698676382734 1 1 1 1 1 1 0.050045675030003837 1 1 1 1 1 1 0.050014554659801293 1 1 1 1 1 1 1 1 0.04943837066471217 1 1 1 1 1 1 1 1 1 1 0.050070352182565267 1 1 0.048711984483850113 1 1 0.049266482318711641 1 1 1 1 1 0.05471821460508576 0.049996848196983051 1 1 0.049990415377297481 0.050148775945025745 1 0.050625145758038961 1 0.048340821093254244 1 0.048075252810021937 0.051287693127383904 1 1 0.05205099156128596 1 0.049707803585165827 1 0.049270544008196838 1 0.050052735364312831 1 0.049816908103262426 1 1 0.050004762686782514 1 0.05281463446845501 1 0.049129838457320399 1 1 1 1 1 1 0.050664852351636869 1 1 1 0.050006004208260908 1 1 1 1 1 1 1 1 1 0.050078103659872308 1 1 0.049899641863666924 1 0.05000138080955191 1 0.050355381448059205 1 1 1 0.068869881692975171 0.050050425564126422 1 1 1 1 1 1 1 1 1 1 1 0.050104045076077006 1 1 1 1 1 0.050266228626651283 1 1 1 1 1 1 1 1 1 1 1 1 1 1 1 1 1 0.049945141893870684 1 1 1 1 1 1 0.049039329965351403 1 1 1 0.049360124628781185 1 1 0.050167422943539944 1 1 1 0.047760704833861425 1 0.045949547798684431 0.050532353308800584 1 1 1 1 1 1 1 1 1 0.049004642104580526 1 1 1 1 1 1 1 0.049991601246343623 1 0.049642508079223227 1 0.049878489651076913 1 1 1 1 1 1 1 1 1 1 1 1 1 1 1 1 1 1 1 1 1 1 1 1 1 1 1 1 1 1 1 1 1 1 1 1 1 0.055873574385490565 1 1 0.055697403826913051 0.045657312441881148 1 1 1 1 0.045694473081239251 1 1 1 1 1 0.047235132959821277 1 1 0.050012752631711496 0.058794688766187528 1 1 1 1 1 1 0.053662384760239226 1 0.050004068951013524 1 1 0.048434767390018077 0.050331521757761274 1 0.05097324896316726 1 1 1 0.050705792753586311 1 1 1 1 0.051058151740301191 1 1 1 0.048169296997850011 1 1 0.053920052101100083 0.049958606394174064 1 1 1 0.044061506518431312 1 1 1 1 0.050072969783747999 1 1 0.048885826631552956 1 1 1 0.051052107367829107 1 1 0.049100178661939171 1 1 1 0.053885617909056972 1 0.04786940511876487 1 1 0.047236746528508594 1 1 0.047885402316466721 0.050001302866417074 1 1 0.056067811969406106 1 0.050029846824739349 0.045822828381916716 1 1 1 1 0.053554451642431625 1 1 1 1 0.054888910607740822 1 1 1 1 1 1 1 1 1 1 1 1 0.042280825986680752 1 1 1 1 0.050001451224784013 1 0.053621068581935605 1 1 1 1 1 0.047400777020268452 0.049996465897304707 0.050040010137212342 1 1 1 1 1 1 1 1 0.046318694779611758 1 1 1 1 1 1 0.048102678601547676 1 1 1 1 0.04648553217089009 1 1 1 1 1 1 1 1 1 1 1 1 1 1 1 1 1 1 0.048539933368145924 1 0.056195626875877917 1 1 0.053082809287610694 0.053198360846782082 1 0.047703803974534095 1 1 0.050301583344637191 1 0.049631057105572772 1 0.048493128313157788 1 0.049529065514675695 1 1 1 1 0.049824450160141906 1 1 1 0.049072184102863334 1 1 1 1 1 1 1 1 1 1 1 1 1 1 1 1 1 1 1 1 1 1 1 1 1 0.049895742878271296 1 1 1 1 1 0.038176653395745073 1 1 1 1 1 1 1 1 1 1 1 0.049791674961566175 1 1 1 1 1 0.049900832109956432 1 1 0.050151822122100745 0.039197463763243082 1 1 1 0.046643443580913671 1 1 0.051559744789336254 0.04613045220588495 1 0.040747140328513759 1 1 1 1 1 1 1 1 1 1 1 1 1 1 1 1 0.049670035288266634 1 1 1 1 0.050340861524062717 1 1 1 1 1 1 1 1 0.051639600158318852 0.050772834302064168 1 1 0.049982410779490304 1 1 1 1 1 1 1 1 1 0.049915621294753888 0.051022304305397219 1 1 0.049998393351157591 1 1 1 0.050141954692142415 1 1 1 1 1 1 1 1 1 1 1 1 1 1 1 1 1 1 1 1 1 1 1 1 1 1 0.049890523892353822 1 1 1 1 1 1 1 1 1 1 1 1 1 1 1 1 1 1 1 1 0.054750895207874309 1 1 1 0.04904673309458242 0.049975201689642285 1 1 1 0.054559448539588204 1 1 0.050036374416948651 1 1 1 1 1 0.050389509005581368 1 0.049511407839383278 1 1 1 1 1 1 1 1 0.050149274921033063 1 1 1 0.052102222599143266 1 1 0.050531970683791727 1 0.049992177057416043 1 1 1 0.04828329313055886 1 1 1 0.044911212212829815 1 1 1 1 1 1 1 1 1 1 1 1 1 1 1 1 1 0.041843339369406159 1 1 1 1 1 1 1 1 1 0.049631515601745627 1 1 1 1 1 1 1 1 0.039147647909581668 1 1 1 1 1 1 1 1 1 1 1 1 1 0.050028352908566227 1 1 1 0.050055537852908602 1 1 1 1 1 1 1 1 1 1 1 1 1 1 1 1 1 1 1 0.048988692074400972 1 1 1 0.05169458979825118 1 0.050032253637586885 1 1 1 0.056000439153514416 1 1 1 0.050027040553462798 0.050818550542742133 1 1 1 1 1 1 1 1 1 1 1 1 1 1 1 1 1 1 1 1 1 1 0.049939430492409086 1 1 1 1 0.049843662433136746 1 1 1 1 0.049904231940727656 1 1 1 1 1 1 1 0.050747576824519199 1 1 1 1 0.050473232239371141 1 1 1 1 1 1 0.050171897315619753 1 1 1 1 1 1 0.050260147260967808 1 1 1 0.049995299590443333 1 1 1 1 1 1 1 1 1 0.049683429775653494 1 1 1 1 1 1 0.049113015771714438 1 1 1 1 1 1 1 1 1 1 1 0.049997264832242136 1 1 0.050586916384519252 1 1 1 1 1 0.049849189072206514 1 1 0.048411029637945656 1 1 1 1 1 1 1 0.056731582457367431 0.049732771414431998 1 1 1 1 0.050178531934729015 1 1 1 1 1 1 0.050002102474831736 1 1 1 1 1 1 1 1 1 1 0.050392221641112171 1 1 1 1 1 1 1 1 1 1 1 1 0.049688971011596611 1 0.049917970554310132 1 1 1 0.045873813836582636 1 1 0.060593873261791803 1 1 1 1 0.047734309635915628 1 1 1 1 1 0.060792483287063069 1 1 1 1 1 1 1 1 0.060721995284965302 1 1 1 1 0.049402564157135821 1 1 1 1 1 1 1 0.04978617803643054 1 1 1 1 1 1 1 1 1 1 0.04943609463517086 1 1 1 0.050156344924658751 1 0.050479061190225279 1 1 1 1 1 1 0.049961387291534501 1 0.051581055434506196 1 0.050054715607803002 1 1 1 1 0.049447520227837119 1 1 1 1 1 1 1 1 1 1 1 1 1 1 0.050100568644613791 1 0.05385330831694151 1 1 1 1 1 1 1 0.049829296220694645 1 1 1 1 1 1 1 1 1 1 1 1 1 0.054709214207707427 1 1 1 1 0.055735126422436373 1 1 1 1 1 1 1 1 1 1 1 1 1 1 1 1 1 1 1 1 1 1 1 1 0.050112090153035978 1 1 1 1 0.054378078308354387 1 1 1 0.050065807090857076 1 1 0.050000727758064918 1 1 0.05009271325205876 1 1 1 1 1 1 1 1 1 1 1 1 1 1 1 0.050031943822553326 1 1 0.050007737315423989 1 1 1 1 1 1 1 0.045757313274539607 1 1 1 1 1 0.044212779070276771 1 1 1 0.061922636057436795 1 1 1 0.06359001336460765 1 1 1 1 1 1 1 0.051502925858815461 1 1 1 0.05087273989292139 1 0.049878037058964486 0.04799980928324659 1 1 1 1 1 0.049434196180908357 1 1 1 1 1 1 1 1 1 1 0.049453372589880168 1 1 1 1 1 1 1 1 1 1 1 1 1 1 1 1 1 1 1 1 1 1 1 1 1 1 1 1 1 1 1 1 1 1 1 1 1 0.049983392921614557 1 1 1 1 1 1 1 1 1 1 1 1 1 1 1 1 0.050154730999739189 1 1 1 1 1 1 1 1 1 0.049983415578921567 1 1 1 1 1 1 1 0.050062017747680432 1 1 1 1 1 1 1 1 1 1 1 1 1 1 1 1 1 1 1 1 1 0.049511695483346739 1 1 1 1 1 1 1 1 1 1 1 1 1 1 1 1 1 0.049655421388194169 1 1 1 1 1 1 1 1 1 1 1 1 1 1 1 1 1 1 1 1 1 1 1 1 1 1 1 1 1 1 1 1 1 1 1 1 1 1 1 1 1 1 1 1 1 1 0.050484381352198543 1 1 1 1 1 1 1 1 1 1 1 1 1 0.050972000921634786 1 0.049995291570894211 1 1 1 1 1 0.049950578605754539 1 1 1 1 1 0.049574934980801594 0.048526313563669286 1 1 1 1 1 1 1 1 1 1 1 1 1 1 1 1 1 0.049614075802007683 0.05073428745988718 1 1 1 1 1 1 0.050215104051961695 1 0.050766887670038591 1 1 1 1 1 1 1 1 1 0.050514741918914405 1 1 1 1 1 1 1 1 1 1 1 1 1 1 1 1 1 1 1 0.049761649285485356 1 1 1 1 1 0.05030727390101386 1 0.050612663343379875 1 1 1 1 1 1 1 0.050580647707041106 1 1 1 0.050305389442366018 1 1 1 0.05214356223366428 1 1 0.051787219981390444 1 1 1 0.047742731421719427 1 1 0.04841278143213245 1 0.053248034943939065 1 0.048944419750251017 1 1 0.050819338762177264 1 1 1 1 1 1 1 1 1 1 1 1 1 1 1 1 1 1 1 1 1 0.049931796136124987 1 0.054154427041745126 1 1 1 1 1 1 1 0.053679865537932255 1 1 1 1 1 1 1 1 1 1 1 1 1 1 1 1 1 1 1 0.04992709572656831 1 1 1 0.049852944219598461 1 1 1 1 1 1 1 1 1 1 0.049400678113198523 1 1 1 1 0.048904978617222192 1 1 0.049714801994265187 1 1 1 1 1 0.050418697179333657 1 1 1 1 0.050266827911842817 1 0.049399060543614745 1 1 0.054979309978947559 1 1 1 1 1 1 1 0.054877036319760771 1 1 0.050120569065867246 1 0.054256721769954497 1 1 1 1 1 1 1 1 1 1 1 1 1 1 1 1 1 1 0.049889695597564281 1 1 1 1 1 1 1 0.049604306964354583 1 1 1 1 0.051482365146912012 1 1 1 1 1 1 1 1 1 0.049861857774666715 1 1 1 1 0.049393996101587956 1 1 1 1 1 1 1 1 1 1 1 1 0.050153113196132401 1 1 1 1 1 1 1 1 1 0.053254819599959716 1 1 1 1 1 1 1 1 1 1 1 1 0.051617672958931791 1 1 0.050389331136240542 1 1 1 1 1 1 1 1 1 0.049801066342841004 0.066752941125632861 0.045847992623253689 1 1 1 0.050001608498900736 1 1 1 1 1 1 0.041098787517125646 1 1 1 0.048570476637274942 0.050043593411758451 1 1 1 1 1 1 1 1 1 1 1 1 0.054730954740684665 1 1 1 0.049962051314025889 0.03925278113251579 1 1 1 1 1 0.038059167467806652 1 1 1 1 0.038839433262514697 1 1 1 1 0.050079309335688035 1 1 1 1 1 0.062477233696062638 0.055570497739147524 0.047683030010902828 1 1 1 0.052051842008069865 0.052776844418847703 1 1 1 1 1 1 1 1 1 0.047478010592683029 0.049892094091926201 1 1 1 0.050205473181096888 0.049975600352370343 1 1 1 1 1 1 1 1 1 1 1 1 1 1 1 1 1 0.04687041372345746 1 0.046216204974803096 1 1 1 1 0.041607699322486168 1 1 1 1 1 1 1 0.042225721535038903 1 1 1 1 1 1 1 0.045469440985892701 1 1 0.055751051010492096 1 0.044842181280541848 0.0417677691130676 1 1 1 0.054353425871886712 0.049995559866436529 1 1 1 0.049987903424475136 0.050276411159137342 1 1 1 1 1 1 1 1 1 1 0.049905375190332779 1 1 1 1 1 1 1 0.05184861528051294 1 1 1 1 0.05480600926959333 1 1 1 1 1 1 0.040996015598692585 1 1 1 1 0.050116661218166499 1 0.043218716607035225 1 1 1 1 1 1 1 1 1 1 1 1 1 1 0.039880047048858315 1 1 1 1 1 1 1 0.039695255136921466 1 1 1 1 0.049982460481845133 1 1 1 0.052041159333471011 1 1 1 1 1 1 1 1 1 1 1 1 1 1 1 1 1 1 1 1 1 1 0.051386158225988639 1 0.05051090397852482 1 1 0.050320109737563117 1 1 1 0.050764453620474298 1 1 0.050936287160583953 1 1 1 1 1 1 1 1 1 1 1 1 1 1 1 1 1 1 1 1 0.051256791593142448 0.049184035008131136 0.049464910689751521 1 1 1 1 1 1 1 1 1 1 1 1 1 0.052446351259843323 1 1 1 0.048636431940095176 1 1 0.055509443067571558 1 1 1 1 0.053329627055838699 1 1 0.052757065114624122 0.049673163997671507 1 1 1 1 0.050560478875836284 1 1 0.049176572599312886 1 0.049737295023607651 1 1 1 1 1 1 1 1 1 1 1 1 0.048583523607575833 1 1 1 1 1 1 1 0.051134773671990312 1 0.049894015117554757 1 1 1 1 0.051074215896953545 1 1 1 1 1 1 1 1 1 1 1 1 1 1 1 1 1 1 1 1 1 1 1 0.051803845139861436 1 1 1 0.049839350494227989 1 0.045843014590386061 1 1 1 0.057241903207487885 1 1 1 1 1 0.04997279276748736 1 1 0.046183032172414359 1 1 1 1 1 1 1 1 0.050378057502847955 1 1 1 1 1 0.050697896632391368 1 1 1 1 1 1 1 1 1 1 1 1 1 1 0.050760801591872164 1 1 1 1 0.050882213522501808 1 1 1 1 1 1 1 1 1 1 1 1 0.049800611710404105 1 1 1 1 0.050139437422727973 1 1 1 1 1 1 1 1 1 1 1 1 1 0.048770410165876819 1 1 0.049872040871488471 1 1 1 0.050256645572218303 1 1 1 1 1 1 1 1 1 1 1 1 1 0.049665613870577385 0.054708908576443296 1 0.050664429135416349 0.051727318846859896 1 1 1 0.049118441998644242 0.062860090526619783 1 0.051473950126233334 1 0.050154185887948392 1 0.055985718921676697 1 1 1 0.047068292611458118 1 0.050002718814174028 1 1 1 1 0.054513421651168181 1 1 1 1 1 1 0.047697535469942196 1 1 1 1 1 0.064009632497619762 1 1 0.05000534622147753 1 1 0.045154896855375451 1 1 0.050087826082608311 1 1 1 1 1 0.041652908443318329 1 0.044493494848104741 1 1 1 1 1 1 1 1 1 1 1 1 1 0.049580489800177187 1 1 0.049643075443394739 1 1 1 1 1 1 1 1 1 0.048535942726092018 1 1 1 1 1 1 1 1 1 0.037658155724755664 1 1 0.049524079394401413 1 0.037522465303926805 1 1 1 1 1 1 1 0.047335686498975599 1 1 1 1 1 1 1 0.038179712441964976 1 0.052618283881234351 1 1 0.050103256874758077 1 1 1 0.050015822041047243 1 1 1 1 0.049958708291538562 1 1 1 1 1 0.050019353304998855 1 1 1 1 1 1 1 1 1 1 1 1 1 1 1 1 1 1 1 1 1 0.050485806561476408 1 1 0.050522809186630033 1 1 1 0.049722764340264389 1 1 1 1 0.05017644004788159 1 1 1 1 1 1 1 1 1 1 1 1 1 1 1 1 1 1 1 1 1 1 1 0.051083263967292444 1 1 1 1 1 1 0.053027452658276686 1 1 1 1 1 1 1 1 1 1 1 1 1 0.049971357685010882 1 0.061099975868869144 1 1 0.048969741546374367 1 1 1 1 0.062748393474948705 0.051327306479065866 1 0.050477288087659472 1 0.054531857851488945 1 1 1 1 1 0.064871369338534657 1 1 0.068546915267266723 0.068325348906014757 1 1 1 1 1 0.045704987085387477 1 1 0.05000095798360079 1 1 1 1 1 1 1 1 0.059056641673837805 0.046569901622862862 1 1 1 0.05477495881499813 1 0.050000979297739716 1 1 1 1 1 0.051529277204800737 1 0.045939370616904757 1 1 1 1 1 0.050902984166577264 0.050093048898329572 1 1 1 1 0.050016191559644714 1 1 1 1 0.050286463852804351 1 1 1 1 1 1 1 1 1 1 1 1 1 1 1 1 1 0.050273293315206379 1 1 0.050084387388372953 1 1 1 0.050065893046136949 1 1 1 1 1 1 1 1 1 1 1 1 1 1 1 1 1 1 1 0.050656508885865523 1 1 1 1 1 1 1 1 1 1 1 1 1 1 0.051148809293853556 0.049641300126394575 1 1 1 0.050027987840136512 1 1 1 1 1 0.05045082381030036 1 1 1 1 1 1 1 1 1 1 1 0.050101484593342328 1 1 0.050035591547205382 1 1 1 1 1 1 1 1 1 1 0.052341262522211961 1 1 1 0.054495062144662244 1 0.051418395400506745 1 0.048646808296676634 1 1 1 0.050004299103825728 0.048323030262891753 1 0.053142633826369273 1 1 0.049647794219156612 1 1 0.048878392795948453 0.054765954053288074 1 1 1 0.05466037120689568 1 1 0.047105541181597668 1 0.054355102389819124 1 1 1 0.046225492244994622 1 1 0.047730621567216511 0.046604399988550656 1 0.046443012659842964 1 1 0.045023176255742675 1 0.049208298833468632 1 1 1 1 1 1 1 1 1 0.049767451307305748 1 1 1 1 1 0.050346376291407459 1 1 1 1 1 1 1 1 1 1 0.045047258823202915 1 1 1 1 0.046780939853343709 0.045068414327106163 1 1 0.057627404600222872 1 0.058826220118524918 1 1 1 1 1 0.058306634647207159 1 1 0.045099137661327907 1 0.049998887570206263 1 1 1 1 1 1 1 0.044999903284286435 1 1 1 1 1 1 1 1 1 0.056554894403838103 1 0.049977452196063338 1 0.050015223145453071 1 0.047669467410718952 1 1 1 1 0.050069937955580505 1 1 1 1 1 0.050221586788118125 0.044883612606492485 1 1 1 1 1 1 0.049631690701733185 1 1 1 1 1 0.054515300136023209 1 1 1 1 0.057290581194485699 1 1 0.053161205815622434 1 0.056487769282232057 1 1 1 0.047494286444833778 1 0.058719426493746563 1 1 0.058176154968943808 0.049998983841667018 0.057342068624652631 1 1 1 1 1 1 0.05000031720064093 0.043337489337200059 0.04887294178996756 1 1 1 1 0.04893860928842781 1 0.05128325848086876 1 0.046917536077120195 1 1 1 1 1 1 0.050295233639236887 1 1 1 1 1 1 1 1 1 1 1 1 1 1 1 1 1 1 1 1 1 1 1 1 1 1 1 1 1 1 1 1 1 1 1 1 1 1 1 1 1 1 1 1 1 1 1 1 1 0.052116795436284002 1 1 1 0.055739339533865298 0.049978962257106602 1 1 1 1 1 1 1 1 1 1 1 1 1 1 1 1 1 1 1 0.046502994287857147 1 1 1 1 1 1 1 0.050778121896628399 1 1 0.044881719445135151 1 1 0.049003802583484912 1 1 0.053233370067068284 1 0.047390096570664911 1 1 0.047185578165117315 1 1 1 0.050052810463826009 1 0.054014866902762665 1 0.047693613288779274 0.048137049111110795 1 1 1 0.052954117978862084 0.050041460833135265 1 1 0.047188320646582946 1 1 0.054006975513376798 1 1 1 1 1 1 1 1 1 1 1 1 0.053144714861151812 1 1 1 1 0.052491884081315707 1 1 1 1 0.042712170346059813 1 1 1 1 1 1 1 1 1 0.04895731795488481 1 0.05000430569874291 1 1 1 1 0.04758263597965217 1 1 1 0.047451893428401809 1 1 1 1 1 1 0.044003333915719672 1 1 0.050184511512184206 1 1 1 0.058495384613009405 1 1 1 1 1 1 1 0.046749223103387957 1 1 1 1 1 0.04822447228142239 1 1 1 1 1 1 1 1 1 1 1 1 1 1 1 0.044456713243072724 1 1 1 1 1 0.049133332063694579 1 1 0.052254812484719179 1 0.047694341684523987 1 1 1 1 0.049628160478523871 0.049816894039401052 1 1 0.05181419598244897 1 1 1 1 1 1 1 1 1 1 1 0.050263007401560318 1 0.050733987374919819 1 1 1 1 1 0.050228297869269058 1 1 1 0.049278284314044539 1 1 1 0.049902201118124184 1 1 1 1 1 1 1 1 1 1 1 1 1 0.05611777754387056 1 1 1 1 1 1 1 0.0474393878041229 1 0.049510332614071673 1 1 1 1 1 1 1 0.04994889025811447 0.039018323171299309 1 1 1 1 1 1 1 1 1 0.050364546993255044 1 1 1 1 1 1 0.044703819567777074 0.049991293988087368 0.049998424461805385 1 0.041955336718696647 1 1 1 1 1 1 0.043799940663462621 1 0.049699517595480552 1 0.050899446731445822 1 0.039207370243148437 1 1 1 1 1 1 0.038241205551364135 1 1 0.049913883010322985 1 1 1 1 0.050338622767650915 1 1 1 1 1 1 1 1 1 1 1 1 1 1 1 1 1 1 1 1 1 0.067810976852660881 1 0.049357956186291845 1 1 1 1 1 1 1 1 1 1 1 1 1 1 1 1 1 1 1 1 1 1 1 1 1 1 1 1 1 1 1 1 1 1 1 1 1 1 1 1 1 1 1 1 1 1 1 1 1 1 1 1 1 1 1 1 1 1 0.050101451380819499 1 1 1 1 1 1 1 1 1 1 1 1 1 1 1 1 1 1 1 1 1 1 1 0.050309389747580535 1 1 1 0.050572488264970419 1 0.04988852002726174 1 1 1 1 1 1 1 1 1 1 1 1 1 1 1 1 1 1 1 1 1 1 1 1 1 1 1 1 1 1 1 1 1 1 1 1 1 1 1 0.049542919547084202 1 0.050808504309471189 1 1 1 1 1 1 1 1 1 1 1 1 1 1 1 1 1 1 1 1 1 1 1 1 1 0.047198158159938552 1 1 1 1 1 1 1 1 1 1 1 1 1 1 1 1 1 1 1 1 1 1 1 1 1 1 1 1 1 1 1 1 1 1 1 1 1 1 1 1 1 1 1 1 1 1 1 1 1 1 1 1 1 1 1 1 1 1 1 1 1 1 1 1 1 1 1 1 1 0.03614006747642326 1 1 1 1 1 1 1 0.040556128719764085 1 1 0.04953160788384503 1 1 1 1 1 1 1 1 1 1 1 1 1 1 1 1 1 1 1 1 0.043244536252475839 1 1 1 1 1 1 1 1 1 1 1 1 1 1 1 1 1 1 1 1 1 1 1 1 1 1 1 1 1 1 1 1 0.049970271006820999 1 1 1 1 0.048482283619435865 1 0.050145596291928787 1 1 1 1 1 1 0.049978822561037764 1 1 0.049860182634297763 1 1 0.049948432836067508 0.049973106962893366 1 0.050022416705846839 1 1 1 0.04995389699811429 1 1 1 1 1 1 1 1 1 1 1 1 1 1 1 0.049389249431651884 1 1 1 1 1 1 1 1 0.049971478919970586 1 1 1 1 1 1 1 1 1 1 1 1 1 1 1 1 1 1 1 1 1 1 1 1 1 1 1 1 1 1 1 1 1 1 1 1 0.042594906870130726 1 1 1 1 1 1 1 0.051713318964763076 1 1 0.052335821709865428 1 0.040862341407103028 1 1 1 1 1 1 1 1 1 1 1 0.050001265654096232 0.050009694379904185 1 1 0.050884093343645471 1 1 0.050028554927950143 0.049860079970089968 1 1 1 1 0.049172935661880544 1 0.052296114326387505 1 1 0.048936204397734648 1 0.049821619156006532 0.051238586266197289 1 0.042592582983186467 1 0.050414222306262954 1 1 1 1 1 1 1 0.050081402443213005 1 0.049966789326388365 1 1 1 1 1 0.050008429219286256 1 1 1 0.043597414343221626 1 1 0.050795909498896362 1 0.049718779169927993 1 0.045093760358889484 0.049835683337535124 1 1 0.057509352394597014 1 1 1 1 1 1 0.046222531473906522 1 1 1 1 1 1 1 1 0.054022824225267142 0.050030122109569045 1 1 1 0.056192709925371051 1 1 1 1 0.049347070913861979 0.059073813977256015 1 0.05598098097334573 1 1 1 0.052161291689281457 1 1 1 1 1 1 1 1 1 1 1 1 1 1 1 1 0.051232275413766376 1 1 1 1 1 1 0.047577182111249866 1 0.046094623922672558 1 1 1 0.047639482587175416 0.044702592810587263 1 1 0.050029319751878187 1 0.049993360274648055 1 1 1 1 1 1 1 1 1 1 1 1 0.049991923527754667 0.050008292061689177 1 1 1 1 1 0.051692909674811577 1 1 1 1 1 1 1 0.052043090430685827 1 1 1 0.05000027034882723 1 0.044556805944329349 1 1 0.050038699068148604 1 1 1 1 1 1 1 1 1 0.05095221904677899 1 1 0.050389624907401023 1 1 1 1 1 1 1 1 1 1 1 0.047977570472077083 1 1 1 1 1 1 1 1 1 1 1 1 1 1 1 1 1 1 1 1 1 1 0.050200816869584365 1 1 1 1 1 1 1 1 1 1 1 0.050067785348377705 1 1 1 1 0.04866778439694585 1 1 1 1 1 1 1 1 1 1 1 0.049813145407747103 1 1 1 1 1 0.04914967555414216 1 0.049990390987976342 1 1 1 1 1 1 1 1 1 0.046070757319380422 1 1 0.043127097198249108 1 1 0.05223534459667107 1 1 1 1 0.050633724691894436 1 1 1 1 1 1 1 1 1 1 1 1 1 1 1 1 1 1 1 1 1 0.052501529670958912 1 1 0.045466454221063046 1 0.051765066641901183 1 1 1 1 1 1 1 1 1 0.046859398789850848 1 1 0.052058271432022379 0.04999444433756485 0.048566979731082718 1 1 1 0.050000611663462896 1 1 1 1 1 1 0.051586202056693911 0.04999942493868316 1 0.054674479187713232 1 1 0.055492766824389472 1 1 0.046354478289934678 1 1 1 1 0.046596728294688694 1 1 1 1 0.046059798292448627 1 1 1 1 1 1 1 1 1 1 1 0.04909233902878516 1 1 0.05067313416432017 1 0.046277867026101469 0.050094063950911455 1 1 0.050005613656503016 0.048215319540929627 0.050672404798513038 1 1 1 1 1 1 1 1 1 1 0.049584335021169101 1 1 1 1 1 1 1 1 1 0.049105142481405004 1 1 1 1 1 0.049860511366425289 1 1 1 1 1 1 1 1 1 1 0.048618928271305574 1 1 1 1 1 1 1 1 1 1 1 1 1 1 1 1 1 1 1 1 1 1 1 1 0.042744235046679624 0.05165174510156427 1 1 1 1 1 1 1 1 0.047393563039042928 1 1 1 1 1 1 1 1 1 1 1 1 1 1 1 1 0.049252603706109531 1 1 1 1 0.044006482455772128 1 1 1 0.055607830722603786 0.049990553419877057 1 1 1 1 1 1 0.049989664201266465 1 0.051792488468381241 1 1 1 0.048884990508375664 1 1 1 1 1 1 1 1 0.049587943624226263 1 0.043687375387213831 0.054282620916757326 1 1 1 1 1 1 1 1 1 1 1 1 0.051249683762760935 1 1 0.051378053182318702 1 0.050439129825086068 1 1 1 1 1 1 1 1 1 1 1 1 1 1 1 1 1 1 1 1 1 1 1 0.050811410970748386 1 1 1 1 1 0.041571475328165491 1 1 1 1 1 1 1 1 1 1 0.049702936240884524 1 1 1 0.049896147914733582 1 1 1 1 1 1 1 1 1 1 1 0.050063861744967242 0.043088777408510227 1 1 1 1 1 0.045182440084780805 1 1 1 0.046884346878716697 1 1 1 1 1 1 1 1 1 1 0.049930252860825343 1 1 1 1 1 1 1 0.050032934565287672 0.046555696118087825 1 0.05313446412075043 1 1 1 1 0.049087231913978638 1 1 1 1 1 0.047415283448029227 1 1 1 1 1 1 1 1 1 1 0.050008003645463213 1 1 1 1 1 1 1 1 1 1 0.047836420395725499 1 1 1 1 1 1 1 0.049335220354233253 1 1 1 1 1 1 1 1 1 1 1 1 1 1 1 1 1 1 1 1 0.050218444182197314 1 1 1 0.050677800597722505 1 1 1 1 1 1 1 1 1 1 1 1 1 0.051417300408052757 1 0.053247513495573329 0.04802537880763124 1 0.051353708210596469 0.045028245250130952 1 1 1 1 1 0.0500589347516531 1 1 1 1 1 1 1 0.048536987204521806 1 1 0.045067424291880639 1 1 0.05349423118587518 1 1 0.052484234640997614 1 1 0.048092963632257846 0.048818585532117903 0.050928369902389803 0.050333601674204892 1 1 0.049463531523194826 0.050039942072452603 1 1 0.053157667262383843 1 1 0.051283077100370465 1 1 1 1 0.047987532808497733 0.045000242983779908 0.049056973581808896 0.04452257037228817 1 1 1 0.050287958410086445 1 0.049961845353436535 1 0.05334306992766541 1 0.049129493562013599 0.052388774109463188 1 1 1 1 1 1 1 0.049464804364986945 1 1 0.040207448763923938 1 0.05013529461882945 1 1 0.048160204742644951 0.051193792343305317 1 1 1 1 1 1 1 1 1 1 1 1 1 1 1 1 1 0.049891254513052874 1 1 1 1 1 1 1 1 1 1 1 1 1 1 1 1 1 0.050201836351308968 1 1 1 1 1 1 1 1 1 1 1 1 1 1 0.056414690257132138 0.050806327366131249 1 1 1 1 0.050001778574093977 1 0.056580821109354432 1 1 1 0.048399523211447561 0.050919059434162674 1 0.04982361410371744 1 1 1 1 1 1 1 1 1 1 1 1 1 1 1 1 1 1 1 0.057201185880723253 1 0.050023351294882237 1 1 1 1 0.049890666833183848 1 1 1 1 1 1 1 1 1 1 1 1 1 1 1 1 1 1 1 1 0.049924296782352037 1 1 1 1 1 1 1 1 1 1 1 1 1 1 0.050245804635287258 1 1 1 1 1 1 1 1 1 1 1 1 1 1 1 1 1 1 1 1 1 1 1 1 1 1 1 1 1 1 1 1 1 1 1 1 1 1 1 1 1 1 1 1 1 1 1 1 1 1 1 1 1 1 1 1 1 1 1 1 1 1 0.046678242140103493 1 1 1 0.047133559453417781 1 1 0.048468698012365391 1 1 1 1 1 1 1 1 1 1 1 0.0486648614410524 1 1 1 1 0.050437409803105723 1 1 1 1 1 1 1 1 1 1 1 1 1 1 1 1 1 1 1 1 1 1 1 1 1 1 1 1 1 0.050080726815465715 1 1 1 1 0.050080800606550957 1 1 1 1 1 1 1 1 1 1 0.049773461104456879 1 1 0.049522447326045084 1 1 1 1 1 1 1 1 1 1 1 1 0.050333772569635546 1 1 1 1 1 1 1 1 0.049663904107602991 1 1 1 1 1 1 1 1 1 1 0.047255010248022873 1 0.051079335271741758 1 1 1 0.044824817266546156 1 1 1 0.050998725995659008 1 0.041106125120350862 1 0.045958841164950345 0.050081311373235265 1 1 1 1 1 0.050078239598479284 1 1 1 1 1 1 1 1 1 1 1 1 1 1 1 1 1 1 1 1 1 1 1 0.050088881260201709 1 1 0.051394686587872565 1 1 1 0.050387282653095285 1 0.050029119125352683 1 1 1 1 1 1 1 1 1 1 1 1 0.050092724958553922 1 1 1 1 1 1 1 1 1 1 1 1 1 1 1 1 1 1 1 0.050167395015387313 1 1 1 1 1 1 1 1 1 1 1 1 1 1 1 1 1 1 1 1 1 1 1 1 1 1 1 0.050097849036943504 1 1 1 1 1 1 1 1 1 1 1 1 1 1 1 1 1 1 0.050143947005986483 1 1 1 0.050222305788232779 1 1 1 0.049917590004556069 0.050034005930249224 1 1 1 1 1 0.049909146620101458 1 1 1 1 1 1 1 0.049687246637335349 0.049781152798394616 1 1 1 0.050095291122204594 1 0.050128485473696319 1 1 1 1 1 1 0.056079650780357343 0.052201799427844246 1 1 0.052097969072958238 0.051054423335038297 1 1 1 1 1 1 1 1 1 1 0.049988866711827562 1 1 1 1 1 1 0.050201355002524914 1 1 1 1 1 1 1 1 1 1 1 1 1 1 1 1 1 0.049966034891166689 1 1 1 1 0.047786427134682591 1 1 0.049894229686301167 1 1 1 1 1 1 1 1 1 1 1 0.050965141152071562 1 0.052392246468336477 1 0.053017820855491858 1 1 1 1 1 1 1 1 1 1 1 1 1 1 1 1 1 1 1 0.049681578619726281 1 1 0.0490893618512055 1 1 1 0.050009564418535296 1 1 0.050646398489306854 1 1 1 1 0.048140224170110116 1 1 1 1 1 1 1 0.047925434939874278 1 1 1 1 1 1 1 1 1 1 1 1 1 1 1 1 1 1 1 1 1 1 1 1 1 1 1 1 1 0.045875794197162444 1 1 1 1 1 1 1 1 1 1 1 1 1 1 1 1 1 1 1 1 1 1 1 1 1 1 1 1 1 1 1 1 1 1 1 1 1 0.050956578111409002 0.052518991019081106 0.047594732522088339 1 1 0.055360103184995901 1 1 1 0.05019906864104718 1 0.05002187377863232 1 1 1 1 1 0.050041679562689276 1 1 1 1 1 1 1 0.056685726393782068 1 1 1 1 1 1 1 1 1 1 1 1 1 1 0.051242612861507122 1 1 1 0.050018035152559058 1 0.057894726855950117 1 1 1 1 1 1 1 1 0.049373366671493592 1 1 1 1 1 1 1 0.049998959955403384 1 0.050040293473772202 1 0.052912517225066721 1 1 1 1 1 1 1 1 0.048730148829360803 1 1 0.049424283472387351 0.050422290901896274 0.048335942260912576 1 0.057054503467005704 1 0.04624373342964791 1 1 1 1 1 1 1 1 1 1 1 1 1 1 1 1 1 1 1 1 1 0.044259675150167786 1 1 0.051702227542942347 0.04729505202314474 1 1 1 0.049971391247502342 1 1 1 1 1 1 1 0.050424506897958438 1 0.050149256343967302 1 1 1 1 0.049993632759467124 1 1 0.051008602222216648 1 1 1 1 1 1 1 0.054392664996978382 1 1 0.054543719502090734 1 1 1 0.05450781750440449 1 1 1 1 1 1 1 1 1 0.05044941386924217 1 1 1 1 1 1 0.051027455214220391 1 1 0.056336016103540311 1 1 1 1 0.059562469674920945 1 1 1 1 1 1 0.049155582204983235 0.048802800478173897 0.05217950040379913 1 1 1 0.049966418577590155 1 0.049995154834516678 1 0.050946578132908607 1 1 1 1 1 1 0.0527265564657768 1 1 1 0.054034360026606859 1 1 1 0.050669207506412732 1 1 1 1 1 1 1 1 1 1 1 1 0.049928689848956008 1 1 1 0.050054726698505428 1 1 1 1 1 0.049787376097278221 0.053360702702066651 1 1 0.050093550261585157 1 0.053357315066512055 0.051932762544655071 0.047500084378931613 1 1 1 0.049946908148664794 1 1 1 1 1 0.056935423593148599 1 1 1 1 1 1 1 1 1 1 1 1 0.050023373120946263 1 1 1 1 1 1 0.047132337225575568 1 1 0.047440972358837159 1 1 0.050034188378822217 1 1 1 1 1 0.049885659366531193 1 1 0.050742110232660606 1 0.049959418055937024 1 0.050042966233726428 1 1 1 1 1 1 0.050066339354672688 1 1 1 1 0.049865179832749323 1 1 1 1 1 1 1 1 1 1 0.049594234699776057 1 1 1 1 1 0.049606539411135783 1 1 1 1 1 1 1 1 1 1 1 1 1 1 1 0.049705465570987012 1 1 1 1 1 0.049075390390200063 1 0.049173498854261914 1 1 1 1 1 0.050473919066906653 1 1 1 1 1 0.051208802806160636 1 1 1 1 1 0.049718545788517886 1 1 1 1 1 1 1 1 1 1 0.048652133308498047 1 0.049997191059815524 1 0.057603137164419754 1 1 0.046836671647111632 1 1 1 1 1 1 1 1 0.051014069636846855 1 0.048712568829570403 1 1 1 1 1 1 1 1 1 1 0.048320659957651765 1 1 1 1 1 1 1 1 1 1 0.049729157948718856 1 1 1 0.054876843726748073 1 0.048916335950428227 0.058139630958753213 1 1 1 0.050852157815467078 1 1 1 0.053602665610867052 0.049980959408241613 1 1 1 1 1 1 1 1 1 1 0.049999151627889045 0.049972311042234499 1 1 1 1 1 0.050020859623715948 1 1 1 1 1 1 1 1 1 1 0.053652996302051961 1 0.048740166617319912 0.050801421482171379 0.05131030987066685 1 1 1 1 1 1 1 1 0.050453610656861728 1 1 1 1 1 1 1 1 1 1 1 1 1 1 1 1 1 1 1 1 1 1 1 1 1 1 1 1 1 0.049265193764369039 1 1 1 1 0.049729181146211207 1 1 1 1 1 1 1 1 0.050321352686095833 1 1 1 1 1 1 1 1 0.04953581632355171 1 1 1 1 1 1 1 1 1 1 1 1 1 1 1 1 1 1 1 1 1 1 1 1 1 1 0.048324655419300963 1 1 1 1 1 1 0.045111927440975419 1 0.056269268371949566 1 1 0.049437211404486897 1 1 1 0.057387581263477372 1 0.048458057324711798 1 1 1 0.050059999575147264 1 1 1 0.054258111846104726 1 1 1 1 1 1 0.051152885373230442 1 1 1 1 1 1 1 1 1 1 1 1 1 1 1 1 1 1 1 1 1 1 1 1 1 1 1 0.051374725809157265 1 0.053300476466617862 1 1 1 1 0.051925750657460606 1 1 1 1 1 1 1 1 1 1 1 1 1 0.050878871192098753 1 1 0.051200223878194548 1 1 0.051576336537565069 1 1 1 1 1 0.054252566650887242 1 1 1 1 1 1 1 1 0.050514340241389011 1 0.051545186971557765 1 1 1 1 1 0.049821019374245337 0.049040114206068207 1 1 0.050178873942195716 1 1 1 0.052975873201877258 1 1 1 1 1 1 1 0.049819559504123048 1 1 1 1 1 1 1 1 1 1 1 1 1 1 1 1 0.051155776168305939 1 1 1 1 1 0.052352548158642959 1 0.051291598427692028 1 1 1 1 1 1 1 1 1 1 1 1 0.051411224130563322 1 0.051502265408286313 1 1 1 1 1 1 0.053568022432915613 0.050350274399612378 1 1 1 1 1 1 1 1 1 1 1 1 1 1 1 1 1 1 1 1 1 0.049891965675495836 1 1 0.049693337694197488 1 1 1 1 1 0.050658597834886687 1 1 1 1 1 1 0.049964060643620224 1 1 1 1 1 1 1 1 1 1 1 1 1 1 1 1 0.050229433112137976 1 1 0.052097171808486137 1 1 1 1 0.049099419631229407 1 1 1 1 1 1 1 1 1 1 1 0.049588656177360885 1 1 1 1 1 1 1 1 1 1 1 1 1 1 1 1 1 1 1 0.05206575702462931 1 1 1 1 1 1 1 1 1 1 1 1 0.050184907688284652 1 1 1 1 1 1 1 1 1 1 1 1 1 0.049917022412776832 0.065912673993872239 1 1 1 1 1 1 0.057317628012508101 1 1 1 1 1 1 1 1 1 1 1 1 1 1 1 1 1 1 1 1 1 1 1 1 1 1 1 1 1 1 1 1 1 1 1 0.049871554725319601 1 1 1 1 1 1 1 1 0.049887824190400512 1 1 1 1 1 1 1 1 1 1 1 1 0.050117257302538493 1 1 1 1 0.056598448280038224 1 0.061398723146694853 1 1 1 1 1 1 1 1 0.049475231963205822 1 1 1 1 1 1 1 1 1 1 0.048985995417074338 1 1 1 0.045986433938494324 1 1 0.049197940278080728 1 1 1 1 0.044032094118815479 1 1 0.043069073565888218 1 1 1 1 1 1 1 1 0.047521440194694654 1 1 1 0.045739680764922318 1 1 1 1 1 1 1 0.054191170883532813 1 0.050063331327725467 1 0.059385885903466391 1 0.057505022431722577 0.061360656062715693 1 1 1 0.050102729098484233 0.049932890447947055 0.047939429013395735 1 1 0.059066637637991672 1 1 1 0.042665869779351051 1 1 1 1 0.050228824546496402 1 1 1 1 1 1 1 1 1 1 1 1 1 1 1 1 1 1 1 1 1 1 1 1 1 1 1 1 1 1 1 1 1 1 1 1 1 1 0.050150130421263567 1 1 1 1 1 1 1 1 0.048693489618032104 1 1 1 1 0.048434599118805023 1 1 0.049501855568332309 1 1 0.048896856506541422 1 1 1 1 0.049548086441424402 1 1 1 1 1 0.049416363995694219 1 1 1 1 1 1 1 1 1 1 1 1 1 0.047805502677820751 0.049825365831084892 1 1 1 0.049094958481434914 1 1 1 1 1 1 1 1 1 1 1 1 1 1 0.050326016896129269 1 1 1 1 1 1 0.050224101676809928 1 1 0.050409009365094563 1 1 1 1 1 1 1 1 1 1 0.051042992736462088 1 1 1 1 1 0.051802871088939044 1 1 1 1 1 1 1 1 1 1 0.047511477968018606 1 1 1 1 1 1 1 1 1 1 1 1 1 1 1 0.049983052566338539 1 1 1 1 1 1 1 1 1 1 1 1 1 1 1 1 1 1 1 1 1 1 1 0.050042898024180348 1 0.048617251940030984 1 1 1 0.050193028445443905 1 1 1 1 1 1 1 1 1 0.049619730884203517 1 1 1 0.047592196828521699 1 1 1 1 1 1 1 1 1 1 1 1 1 1 1 1 0.056313242566808468 1 1 1 1 1 0.047014164816965548 1 1 1 0.056771048288894774 1 0.050008583187981223 1 1 1 1 1 1 0.055700389622836008 1 1 1 1 1 1 1 1 1 1 1 1 1 1 1 1 1 1 1 1 1 1 1 1 1 1 1 0.048270947172439425 1 1 0.049452140567658884 1 1 1 1 1 1 1 0.050222578461722803 1 1 1 1 0.049887617772494432 1 1 0.049887985195623652 1 1 1 1 1 1 0.05006151993259278 1 1 1 0.05002977558745933 1 1 1 0.050029855788228897 1 1 1 1 1 0.051076651623424868 1 1 1 1 1 0.052745444712591336 1 1 1 1 1 1 1 1 0.054860141204728673 1 1 0.04980577414100909 1 1 1 1 0.049410892670490029 1 1 1 1 0.048980741843041867 1 1 1 1 0.055857868334005481 1 1 1 0.054247591845178793 1 0.050043614152659593 1 1 1 1 1 1 1 1 1 1 0.050083788465536988 1 1 1 1 1 1 1 0.050151868885031897 0.055341489860581246 1 1 1 1 1 0.056542533548639085 1 1 1 1 1 0.054693775634593628 1 1 1 0.050482050036521037 1 1 0.049967131158036776 1 1 0.049224038073657245 1 1 1 0.056963778363092327 1 1 1 1 1 1 0.050337520151791215 1 1 1 1 1 0.050053184384600005 1 1 1 1 1 0.050022323414981681 1 1 1 1 1 1 0.050195326988639696 1 1 1 1 0.04759982128064999 1 1 1 1 1 0.049796607958503075 1 1 1 1 1 1 1 1 1 1 0.047406225203985658 1 1 1 1 1 1 1 0.048703083681848433 1 1 1 1 0.049643784537361783 0.048985989739334032 1 1 0.053786708629906567 1 1 1 1 1 1 1 0.051304169740543817 1 1 1 1 1 1 1 0.048201944786724175 1 0.049480788293757447 1 1 0.048945329077759406 1 1 1 1 0.050561049643401954 1 0.048968295741665599 1 1 1 1 1 1 1 1 1 1 0.049930914494618138 1 1 1 1 1 0.049948813258322178 1 1 1 0.047871272034773718 1 1 1 1 0.049960482880565107 1 1 0.055664793512345365 1 1 1 1 1 0.053270182923926636 1 0.045527472154928292 1 0.049997372446032105 0.052174041860610219 1 1 1 1 0.047463346545204212 0.050341136844468809 1 1 1 1 1 1 1 1 1 1 1 1 1 0.050113873029520903 1 1 1 1 1 1 0.049553748130921296 0.049936876228546465 1 1 1 1 1 1 1 1 1 1 1 1 1 0.049755614889720745 1 1 1 1 1 1 1 1 1 1 1 1 1 1 1 1 1 1 1 1 1 1 1 1 1 1 1 1 1 1 1 1 1 0.049940327033959939 1 1 0.049813645339390082 1 1 1 1 1 1 1 0.04969868413651507 1 1 1 0.050078831300968976 1 1 0.054121027574325971 1 1 1 0.048534999050032224 0.049993697816006669 1 1 1 1 0.046339146696245767 0.049652192404897287 1 1 1 1 1 1 1 1 1 1 1 1 1 1 0.045096997826292409 1 1 0.0499987315478468 1 1 1 0.044499150465291702 1 1 1 1 0.050103601917871443 1 1 0.039423895981951076 1 1 1 1 1 1 1 1 1 1 1 0.033563550364008196 1 1 1 1 1 1 1 0.029243500669412805 1 1 1 1 1 1 1 1 1 1 1 1 1 1 1 1 1 1 0.050677654524432805 1 1 1 1 1 1 0.053078839314604109 1 0.049506033270652824 1 1 1 1 1 0.050722480817599162 1 1 0.052414560776909126 1 1 1 0.037983840990958244 1 1 1 0.050290569549464412 1 1 1 1 1 1 1 1 1 1 1 1 1 1 0.050261009074851162 1 1 1 1 0.050758753501628971 0.052317992125468178 1 1 1 1 1 1 1 1 1 1 1 1 1 1 1 1 1 1 1 0.049743297279008572 1 1 1 1 1 1 1 1 0.04847123345120001 1 0.049190236586405561 1 1 1 1 1 1 1 0.049996604386415289 1 0.049821575162657547 1 1 1 1 1 0.047729040869319769 1 1 1 1 1 1 0.04988660612677176 1 1 1 1 1 0.05185464264008556 0.053394607287481806 1 1 1 0.055153640366722829 0.045629284148728001 0.04678793466877279 1 1 1 1 1 0.05522076723644842 1 1 1 1 1 0.043897640679183773 1 1 1 1 0.046107248679560647 1 0.055259788261674221 0.052042478764716862 1 0.045961315638046313 0.049117861383234623 1 1 1 0.048426244165451784 1 1 1 0.04572310259746417 1 1 1 0.047598302630817046 1 1 1 0.046918755916960986 1 1 1 1 1 1 1 1 0.049285305294533496 1 1 1 0.048543862203490266 1 1 1 1 1 1 0.05004645011472969 1 1 1 1 1 1 0.047273968701174604 1 1 1 1 1 1 1 1 1 1 1 1 1 1 0.049847590019682121 1 0.05475997091685561 1 1 1 0.047519367485716071 1 1 0.050074778918063723 1 0.052525201975382699 1 0.051002100223487057 1 1 0.046980521006870529 1 1 1 1 1 1 0.051550220514116764 1 1 1 1 0.049934024434133008 1 1 1 1 1 1 0.050532749044821579 1 1 1 1 1 1 1 1 1 1 0.050327566152005961 1 1 1 1 1 1 1 1 1 1 1 1 1 1 1 1 1 1 1 0.058713640272967833 0.051169298244167424 1 1 1 0.056669942100799064 1 1 0.05458960692485406 1 1 0.055256750665674412 1 1 0.047786397171319446 1 1 0.051901192671878128 0.048785058239656648 1 1 1 1 0.056869166081847992 1 1 1 1 1 1 1 1 1 1 1 0.055422395094291275 0.047323964176403256 1 1 1 0.054011132147366525 1 0.050010193902904385 1 0.050009473117237885 1 1 1 1 1 0.050086322816435228 1 1 0.05090062173336489 1 0.051921314808775293 1 1 0.050007346532736571 0.051880421771466914 0.051748690244751629 1 1 1 1 0.051016477149652892 1 1 0.051250096791449339 1 0.053594938065844006 1 1 0.047808877164710821 1 1 1 1 1 1 1 1 0.053223215583454886 1 0.053116496815065611 0.051349325816215922 1 1 1 1 1 0.050049667283838944 0.052281969836307042 1 1 1 0.056046772863723809 0.053924511288833424 1 1 1 1 1 1 1 1 0.050022998352413611 1 0.051562313992480888 1 1 1 1 1 1 1 1 1 1 1 1 1 1 1 1 1 1 1 1 1 1 1 1 1 1 1 1 1 0.050076743396806671 1 1 1 1 1 1 1 1 1 1 1 1 1 1 1 0.050500840146876586 1 1 0.050048858745771682 1 1 1 1 1 0.050056866516069068 1 1 1 1 1 1 1 1 1 1 1 1 1 0.049991992229702624 1 1 1 1 1 1 1 1 1 0.049624438271737431 1 1 0.052451998819595995 1 1 1 1 0.049999253196819499 0.049411352948445869 0.05506782819047111 1 1 1 1 1 0.051494310882328073 1 1 1 
</DataArray>
</CellData>
</Piece>
</UnstructuredGrid>
</VTKFile>
